 Entering Gaussian System, Link 0=g16
 Initial command:
 /software/gaussian/g16-c01/avx2/g16/l1.exe "/local_scratch/28554156/Gau-25791.inp" -scrdir="/local_scratch/28554156/"
 Entering Link 1 = /software/gaussian/g16-c01/avx2/g16/l1.exe PID=     25811.
  
 Copyright (c) 1988-2019, Gaussian, Inc.  All Rights Reserved.
  
 This is part of the Gaussian(R) 16 program.  It is based on
 the Gaussian(R) 09 system (copyright 2009, Gaussian, Inc.),
 the Gaussian(R) 03 system (copyright 2003, Gaussian, Inc.),
 the Gaussian(R) 98 system (copyright 1998, Gaussian, Inc.),
 the Gaussian(R) 94 system (copyright 1995, Gaussian, Inc.),
 the Gaussian 92(TM) system (copyright 1992, Gaussian, Inc.),
 the Gaussian 90(TM) system (copyright 1990, Gaussian, Inc.),
 the Gaussian 88(TM) system (copyright 1988, Gaussian, Inc.),
 the Gaussian 86(TM) system (copyright 1986, Carnegie Mellon
 University), and the Gaussian 82(TM) system (copyright 1983,
 Carnegie Mellon University). Gaussian is a federally registered
 trademark of Gaussian, Inc.
  
 This software contains proprietary and confidential information,
 including trade secrets, belonging to Gaussian, Inc.
  
 This software is provided under written license and may be
 used, copied, transmitted, or stored only in accord with that
 written license.
  
 The following legend is applicable only to US Government
 contracts under FAR:
  
                    RESTRICTED RIGHTS LEGEND
  
 Use, reproduction and disclosure by the US Government is
 subject to restrictions as set forth in subparagraphs (a)
 and (c) of the Commercial Computer Software - Restricted
 Rights clause in FAR 52.227-19.
  
 Gaussian, Inc.
 340 Quinnipiac St., Bldg. 40, Wallingford CT 06492
  
  
 ---------------------------------------------------------------
 Warning -- This program may not be used in any manner that
 competes with the business of Gaussian, Inc. or will provide
 assistance to any competitor of Gaussian, Inc.  The licensee
 of this program is prohibited from giving any competitor of
 Gaussian, Inc. access to this program.  By using this program,
 the user acknowledges that Gaussian, Inc. is engaged in the
 business of creating and licensing software in the field of
 computational chemistry and represents and warrants to the
 licensee that it is not a competitor of Gaussian, Inc. and that
 it will not use this program in any manner prohibited above.
 ---------------------------------------------------------------
  

 Cite this work as:
 Gaussian 16, Revision C.01,
 M. J. Frisch, G. W. Trucks, H. B. Schlegel, G. E. Scuseria, 
 M. A. Robb, J. R. Cheeseman, G. Scalmani, V. Barone, 
 G. A. Petersson, H. Nakatsuji, X. Li, M. Caricato, A. V. Marenich, 
 J. Bloino, B. G. Janesko, R. Gomperts, B. Mennucci, H. P. Hratchian, 
 J. V. Ortiz, A. F. Izmaylov, J. L. Sonnenberg, D. Williams-Young, 
 F. Ding, F. Lipparini, F. Egidi, J. Goings, B. Peng, A. Petrone, 
 T. Henderson, D. Ranasinghe, V. G. Zakrzewski, J. Gao, N. Rega, 
 G. Zheng, W. Liang, M. Hada, M. Ehara, K. Toyota, R. Fukuda, 
 J. Hasegawa, M. Ishida, T. Nakajima, Y. Honda, O. Kitao, H. Nakai, 
 T. Vreven, K. Throssell, J. A. Montgomery, Jr., J. E. Peralta, 
 F. Ogliaro, M. J. Bearpark, J. J. Heyd, E. N. Brothers, K. N. Kudin, 
 V. N. Staroverov, T. A. Keith, R. Kobayashi, J. Normand, 
 K. Raghavachari, A. P. Rendell, J. C. Burant, S. S. Iyengar, 
 J. Tomasi, M. Cossi, J. M. Millam, M. Klene, C. Adamo, R. Cammi, 
 J. W. Ochterski, R. L. Martin, K. Morokuma, O. Farkas, 
 J. B. Foresman, and D. J. Fox, Gaussian, Inc., Wallingford CT, 2019.
 
 ******************************************
 Gaussian 16:  ES64L-G16RevC.01  3-Jul-2019
                21-Mar-2025 
 ******************************************
 %oldchk=../TD_OLD_S1/geometry.chk
 %chk=geometry.chk
 %nprocshared=1
 Will use up to    1 processors via shared memory.
 %mem=2GB
 Copying data from "../TD_OLD_S1/geometry.chk" to current chk file "geometry.chk"
 IOpt=  2 FromEx=T IUOpen= 4 IOptOp= 5 NList=   0 IFRang= 0 IUIn= 4 IUOut= 2.
 ----------------------------------------------------------------------
 # AM1/STO-5G SCF=XQC TD=(read,singlets,nstates=5,root=1) nosym IOp(9/4
 0=3) guess=read
 ----------------------------------------------------------------------
 1/38=1,172=1/1;
 2/12=2,15=1,17=6,18=5,40=1/2;
 3/5=2,6=5,25=1,41=700000,116=-2/1,2,3,8;
 4/5=1,35=1/1;
 5/5=2,8=3,13=1,35=1,38=6/2,8;
 8/6=1,10=90,107=1,108=5/1;
 9/8=1,40=3,41=5,42=1,48=1,49=13,70=2/14;
 6/7=2,8=2,9=2,10=2/1;
 99/5=1,9=1/99;
 ----------
 MD Step 24
 ----------
 Symbolic Z-matrix:
 Charge =  0 Multiplicity = 1
 C                    -0.70749  -1.23971  -0.0531 
 C                     0.65797  -1.21665   0.05629 
 C                     1.41545   0.02377   0.05361 
 C                     0.70582   1.23293  -0.09716 
 C                    -0.7105    1.19812   0.08014 
 C                    -1.39904   0.00197   0.00308 
 H                    -1.15308  -2.27581  -0.12681 
 H                     1.25645  -2.11102  -0.00031 
 H                     2.52725  -0.14037   0.05528 
 H                     1.26248   2.11934  -0.2293 
 H                    -1.18218   2.1318    0.05951 
 H                    -2.52528   0.10101  -0.11965 
 
                          Input orientation:                          
 ---------------------------------------------------------------------
 Center     Atomic      Atomic             Coordinates (Angstroms)
 Number     Number       Type             X           Y           Z
 ---------------------------------------------------------------------
      1          6           0       -0.707488   -1.239708   -0.053098
      2          6           0        0.657973   -1.216648    0.056292
      3          6           0        1.415453    0.023770    0.053614
      4          6           0        0.705815    1.232934   -0.097156
      5          6           0       -0.710500    1.198117    0.080138
      6          6           0       -1.399038    0.001975    0.003077
      7          1           0       -1.153081   -2.275807   -0.126809
      8          1           0        1.256448   -2.111022   -0.000312
      9          1           0        2.527253   -0.140370    0.055283
     10          1           0        1.262482    2.119338   -0.229301
     11          1           0       -1.182182    2.131798    0.059509
     12          1           0       -2.525282    0.101011   -0.119646
 ---------------------------------------------------------------------
                    Distance matrix (angstroms):
                    1          2          3          4          5
     1  C    0.000000
     2  C    1.370030   0.000000
     3  C    2.472781   1.453416   0.000000
     4  C    2.848390   2.454849   1.410105   0.000000
     5  C    2.441465   2.775676   2.428883   1.427793   0.000000
     6  C    1.422383   2.391478   2.815029   2.440433   1.382309
     7  H    1.130259   2.106006   3.452241   3.970848   3.508112
     8  H    2.149190   1.077628   2.141384   3.390371   3.850423
     9  H    3.418164   2.156985   1.123852   2.286228   3.503600
    10  H    3.898079   3.402322   2.120106   1.055013   2.199331
    11  H    3.406621   3.820768   3.345374   2.096910   1.046265
    12  H    2.259720   3.449680   3.945299   3.423703   2.130021
                    6          7          8          9         10
     6  C    0.000000
     7  H    2.294701   0.000000
     8  H    3.393578   2.418468   0.000000
     9  H    3.929217   4.258886   2.345529   0.000000
    10  H    3.408946   5.016248   4.236557   2.605171   0.000000
    11  H    2.141578   4.411637   4.894080   4.350020   2.461696
    12  H    1.137232   2.744494   4.382786   5.061322   4.293347
                   11         12
    11  H    0.000000
    12  H    2.441334   0.000000
 Symmetry turned off by external request.
 Stoichiometry    C6H6
 Framework group  C1[X(C6H6)]
 Deg. of freedom    30
 Full point group                 C1      NOp   1
 Rotational constants (GHZ):           5.6590865           5.5191346           2.8059841
 Standard basis: VSTO-5G (5D, 7F)
    30 basis functions,   180 primitive gaussians,    30 cartesian basis functions
    15 alpha electrons       15 beta electrons
       nuclear repulsion energy       119.1378640778 Hartrees.
 Integral buffers will be    131072 words long.
 Regular integral format.
 Two-electron integral symmetry is turned off.
 Do NDO integrals.
 One-electron integrals computed using PRISM.
 NBasis=    30 RedAO= F EigKep=  0.00D+00  NBF=    30
 NBsUse=    30 1.00D-04 EigRej=  0.00D+00 NBFU=    30
 Initial guess from the checkpoint file:  "geometry.chk"
 B after Tr=    -0.002240   -0.001533    0.000748
         Rot=    1.000000    0.000346   -0.000227    0.000154 Ang=   0.05 deg.
 Keep J ints in memory in canonical form, NReq=861816.
 Overlap will be assumed to be unity.
 Requested convergence on RMS density matrix=1.00D-08 within  32 cycles.
 Requested convergence on MAX density matrix=1.00D-06.
 Requested convergence on             energy=1.00D-06.
 No special actions if energy rises.
 SCF Done:  E(RAM1) =  0.576564334021E-01 A.U. after   12 cycles
            NFock= 11  Conv=0.79D-08     -V/T= 1.0012
 QCSCF skips out because SCF is already converged.
 Range of M.O.s used for correlation:     1    30
 NBasis=    30 NAE=    15 NBE=    15 NFC=     0 NFV=     0
 NROrb=     30 NOA=    15 NOB=    15 NVA=    15 NVB=    15
 Keep J ints in memory in canonical form, NReq=862156.
 Generating guess from checkpoint file densities.
 Convergence on wavefunction:    0.001000000000000
 Iteration     1 Dimension    10 NMult     0 NNew     10
 CISAX will form    10 AO SS matrices at one time.
 Iteration     2 Dimension    20 NMult    10 NNew     10
 Iteration     3 Dimension    30 NMult    20 NNew     10
 Iteration     4 Dimension    40 NMult    30 NNew     10
 Iteration     5 Dimension    46 NMult    40 NNew      6
 Iteration     6 Dimension    52 NMult    46 NNew      6
 Iteration     7 Dimension    54 NMult    52 NNew      2
 Iteration     8 Dimension    56 NMult    54 NNew      2
 Iteration     9 Dimension    58 NMult    56 NNew      2
 Iteration    10 Dimension    60 NMult    58 NNew      2
 ***********************************************************************
 Excited states from <AA,BB:AA,BB> singles matrix:
 ***********************************************************************
 
 Ground to excited state transition densities written to RWF  633
 Ground to excited state transition electric dipole moments (Au):
       state          X           Y           Z        Dip. S.      Osc.
         1        -0.0021     -0.0482      0.0039      0.0023      0.0002
         2        -0.1485     -0.0199     -0.0978      0.0320      0.0032
         3        -0.1399     -1.5443      0.0252      2.4052      0.3092
         4         1.5680     -0.1195      0.0122      2.4730      0.3201
         5        -0.2624      0.1216     -0.0796      0.0900      0.0131
 Ground to excited state transition velocity dipole moments (Au):
       state          X           Y           Z        Dip. S.      Osc.
         1         0.0018      0.0104     -0.0009      0.0001      0.0005
         2         0.0368      0.0059      0.0521      0.0041      0.0183
         3         0.0388      0.4736     -0.0092      0.2259      0.7809
         4        -0.4772      0.0369     -0.0101      0.2292      0.7869
         5         0.0886     -0.0403     -0.0789      0.0157      0.0480
 Ground to excited state transition magnetic dipole moments (Au):
       state          X           Y           Z
         1        -0.0207     -0.0374      0.0212
         2         0.1538     -0.0512     -0.2632
         3         0.0770      0.0530     -0.0237
         4         0.0784      0.0738     -0.0944
         5         0.2059     -0.0439     -0.1576
 Ground to excited state transition velocity quadrupole moments (Au):
       state          XX          YY          ZZ          XY          XZ          YZ
         1        -0.0061      0.0060      0.0003      0.0077      0.0216     -0.0067
         2         0.0667     -0.0284     -0.0028     -0.0038      0.0318      0.1133
         3        -0.1150      0.0974      0.0226      0.0377     -0.1276     -0.0494
         4        -0.0683      0.0892      0.0020      0.0002     -0.0439      0.1064
         5        -0.0207     -0.0421      0.0069      0.0197      0.0048     -0.0581
 <0|del|b> * <b|rxdel|0> + <0|del|b> * <b|delr+rdel|0>
 Rotatory Strengths (R) in cgs (10**-40 erg-esu-cm/Gauss)
       state          XX          YY          ZZ    R(velocity)    E-M Angle
         1        -1.6387     -0.1557     -0.4873     -0.7606      151.68
         2       -34.1049     -8.7383      3.2501    -13.1977      114.98
         3       156.5752      2.9983    -55.8400     34.5779       51.87
         4         9.6483   -158.8246     26.3320    -40.9481      119.46
         5        20.8152     43.9003     40.4898     35.0684       10.05
 1/2[<0|r|b>*<b|rxdel|0> + (<0|rxdel|b>*<b|r|0>)*]
 Rotatory Strengths (R) in cgs (10**-40 erg-esu-cm/Gauss)
       state          XX          YY          ZZ     R(length)
         1        -0.0307     -1.2762     -0.0581     -0.4550
         2        16.1483     -0.7207    -18.1984     -0.9236
         3         7.6156     57.8410      0.4216     21.9594
         4       -86.9152      6.2419      0.8144    -26.6197
         5        38.2114      3.7738     -8.8686     11.0388
  1/2[<0|del|b>*<b|r|0> + (<0|r|b>*<b|del|0>)*] (Au)
       state          X           Y           Z        Dip. S.   Osc.(frdel)
         1        -0.0000     -0.0005     -0.0000      0.0005      0.0003
         2        -0.0055     -0.0001     -0.0051      0.0107      0.0071
         3        -0.0054     -0.7314     -0.0002      0.7371      0.4914
         4        -0.7482     -0.0044     -0.0001      0.7527      0.5018
         5        -0.0233     -0.0049      0.0063      0.0219      0.0146

 Excitation energies and oscillator strengths:
 
 Excited state symmetry could not be determined.
 Excited State   1:      Singlet-?Sym    3.7474 eV  330.85 nm  f=0.0002  <S**2>=0.000
       2 -> 21         0.00145
       2 -> 23        -0.00284
       2 -> 25         0.00107
       2 -> 26        -0.00137
       3 -> 24        -0.00332
       3 -> 26        -0.00135
       4 -> 16        -0.00192
       4 -> 17        -0.00212
       4 -> 18         0.00152
       4 -> 27        -0.00238
       4 -> 28         0.00108
       5 -> 16         0.00166
       5 -> 17        -0.00247
       5 -> 18         0.00245
       5 -> 28         0.00247
       7 -> 29         0.00225
       8 -> 17         0.00220
       8 -> 18        -0.00831
       8 -> 20        -0.00110
       8 -> 22        -0.00116
       8 -> 24        -0.00109
       9 -> 17        -0.00136
       9 -> 18        -0.00156
       9 -> 21         0.00154
       9 -> 23        -0.00287
       9 -> 24         0.00167
       9 -> 25         0.00171
       9 -> 26        -0.00155
      10 -> 21        -0.00128
      10 -> 23         0.00113
      10 -> 24         0.00200
      10 -> 26         0.00226
      11 -> 16        -0.00275
      11 -> 17        -0.00457
      11 -> 19        -0.00107
      11 -> 21         0.00193
      11 -> 22        -0.00215
      11 -> 25        -0.00160
      11 -> 27        -0.00900
      11 -> 28        -0.00252
      11 -> 29         0.00248
      11 -> 30        -0.00113
      12 -> 18        -0.00183
      13 -> 17         0.00152
      13 -> 20        -0.00102
      14 -> 16        -0.48909
      14 -> 17         0.04270
      14 -> 18         0.00662
      14 -> 21        -0.00293
      14 -> 22        -0.00203
      14 -> 23         0.00234
      14 -> 25         0.00390
      14 -> 26         0.00237
      14 -> 27         0.00454
      14 -> 28         0.00261
      14 -> 29        -0.00409
      15 -> 16         0.04582
      15 -> 17         0.51537
      15 -> 18         0.00208
      15 -> 22        -0.00237
      15 -> 23        -0.00147
      15 -> 24         0.00258
      15 -> 25        -0.00368
      15 -> 26         0.00387
      15 -> 27        -0.00185
      15 -> 28         0.00159
      15 -> 29         0.00158
       2 <- 23        -0.00113
       4 <- 27        -0.00185
       5 <- 28         0.00181
       7 <- 29         0.00176
       8 <- 17        -0.00125
       8 <- 22        -0.00113
       9 <- 16        -0.00119
       9 <- 17        -0.00138
      10 <- 16        -0.00128
      11 <- 17        -0.00185
      12 <- 16         0.00362
      12 <- 17        -0.00348
      13 <- 16         0.00305
      13 <- 17         0.00423
      14 <- 16        -0.06997
      14 <- 17         0.00628
      14 <- 18         0.00103
      14 <- 19        -0.00261
      14 <- 22        -0.00104
      14 <- 23         0.00220
      14 <- 24        -0.00270
      14 <- 27        -0.00143
      15 <- 16         0.00554
      15 <- 17         0.06461
      15 <- 18         0.00235
      15 <- 19        -0.00126
      15 <- 22         0.00187
      15 <- 23        -0.00189
      15 <- 24         0.00107
      15 <- 28        -0.00157
 This state for optimization and/or second-order correction.
 Total Energy, E(TD-HF/TD-DFT) =  0.195371627189    
 Copying the excited state density for this state as the 1-particle RhoCI density.
 
 Excited state symmetry could not be determined.
 Excited State   2:      Singlet-?Sym    4.0615 eV  305.27 nm  f=0.0032  <S**2>=0.000
       1 -> 18        -0.00114
       1 -> 20         0.00253
       2 -> 16        -0.00149
       2 -> 19         0.00105
       2 -> 24         0.00205
       2 -> 25        -0.00152
       2 -> 26        -0.00168
       3 -> 16        -0.00195
       3 -> 17        -0.00120
       3 -> 21         0.00215
       3 -> 22         0.00213
       3 -> 23        -0.00280
       3 -> 25        -0.00125
       3 -> 26         0.00116
       4 -> 16         0.00105
       4 -> 17        -0.00191
       4 -> 18         0.00392
       4 -> 23         0.00141
       4 -> 24        -0.00269
       4 -> 25        -0.00174
       4 -> 26        -0.00144
       4 -> 27        -0.00124
       4 -> 28        -0.00386
       4 -> 29        -0.00180
       5 -> 16         0.00128
       5 -> 17         0.00121
       5 -> 18        -0.00222
       5 -> 20        -0.00276
       5 -> 21         0.00109
       5 -> 23        -0.00159
       5 -> 27        -0.00511
       5 -> 28         0.00197
       6 -> 18        -0.00157
       6 -> 19         0.00156
       6 -> 20         0.00241
       6 -> 23        -0.00230
       7 -> 16         0.00150
       7 -> 17        -0.00521
       7 -> 18         0.00532
       7 -> 21        -0.00113
       7 -> 23         0.00232
       7 -> 27        -0.00114
       8 -> 19        -0.00165
       8 -> 20        -0.00306
       8 -> 22         0.00386
       8 -> 24        -0.00338
       8 -> 26        -0.00111
       8 -> 27         0.00272
       8 -> 28         0.00141
       8 -> 29        -0.00395
       8 -> 30        -0.00127
       9 -> 16         0.00291
       9 -> 17        -0.00173
       9 -> 19         0.00164
       9 -> 22        -0.00101
       9 -> 23         0.00102
       9 -> 24         0.00172
       9 -> 25        -0.00308
       9 -> 26        -0.00681
       9 -> 28         0.00304
       9 -> 29         0.00241
      10 -> 16         0.00293
      10 -> 17         0.00123
      10 -> 20        -0.00169
      10 -> 21        -0.00286
      10 -> 22        -0.00136
      10 -> 23         0.00503
      10 -> 24        -0.00213
      10 -> 25         0.00336
      10 -> 29        -0.00225
      11 -> 16         0.00218
      11 -> 17        -0.00250
      11 -> 18         0.11159
      11 -> 20         0.00991
      11 -> 22        -0.00353
      11 -> 23        -0.00199
      11 -> 26         0.00193
      11 -> 27        -0.00143
      11 -> 28         0.00503
      12 -> 16         0.00616
      12 -> 17         0.00370
      12 -> 18        -0.01397
      12 -> 19        -0.00469
      12 -> 20         0.00368
      12 -> 21         0.00609
      12 -> 22        -0.00215
      12 -> 23         0.00571
      12 -> 24         0.00144
      12 -> 25        -0.00232
      12 -> 27         0.00597
      12 -> 28        -0.00524
      12 -> 29        -0.00382
      12 -> 30         0.00181
      13 -> 16        -0.00931
      13 -> 17         0.00199
      13 -> 18        -0.00501
      13 -> 19         0.00885
      13 -> 20        -0.00306
      13 -> 21        -0.00154
      13 -> 22        -0.00209
      13 -> 24        -0.00754
      13 -> 25        -0.00240
      13 -> 26        -0.00240
      13 -> 27         0.00280
      13 -> 28        -0.00608
      13 -> 29        -0.00340
      13 -> 30        -0.00312
      14 -> 16         0.04688
      14 -> 17         0.45154
      14 -> 19        -0.00217
      14 -> 20        -0.00148
      14 -> 22        -0.00174
      14 -> 23        -0.00546
      14 -> 24         0.00111
      14 -> 25        -0.00452
      14 -> 26         0.00166
      14 -> 27         0.00288
      14 -> 28        -0.00414
      14 -> 29        -0.00132
      15 -> 16         0.52861
      15 -> 17        -0.04004
      15 -> 18         0.00503
      15 -> 19        -0.00170
      15 -> 21         0.00323
      15 -> 22         0.00480
      15 -> 23        -0.00180
      15 -> 24         0.00645
      15 -> 25        -0.00442
      15 -> 26        -0.00325
      15 -> 27         0.00353
      15 -> 28         0.00249
       1 <- 20         0.00523
       1 <- 21        -0.00139
       1 <- 23        -0.00153
       1 <- 30         0.00227
       2 <- 16        -0.00145
       2 <- 19         0.00120
       2 <- 21        -0.00118
       2 <- 24         0.00583
       2 <- 25        -0.00142
       3 <- 16        -0.00122
       3 <- 17        -0.00129
       3 <- 21         0.00319
       3 <- 22         0.00319
       3 <- 23        -0.00586
       3 <- 24         0.00113
       3 <- 26        -0.00120
       4 <- 18         0.00146
       4 <- 24        -0.00104
       4 <- 25        -0.00136
       4 <- 26        -0.00129
       4 <- 27        -0.00168
       4 <- 28        -0.00465
       4 <- 29        -0.00194
       5 <- 20        -0.00181
       5 <- 21         0.00133
       5 <- 22        -0.00131
       5 <- 27        -0.00523
       5 <- 28         0.00216
       6 <- 20         0.00177
       6 <- 23        -0.00148
       6 <- 30         0.00181
       7 <- 17        -0.00214
       7 <- 18         0.00142
       7 <- 23         0.00145
       8 <- 19        -0.00100
       8 <- 22         0.00227
       8 <- 24        -0.00205
       8 <- 27         0.00246
       8 <- 28         0.00205
       8 <- 29        -0.00535
       9 <- 16        -0.00167
       9 <- 17         0.00120
       9 <- 23         0.00115
       9 <- 24         0.00367
       9 <- 25        -0.00170
      10 <- 16         0.00119
      10 <- 17         0.00183
      10 <- 21        -0.00213
      10 <- 22        -0.00155
      10 <- 23         0.00490
      10 <- 24        -0.00324
      11 <- 16        -0.00186
      11 <- 17         0.00256
      11 <- 18        -0.01491
      12 <- 16        -0.00115
      12 <- 17        -0.00186
      12 <- 18         0.00145
      12 <- 19        -0.00191
      12 <- 20         0.00217
      12 <- 21         0.00173
      12 <- 23         0.00186
      12 <- 26        -0.00107
      12 <- 27         0.00469
      12 <- 28        -0.00321
      12 <- 29        -0.00152
      12 <- 30         0.00116
      13 <- 16         0.00178
      13 <- 17        -0.00195
      13 <- 19         0.00270
      13 <- 20        -0.00114
      13 <- 24        -0.00226
      13 <- 25        -0.00122
      13 <- 26        -0.00120
      13 <- 28        -0.00469
      13 <- 29        -0.00255
      13 <- 30        -0.00122
      14 <- 17         0.02086
      14 <- 18         0.00314
      14 <- 19        -0.00187
      14 <- 21        -0.00107
      14 <- 23        -0.00234
      14 <- 24         0.00108
      14 <- 26        -0.00113
      14 <- 28        -0.00233
      15 <- 16         0.00478
      15 <- 17        -0.00157
      15 <- 18        -0.00270
      15 <- 19         0.00218
      15 <- 22         0.00120
      15 <- 23        -0.00171
      15 <- 24         0.00288
      15 <- 27         0.00162
      15 <- 29         0.00114
 
 Excited state symmetry could not be determined.
 Excited State   3:      Singlet-?Sym    5.2478 eV  236.26 nm  f=0.3092  <S**2>=0.000
       1 -> 17        -0.00137
       1 -> 28         0.00229
       2 -> 16        -0.00161
       2 -> 17         0.00171
       2 -> 18        -0.00385
       2 -> 19        -0.00267
       2 -> 20        -0.00196
       2 -> 22        -0.00431
       2 -> 23        -0.00495
       2 -> 26        -0.00118
       3 -> 16        -0.00138
       3 -> 17        -0.00164
       3 -> 18         0.00107
       3 -> 19         0.00166
       3 -> 24         0.00301
       3 -> 26         0.00185
       3 -> 27        -0.00104
       3 -> 29         0.00216
       4 -> 16         0.00171
       4 -> 17        -0.00443
       4 -> 18         0.00373
       4 -> 19        -0.00394
       4 -> 20        -0.01028
       4 -> 22         0.00371
       4 -> 23         0.00472
       4 -> 24         0.00229
       4 -> 27         0.00149
       4 -> 28         0.00148
       4 -> 30        -0.00535
       5 -> 16        -0.00444
       5 -> 17        -0.00243
       5 -> 18        -0.00128
       5 -> 19         0.00201
       5 -> 20         0.00648
       5 -> 21        -0.00669
       5 -> 22         0.00283
       5 -> 23        -0.00475
       5 -> 24        -0.00197
       5 -> 25         0.00143
       5 -> 27        -0.00322
       5 -> 30         0.00496
       6 -> 17        -0.00895
       6 -> 19         0.00911
       6 -> 20         0.00210
       6 -> 21         0.00803
       6 -> 22        -0.00838
       6 -> 23        -0.00157
       6 -> 26         0.00252
       6 -> 27        -0.00252
       6 -> 28         0.00554
       7 -> 16        -0.00871
       7 -> 17         0.00467
       7 -> 18        -0.00189
       7 -> 19         0.00904
       7 -> 20         0.00159
       7 -> 21        -0.01088
       7 -> 22        -0.00552
       7 -> 23         0.00230
       7 -> 24         0.02092
       7 -> 25        -0.00187
       7 -> 26         0.00785
       7 -> 29        -0.00128
       7 -> 30         0.00239
       8 -> 16         0.01483
       8 -> 17         0.00576
       8 -> 19         0.00255
       8 -> 20         0.00200
       8 -> 21        -0.01387
       8 -> 22        -0.00977
       8 -> 23         0.03007
       8 -> 24        -0.01738
       8 -> 25        -0.01789
       8 -> 26         0.01552
       8 -> 28         0.00177
       8 -> 29         0.00269
       8 -> 30         0.00139
       9 -> 16        -0.00726
       9 -> 17         0.01745
       9 -> 18        -0.03469
       9 -> 19        -0.00736
       9 -> 20        -0.00268
       9 -> 21         0.00723
       9 -> 22        -0.00263
       9 -> 23        -0.01390
       9 -> 25         0.00893
       9 -> 26        -0.01710
       9 -> 27         0.00177
       9 -> 28        -0.00139
       9 -> 29        -0.00417
       9 -> 30         0.00172
      10 -> 16         0.01378
      10 -> 17         0.00494
      10 -> 18         0.00349
      10 -> 19        -0.00392
      10 -> 20         0.00457
      10 -> 22         0.01265
      10 -> 23         0.00944
      10 -> 24        -0.02459
      10 -> 25        -0.01488
      10 -> 26        -0.00908
      10 -> 27         0.01311
      10 -> 28         0.01410
      10 -> 29        -0.02078
      10 -> 30         0.00360
      11 -> 16        -0.00742
      11 -> 17         0.00996
      11 -> 18        -0.00176
      11 -> 19         0.00438
      11 -> 20        -0.01183
      11 -> 21        -0.00210
      11 -> 22        -0.00214
      11 -> 23         0.00354
      11 -> 24         0.01216
      11 -> 26         0.00666
      11 -> 28        -0.00371
      11 -> 30        -0.00607
      12 -> 16         0.08505
      12 -> 17         0.02878
      12 -> 18         0.00233
      12 -> 19        -0.02202
      12 -> 20        -0.02059
      12 -> 21         0.03528
      12 -> 22        -0.01997
      12 -> 23         0.01640
      12 -> 25        -0.01604
      12 -> 26        -0.00170
      12 -> 27        -0.03164
      12 -> 28         0.00475
      12 -> 29        -0.01131
      12 -> 30        -0.02324
      13 -> 16         0.03573
      13 -> 17        -0.08395
      13 -> 18         0.03992
      13 -> 19        -0.03841
      13 -> 20        -0.01722
      13 -> 21        -0.01707
      13 -> 22         0.02503
      13 -> 23         0.02817
      13 -> 25        -0.01350
      13 -> 26        -0.00565
      13 -> 28        -0.03258
      13 -> 29        -0.01459
      13 -> 30        -0.01935
      14 -> 16         0.48261
      14 -> 17        -0.13944
      14 -> 18         0.02012
      14 -> 19        -0.02074
      14 -> 20         0.01131
      14 -> 21         0.00801
      14 -> 22         0.00259
      14 -> 23         0.00322
      14 -> 24        -0.02243
      14 -> 25        -0.00758
      14 -> 26        -0.01271
      14 -> 27        -0.00968
      14 -> 30         0.00431
      15 -> 16         0.11260
      15 -> 17         0.45920
      15 -> 18        -0.02890
      15 -> 19         0.00788
      15 -> 20        -0.00218
      15 -> 21         0.00663
      15 -> 22        -0.01886
      15 -> 23         0.00826
      15 -> 24        -0.00432
      15 -> 25        -0.00664
      15 -> 26         0.00782
      15 -> 27        -0.00708
      15 -> 28         0.01149
      15 -> 29         0.00133
       1 <- 22        -0.00134
       1 <- 26         0.00100
       1 <- 27        -0.00113
       1 <- 28         0.00332
       2 <- 19        -0.00203
       2 <- 20        -0.00121
       2 <- 22        -0.00181
       2 <- 23        -0.00538
       2 <- 26        -0.00180
       3 <- 19         0.00157
       3 <- 20        -0.00103
       3 <- 24         0.00471
       3 <- 26         0.00208
       3 <- 27        -0.00147
       3 <- 28        -0.00145
       3 <- 29         0.00250
       4 <- 18         0.00169
       4 <- 19        -0.00234
       4 <- 20        -0.00662
       4 <- 22         0.00240
       4 <- 23         0.00252
       4 <- 24         0.00179
       4 <- 30        -0.00334
       5 <- 20         0.00518
       5 <- 21        -0.00410
       5 <- 22         0.00209
       5 <- 23        -0.00297
       5 <- 24        -0.00126
       5 <- 30         0.00329
       6 <- 19         0.00348
       6 <- 20         0.00136
       6 <- 21         0.00372
       6 <- 22        -0.00311
       6 <- 26         0.00107
       6 <- 28         0.00103
       7 <- 19         0.00359
       7 <- 20         0.00140
       7 <- 21        -0.00415
       7 <- 22        -0.00198
       7 <- 23         0.00116
       7 <- 24         0.00893
       7 <- 25        -0.00143
       7 <- 26         0.00297
       8 <- 16         0.00132
       8 <- 17         0.00173
       8 <- 19         0.00138
       8 <- 20         0.00130
       8 <- 21        -0.00622
       8 <- 22        -0.00500
       8 <- 23         0.01332
       8 <- 24        -0.00698
       8 <- 25        -0.00638
       8 <- 26         0.00675
       8 <- 28         0.00170
       8 <- 29         0.00138
       9 <- 17         0.00125
       9 <- 19        -0.00270
       9 <- 21         0.00300
       9 <- 22        -0.00133
       9 <- 23        -0.00636
       9 <- 25         0.00438
       9 <- 26        -0.00760
       9 <- 29        -0.00144
      10 <- 19        -0.00115
      10 <- 20         0.00239
      10 <- 22         0.00331
      10 <- 23         0.00341
      10 <- 24        -0.01067
      10 <- 25        -0.00533
      10 <- 26        -0.00433
      10 <- 27         0.00379
      10 <- 28         0.00545
      10 <- 29        -0.00623
      10 <- 30         0.00241
      11 <- 16         0.00760
      11 <- 24         0.00214
      12 <- 16         0.00386
      12 <- 17         0.00273
      12 <- 19        -0.00601
      12 <- 20        -0.00772
      12 <- 21         0.01102
      12 <- 22        -0.00603
      12 <- 23         0.00563
      12 <- 25        -0.00482
      12 <- 27        -0.01077
      12 <- 28         0.00160
      12 <- 29        -0.00328
      12 <- 30        -0.00888
      13 <- 17        -0.00500
      13 <- 18         0.00413
      13 <- 19        -0.01017
      13 <- 20        -0.00707
      13 <- 21        -0.00438
      13 <- 22         0.00748
      13 <- 23         0.00842
      13 <- 24         0.00100
      13 <- 25        -0.00369
      13 <- 26        -0.00225
      13 <- 28        -0.01144
      13 <- 29        -0.00431
      13 <- 30        -0.00674
      14 <- 16        -0.07969
      14 <- 17         0.02032
      14 <- 19        -0.00176
      14 <- 20         0.00129
      14 <- 22        -0.00136
      14 <- 24        -0.00101
      14 <- 27        -0.00153
      15 <- 16        -0.02111
      15 <- 17        -0.08391
      15 <- 18         0.00715
      15 <- 22        -0.00151
      15 <- 27        -0.00130
      15 <- 28         0.00166
 
 Excited state symmetry could not be determined.
 Excited State   4:      Singlet-?Sym    5.2828 eV  234.69 nm  f=0.3201  <S**2>=0.000
       1 -> 16        -0.00159
       1 -> 27        -0.00235
       2 -> 21        -0.00106
       2 -> 22        -0.00105
       2 -> 24         0.00250
       2 -> 26         0.00138
       2 -> 27         0.00132
       2 -> 29        -0.00197
       3 -> 17         0.00171
       3 -> 18        -0.00404
       3 -> 19        -0.00289
       3 -> 20        -0.00245
       3 -> 21        -0.00318
       3 -> 22        -0.00574
       3 -> 24        -0.00165
       3 -> 25        -0.00277
       4 -> 16         0.00494
       4 -> 17         0.00232
       4 -> 18        -0.00217
       4 -> 19        -0.00279
       4 -> 20         0.01123
       4 -> 21         0.00335
       4 -> 29         0.00109
       4 -> 30         0.00531
       5 -> 16         0.00346
       5 -> 17        -0.00476
       5 -> 19        -0.00628
       5 -> 20         0.00894
       5 -> 21        -0.00435
       5 -> 22         0.00265
       5 -> 23        -0.00241
       5 -> 24        -0.00105
       5 -> 25         0.00174
       5 -> 27        -0.00152
       5 -> 28         0.00279
       5 -> 29         0.00169
       5 -> 30         0.00548
       6 -> 16        -0.00705
       6 -> 17        -0.00107
       6 -> 19        -0.01519
       6 -> 20         0.00267
       6 -> 21         0.00576
       6 -> 22        -0.00178
       6 -> 23         0.00344
       6 -> 25        -0.00305
       6 -> 27        -0.00715
       6 -> 28        -0.00148
       7 -> 16        -0.00586
       7 -> 17        -0.00218
       7 -> 18        -0.00270
       7 -> 19        -0.00154
       7 -> 20        -0.00310
       7 -> 21         0.01133
       7 -> 22         0.01003
       7 -> 23        -0.02160
       7 -> 24         0.01281
       7 -> 25         0.00678
       7 -> 26        -0.00385
       7 -> 27         0.00142
       7 -> 28        -0.00107
       8 -> 16        -0.01461
       8 -> 17         0.00254
       8 -> 18        -0.00182
       8 -> 19         0.00939
       8 -> 20        -0.00218
       8 -> 21        -0.01214
       8 -> 22        -0.00656
       8 -> 23         0.00567
       8 -> 24         0.03056
       8 -> 26         0.02335
       8 -> 28        -0.00538
       8 -> 30        -0.00179
       9 -> 16        -0.00748
       9 -> 17        -0.00629
       9 -> 18         0.00457
       9 -> 19         0.00286
       9 -> 20        -0.00617
       9 -> 21        -0.00644
       9 -> 22         0.00269
       9 -> 23        -0.00579
       9 -> 24         0.02268
       9 -> 25         0.01274
       9 -> 26         0.01627
       9 -> 27         0.00779
       9 -> 28         0.00375
       9 -> 29        -0.02426
       9 -> 30         0.00258
      10 -> 16        -0.00381
      10 -> 17        -0.02176
      10 -> 18         0.03668
      10 -> 19         0.00212
      10 -> 20         0.00705
      10 -> 21         0.00884
      10 -> 22         0.00679
      10 -> 23        -0.00835
      10 -> 24         0.00616
      10 -> 25         0.01788
      10 -> 26        -0.01703
      10 -> 27        -0.00118
      10 -> 28        -0.00221
      10 -> 29         0.00385
      10 -> 30         0.00226
      11 -> 16        -0.00889
      11 -> 17        -0.00185
      11 -> 18         0.01022
      11 -> 21         0.00246
      11 -> 22         0.00182
      11 -> 23        -0.00996
      11 -> 24         0.00474
      11 -> 25         0.00559
      11 -> 26        -0.00426
      11 -> 27         0.00234
      11 -> 29         0.00223
      12 -> 16        -0.04399
      12 -> 17         0.06437
      12 -> 18        -0.01112
      12 -> 19         0.03782
      12 -> 20        -0.01412
      12 -> 21         0.02756
      12 -> 22        -0.02156
      12 -> 23        -0.00217
      12 -> 24         0.00758
      12 -> 25         0.00773
      12 -> 26         0.01459
      12 -> 27         0.00773
      12 -> 28         0.03103
      12 -> 29         0.00935
      12 -> 30        -0.02175
      13 -> 16         0.09428
      13 -> 17         0.01750
      13 -> 18        -0.01388
      13 -> 19        -0.02366
      13 -> 20         0.02422
      13 -> 21         0.03380
      13 -> 22        -0.01557
      13 -> 23        -0.00571
      13 -> 24         0.00273
      13 -> 25        -0.00272
      13 -> 26         0.00378
      13 -> 27        -0.04257
      13 -> 28         0.00533
      13 -> 29        -0.00405
      13 -> 30         0.02173
      14 -> 16         0.13373
      14 -> 17         0.50654
      14 -> 18        -0.01593
      14 -> 19         0.00574
      14 -> 20         0.00220
      14 -> 21         0.00385
      14 -> 22        -0.01223
      14 -> 23         0.01018
      14 -> 24        -0.00715
      14 -> 25        -0.01345
      14 -> 26         0.01175
      14 -> 27        -0.00551
      14 -> 28         0.00927
      14 -> 29         0.00489
      14 -> 30        -0.00102
      15 -> 16        -0.43617
      15 -> 17         0.12407
      15 -> 18        -0.01383
      15 -> 19         0.01774
      15 -> 20         0.00511
      15 -> 21        -0.00735
      15 -> 22         0.00105
      15 -> 23        -0.01339
      15 -> 24         0.00466
      15 -> 25         0.01128
      15 -> 26         0.00429
      15 -> 27         0.01364
      15 -> 28         0.00724
      15 -> 30         0.00382
       1 <- 19        -0.00125
       1 <- 27        -0.00337
       1 <- 29        -0.00141
       2 <- 21        -0.00147
       2 <- 24         0.00488
       2 <- 26         0.00212
       2 <- 29        -0.00321
       3 <- 19        -0.00144
       3 <- 20        -0.00114
       3 <- 21        -0.00303
       3 <- 22        -0.00429
       3 <- 23         0.00159
       3 <- 24        -0.00170
       3 <- 25        -0.00226
       3 <- 26         0.00139
       4 <- 18        -0.00123
       4 <- 19        -0.00189
       4 <- 20         0.00706
       4 <- 21         0.00154
       4 <- 27        -0.00128
       4 <- 30         0.00316
       5 <- 19        -0.00350
       5 <- 20         0.00623
       5 <- 21        -0.00314
       5 <- 22         0.00119
       5 <- 23        -0.00147
       5 <- 27        -0.00161
       5 <- 30         0.00362
       6 <- 19        -0.00615
       6 <- 20         0.00158
       6 <- 21         0.00244
       6 <- 23         0.00173
       6 <- 27        -0.00170
       7 <- 16        -0.00112
       7 <- 21         0.00433
       7 <- 22         0.00415
       7 <- 23        -0.00938
       7 <- 24         0.00527
       7 <- 25         0.00211
       7 <- 26        -0.00147
       8 <- 16        -0.00136
       8 <- 19         0.00372
       8 <- 21        -0.00541
       8 <- 22        -0.00266
       8 <- 23         0.00259
       8 <- 24         0.01363
       8 <- 25        -0.00116
       8 <- 26         0.00905
       8 <- 28        -0.00197
       9 <- 16        -0.00223
       9 <- 19         0.00131
       9 <- 20        -0.00145
       9 <- 21        -0.00206
       9 <- 23        -0.00225
       9 <- 24         0.01024
       9 <- 25         0.00482
       9 <- 26         0.00682
       9 <- 27         0.00152
       9 <- 29        -0.00830
       9 <- 30         0.00125
      10 <- 17        -0.00126
      10 <- 20         0.00148
      10 <- 21         0.00366
      10 <- 22         0.00339
      10 <- 23        -0.00360
      10 <- 24         0.00199
      10 <- 25         0.00671
      10 <- 26        -0.00728
      10 <- 28        -0.00103
      10 <- 29         0.00115
      11 <- 17        -0.00489
      11 <- 18        -0.00177
      11 <- 21         0.00154
      12 <- 16        -0.00231
      12 <- 17         0.00505
      12 <- 19         0.01079
      12 <- 20        -0.00545
      12 <- 21         0.00838
      12 <- 22        -0.00622
      12 <- 24         0.00230
      12 <- 25         0.00245
      12 <- 26         0.00341
      12 <- 27         0.00305
      12 <- 28         0.01055
      12 <- 29         0.00343
      12 <- 30        -0.00795
      13 <- 16         0.00514
      13 <- 17         0.00137
      13 <- 18        -0.00218
      13 <- 19        -0.00679
      13 <- 20         0.00908
      13 <- 21         0.00889
      13 <- 22        -0.00447
      13 <- 23        -0.00196
      13 <- 24         0.00149
      13 <- 26         0.00141
      13 <- 27        -0.01447
      13 <- 28         0.00162
      13 <- 29        -0.00206
      13 <- 30         0.00772
      14 <- 16        -0.02284
      14 <- 17        -0.07891
      14 <- 18        -0.00682
      14 <- 22        -0.00217
      14 <- 23         0.00228
      14 <- 24        -0.00143
      14 <- 28         0.00170
      15 <- 16         0.08337
      15 <- 17        -0.02362
      15 <- 19         0.00126
      15 <- 23        -0.00146
      15 <- 24         0.00273
 
 Excited state symmetry could not be determined.
 Excited State   5:      Singlet-?Sym    5.9361 eV  208.87 nm  f=0.0131  <S**2>=0.000
       1 -> 16        -0.00334
       2 -> 16        -0.00306
       2 -> 17         0.00184
       2 -> 18        -0.00370
       3 -> 16         0.00110
       3 -> 18        -0.00718
       3 -> 22         0.00167
       4 -> 16         0.03184
       4 -> 17         0.01644
       4 -> 18         0.00215
       4 -> 19         0.00102
       4 -> 20        -0.00109
       4 -> 22         0.00147
       4 -> 24        -0.00134
       4 -> 25        -0.00160
       5 -> 16        -0.01254
       5 -> 17         0.00971
       5 -> 18        -0.00156
       5 -> 20        -0.00237
       5 -> 21         0.00228
       5 -> 30        -0.00143
       6 -> 16        -0.02518
       6 -> 17        -0.00565
       6 -> 19         0.00151
       6 -> 23        -0.00187
       6 -> 29         0.00255
       7 -> 16        -0.01221
       7 -> 17         0.02068
       7 -> 18        -0.05945
       7 -> 20        -0.00489
       7 -> 22         0.00187
       7 -> 23         0.00546
       7 -> 24        -0.00280
       7 -> 27         0.00325
       8 -> 16         0.01319
       8 -> 17        -0.01247
       8 -> 18         0.07629
       8 -> 19        -0.00300
       8 -> 20         0.00274
       8 -> 21         0.00279
       8 -> 23        -0.00422
       8 -> 24        -0.00460
       8 -> 25         0.00145
       8 -> 26        -0.00525
       8 -> 27         0.00281
       8 -> 28         0.00214
       8 -> 29        -0.00218
       8 -> 30        -0.00156
       9 -> 16        -0.03703
       9 -> 17         0.01433
       9 -> 18        -0.00366
       9 -> 19         0.00165
       9 -> 20        -0.00114
       9 -> 21        -0.00150
       9 -> 22         0.00149
       9 -> 23         0.00164
       9 -> 24        -0.00295
       9 -> 25        -0.00132
       9 -> 26        -0.00184
       9 -> 27         0.00204
       9 -> 29         0.00516
      10 -> 18         0.09191
      10 -> 19        -0.00118
      10 -> 20         0.00320
      10 -> 21        -0.00297
      10 -> 22        -0.00615
      10 -> 25        -0.00275
      10 -> 26         0.00419
      10 -> 27        -0.00115
      10 -> 28        -0.00175
      11 -> 16         0.02182
      11 -> 17         0.00548
      11 -> 18         0.00390
      11 -> 19         0.00511
      11 -> 20         0.00248
      11 -> 21         0.00936
      11 -> 22         0.01822
      11 -> 23        -0.00217
      11 -> 24         0.00488
      11 -> 25        -0.00367
      11 -> 27        -0.00402
      11 -> 29         0.00419
      11 -> 30        -0.00201
      12 -> 16        -0.03258
      12 -> 17        -0.13435
      12 -> 18         0.05345
      12 -> 19        -0.00628
      12 -> 20         0.00657
      12 -> 21        -0.01032
      12 -> 22         0.00275
      12 -> 23         0.00235
      12 -> 24        -0.00297
      12 -> 26        -0.00100
      12 -> 27         0.00179
      12 -> 28        -0.00772
      12 -> 29        -0.00160
      12 -> 30         0.00553
      13 -> 16         0.66167
      13 -> 17        -0.00907
      13 -> 18         0.03139
      13 -> 19         0.00649
      13 -> 20        -0.00254
      13 -> 21        -0.00502
      13 -> 22         0.00153
      13 -> 24        -0.00482
      13 -> 25        -0.00501
      13 -> 26        -0.00295
      13 -> 27         0.00933
      13 -> 28         0.00334
      13 -> 30        -0.00221
      14 -> 16        -0.03595
      14 -> 17        -0.04565
      14 -> 18         0.03708
      14 -> 19         0.01562
      14 -> 20         0.01544
      14 -> 21         0.00769
      14 -> 22        -0.01395
      14 -> 23        -0.01571
      14 -> 24         0.00181
      14 -> 25         0.00620
      14 -> 26        -0.00108
      14 -> 27         0.00636
      14 -> 28         0.00378
      14 -> 30         0.00326
      15 -> 16         0.05375
      15 -> 17        -0.03285
      15 -> 18         0.02753
      15 -> 19        -0.04757
      15 -> 20         0.04864
      15 -> 21         0.00796
      15 -> 23         0.00898
      15 -> 24        -0.00125
      15 -> 25        -0.00432
      15 -> 27        -0.00354
      15 -> 28         0.01150
      15 -> 29         0.00486
      15 -> 30         0.01107
       3 <- 22         0.00101
       4 <- 17        -0.00123
       5 <- 16         0.00143
       5 <- 20        -0.00143
       6 <- 16         0.00114
       7 <- 22        -0.00105
       7 <- 23         0.00118
       7 <- 24        -0.00146
       8 <- 18        -0.00113
       8 <- 19        -0.00108
       8 <- 21         0.00112
       8 <- 22         0.00124
       8 <- 23        -0.00104
       8 <- 24        -0.00183
       8 <- 26        -0.00199
       9 <- 24        -0.00130
       9 <- 29         0.00148
      10 <- 18        -0.00134
      10 <- 26         0.00158
      11 <- 17        -0.00162
      11 <- 19         0.00270
      11 <- 20         0.00150
      11 <- 21         0.00118
      11 <- 22         0.00511
      11 <- 23         0.00228
      11 <- 27        -0.00119
      11 <- 29         0.00319
      12 <- 17        -0.00134
      12 <- 19        -0.00187
      12 <- 21        -0.00274
      12 <- 22         0.00170
      12 <- 26        -0.00108
      12 <- 28        -0.00260
      12 <- 30         0.00152
      13 <- 16        -0.00283
      13 <- 27         0.00159
      14 <- 16         0.00517
      14 <- 17         0.01269
      14 <- 18        -0.00330
      14 <- 19         0.00949
      14 <- 20         0.00213
      14 <- 21         0.00298
      14 <- 22        -0.00589
      14 <- 23        -0.00572
      14 <- 25         0.00183
      14 <- 27         0.00303
      14 <- 28         0.00511
      14 <- 29         0.00230
      14 <- 30         0.00107
      15 <- 16        -0.00923
      15 <- 17         0.01013
      15 <- 18        -0.00215
      15 <- 19        -0.01000
      15 <- 20         0.00688
      15 <- 21         0.00888
      15 <- 22        -0.00348
      15 <- 23         0.00173
      15 <- 24         0.00162
      15 <- 25        -0.00132
      15 <- 27        -0.00786
      15 <- 28         0.00296
      15 <- 30         0.00284
 SavETr:  write IOETrn=   770 NScale= 10 NData=  16 NLR=1 NState=    5 LETran=     100.

 **********************************************************************

            Population analysis using the SCF Density.

 **********************************************************************

 Alpha  occ. eigenvalues --   -1.42251  -1.15620  -1.13706  -0.84940  -0.84013
 Alpha  occ. eigenvalues --   -0.65184  -0.59851  -0.56189  -0.52295  -0.51428
 Alpha  occ. eigenvalues --   -0.48418  -0.43824  -0.43462  -0.35394  -0.34777
 Alpha virt. eigenvalues --    0.01703   0.01994   0.10440   0.14094   0.14434
 Alpha virt. eigenvalues --    0.15205   0.15450   0.16604   0.17093   0.18760
 Alpha virt. eigenvalues --    0.19037   0.20312   0.20733   0.20995   0.22482
          Condensed to atoms (all electrons):
               1          2          3          4          5          6
     1  C    4.123194   0.000000   0.000000   0.000000   0.000000   0.000000
     2  C    0.000000   4.146884   0.000000   0.000000   0.000000   0.000000
     3  C    0.000000   0.000000   4.143920   0.000000   0.000000   0.000000
     4  C    0.000000   0.000000   0.000000   4.125038   0.000000   0.000000
     5  C    0.000000   0.000000   0.000000   0.000000   4.127728   0.000000
     6  C    0.000000   0.000000   0.000000   0.000000   0.000000   4.120836
     7  H    0.000000   0.000000   0.000000   0.000000   0.000000   0.000000
     8  H    0.000000   0.000000   0.000000   0.000000   0.000000   0.000000
     9  H    0.000000   0.000000   0.000000   0.000000   0.000000   0.000000
    10  H    0.000000   0.000000   0.000000   0.000000   0.000000   0.000000
    11  H    0.000000   0.000000   0.000000   0.000000   0.000000   0.000000
    12  H    0.000000   0.000000   0.000000   0.000000   0.000000   0.000000
               7          8          9         10         11         12
     1  C    0.000000   0.000000   0.000000   0.000000   0.000000   0.000000
     2  C    0.000000   0.000000   0.000000   0.000000   0.000000   0.000000
     3  C    0.000000   0.000000   0.000000   0.000000   0.000000   0.000000
     4  C    0.000000   0.000000   0.000000   0.000000   0.000000   0.000000
     5  C    0.000000   0.000000   0.000000   0.000000   0.000000   0.000000
     6  C    0.000000   0.000000   0.000000   0.000000   0.000000   0.000000
     7  H    0.861165   0.000000   0.000000   0.000000   0.000000   0.000000
     8  H    0.000000   0.876954   0.000000   0.000000   0.000000   0.000000
     9  H    0.000000   0.000000   0.862645   0.000000   0.000000   0.000000
    10  H    0.000000   0.000000   0.000000   0.869571   0.000000   0.000000
    11  H    0.000000   0.000000   0.000000   0.000000   0.874451   0.000000
    12  H    0.000000   0.000000   0.000000   0.000000   0.000000   0.867614
 Mulliken charges:
               1
     1  C   -0.123194
     2  C   -0.146884
     3  C   -0.143920
     4  C   -0.125038
     5  C   -0.127728
     6  C   -0.120836
     7  H    0.138835
     8  H    0.123046
     9  H    0.137355
    10  H    0.130429
    11  H    0.125549
    12  H    0.132386
 Sum of Mulliken charges =  -0.00000
 Mulliken charges with hydrogens summed into heavy atoms:
               1
     1  C    0.015641
     2  C   -0.023839
     3  C   -0.006565
     4  C    0.005391
     5  C   -0.002179
     6  C    0.011550
 Charge=             -0.0000 electrons
 Dipole moment (field-independent basis, Debye):
    X=              0.0626    Y=             -0.0906    Z=             -0.2963  Tot=              0.3161
 N-N= 1.191378640778D+02 E-N=-1.697222832067D+02  KE=-4.781110342236D+01

 Test job not archived.
 1\1\GINC-BHC0189\SP\RAM1 TD-Full\STO-5G\C6H6\BWEIGHT\21-Mar-2025\0\\# 
 AM1/STO-5G SCF=XQC TD=(read,singlets,nstates=5,root=1) nosym IOp(9/40=
 3) guess=read\\MD Step 24\\0,1\C,0,-0.70748792,-1.23970831,-0.05309801
 \C,0,0.65797319,-1.21664771,0.05629244\C,0,1.41545336,0.02376966,0.053
 61402\C,0,0.70581515,1.23293392,-0.09715551\C,0,-0.71049988,1.19811688
 ,0.08013756\C,0,-1.39903752,0.00197459,0.00307662\H,0,-1.15308073,-2.2
 7580664,-0.12680864\H,0,1.25644839,-2.1110218,-0.00031226\H,0,2.527253
 49,-0.14037015,0.05528315\H,0,1.2624819,2.11933832,-0.22930126\H,0,-1.
 18218181,2.1317979,0.05950869\H,0,-2.52528219,0.1010109,-0.11964613\\V
 ersion=ES64L-G16RevC.01\HF=0.0576564\RMSD=7.851e-09\PG=C01 [X(C6H6)]\\
 @


 IF I AM NOT FOR MYSELF, WHO WILL BE?
 BUT IF I AM ONLY FOR MYSELF, WHAT AM I?
 THOUGH A SEEKER SINCE MY BIRTH,
 HERE IS ALL I'VE LEARNED ON EARTH,
 THIS IS THE GIST OF WHAT I KNOW:
 GIVE ADVICE AND BUY A FOE.

 PRESSED FOR RULES AND VERITIES,
 ALL I RECOLLECT ARE THESE:
 FEED A COLD TO STARVE A FEVER,
 ARGUE WITH NO TRUE-BELIEVER.
 THINK-TOO-LONG IS NEVER-ACT,
 SCRATCH A MYTH AND FIND A FACT.

 STITCH IN TIME SAVES TWENTY STITCHES,
 GIVE THE RICH TO PLEASE THEM, RICHES.
 GIVE TO LOVE YOU HEARTH AND HALL,
 BUT DO NOT GIVE ADVICE AT ALL.

                                  -- HILLEL
 Job cpu time:       0 days  0 hours  0 minutes  1.1 seconds.
 Elapsed time:       0 days  0 hours  0 minutes  0.8 seconds.
 File lengths (MBytes):  RWF=     34 Int=      0 D2E=      0 Chk=      2 Scr=      1
 Normal termination of Gaussian 16 at Fri Mar 21 15:03:20 2025.
