 Entering Gaussian System, Link 0=g16
 Initial command:
 /software/gaussian/g16-c01/avx2/g16/l1.exe "/local_scratch/28554171/Gau-25794.inp" -scrdir="/local_scratch/28554171/"
 Entering Link 1 = /software/gaussian/g16-c01/avx2/g16/l1.exe PID=     25810.
  
 Copyright (c) 1988-2019, Gaussian, Inc.  All Rights Reserved.
  
 This is part of the Gaussian(R) 16 program.  It is based on
 the Gaussian(R) 09 system (copyright 2009, Gaussian, Inc.),
 the Gaussian(R) 03 system (copyright 2003, Gaussian, Inc.),
 the Gaussian(R) 98 system (copyright 1998, Gaussian, Inc.),
 the Gaussian(R) 94 system (copyright 1995, Gaussian, Inc.),
 the Gaussian 92(TM) system (copyright 1992, Gaussian, Inc.),
 the Gaussian 90(TM) system (copyright 1990, Gaussian, Inc.),
 the Gaussian 88(TM) system (copyright 1988, Gaussian, Inc.),
 the Gaussian 86(TM) system (copyright 1986, Carnegie Mellon
 University), and the Gaussian 82(TM) system (copyright 1983,
 Carnegie Mellon University). Gaussian is a federally registered
 trademark of Gaussian, Inc.
  
 This software contains proprietary and confidential information,
 including trade secrets, belonging to Gaussian, Inc.
  
 This software is provided under written license and may be
 used, copied, transmitted, or stored only in accord with that
 written license.
  
 The following legend is applicable only to US Government
 contracts under FAR:
  
                    RESTRICTED RIGHTS LEGEND
  
 Use, reproduction and disclosure by the US Government is
 subject to restrictions as set forth in subparagraphs (a)
 and (c) of the Commercial Computer Software - Restricted
 Rights clause in FAR 52.227-19.
  
 Gaussian, Inc.
 340 Quinnipiac St., Bldg. 40, Wallingford CT 06492
  
  
 ---------------------------------------------------------------
 Warning -- This program may not be used in any manner that
 competes with the business of Gaussian, Inc. or will provide
 assistance to any competitor of Gaussian, Inc.  The licensee
 of this program is prohibited from giving any competitor of
 Gaussian, Inc. access to this program.  By using this program,
 the user acknowledges that Gaussian, Inc. is engaged in the
 business of creating and licensing software in the field of
 computational chemistry and represents and warrants to the
 licensee that it is not a competitor of Gaussian, Inc. and that
 it will not use this program in any manner prohibited above.
 ---------------------------------------------------------------
  

 Cite this work as:
 Gaussian 16, Revision C.01,
 M. J. Frisch, G. W. Trucks, H. B. Schlegel, G. E. Scuseria, 
 M. A. Robb, J. R. Cheeseman, G. Scalmani, V. Barone, 
 G. A. Petersson, H. Nakatsuji, X. Li, M. Caricato, A. V. Marenich, 
 J. Bloino, B. G. Janesko, R. Gomperts, B. Mennucci, H. P. Hratchian, 
 J. V. Ortiz, A. F. Izmaylov, J. L. Sonnenberg, D. Williams-Young, 
 F. Ding, F. Lipparini, F. Egidi, J. Goings, B. Peng, A. Petrone, 
 T. Henderson, D. Ranasinghe, V. G. Zakrzewski, J. Gao, N. Rega, 
 G. Zheng, W. Liang, M. Hada, M. Ehara, K. Toyota, R. Fukuda, 
 J. Hasegawa, M. Ishida, T. Nakajima, Y. Honda, O. Kitao, H. Nakai, 
 T. Vreven, K. Throssell, J. A. Montgomery, Jr., J. E. Peralta, 
 F. Ogliaro, M. J. Bearpark, J. J. Heyd, E. N. Brothers, K. N. Kudin, 
 V. N. Staroverov, T. A. Keith, R. Kobayashi, J. Normand, 
 K. Raghavachari, A. P. Rendell, J. C. Burant, S. S. Iyengar, 
 J. Tomasi, M. Cossi, J. M. Millam, M. Klene, C. Adamo, R. Cammi, 
 J. W. Ochterski, R. L. Martin, K. Morokuma, O. Farkas, 
 J. B. Foresman, and D. J. Fox, Gaussian, Inc., Wallingford CT, 2019.
 
 ******************************************
 Gaussian 16:  ES64L-G16RevC.01  3-Jul-2019
                21-Mar-2025 
 ******************************************
 %oldchk=../TD_OLD_S1/geometry.chk
 %chk=geometry.chk
 %nprocshared=1
 Will use up to    1 processors via shared memory.
 %mem=2GB
 Copying data from "../TD_OLD_S1/geometry.chk" to current chk file "geometry.chk"
 IOpt=  2 FromEx=T IUOpen= 4 IOptOp= 5 NList=   0 IFRang= 0 IUIn= 4 IUOut= 2.
 ----------------------------------------------------------------------
 # AM1/STO-5G SCF=XQC TD=(read,singlets,nstates=5,root=1) nosym IOp(9/4
 0=3) guess=read
 ----------------------------------------------------------------------
 1/38=1,172=1/1;
 2/12=2,15=1,17=6,18=5,40=1/2;
 3/5=2,6=5,25=1,41=700000,116=-2/1,2,3,8;
 4/5=1,35=1/1;
 5/5=2,8=3,13=1,35=1,38=6/2,8;
 8/6=1,10=90,107=1,108=5/1;
 9/8=1,40=3,41=5,42=1,48=1,49=13,70=2/14;
 6/7=2,8=2,9=2,10=2/1;
 99/5=1,9=1/99;
 ----------
 MD Step 23
 ----------
 Symbolic Z-matrix:
 Charge =  0 Multiplicity = 1
 C                    -0.71372  -1.2104   -0.01945 
 C                     0.66931  -1.21422   0.03141 
 C                     1.41028   0.01172  -0.01555 
 C                     0.6906    1.22176  -0.01018 
 C                    -0.6742    1.17788   0.01823 
 C                    -1.39083   0.00966   0.00655 
 H                    -1.17031  -2.22007  -0.08092 
 H                     1.20677  -2.18796   0.07016 
 H                     2.49889   0.03677   0.0013 
 H                     1.20308   2.2018    0.01107 
 H                    -1.19698   2.16126  -0.02827 
 H                    -2.45109  -0.06532  -0.09046 
 
                          Input orientation:                          
 ---------------------------------------------------------------------
 Center     Atomic      Atomic             Coordinates (Angstroms)
 Number     Number       Type             X           Y           Z
 ---------------------------------------------------------------------
      1          6           0       -0.713724   -1.210399   -0.019451
      2          6           0        0.669305   -1.214224    0.031408
      3          6           0        1.410280    0.011716   -0.015551
      4          6           0        0.690595    1.221760   -0.010175
      5          6           0       -0.674197    1.177884    0.018229
      6          6           0       -1.390833    0.009664    0.006548
      7          1           0       -1.170309   -2.220072   -0.080924
      8          1           0        1.206767   -2.187962    0.070163
      9          1           0        2.498894    0.036774    0.001304
     10          1           0        1.203079    2.201801    0.011075
     11          1           0       -1.196977    2.161263   -0.028265
     12          1           0       -2.451093   -0.065323   -0.090456
 ---------------------------------------------------------------------
                    Distance matrix (angstroms):
                    1          2          3          4          5
     1  C    0.000000
     2  C    1.383969   0.000000
     3  C    2.450504   1.433240   0.000000
     4  C    2.808486   2.436432   1.407900   0.000000
     5  C    2.388907   2.743602   2.388752   1.365793   0.000000
     6  C    1.395603   2.396391   2.801201   2.408692   1.370562
     7  H    1.109815   2.099650   3.412418   3.913333   3.435413
     8  H    2.156837   1.112894   2.210734   3.449506   3.856118
     9  H    3.446271   2.216596   1.089033   2.162005   3.372080
    10  H    3.913844   3.457536   2.200027   1.106152   2.138369
    11  H    3.406129   3.857522   3.379128   2.108535   1.114672
    12  H    2.081992   3.327417   3.862868   3.396061   2.171344
                    6          7          8          9         10
     6  C    0.000000
     7  H    2.242322   0.000000
     8  H    3.403107   2.382090   0.000000
     9  H    3.889825   4.308500   2.573672   0.000000
    10  H    3.396154   5.019402   4.390163   2.523207   0.000000
    11  H    2.160594   4.381733   4.970255   4.263072   2.400720
    12  H    1.067325   2.506679   4.232178   4.951890   4.301526
                   11         12
    11  H    0.000000
    12  H    2.556239   0.000000
 Symmetry turned off by external request.
 Stoichiometry    C6H6
 Framework group  C1[X(C6H6)]
 Deg. of freedom    30
 Full point group                 C1      NOp   1
 Rotational constants (GHZ):           5.8148813           5.5996607           2.8540666
 Standard basis: VSTO-5G (5D, 7F)
    30 basis functions,   180 primitive gaussians,    30 cartesian basis functions
    15 alpha electrons       15 beta electrons
       nuclear repulsion energy       119.7244091108 Hartrees.
 Integral buffers will be    131072 words long.
 Regular integral format.
 Two-electron integral symmetry is turned off.
 Do NDO integrals.
 One-electron integrals computed using PRISM.
 NBasis=    30 RedAO= F EigKep=  0.00D+00  NBF=    30
 NBsUse=    30 1.00D-04 EigRej=  0.00D+00 NBFU=    30
 Initial guess from the checkpoint file:  "geometry.chk"
 B after Tr=    -0.000954   -0.000534    0.000736
         Rot=    1.000000    0.000375   -0.000205   -0.000025 Ang=   0.05 deg.
 Keep J ints in memory in canonical form, NReq=861816.
 Overlap will be assumed to be unity.
 Requested convergence on RMS density matrix=1.00D-08 within  32 cycles.
 Requested convergence on MAX density matrix=1.00D-06.
 Requested convergence on             energy=1.00D-06.
 No special actions if energy rises.
 SCF Done:  E(RAM1) =  0.441826583091E-01 A.U. after   12 cycles
            NFock= 11  Conv=0.75D-08     -V/T= 1.0009
 QCSCF skips out because SCF is already converged.
 Range of M.O.s used for correlation:     1    30
 NBasis=    30 NAE=    15 NBE=    15 NFC=     0 NFV=     0
 NROrb=     30 NOA=    15 NOB=    15 NVA=    15 NVB=    15
 Keep J ints in memory in canonical form, NReq=862156.
 Generating guess from checkpoint file densities.
 Convergence on wavefunction:    0.001000000000000
 Iteration     1 Dimension    10 NMult     0 NNew     10
 CISAX will form    10 AO SS matrices at one time.
 Iteration     2 Dimension    20 NMult    10 NNew     10
 Iteration     3 Dimension    30 NMult    20 NNew     10
 Iteration     4 Dimension    38 NMult    30 NNew      8
 Iteration     5 Dimension    44 NMult    38 NNew      6
 Iteration     6 Dimension    50 NMult    44 NNew      6
 Iteration     7 Dimension    52 NMult    50 NNew      2
 Iteration     8 Dimension    54 NMult    52 NNew      2
 Convergence on energies, max DE= 7.50D-06.
 ***********************************************************************
 Excited states from <AA,BB:AA,BB> singles matrix:
 ***********************************************************************
 
 Ground to excited state transition densities written to RWF  633
 Ground to excited state transition electric dipole moments (Au):
       state          X           Y           Z        Dip. S.      Osc.
         1        -0.0302      0.0145     -0.0012      0.0011      0.0001
         2        -0.1968      0.0007      0.0434      0.0406      0.0042
         3        -0.3522      1.5612      0.0058      2.5615      0.3413
         4        -1.6063     -0.3543      0.0313      2.7067      0.3642
         5        -0.0775      0.2460     -0.0717      0.0717      0.0104
 Ground to excited state transition velocity dipole moments (Au):
       state          X           Y           Z        Dip. S.      Osc.
         1         0.0050     -0.0028      0.0003      0.0000      0.0002
         2         0.0486     -0.0004     -0.0185      0.0027      0.0118
         3         0.1048     -0.4922      0.0099      0.2534      0.8451
         4         0.5032      0.1120      0.0292      0.2666      0.8804
         5         0.0238     -0.0845     -0.0739      0.0132      0.0405
 Ground to excited state transition magnetic dipole moments (Au):
       state          X           Y           Z
         1        -0.0076      0.0116      0.0052
         2         0.0416      0.0122     -0.0591
         3        -0.0085     -0.0226      0.0201
         4        -0.0150     -0.0152     -0.0204
         5        -0.0579     -0.0103      0.0076
 Ground to excited state transition velocity quadrupole moments (Au):
       state          XX          YY          ZZ          XY          XZ          YZ
         1         0.0073     -0.0073      0.0003     -0.0097     -0.0071     -0.0027
         2         0.0649     -0.0667     -0.0005      0.0383     -0.0088      0.0329
         3        -0.0233      0.0312      0.0005     -0.0802      0.0258     -0.0230
         4         0.0791     -0.0608     -0.0021     -0.0576     -0.0188     -0.0398
         5         0.0030     -0.0199     -0.0044     -0.0081      0.0025      0.0092
 <0|del|b> * <b|rxdel|0> + <0|del|b> * <b|delr+rdel|0>
 Rotatory Strengths (R) in cgs (10**-40 erg-esu-cm/Gauss)
       state          XX          YY          ZZ    R(velocity)    E-M Angle
         1        -0.1349     -0.1199     -0.0939     -0.1162       90.00
         2         0.8719     12.5091      0.9770      4.7860       35.29
         3        41.0290     -4.0811     -0.1084     12.2798       48.82
         4        -3.2786    -46.4310     15.2022    -11.5025      130.26
         5         1.8259     -3.7801     -1.5344     -1.1628       99.04
 1/2[<0|r|b>*<b|rxdel|0> + (<0|rxdel|b>*<b|r|0>)*]
 Rotatory Strengths (R) in cgs (10**-40 erg-esu-cm/Gauss)
       state          XX          YY          ZZ     R(length)
         1        -0.1623     -0.1196      0.0045     -0.0925
         2         5.7878     -0.0064      1.8136      2.5317
         3        -2.1166     24.9059     -0.0820      7.5691
         4       -17.0473     -3.8129      0.4501     -6.8034
         5        -3.1739      1.7919      0.3837     -0.3327
  1/2[<0|del|b>*<b|r|0> + (<0|r|b>*<b|del|0>)*] (Au)
       state          X           Y           Z        Dip. S.   Osc.(frdel)
         1        -0.0002     -0.0000     -0.0000      0.0002      0.0001
         2        -0.0096     -0.0000     -0.0008      0.0104      0.0069
         3        -0.0369     -0.7685      0.0001      0.8053      0.5369
         4        -0.8083     -0.0397      0.0009      0.8470      0.5647
         5        -0.0018     -0.0208      0.0053      0.0173      0.0115

 Excitation energies and oscillator strengths:
 
 Excited state symmetry could not be determined.
 Excited State   1:      Singlet-?Sym    3.8484 eV  322.17 nm  f=0.0001  <S**2>=0.000
       2 -> 23         0.00344
       2 -> 26        -0.00159
       3 -> 24        -0.00295
       3 -> 25         0.00235
       4 -> 27         0.00265
       5 -> 16         0.00186
       5 -> 28        -0.00266
       7 -> 29        -0.00228
       8 -> 18        -0.00290
       8 -> 21         0.00134
       9 -> 18         0.00265
       9 -> 23         0.00363
       9 -> 25        -0.00148
       9 -> 26        -0.00217
      10 -> 18         0.00197
      10 -> 21         0.00102
      10 -> 24        -0.00258
      10 -> 25         0.00200
      10 -> 26        -0.00147
      11 -> 16        -0.00489
      11 -> 17        -0.00556
      11 -> 19         0.00101
      11 -> 23        -0.00152
      11 -> 24        -0.00120
      11 -> 25         0.00221
      11 -> 28         0.00268
      11 -> 29        -0.00109
      12 -> 16        -0.00126
      13 -> 16         0.00221
      14 -> 16         0.49440
      14 -> 17        -0.07434
      14 -> 18        -0.00906
      14 -> 19        -0.00113
      14 -> 20         0.00135
      14 -> 21         0.00188
      14 -> 22        -0.00232
      14 -> 23        -0.00261
      14 -> 29        -0.00169
      14 -> 30         0.00165
      15 -> 16         0.09180
      15 -> 17         0.50059
      15 -> 18         0.00563
      15 -> 26         0.00138
      15 -> 27         0.00317
       2 <- 23         0.00125
       4 <- 27         0.00206
       5 <- 28        -0.00211
       7 <- 29        -0.00168
      11 <- 16        -0.00184
      11 <- 17        -0.00199
      12 <- 16        -0.00227
      13 <- 16         0.00369
      14 <- 16         0.06785
      14 <- 17        -0.01259
      14 <- 18        -0.00121
      14 <- 19        -0.00123
      15 <- 16         0.00921
      15 <- 17         0.06652
      15 <- 20         0.00119
      15 <- 23         0.00105
 This state for optimization and/or second-order correction.
 Total Energy, E(TD-HF/TD-DFT) =  0.185608982670    
 Copying the excited state density for this state as the 1-particle RhoCI density.
 
 Excited state symmetry could not be determined.
 Excited State   2:      Singlet-?Sym    4.1736 eV  297.07 nm  f=0.0042  <S**2>=0.000
       1 -> 19         0.00173
       1 -> 20        -0.00105
       1 -> 30        -0.00101
       2 -> 24        -0.00276
       2 -> 25        -0.00208
       3 -> 23        -0.00305
       3 -> 26        -0.00197
       4 -> 16         0.00208
       4 -> 20        -0.00101
       4 -> 22         0.00248
       4 -> 28         0.00423
       5 -> 18        -0.00120
       5 -> 21        -0.00127
       5 -> 23        -0.00146
       5 -> 26         0.00117
       5 -> 27         0.00517
       6 -> 19         0.00232
       6 -> 20        -0.00127
       7 -> 17        -0.00161
       7 -> 18         0.00182
       7 -> 21        -0.00209
       7 -> 22        -0.00119
       7 -> 24         0.00164
       7 -> 27        -0.00116
       8 -> 19        -0.00197
       8 -> 20         0.00266
       8 -> 21        -0.00120
       8 -> 23         0.00396
       8 -> 24         0.00354
       8 -> 25        -0.00255
       8 -> 27        -0.00209
       8 -> 28        -0.00180
       8 -> 29         0.00159
       9 -> 16         0.00130
       9 -> 18         0.00831
       9 -> 23         0.00325
       9 -> 24        -0.00392
       9 -> 25        -0.00632
       9 -> 26         0.00368
       9 -> 29        -0.00230
      10 -> 18        -0.01194
      10 -> 19         0.00116
      10 -> 20        -0.00145
      10 -> 21        -0.00157
      10 -> 23        -0.00365
      10 -> 25        -0.00689
      10 -> 26        -0.00336
      10 -> 27         0.00207
      10 -> 30         0.00145
      11 -> 16         0.00251
      11 -> 17        -0.00184
      11 -> 18         0.11043
      11 -> 20        -0.00249
      11 -> 22         0.00323
      11 -> 23         0.00206
      11 -> 27         0.00172
      12 -> 18        -0.00180
      12 -> 19        -0.00700
      12 -> 20         0.00269
      12 -> 21        -0.00695
      12 -> 22         0.01278
      12 -> 23        -0.00165
      12 -> 24        -0.00135
      12 -> 26         0.00209
      12 -> 27         0.00418
      12 -> 28         0.00183
      12 -> 29        -0.00300
      12 -> 30         0.00285
      13 -> 18        -0.00513
      13 -> 19        -0.00771
      13 -> 20        -0.00791
      13 -> 22         0.00645
      13 -> 23         0.00193
      13 -> 25        -0.00173
      13 -> 26        -0.00100
      13 -> 27        -0.00834
      13 -> 30         0.00118
      14 -> 16        -0.07442
      14 -> 17        -0.43978
      14 -> 18         0.00330
      14 -> 21        -0.00198
      14 -> 23        -0.00205
      14 -> 24        -0.00108
      14 -> 27         0.00157
      15 -> 16         0.53000
      15 -> 17        -0.08924
      15 -> 18         0.00659
      15 -> 19        -0.00163
      15 -> 20         0.00188
      15 -> 21         0.00180
      15 -> 22        -0.00276
      15 -> 23        -0.00254
      15 -> 25        -0.00147
      15 -> 28        -0.00292
       1 <- 19         0.00352
       1 <- 20        -0.00239
       1 <- 21        -0.00240
       1 <- 22         0.00253
       1 <- 30         0.00227
       2 <- 24        -0.00598
       2 <- 25         0.00142
       3 <- 21        -0.00182
       3 <- 22         0.00107
       3 <- 23        -0.00703
       3 <- 24         0.00103
       4 <- 19         0.00113
       4 <- 22         0.00100
       4 <- 28         0.00491
       4 <- 29         0.00122
       5 <- 20        -0.00119
       5 <- 23        -0.00103
       5 <- 27         0.00587
       6 <- 19         0.00144
       6 <- 30         0.00151
       8 <- 20         0.00123
       8 <- 23         0.00259
       8 <- 24         0.00224
       8 <- 25        -0.00141
       8 <- 27        -0.00170
       8 <- 28        -0.00188
       8 <- 29         0.00446
       9 <- 18        -0.00134
       9 <- 23         0.00222
       9 <- 24        -0.00450
      10 <- 18         0.00186
      10 <- 21        -0.00130
      10 <- 23        -0.00488
      10 <- 25        -0.00148
      11 <- 16        -0.00243
      11 <- 17         0.00228
      11 <- 18        -0.01348
      12 <- 17         0.00116
      12 <- 19        -0.00187
      12 <- 21        -0.00235
      12 <- 22         0.00444
      12 <- 27         0.00352
      12 <- 28         0.00293
      12 <- 30         0.00125
      13 <- 17        -0.00195
      13 <- 19        -0.00185
      13 <- 20        -0.00220
      13 <- 22         0.00222
      13 <- 25        -0.00108
      13 <- 27        -0.00572
      13 <- 28         0.00157
      14 <- 16        -0.00420
      14 <- 17        -0.02468
      14 <- 18        -0.00220
      14 <- 20        -0.00107
      14 <- 23        -0.00111
      15 <- 16         0.00540
      15 <- 17        -0.00164
      15 <- 18        -0.00357
      15 <- 19        -0.00116
 
 Excited state symmetry could not be determined.
 Excited State   3:      Singlet-?Sym    5.4385 eV  227.98 nm  f=0.3413  <S**2>=0.000
       1 -> 27        -0.00238
       2 -> 18        -0.00152
       2 -> 19         0.00159
       2 -> 20         0.00153
       2 -> 21         0.00558
       2 -> 22         0.00349
       2 -> 26        -0.00211
       3 -> 21         0.00339
       3 -> 22         0.00217
       3 -> 24         0.00238
       3 -> 25        -0.00225
       3 -> 29         0.00176
       4 -> 17         0.00268
       4 -> 19         0.00271
       4 -> 20         0.00493
       4 -> 21        -0.00447
       4 -> 22         0.00355
       4 -> 27         0.00137
       4 -> 30         0.00142
       5 -> 16        -0.00912
       5 -> 19        -0.01400
       5 -> 20         0.00489
       5 -> 21         0.00640
       5 -> 22        -0.00186
       5 -> 28         0.00173
       5 -> 29         0.00116
       5 -> 30        -0.00853
       6 -> 17         0.00372
       6 -> 19         0.00776
       6 -> 20         0.01301
       6 -> 21        -0.00319
       6 -> 25        -0.00149
       6 -> 26        -0.00132
       6 -> 27        -0.00671
       6 -> 28         0.00118
       6 -> 29        -0.00106
       7 -> 17         0.00242
       7 -> 18        -0.00141
       7 -> 19         0.00248
       7 -> 21        -0.00171
       7 -> 22         0.00168
       7 -> 23        -0.02595
       7 -> 24        -0.01519
       7 -> 25         0.01219
       7 -> 26         0.00676
       8 -> 16         0.00338
       8 -> 17         0.00169
       8 -> 18         0.01868
       8 -> 20        -0.00443
       8 -> 21        -0.00991
       8 -> 22         0.00139
       8 -> 23        -0.02297
       8 -> 24         0.02612
       8 -> 25        -0.01403
       8 -> 26         0.02333
       8 -> 27        -0.00115
       8 -> 28        -0.00106
       8 -> 29        -0.00325
       9 -> 16        -0.00360
       9 -> 17         0.00191
       9 -> 18        -0.01151
       9 -> 19         0.00483
       9 -> 20         0.00165
       9 -> 21         0.01198
       9 -> 22         0.00269
       9 -> 23         0.00488
       9 -> 24        -0.01470
       9 -> 25         0.01621
       9 -> 26        -0.02182
       9 -> 27         0.00583
       9 -> 28         0.00668
       9 -> 29        -0.01869
       9 -> 30        -0.00110
      10 -> 16        -0.00167
      10 -> 17         0.00265
      10 -> 18        -0.01011
      10 -> 20         0.00408
      10 -> 21         0.00650
      10 -> 22         0.00248
      10 -> 23         0.01172
      10 -> 24         0.00603
      10 -> 25        -0.02005
      10 -> 26        -0.00838
      10 -> 27        -0.00229
      10 -> 28        -0.00443
      10 -> 29         0.01461
      10 -> 30        -0.00141
      11 -> 16        -0.00234
      11 -> 17         0.00998
      11 -> 20        -0.00168
      11 -> 21        -0.00195
      11 -> 22         0.00189
      11 -> 24         0.00275
      11 -> 25        -0.00361
      11 -> 26         0.00210
      11 -> 28        -0.00160
      11 -> 29         0.00379
      11 -> 30         0.00167
      12 -> 16        -0.02989
      12 -> 17         0.00779
      12 -> 19        -0.02325
      12 -> 20         0.03971
      12 -> 21        -0.01067
      12 -> 22         0.01631
      12 -> 23         0.01089
      12 -> 24        -0.00436
      12 -> 26        -0.00942
      12 -> 27        -0.03016
      12 -> 28        -0.02678
      12 -> 29        -0.00910
      12 -> 30        -0.00925
      13 -> 16         0.08633
      13 -> 17        -0.02475
      13 -> 18         0.00518
      13 -> 19         0.05899
      13 -> 20         0.02002
      13 -> 21        -0.01301
      13 -> 22        -0.00597
      13 -> 23        -0.00388
      13 -> 24         0.00313
      13 -> 25        -0.00310
      13 -> 27        -0.03179
      13 -> 28         0.03102
      13 -> 29         0.00215
      13 -> 30         0.02982
      14 -> 16        -0.48782
      14 -> 17         0.10599
      14 -> 18        -0.01605
      14 -> 19        -0.00611
      14 -> 22         0.00410
      14 -> 23        -0.00325
      14 -> 24        -0.00349
      14 -> 25         0.00528
      14 -> 26         0.00122
      14 -> 27         0.00134
      14 -> 28        -0.00438
      14 -> 30        -0.00280
      15 -> 16         0.10042
      15 -> 17         0.47880
      15 -> 18        -0.00865
      15 -> 19         0.00247
      15 -> 20        -0.00239
      15 -> 23        -0.00727
      15 -> 25         0.00405
      15 -> 26         0.00313
      15 -> 27         0.00229
      15 -> 29        -0.00118
      15 -> 30         0.00109
       1 <- 20         0.00131
       1 <- 27        -0.00356
       1 <- 28         0.00108
       2 <- 19         0.00107
       2 <- 20         0.00112
       2 <- 21         0.00430
       2 <- 22         0.00180
       2 <- 23         0.00295
       2 <- 24        -0.00218
       2 <- 25         0.00113
       2 <- 26        -0.00246
       2 <- 29        -0.00114
       3 <- 21         0.00191
       3 <- 22         0.00104
       3 <- 23         0.00288
       3 <- 24         0.00376
       3 <- 25        -0.00305
       3 <- 29         0.00235
       4 <- 19         0.00184
       4 <- 20         0.00269
       4 <- 21        -0.00252
       4 <- 22         0.00208
       4 <- 30         0.00108
       5 <- 19        -0.00901
       5 <- 20         0.00366
       5 <- 21         0.00416
       5 <- 22        -0.00211
       5 <- 30        -0.00529
       6 <- 19         0.00311
       6 <- 20         0.00565
       6 <- 21        -0.00177
       6 <- 27        -0.00127
       7 <- 23        -0.01062
       7 <- 24        -0.00660
       7 <- 25         0.00403
       7 <- 26         0.00282
       8 <- 20        -0.00134
       8 <- 21        -0.00423
       8 <- 23        -0.01074
       8 <- 24         0.01141
       8 <- 25        -0.00549
       8 <- 26         0.00848
       8 <- 29        -0.00163
       9 <- 19         0.00134
       9 <- 21         0.00396
       9 <- 23         0.00280
       9 <- 24        -0.00618
       9 <- 25         0.00680
       9 <- 26        -0.00846
       9 <- 27         0.00182
       9 <- 28         0.00237
       9 <- 29        -0.00564
      10 <- 21         0.00232
      10 <- 23         0.00521
      10 <- 24         0.00271
      10 <- 25        -0.00831
      10 <- 26        -0.00403
      10 <- 28        -0.00135
      10 <- 29         0.00470
      11 <- 16        -0.00130
      11 <- 25        -0.00219
      12 <- 16        -0.00232
      12 <- 19        -0.00694
      12 <- 20         0.01111
      12 <- 21        -0.00261
      12 <- 22         0.00448
      12 <- 23         0.00284
      12 <- 24        -0.00156
      12 <- 26        -0.00251
      12 <- 27        -0.00999
      12 <- 28        -0.00880
      12 <- 29        -0.00323
      12 <- 30        -0.00356
      13 <- 16         0.00367
      13 <- 19         0.01703
      13 <- 20         0.00414
      13 <- 21        -0.00494
      13 <- 27        -0.01009
      13 <- 28         0.01010
      13 <- 30         0.01048
      14 <- 16         0.08349
      14 <- 17        -0.01816
      15 <- 16        -0.01875
      15 <- 17        -0.08420
      15 <- 18        -0.00128
      15 <- 20        -0.00177
      15 <- 27         0.00140
 
 Excited state symmetry could not be determined.
 Excited State   4:      Singlet-?Sym    5.4927 eV  225.72 nm  f=0.3642  <S**2>=0.000
       1 -> 28         0.00223
       2 -> 19        -0.00156
       2 -> 21        -0.00322
       2 -> 22        -0.00258
       2 -> 23         0.00208
       2 -> 24         0.00102
       2 -> 25        -0.00151
       2 -> 29        -0.00165
       3 -> 18        -0.00208
       3 -> 19         0.00186
       3 -> 21         0.00458
       3 -> 22         0.00393
       3 -> 23        -0.00305
       3 -> 24         0.00253
       3 -> 26         0.00169
       3 -> 29        -0.00114
       4 -> 16        -0.00116
       4 -> 17        -0.00143
       4 -> 18        -0.00149
       4 -> 19         0.00397
       4 -> 20        -0.00689
       4 -> 21        -0.00629
       4 -> 22         0.01103
       4 -> 28         0.00248
       4 -> 30         0.00732
       5 -> 16         0.00218
       5 -> 17         0.00333
       5 -> 19         0.00212
       5 -> 20        -0.00881
       5 -> 21         0.00243
       5 -> 27        -0.00237
       5 -> 30         0.00205
       6 -> 16        -0.00487
       6 -> 19         0.01066
       6 -> 20        -0.00428
       6 -> 21         0.00417
       6 -> 22        -0.00898
       6 -> 23        -0.00181
       6 -> 24         0.00181
       6 -> 25        -0.00102
       6 -> 26         0.00110
       6 -> 27         0.00233
       6 -> 28         0.00490
       6 -> 29         0.00192
       7 -> 16         0.00106
       7 -> 17         0.00239
       7 -> 18        -0.01438
       7 -> 19        -0.00329
       7 -> 20        -0.00173
       7 -> 21        -0.00910
       7 -> 23        -0.01686
       7 -> 24         0.02064
       7 -> 25        -0.01042
       7 -> 26         0.00491
       8 -> 16         0.00352
       8 -> 17        -0.00481
       8 -> 18        -0.00136
       8 -> 19        -0.00360
       8 -> 20         0.00221
       8 -> 21         0.00220
       8 -> 22        -0.00348
       8 -> 23         0.03138
       8 -> 24         0.01496
       8 -> 25        -0.02449
       8 -> 26        -0.01127
       8 -> 27         0.00247
       8 -> 28        -0.00165
       8 -> 29         0.00225
       9 -> 16         0.00476
       9 -> 17        -0.00774
       9 -> 18         0.01182
       9 -> 19        -0.00481
       9 -> 20        -0.00384
       9 -> 21        -0.00315
       9 -> 22        -0.00604
       9 -> 23         0.01678
       9 -> 24        -0.00186
       9 -> 25        -0.01983
       9 -> 26        -0.01299
       9 -> 27         0.00676
       9 -> 28         0.00342
       9 -> 29        -0.01230
       9 -> 30        -0.00121
      10 -> 16        -0.00437
      10 -> 17         0.00316
      10 -> 18        -0.01345
      10 -> 19         0.00265
      10 -> 20        -0.00266
      10 -> 21         0.00366
      10 -> 22         0.00263
      10 -> 23        -0.00993
      10 -> 24         0.01561
      10 -> 25        -0.02131
      10 -> 26         0.01659
      10 -> 27         0.00519
      10 -> 28         0.00731
      10 -> 29        -0.02289
      11 -> 16         0.00990
      11 -> 17         0.00720
      11 -> 18        -0.01803
      11 -> 19         0.00171
      11 -> 22         0.00234
      11 -> 23        -0.01287
      11 -> 24         0.00655
      11 -> 25        -0.00217
      11 -> 26         0.00804
      11 -> 29        -0.00232
      12 -> 16         0.01998
      12 -> 17         0.04467
      12 -> 18        -0.01331
      12 -> 19        -0.01973
      12 -> 20        -0.04184
      12 -> 21        -0.01296
      12 -> 22         0.03219
      12 -> 23        -0.00479
      12 -> 24        -0.00617
      12 -> 25         0.01180
      12 -> 26         0.00818
      12 -> 27         0.02831
      12 -> 28        -0.02531
      12 -> 29        -0.00372
      12 -> 30         0.03177
      13 -> 16        -0.01378
      13 -> 17        -0.09414
      13 -> 19        -0.01212
      13 -> 20         0.02923
      13 -> 21        -0.02531
      13 -> 22         0.02896
      13 -> 23         0.00866
      13 -> 24        -0.00269
      13 -> 25        -0.00416
      13 -> 26        -0.00219
      13 -> 27        -0.03400
      13 -> 28        -0.02583
      13 -> 29        -0.01164
      13 -> 30         0.01092
      14 -> 16         0.10263
      14 -> 17         0.52421
      14 -> 18        -0.01443
      14 -> 19        -0.00208
      14 -> 20        -0.01214
      14 -> 21         0.00295
      14 -> 23        -0.00563
      14 -> 24         0.00263
      14 -> 26         0.00608
      14 -> 27         0.01207
      14 -> 30         0.00115
      15 -> 16         0.43539
      15 -> 17        -0.10369
      15 -> 18         0.01589
      15 -> 19         0.01011
      15 -> 20        -0.00732
      15 -> 21        -0.00600
      15 -> 22         0.00434
      15 -> 23        -0.00116
      15 -> 24         0.00241
      15 -> 25        -0.00302
      15 -> 26         0.00274
      15 -> 27         0.00101
      15 -> 28         0.00254
      15 -> 30         0.00805
       1 <- 22        -0.00133
       1 <- 28         0.00343
       1 <- 29         0.00139
       2 <- 19        -0.00144
       2 <- 21        -0.00170
       2 <- 22        -0.00178
       2 <- 23         0.00333
       2 <- 24         0.00320
       2 <- 25        -0.00297
       2 <- 27         0.00128
       2 <- 29        -0.00278
       3 <- 19         0.00104
       3 <- 21         0.00203
       3 <- 22         0.00238
       3 <- 23        -0.00376
       3 <- 24         0.00323
       3 <- 25        -0.00148
       3 <- 26         0.00179
       3 <- 29        -0.00184
       4 <- 19         0.00306
       4 <- 20        -0.00454
       4 <- 21        -0.00469
       4 <- 22         0.00715
       4 <- 30         0.00488
       5 <- 19         0.00124
       5 <- 20        -0.00462
       5 <- 30         0.00134
       6 <- 19         0.00423
       6 <- 20        -0.00146
       6 <- 21         0.00179
       6 <- 22        -0.00411
       7 <- 21        -0.00335
       7 <- 23        -0.00637
       7 <- 24         0.00837
       7 <- 25        -0.00403
       7 <- 26         0.00113
       8 <- 19        -0.00121
       8 <- 22        -0.00114
       8 <- 23         0.01324
       8 <- 24         0.00751
       8 <- 25        -0.00914
       8 <- 26        -0.00422
       8 <- 27         0.00146
       9 <- 19        -0.00211
       9 <- 21        -0.00115
       9 <- 22        -0.00238
       9 <- 23         0.00743
       9 <- 25        -0.00837
       9 <- 26        -0.00547
       9 <- 27         0.00272
       9 <- 29        -0.00376
      10 <- 22         0.00103
      10 <- 23        -0.00350
      10 <- 24         0.00721
      10 <- 25        -0.00870
      10 <- 26         0.00680
      10 <- 27         0.00155
      10 <- 28         0.00200
      10 <- 29        -0.00739
      11 <- 17        -0.00157
      11 <- 18         0.00211
      11 <- 21        -0.00121
      11 <- 23        -0.00167
      11 <- 24         0.00106
      11 <- 26         0.00161
      12 <- 17         0.00201
      12 <- 18        -0.00148
      12 <- 19        -0.00357
      12 <- 20        -0.01265
      12 <- 21        -0.00452
      12 <- 22         0.01041
      12 <- 24        -0.00207
      12 <- 25         0.00326
      12 <- 26         0.00224
      12 <- 27         0.00877
      12 <- 28        -0.00880
      12 <- 29        -0.00123
      12 <- 30         0.01125
      13 <- 16        -0.00104
      13 <- 17        -0.00321
      13 <- 19        -0.00241
      13 <- 20         0.00738
      13 <- 21        -0.00746
      13 <- 22         0.00850
      13 <- 23         0.00236
      13 <- 25        -0.00122
      13 <- 27        -0.01044
      13 <- 28        -0.00831
      13 <- 29        -0.00381
      13 <- 30         0.00401
      14 <- 16        -0.01828
      14 <- 17        -0.08171
      14 <- 18         0.00195
      15 <- 16        -0.08723
      15 <- 17         0.01690
      15 <- 19         0.00308
      15 <- 28         0.00124
 
 Excited state symmetry could not be determined.
 Excited State   5:      Singlet-?Sym    5.8990 eV  210.18 nm  f=0.0104  <S**2>=0.000
       1 -> 16        -0.00288
       1 -> 17        -0.00258
       2 -> 18         0.00870
       3 -> 18        -0.00417
       4 -> 16        -0.01292
       4 -> 17        -0.01187
       4 -> 18        -0.00110
       4 -> 22         0.00103
       5 -> 16         0.03454
       5 -> 17         0.00556
       5 -> 19        -0.00226
       5 -> 20         0.00121
       5 -> 21         0.00116
       5 -> 30        -0.00121
       6 -> 16        -0.02384
       6 -> 17        -0.01872
       6 -> 19         0.00161
       6 -> 20         0.00179
       7 -> 16         0.00203
       7 -> 17        -0.00261
       7 -> 18         0.04840
       7 -> 19         0.00137
       7 -> 22         0.00158
       7 -> 23        -0.00424
       7 -> 24        -0.00350
       7 -> 25         0.00215
       7 -> 26         0.00117
       8 -> 16        -0.01196
       8 -> 18        -0.07836
       8 -> 20         0.00134
       8 -> 21        -0.00199
       8 -> 22        -0.00248
       8 -> 23        -0.00535
       8 -> 24         0.00404
       8 -> 25        -0.00194
       8 -> 26         0.00260
       9 -> 16         0.00767
       9 -> 17         0.00452
       9 -> 18         0.09497
       9 -> 19         0.00206
       9 -> 20        -0.00136
       9 -> 21         0.00357
       9 -> 22         0.00375
       9 -> 23         0.00134
       9 -> 24        -0.00102
       9 -> 25         0.00257
       9 -> 26        -0.00299
       9 -> 27         0.00157
       9 -> 29        -0.00250
      10 -> 16        -0.00235
      10 -> 17        -0.00374
      10 -> 18        -0.00328
      10 -> 22        -0.00105
      10 -> 23         0.00207
      10 -> 24        -0.00263
      10 -> 25        -0.00259
      10 -> 28         0.00127
      10 -> 29         0.00167
      11 -> 16        -0.00503
      11 -> 18        -0.00992
      11 -> 19         0.00340
      11 -> 20         0.00126
      11 -> 21         0.00472
      11 -> 22         0.00663
      11 -> 23        -0.00640
      11 -> 24         0.01643
      11 -> 25        -0.00313
      11 -> 26        -0.00100
      11 -> 27        -0.00136
      11 -> 28        -0.00316
      11 -> 29         0.00514
      12 -> 16        -0.14209
      12 -> 17        -0.01570
      12 -> 18         0.01519
      12 -> 19        -0.00253
      12 -> 20         0.00597
      12 -> 21        -0.00158
      12 -> 22         0.00297
      12 -> 23         0.00224
      12 -> 24        -0.00114
      12 -> 26        -0.00193
      12 -> 27        -0.00475
      12 -> 28        -0.00441
      12 -> 29        -0.00166
      12 -> 30        -0.00117
      13 -> 16        -0.66425
      13 -> 17         0.08116
      13 -> 18         0.01067
      13 -> 19         0.00944
      13 -> 20         0.00216
      13 -> 21        -0.00296
      13 -> 23         0.00102
      13 -> 25         0.00113
      13 -> 27        -0.00529
      13 -> 28         0.00621
      13 -> 29         0.00125
      13 -> 30         0.00359
      14 -> 16        -0.05708
      14 -> 17         0.01264
      14 -> 18         0.00144
      14 -> 19        -0.03459
      14 -> 20        -0.00376
      14 -> 21         0.01910
      14 -> 22        -0.00890
      14 -> 23        -0.00597
      14 -> 24        -0.00247
      14 -> 25         0.00240
      14 -> 27         0.00490
      14 -> 28        -0.00643
      14 -> 30        -0.01158
      15 -> 16         0.01298
      15 -> 17         0.05677
      15 -> 18         0.00542
      15 -> 19        -0.00453
      15 -> 20        -0.01528
      15 -> 21        -0.01940
      15 -> 22         0.03382
      15 -> 23         0.00490
      15 -> 24         0.00187
      15 -> 25        -0.00270
      15 -> 27        -0.01354
      15 -> 28         0.00738
      15 -> 29        -0.00120
      15 -> 30         0.01082
       4 <- 17         0.00138
       5 <- 19        -0.00129
       7 <- 23        -0.00151
       7 <- 24        -0.00105
       8 <- 18         0.00119
       8 <- 23        -0.00157
       8 <- 24         0.00175
       8 <- 26         0.00121
       9 <- 18        -0.00143
       9 <- 21         0.00105
       9 <- 25         0.00113
       9 <- 26        -0.00142
      10 <- 25        -0.00137
      11 <- 19         0.00214
      11 <- 20         0.00129
      11 <- 21         0.00380
      11 <- 22         0.00254
      11 <- 24         0.00251
      11 <- 26        -0.00155
      11 <- 29         0.00318
      12 <- 20         0.00168
      12 <- 27        -0.00146
      12 <- 28        -0.00102
      13 <- 16         0.00284
      13 <- 19         0.00203
      13 <- 27        -0.00125
      13 <- 28         0.00128
      13 <- 30         0.00140
      14 <- 16         0.01037
      14 <- 17        -0.00214
      14 <- 19        -0.01089
      14 <- 20        -0.00535
      14 <- 21         0.00332
      14 <- 22         0.00105
      14 <- 27         0.00483
      14 <- 28        -0.00462
      14 <- 30        -0.00280
      15 <- 16        -0.00311
      15 <- 17        -0.01444
      15 <- 18        -0.00164
      15 <- 19        -0.00650
      15 <- 21        -0.00591
      15 <- 22         0.01068
      15 <- 23         0.00210
      15 <- 27        -0.00545
      15 <- 28        -0.00408
      15 <- 29        -0.00227
      15 <- 30         0.00208
 SavETr:  write IOETrn=   770 NScale= 10 NData=  16 NLR=1 NState=    5 LETran=     100.

 **********************************************************************

            Population analysis using the SCF Density.

 **********************************************************************

 Alpha  occ. eigenvalues --   -1.44329  -1.16151  -1.14697  -0.85770  -0.83760
 Alpha  occ. eigenvalues --   -0.65703  -0.59280  -0.56609  -0.52367  -0.51670
 Alpha  occ. eigenvalues --   -0.49239  -0.44029  -0.43192  -0.35842  -0.35156
 Alpha virt. eigenvalues --    0.01739   0.02328   0.10953   0.14367   0.14559
 Alpha virt. eigenvalues --    0.15266   0.15412   0.16774   0.17068   0.18724
 Alpha virt. eigenvalues --    0.18922   0.20366   0.20949   0.21144   0.22538
          Condensed to atoms (all electrons):
               1          2          3          4          5          6
     1  C    4.137073   0.000000   0.000000   0.000000   0.000000   0.000000
     2  C    0.000000   4.139829   0.000000   0.000000   0.000000   0.000000
     3  C    0.000000   0.000000   4.127524   0.000000   0.000000   0.000000
     4  C    0.000000   0.000000   0.000000   4.133213   0.000000   0.000000
     5  C    0.000000   0.000000   0.000000   0.000000   4.126910   0.000000
     6  C    0.000000   0.000000   0.000000   0.000000   0.000000   4.116576
     7  H    0.000000   0.000000   0.000000   0.000000   0.000000   0.000000
     8  H    0.000000   0.000000   0.000000   0.000000   0.000000   0.000000
     9  H    0.000000   0.000000   0.000000   0.000000   0.000000   0.000000
    10  H    0.000000   0.000000   0.000000   0.000000   0.000000   0.000000
    11  H    0.000000   0.000000   0.000000   0.000000   0.000000   0.000000
    12  H    0.000000   0.000000   0.000000   0.000000   0.000000   0.000000
               7          8          9         10         11         12
     1  C    0.000000   0.000000   0.000000   0.000000   0.000000   0.000000
     2  C    0.000000   0.000000   0.000000   0.000000   0.000000   0.000000
     3  C    0.000000   0.000000   0.000000   0.000000   0.000000   0.000000
     4  C    0.000000   0.000000   0.000000   0.000000   0.000000   0.000000
     5  C    0.000000   0.000000   0.000000   0.000000   0.000000   0.000000
     6  C    0.000000   0.000000   0.000000   0.000000   0.000000   0.000000
     7  H    0.866461   0.000000   0.000000   0.000000   0.000000   0.000000
     8  H    0.000000   0.871529   0.000000   0.000000   0.000000   0.000000
     9  H    0.000000   0.000000   0.866961   0.000000   0.000000   0.000000
    10  H    0.000000   0.000000   0.000000   0.866843   0.000000   0.000000
    11  H    0.000000   0.000000   0.000000   0.000000   0.876322   0.000000
    12  H    0.000000   0.000000   0.000000   0.000000   0.000000   0.870759
 Mulliken charges:
               1
     1  C   -0.137073
     2  C   -0.139829
     3  C   -0.127524
     4  C   -0.133213
     5  C   -0.126910
     6  C   -0.116576
     7  H    0.133539
     8  H    0.128471
     9  H    0.133039
    10  H    0.133157
    11  H    0.123678
    12  H    0.129241
 Sum of Mulliken charges =   0.00000
 Mulliken charges with hydrogens summed into heavy atoms:
               1
     1  C   -0.003534
     2  C   -0.011358
     3  C    0.005514
     4  C   -0.000055
     5  C   -0.003232
     6  C    0.012665
 Charge=              0.0000 electrons
 Dipole moment (field-independent basis, Debye):
    X=              0.0767    Y=             -0.0441    Z=             -0.0876  Tot=              0.1245
 N-N= 1.197244091108D+02 E-N=-1.707482095288D+02  KE=-4.785635047161D+01

 Test job not archived.
 1\1\GINC-BHC0189\SP\RAM1 TD-Full\STO-5G\C6H6\BWEIGHT\21-Mar-2025\0\\# 
 AM1/STO-5G SCF=XQC TD=(read,singlets,nstates=5,root=1) nosym IOp(9/40=
 3) guess=read\\MD Step 23\\0,1\C,0,-0.7137239,-1.21039869,-0.01945137\
 C,0,0.66930511,-1.21422394,0.03140829\C,0,1.41028027,0.0117155,-0.0155
 5069\C,0,0.69059512,1.22175966,-0.0101753\C,0,-0.67419703,1.17788394,0
 .01822948\C,0,-1.39083324,0.00966423,0.0065479\H,0,-1.17030935,-2.2200
 7231,-0.08092433\H,0,1.20676727,-2.18796217,0.07016265\H,0,2.49889411,
 0.03677423,0.0013038\H,0,1.20307854,2.20180128,0.01107457\H,0,-1.19697
 67,2.16126272,-0.02826519\H,0,-2.45109262,-0.06532292,-0.0904559\\Vers
 ion=ES64L-G16RevC.01\HF=0.0441827\RMSD=7.536e-09\PG=C01 [X(C6H6)]\\@


 IF I AM NOT FOR MYSELF, WHO WILL BE?
 BUT IF I AM ONLY FOR MYSELF, WHAT AM I?
 THOUGH A SEEKER SINCE MY BIRTH,
 HERE IS ALL I'VE LEARNED ON EARTH,
 THIS IS THE GIST OF WHAT I KNOW:
 GIVE ADVICE AND BUY A FOE.

 PRESSED FOR RULES AND VERITIES,
 ALL I RECOLLECT ARE THESE:
 FEED A COLD TO STARVE A FEVER,
 ARGUE WITH NO TRUE-BELIEVER.
 THINK-TOO-LONG IS NEVER-ACT,
 SCRATCH A MYTH AND FIND A FACT.

 STITCH IN TIME SAVES TWENTY STITCHES,
 GIVE THE RICH TO PLEASE THEM, RICHES.
 GIVE TO LOVE YOU HEARTH AND HALL,
 BUT DO NOT GIVE ADVICE AT ALL.

                                  -- HILLEL
 Job cpu time:       0 days  0 hours  0 minutes  1.1 seconds.
 Elapsed time:       0 days  0 hours  0 minutes  0.8 seconds.
 File lengths (MBytes):  RWF=     34 Int=      0 D2E=      0 Chk=      2 Scr=      1
 Normal termination of Gaussian 16 at Fri Mar 21 15:03:20 2025.
