 Entering Gaussian System, Link 0=g16
 Initial command:
 /software/gaussian/g16-c01/avx2/g16/l1.exe "/local_scratch/28554203/Gau-33465.inp" -scrdir="/local_scratch/28554203/"
 Entering Link 1 = /software/gaussian/g16-c01/avx2/g16/l1.exe PID=     33470.
  
 Copyright (c) 1988-2019, Gaussian, Inc.  All Rights Reserved.
  
 This is part of the Gaussian(R) 16 program.  It is based on
 the Gaussian(R) 09 system (copyright 2009, Gaussian, Inc.),
 the Gaussian(R) 03 system (copyright 2003, Gaussian, Inc.),
 the Gaussian(R) 98 system (copyright 1998, Gaussian, Inc.),
 the Gaussian(R) 94 system (copyright 1995, Gaussian, Inc.),
 the Gaussian 92(TM) system (copyright 1992, Gaussian, Inc.),
 the Gaussian 90(TM) system (copyright 1990, Gaussian, Inc.),
 the Gaussian 88(TM) system (copyright 1988, Gaussian, Inc.),
 the Gaussian 86(TM) system (copyright 1986, Carnegie Mellon
 University), and the Gaussian 82(TM) system (copyright 1983,
 Carnegie Mellon University). Gaussian is a federally registered
 trademark of Gaussian, Inc.
  
 This software contains proprietary and confidential information,
 including trade secrets, belonging to Gaussian, Inc.
  
 This software is provided under written license and may be
 used, copied, transmitted, or stored only in accord with that
 written license.
  
 The following legend is applicable only to US Government
 contracts under FAR:
  
                    RESTRICTED RIGHTS LEGEND
  
 Use, reproduction and disclosure by the US Government is
 subject to restrictions as set forth in subparagraphs (a)
 and (c) of the Commercial Computer Software - Restricted
 Rights clause in FAR 52.227-19.
  
 Gaussian, Inc.
 340 Quinnipiac St., Bldg. 40, Wallingford CT 06492
  
  
 ---------------------------------------------------------------
 Warning -- This program may not be used in any manner that
 competes with the business of Gaussian, Inc. or will provide
 assistance to any competitor of Gaussian, Inc.  The licensee
 of this program is prohibited from giving any competitor of
 Gaussian, Inc. access to this program.  By using this program,
 the user acknowledges that Gaussian, Inc. is engaged in the
 business of creating and licensing software in the field of
 computational chemistry and represents and warrants to the
 licensee that it is not a competitor of Gaussian, Inc. and that
 it will not use this program in any manner prohibited above.
 ---------------------------------------------------------------
  

 Cite this work as:
 Gaussian 16, Revision C.01,
 M. J. Frisch, G. W. Trucks, H. B. Schlegel, G. E. Scuseria, 
 M. A. Robb, J. R. Cheeseman, G. Scalmani, V. Barone, 
 G. A. Petersson, H. Nakatsuji, X. Li, M. Caricato, A. V. Marenich, 
 J. Bloino, B. G. Janesko, R. Gomperts, B. Mennucci, H. P. Hratchian, 
 J. V. Ortiz, A. F. Izmaylov, J. L. Sonnenberg, D. Williams-Young, 
 F. Ding, F. Lipparini, F. Egidi, J. Goings, B. Peng, A. Petrone, 
 T. Henderson, D. Ranasinghe, V. G. Zakrzewski, J. Gao, N. Rega, 
 G. Zheng, W. Liang, M. Hada, M. Ehara, K. Toyota, R. Fukuda, 
 J. Hasegawa, M. Ishida, T. Nakajima, Y. Honda, O. Kitao, H. Nakai, 
 T. Vreven, K. Throssell, J. A. Montgomery, Jr., J. E. Peralta, 
 F. Ogliaro, M. J. Bearpark, J. J. Heyd, E. N. Brothers, K. N. Kudin, 
 V. N. Staroverov, T. A. Keith, R. Kobayashi, J. Normand, 
 K. Raghavachari, A. P. Rendell, J. C. Burant, S. S. Iyengar, 
 J. Tomasi, M. Cossi, J. M. Millam, M. Klene, C. Adamo, R. Cammi, 
 J. W. Ochterski, R. L. Martin, K. Morokuma, O. Farkas, 
 J. B. Foresman, and D. J. Fox, Gaussian, Inc., Wallingford CT, 2019.
 
 ******************************************
 Gaussian 16:  ES64L-G16RevC.01  3-Jul-2019
                21-Mar-2025 
 ******************************************
 %oldchk=../GS_OLD/geometry.chk
 %chk=geometry.chk
 %nprocshared=1
 Will use up to    1 processors via shared memory.
 %mem=2GB
 Copying data from "../GS_OLD/geometry.chk" to current chk file "geometry.chk"
 IOpt=  2 FromEx=T IUOpen= 4 IOptOp= 5 NList=   0 IFRang= 0 IUIn= 4 IUOut= 2.
 -------------------------------------------
 # AM1/STO-5G SCF=XQC FORCE nosym guess=read
 -------------------------------------------
 1/10=7,30=1,38=1/1,3;
 2/12=2,15=1,17=6,18=5,40=1/2;
 3/5=2,6=5,25=1,41=700000,71=1,116=-2/1,2,3;
 4/5=1,35=1/1;
 5/5=2,8=3,13=1,35=1,38=6/2,8;
 6/7=2,8=2,9=2,10=2,28=1/1;
 7/29=1,30=1/1,2,3,16;
 1/10=7,30=1/3;
 99//99;
 ----------
 MD Step 25
 ----------
 Symbolic Z-matrix:
 Charge =  0 Multiplicity = 1
 C                    -0.67422  -1.17621   0.01885 
 C                     0.72612  -1.23255  -0.00962 
 C                     1.38045   0.01066   0.01147 
 C                     0.69462   1.21433  -0.02268 
 C                    -0.71579   1.17099  -0.02031 
 C                    -1.41257   0.01982  -0.00411 
 H                    -1.17746  -2.12581   0.16668 
 H                     1.26904  -2.19103  -0.02968 
 H                     2.45911  -0.03566   0.2056 
 H                     1.14937   2.1859    0.17336 
 H                    -1.2431    2.15166   0.09182 
 H                    -2.4896   -0.02048  -0.08008 
 

 GradGradGradGradGradGradGradGradGradGradGradGradGradGradGradGradGradGrad
 Berny optimization.
 Initialization pass.
 Trust Radius=3.00D-01 FncErr=1.00D-07 GrdErr=1.00D-07 EigMax=2.50D+02 EigMin=1.00D-04
 Number of steps in this run=      2 maximum allowed number of steps=      2.
 GradGradGradGradGradGradGradGradGradGradGradGradGradGradGradGradGradGrad

                          Input orientation:                          
 ---------------------------------------------------------------------
 Center     Atomic      Atomic             Coordinates (Angstroms)
 Number     Number       Type             X           Y           Z
 ---------------------------------------------------------------------
      1          6           0       -0.674216   -1.176205    0.018852
      2          6           0        0.726125   -1.232546   -0.009623
      3          6           0        1.380452    0.010656    0.011466
      4          6           0        0.694622    1.214329   -0.022678
      5          6           0       -0.715790    1.170989   -0.020312
      6          6           0       -1.412565    0.019823   -0.004106
      7          1           0       -1.177456   -2.125806    0.166684
      8          1           0        1.269042   -2.191035   -0.029679
      9          1           0        2.459109   -0.035657    0.205605
     10          1           0        1.149366    2.185904    0.173358
     11          1           0       -1.243098    2.151662    0.091823
     12          1           0       -2.489598   -0.020479   -0.080085
 ---------------------------------------------------------------------
                    Distance matrix (angstroms):
                    1          2          3          4          5
     1  C    0.000000
     2  C    1.401763   0.000000
     3  C    2.372837   1.405041   0.000000
     4  C    2.755013   2.447113   1.385770   0.000000
     5  C    2.347889   2.802894   2.396166   1.411080   0.000000
     6  C    1.405763   2.478397   2.793076   2.422277   1.345713
     7  H    1.084825   2.110122   3.336383   3.833671   3.334210
     8  H    2.192826   1.101754   2.204891   3.453478   3.904209
     9  H    3.339679   2.117097   1.096967   2.174395   3.403971
    10  H    3.827937   3.449408   2.193471   1.090496   2.132221
    11  H    3.376929   3.916758   3.387238   2.155565   1.119083
    12  H    2.154322   3.437287   3.871258   3.415743   2.137653
                    6          7          8          9         10
     6  C    0.000000
     7  H    2.165218   0.000000
     8  H    3.475567   2.455232   0.000000
     9  H    3.877747   4.194621   2.473312   0.000000
    10  H    3.359597   4.899488   4.383280   2.579109   0.000000
    11  H    2.140715   4.278627   5.018429   4.301587   2.394098
    12  H    1.080461   2.492993   4.340648   4.956970   4.263146
                   11         12
    11  H    0.000000
    12  H    2.510281   0.000000
 Symmetry turned off by external request.
 Stoichiometry    C6H6
 Framework group  C1[X(C6H6)]
 Deg. of freedom    30
 Full point group                 C1      NOp   1
 Rotational constants (GHZ):           5.8361939           5.5957810           2.8608867
 Standard basis: VSTO-5G (5D, 7F)
    30 basis functions,   180 primitive gaussians,    30 cartesian basis functions
    15 alpha electrons       15 beta electrons
       nuclear repulsion energy       119.8186225886 Hartrees.
 Integral buffers will be    131072 words long.
 Regular integral format.
 Two-electron integral symmetry is turned off.
 Do NDO integrals.
 One-electron integrals computed using PRISM.
 NBasis=    30 RedAO= F EigKep=  0.00D+00  NBF=    30
 NBsUse=    30 1.00D-04 EigRej=  0.00D+00 NBFU=    30
 Initial guess from the checkpoint file:  "geometry.chk"
 B after Tr=     0.001396    0.000235    0.001237
         Rot=    1.000000    0.000071   -0.000028    0.000122 Ang=   0.02 deg.
 Keep J ints in memory in canonical form, NReq=861816.
 Overlap will be assumed to be unity.
 Requested convergence on RMS density matrix=1.00D-08 within  32 cycles.
 Requested convergence on MAX density matrix=1.00D-06.
 Requested convergence on             energy=1.00D-06.
 No special actions if energy rises.
 SCF Done:  E(RAM1) =  0.473738173066E-01 A.U. after   12 cycles
            NFock= 11  Conv=0.56D-08     -V/T= 1.0010
 QCSCF skips out because SCF is already converged.

 **********************************************************************

            Population analysis using the SCF Density.

 **********************************************************************

 Alpha  occ. eigenvalues --   -1.44493  -1.16425  -1.14787  -0.85263  -0.84410
 Alpha  occ. eigenvalues --   -0.65836  -0.59255  -0.56691  -0.52612  -0.51911
 Alpha  occ. eigenvalues --   -0.49119  -0.43876  -0.43361  -0.35850  -0.35139
 Alpha virt. eigenvalues --    0.01718   0.02227   0.10694   0.14437   0.14660
 Alpha virt. eigenvalues --    0.15059   0.15719   0.16949   0.17163   0.18607
 Alpha virt. eigenvalues --    0.18984   0.20549   0.20810   0.21026   0.22495
          Condensed to atoms (all electrons):
               1          2          3          4          5          6
     1  C    4.133180   0.000000   0.000000   0.000000   0.000000   0.000000
     2  C    0.000000   4.136947   0.000000   0.000000   0.000000   0.000000
     3  C    0.000000   0.000000   4.124913   0.000000   0.000000   0.000000
     4  C    0.000000   0.000000   0.000000   4.130319   0.000000   0.000000
     5  C    0.000000   0.000000   0.000000   0.000000   4.131084   0.000000
     6  C    0.000000   0.000000   0.000000   0.000000   0.000000   4.122904
     7  H    0.000000   0.000000   0.000000   0.000000   0.000000   0.000000
     8  H    0.000000   0.000000   0.000000   0.000000   0.000000   0.000000
     9  H    0.000000   0.000000   0.000000   0.000000   0.000000   0.000000
    10  H    0.000000   0.000000   0.000000   0.000000   0.000000   0.000000
    11  H    0.000000   0.000000   0.000000   0.000000   0.000000   0.000000
    12  H    0.000000   0.000000   0.000000   0.000000   0.000000   0.000000
               7          8          9         10         11         12
     1  C    0.000000   0.000000   0.000000   0.000000   0.000000   0.000000
     2  C    0.000000   0.000000   0.000000   0.000000   0.000000   0.000000
     3  C    0.000000   0.000000   0.000000   0.000000   0.000000   0.000000
     4  C    0.000000   0.000000   0.000000   0.000000   0.000000   0.000000
     5  C    0.000000   0.000000   0.000000   0.000000   0.000000   0.000000
     6  C    0.000000   0.000000   0.000000   0.000000   0.000000   0.000000
     7  H    0.881002   0.000000   0.000000   0.000000   0.000000   0.000000
     8  H    0.000000   0.857388   0.000000   0.000000   0.000000   0.000000
     9  H    0.000000   0.000000   0.877202   0.000000   0.000000   0.000000
    10  H    0.000000   0.000000   0.000000   0.864168   0.000000   0.000000
    11  H    0.000000   0.000000   0.000000   0.000000   0.877136   0.000000
    12  H    0.000000   0.000000   0.000000   0.000000   0.000000   0.863756
 Mulliken charges:
               1
     1  C   -0.133180
     2  C   -0.136947
     3  C   -0.124913
     4  C   -0.130319
     5  C   -0.131084
     6  C   -0.122904
     7  H    0.118998
     8  H    0.142612
     9  H    0.122798
    10  H    0.135832
    11  H    0.122864
    12  H    0.136244
 Sum of Mulliken charges =   0.00000
 Mulliken charges with hydrogens summed into heavy atoms:
               1
     1  C   -0.014183
     2  C    0.005665
     3  C   -0.002115
     4  C    0.005513
     5  C   -0.008220
     6  C    0.013339
 Charge=              0.0000 electrons
 Dipole moment (field-independent basis, Debye):
    X=             -0.0005    Y=             -0.0486    Z=              0.3659  Tot=              0.3691
 N-N= 1.198186225886D+02 E-N=-1.708995720583D+02  KE=-4.786238221114D+01
 Calling FoFJK, ICntrl=      2127 FMM=F ISym2X=0 I1Cent= 0 IOpClX= 0 NMat=1 NMatS=1 NMatT=0.
 -------------------------------------------------------------------
 Center     Atomic                   Forces (Hartrees/Bohr)
 Number     Number              X              Y              Z
 -------------------------------------------------------------------
      1        6           0.011047323   -0.017783954    0.002933979
      2        6          -0.025021478    0.022357702   -0.001674015
      3        6           0.016060131   -0.006868722    0.004846484
      4        6          -0.016670411   -0.013907309    0.016270719
      5        6           0.018724823    0.066629339    0.003975490
      6        6           0.004568840   -0.047390331   -0.008183899
      7        1          -0.011053026   -0.009570838   -0.003943056
      8        1          -0.001811604    0.004973210    0.001871394
      9        1           0.005816167    0.006255134   -0.006748190
     10        1           0.009421085    0.002900665   -0.007209504
     11        1           0.002718701   -0.007830667   -0.006393012
     12        1          -0.013800552    0.000235771    0.004253609
 -------------------------------------------------------------------
 Cartesian Forces:  Max     0.066629339 RMS     0.017180867

 GradGradGradGradGradGradGradGradGradGradGradGradGradGradGradGradGradGrad
 Berny optimization.
 Search for a local minimum.
 Step number   1 out of a maximum of    2
 All quantities printed in internal units (Hartrees-Bohrs-Radians)
 Second derivative matrix not updated -- first step.
 ITU=  0
     Eigenvalues ---    0.01551   0.01670   0.03305   0.04271   0.06546
     Eigenvalues ---    0.06722   0.06838   0.07118   0.07167   0.09332
     Eigenvalues ---    0.09559   0.11428   0.11872   0.16452   0.18303
     Eigenvalues ---    0.27731   0.29113   0.30716   0.41264   0.41998
     Eigenvalues ---    0.44808   0.64927   0.69239   0.97984   1.07390
     Eigenvalues ---    1.18326   1.22928   1.47128   1.57106   1.66610
 Quadratic step=4.939D-01 exceeds max=3.000D-01 adjusted using Lamda=-3.436D-02.
 Angle between NR and scaled steps=  15.34 degrees.
 Angle between quadratic step and forces=  56.20 degrees.
 Linear search not attempted -- first point.
 B after Tr=    -0.000958   -0.000789    0.012817
         Rot=    0.999998   -0.001128    0.001396   -0.000131 Ang=  -0.21 deg.
 Variable       Old X    -DE/DX   Delta X   Delta X   Delta X     New X
                                 (Linear)    (Quad)   (Total)
    X1       -1.27408   0.01105   0.00000  -0.02113  -0.02157  -1.29566
    Y1       -2.22271  -0.01778   0.00000  -0.06981  -0.07102  -2.29372
    Z1        0.03563   0.00293   0.00000   0.00138   0.00541   0.04104
    X2        1.37218  -0.02502   0.00000  -0.04264  -0.04301   1.32916
    Y2       -2.32917   0.02236   0.00000   0.04117   0.04072  -2.28846
    Z2       -0.01818  -0.00167   0.00000   0.02376   0.03513   0.01695
    X3        2.60868   0.01606   0.00000   0.02020   0.01906   2.62774
    Y3        0.02014  -0.00687   0.00000   0.00931   0.00908   0.02922
    Z3        0.02167   0.00485   0.00000   0.03437   0.05459   0.07626
    X4        1.31265  -0.01667   0.00000   0.00362   0.00193   1.31457
    Y4        2.29475  -0.01391   0.00000   0.00056   0.00001   2.29476
    Z4       -0.04286   0.01627   0.00000   0.08482   0.10649   0.06363
    X5       -1.35265   0.01872   0.00000   0.01214   0.01063  -1.34202
    Y5        2.21285   0.06663   0.00000   0.05718   0.05607   2.26892
    Z5       -0.03838   0.00398   0.00000   0.02431   0.03851   0.00012
    X6       -2.66936   0.00457   0.00000   0.01411   0.01323  -2.65613
    Y6        0.03746  -0.04739   0.00000  -0.04967  -0.05110  -0.01364
    Z6       -0.00776  -0.00818   0.00000  -0.01508  -0.00971  -0.01747
    X7       -2.22507  -0.01105   0.00000  -0.07004  -0.07057  -2.29564
    Y7       -4.01719  -0.00957   0.00000  -0.08625  -0.08817  -4.10536
    Z7        0.31499  -0.00394   0.00000  -0.07260  -0.07545   0.23954
    X8        2.39814  -0.00181   0.00000  -0.02616  -0.02593   2.37221
    Y8       -4.14046   0.00497   0.00000   0.06094   0.06087  -4.07958
    Z8       -0.05609   0.00187   0.00000   0.01374   0.02398  -0.03211
    X9        4.64704   0.00582   0.00000   0.05800   0.05627   4.70331
    Y9       -0.06738   0.00626   0.00000   0.04902   0.04884  -0.01854
    Z9        0.38854  -0.00675   0.00000  -0.11611  -0.09019   0.29834
   X10        2.17199   0.00942   0.00000   0.09244   0.08968   2.26166
   Y10        4.13076   0.00290   0.00000   0.00540   0.00463   4.13539
   Z10        0.32760  -0.00721   0.00000  -0.07899  -0.05052   0.27708
   X11       -2.34911   0.00272   0.00000  -0.00252  -0.00483  -2.35394
   Y11        4.06605  -0.00783   0.00000   0.02679   0.02515   4.09121
   Z11        0.17352  -0.00639   0.00000  -0.07516  -0.05968   0.11384
   X12       -4.70466  -0.01380   0.00000  -0.02431  -0.02487  -4.72953
   Y12       -0.03870   0.00024   0.00000  -0.03337  -0.03510  -0.07380
   Z12       -0.15134   0.00425   0.00000   0.02199   0.02143  -0.12990
         Item               Value     Threshold  Converged?
 Maximum Force            0.066629     0.000450     NO 
 RMS     Force            0.017181     0.000300     NO 
 Maximum Displacement     0.106491     0.001800     NO 
 RMS     Displacement     0.049131     0.001200     NO 
 Predicted change in Energy=-1.014805D-02
 GradGradGradGradGradGradGradGradGradGradGradGradGradGradGradGradGradGrad

 Unable to Open any file for archive entry.
 1\1\GINC-BHC0201\Force\RAM1\ZDO\C6H6\BWEIGHT\21-Mar-2025\0\\# AM1/STO-
 5G SCF=XQC FORCE nosym guess=read\\MD Step 25\\0,1\C,-0.67421639,-1.17
 620513,0.01885243\C,0.72612481,-1.23254605,-0.00962283\C,1.38045203,0.
 01065582,0.01146555\C,0.69462184,1.21432889,-0.02267833\C,-0.71579003,
 1.17098906,-0.02031227\C,-1.4125654,0.01982276,-0.00410584\H,-1.177455
 99,-2.12580578,0.16668377\H,1.26904196,-2.19103466,-0.0296791\H,2.4591
 0947,-0.03565742,0.20560472\H,1.14936579,2.1859041,0.1733581\H,-1.2430
 9789,2.15166221,0.0918231\H,-2.48959778,-0.02047874,-0.08008482\\Versi
 on=ES64L-G16RevC.01\HF=0.0473738\RMSD=5.647e-09\RMSF=1.718e-02\Dipole=
 -0.0001964,-0.0191226,0.1439575\PG=C01 [X(C6H6)]\\@
 The archive entry for this job was punched.


 THERE'S NOTHING WRONG WITH FOLLOWING A TRAIN OF THOUGHT...
 AS LONG AS IT ULTIMATELY PULLS INTO THE STATION.
 Job cpu time:       0 days  0 hours  0 minutes  1.3 seconds.
 Elapsed time:       0 days  0 hours  0 minutes  0.9 seconds.
 File lengths (MBytes):  RWF=      6 Int=      0 D2E=      0 Chk=      2 Scr=      1
 Normal termination of Gaussian 16 at Fri Mar 21 15:03:17 2025.
