 Entering Gaussian System, Link 0=g16
 Initial command:
 /software/gaussian/g16-c01/avx2/g16/l1.exe "/local_scratch/28554378/Gau-13326.inp" -scrdir="/local_scratch/28554378/"
 Entering Link 1 = /software/gaussian/g16-c01/avx2/g16/l1.exe PID=     13366.
  
 Copyright (c) 1988-2019, Gaussian, Inc.  All Rights Reserved.
  
 This is part of the Gaussian(R) 16 program.  It is based on
 the Gaussian(R) 09 system (copyright 2009, Gaussian, Inc.),
 the Gaussian(R) 03 system (copyright 2003, Gaussian, Inc.),
 the Gaussian(R) 98 system (copyright 1998, Gaussian, Inc.),
 the Gaussian(R) 94 system (copyright 1995, Gaussian, Inc.),
 the Gaussian 92(TM) system (copyright 1992, Gaussian, Inc.),
 the Gaussian 90(TM) system (copyright 1990, Gaussian, Inc.),
 the Gaussian 88(TM) system (copyright 1988, Gaussian, Inc.),
 the Gaussian 86(TM) system (copyright 1986, Carnegie Mellon
 University), and the Gaussian 82(TM) system (copyright 1983,
 Carnegie Mellon University). Gaussian is a federally registered
 trademark of Gaussian, Inc.
  
 This software contains proprietary and confidential information,
 including trade secrets, belonging to Gaussian, Inc.
  
 This software is provided under written license and may be
 used, copied, transmitted, or stored only in accord with that
 written license.
  
 The following legend is applicable only to US Government
 contracts under FAR:
  
                    RESTRICTED RIGHTS LEGEND
  
 Use, reproduction and disclosure by the US Government is
 subject to restrictions as set forth in subparagraphs (a)
 and (c) of the Commercial Computer Software - Restricted
 Rights clause in FAR 52.227-19.
  
 Gaussian, Inc.
 340 Quinnipiac St., Bldg. 40, Wallingford CT 06492
  
  
 ---------------------------------------------------------------
 Warning -- This program may not be used in any manner that
 competes with the business of Gaussian, Inc. or will provide
 assistance to any competitor of Gaussian, Inc.  The licensee
 of this program is prohibited from giving any competitor of
 Gaussian, Inc. access to this program.  By using this program,
 the user acknowledges that Gaussian, Inc. is engaged in the
 business of creating and licensing software in the field of
 computational chemistry and represents and warrants to the
 licensee that it is not a competitor of Gaussian, Inc. and that
 it will not use this program in any manner prohibited above.
 ---------------------------------------------------------------
  

 Cite this work as:
 Gaussian 16, Revision C.01,
 M. J. Frisch, G. W. Trucks, H. B. Schlegel, G. E. Scuseria, 
 M. A. Robb, J. R. Cheeseman, G. Scalmani, V. Barone, 
 G. A. Petersson, H. Nakatsuji, X. Li, M. Caricato, A. V. Marenich, 
 J. Bloino, B. G. Janesko, R. Gomperts, B. Mennucci, H. P. Hratchian, 
 J. V. Ortiz, A. F. Izmaylov, J. L. Sonnenberg, D. Williams-Young, 
 F. Ding, F. Lipparini, F. Egidi, J. Goings, B. Peng, A. Petrone, 
 T. Henderson, D. Ranasinghe, V. G. Zakrzewski, J. Gao, N. Rega, 
 G. Zheng, W. Liang, M. Hada, M. Ehara, K. Toyota, R. Fukuda, 
 J. Hasegawa, M. Ishida, T. Nakajima, Y. Honda, O. Kitao, H. Nakai, 
 T. Vreven, K. Throssell, J. A. Montgomery, Jr., J. E. Peralta, 
 F. Ogliaro, M. J. Bearpark, J. J. Heyd, E. N. Brothers, K. N. Kudin, 
 V. N. Staroverov, T. A. Keith, R. Kobayashi, J. Normand, 
 K. Raghavachari, A. P. Rendell, J. C. Burant, S. S. Iyengar, 
 J. Tomasi, M. Cossi, J. M. Millam, M. Klene, C. Adamo, R. Cammi, 
 J. W. Ochterski, R. L. Martin, K. Morokuma, O. Farkas, 
 J. B. Foresman, and D. J. Fox, Gaussian, Inc., Wallingford CT, 2019.
 
 ******************************************
 Gaussian 16:  ES64L-G16RevC.01  3-Jul-2019
                21-Mar-2025 
 ******************************************
 %oldchk=../TD_OLD_S1/geometry.chk
 %chk=geometry.chk
 %nprocshared=1
 Will use up to    1 processors via shared memory.
 %mem=2GB
 Copying data from "../TD_OLD_S1/geometry.chk" to current chk file "geometry.chk"
 IOpt=  2 FromEx=T IUOpen= 4 IOptOp= 5 NList=   0 IFRang= 0 IUIn= 4 IUOut= 2.
 ----------------------------------------------------------------------
 # AM1/STO-5G SCF=XQC TD=(read,singlets,nstates=5,root=1) nosym IOp(9/4
 0=3) guess=read
 ----------------------------------------------------------------------
 1/38=1,172=1/1;
 2/12=2,15=1,17=6,18=5,40=1/2;
 3/5=2,6=5,25=1,41=700000,116=-2/1,2,3,8;
 4/5=1,35=1/1;
 5/5=2,8=3,13=1,35=1,38=6/2,8;
 8/6=1,10=90,107=1,108=5/1;
 9/8=1,40=3,41=5,42=1,48=1,49=13,70=2/14;
 6/7=2,8=2,9=2,10=2/1;
 99/5=1,9=1/99;
 ----------
 MD Step 18
 ----------
 Symbolic Z-matrix:
 Charge =  0 Multiplicity = 1
 C                    -0.69755  -1.24297   0.00394 
 C                     0.70678  -1.20744  -0.00894 
 C                     1.37759   0.00848  -0.01716 
 C                     0.69539   1.18697   0.03062 
 C                    -0.70628   1.25574  -0.04343 
 C                    -1.38234   0.01492   0.00807 
 H                    -1.20244  -2.18721  -0.08422 
 H                     1.21648  -2.21434   0.13746 
 H                     2.44262  -0.09003   0.0436 
 H                     1.2528    2.16782   0.03703 
 H                    -1.2875    2.18972  -0.11759 
 H                    -2.41026  -0.08112   0.10364 
 
                          Input orientation:                          
 ---------------------------------------------------------------------
 Center     Atomic      Atomic             Coordinates (Angstroms)
 Number     Number       Type             X           Y           Z
 ---------------------------------------------------------------------
      1          6           0       -0.697552   -1.242969    0.003941
      2          6           0        0.706779   -1.207440   -0.008938
      3          6           0        1.377589    0.008480   -0.017160
      4          6           0        0.695387    1.186970    0.030618
      5          6           0       -0.706281    1.255743   -0.043428
      6          6           0       -1.382336    0.014918    0.008067
      7          1           0       -1.202441   -2.187212   -0.084218
      8          1           0        1.216480   -2.214341    0.137456
      9          1           0        2.442615   -0.090028    0.043605
     10          1           0        1.252800    2.167818    0.037032
     11          1           0       -1.287504    2.189716   -0.117585
     12          1           0       -2.410259   -0.081117    0.103645
 ---------------------------------------------------------------------
                    Distance matrix (angstroms):
                    1          2          3          4          5
     1  C    0.000000
     2  C    1.404839   0.000000
     3  C    2.423382   1.388710   0.000000
     4  C    2.801000   2.394765   1.362542   0.000000
     5  C    2.499177   2.839929   2.428758   1.405306   0.000000
     6  C    1.432211   2.420506   2.760047   2.385613   1.413983
     7  H    1.074374   2.147263   3.388527   3.872990   3.478761
     8  H    2.150560   1.138014   2.234009   3.442655   3.971299
     9  H    3.345370   2.065067   1.071297   2.164186   3.425525
    10  H    3.929178   3.419448   2.163620   1.128190   2.162487
    11  H    3.485131   3.940766   3.445372   2.226953   1.102554
    12  H    2.072005   3.316203   3.790832   3.355356   2.170799
                    6          7          8          9         10
     6  C    0.000000
     7  H    2.211393   0.000000
     8  H    3.426395   2.429208   0.000000
     9  H    3.826556   4.207251   2.454572   0.000000
    10  H    3.402904   5.000920   4.383460   2.552170   0.000000
    11  H    2.180487   4.377882   5.072543   4.374586   2.545099
    12  H    1.036814   2.435108   4.207733   4.853254   4.298854
                   11         12
    11  H    0.000000
    12  H    2.542873   0.000000
 Symmetry turned off by external request.
 Stoichiometry    C6H6
 Framework group  C1[X(C6H6)]
 Deg. of freedom    30
 Full point group                 C1      NOp   1
 Rotational constants (GHZ):           5.7894358           5.5234680           2.8294715
 Standard basis: VSTO-5G (5D, 7F)
    30 basis functions,   180 primitive gaussians,    30 cartesian basis functions
    15 alpha electrons       15 beta electrons
       nuclear repulsion energy       119.5047923580 Hartrees.
 Integral buffers will be    131072 words long.
 Regular integral format.
 Two-electron integral symmetry is turned off.
 Do NDO integrals.
 One-electron integrals computed using PRISM.
 NBasis=    30 RedAO= F EigKep=  0.00D+00  NBF=    30
 NBsUse=    30 1.00D-04 EigRej=  0.00D+00 NBFU=    30
 Initial guess from the checkpoint file:  "geometry.chk"
 B after Tr=     0.000968    0.000855    0.001067
         Rot=    1.000000   -0.000230    0.000185    0.000174 Ang=  -0.04 deg.
 Keep J ints in memory in canonical form, NReq=861816.
 Overlap will be assumed to be unity.
 Requested convergence on RMS density matrix=1.00D-08 within  32 cycles.
 Requested convergence on MAX density matrix=1.00D-06.
 Requested convergence on             energy=1.00D-06.
 No special actions if energy rises.
 SCF Done:  E(RAM1) =  0.513090433823E-01 A.U. after   12 cycles
            NFock= 11  Conv=0.82D-08     -V/T= 1.0011
 QCSCF skips out because SCF is already converged.
 Range of M.O.s used for correlation:     1    30
 NBasis=    30 NAE=    15 NBE=    15 NFC=     0 NFV=     0
 NROrb=     30 NOA=    15 NOB=    15 NVA=    15 NVB=    15
 Keep J ints in memory in canonical form, NReq=862156.
 Generating guess from checkpoint file densities.
 Convergence on wavefunction:    0.001000000000000
 Iteration     1 Dimension    10 NMult     0 NNew     10
 CISAX will form    10 AO SS matrices at one time.
 Iteration     2 Dimension    20 NMult    10 NNew     10
 Iteration     3 Dimension    30 NMult    20 NNew     10
 Iteration     4 Dimension    40 NMult    30 NNew     10
 Iteration     5 Dimension    46 NMult    40 NNew      6
 Iteration     6 Dimension    52 NMult    46 NNew      6
 Iteration     7 Dimension    56 NMult    52 NNew      4
 Iteration     8 Dimension    58 NMult    56 NNew      2
 Iteration     9 Dimension    60 NMult    58 NNew      2
 Iteration    10 Dimension    62 NMult    60 NNew      2
 Convergence on energies, max DE= 9.58D-06.
 ***********************************************************************
 Excited states from <AA,BB:AA,BB> singles matrix:
 ***********************************************************************
 
 Ground to excited state transition densities written to RWF  633
 Ground to excited state transition electric dipole moments (Au):
       state          X           Y           Z        Dip. S.      Osc.
         1        -0.0017     -0.0021      0.0006      0.0000      0.0000
         2        -0.0546      0.0488     -0.0365      0.0067      0.0007
         3        -1.4850     -0.4363      0.0115      2.3958      0.3118
         4        -0.4289      1.5082      0.0090      2.4586      0.3219
         5         0.0212      0.3564      0.0152      0.1277      0.0185
 Ground to excited state transition velocity dipole moments (Au):
       state          X           Y           Z        Dip. S.      Osc.
         1        -0.0002     -0.0009     -0.0001      0.0000      0.0000
         2         0.0133     -0.0116      0.0422      0.0021      0.0092
         3         0.4550      0.1348     -0.0028      0.2252      0.7690
         4         0.1325     -0.4686      0.0084      0.2372      0.8052
         5        -0.0070     -0.1214      0.0139      0.0150      0.0460
 Ground to excited state transition magnetic dipole moments (Au):
       state          X           Y           Z
         1        -0.0048      0.0084      0.0294
         2         0.0608     -0.0090      0.0898
         3         0.0238      0.0394      0.0168
         4         0.0334      0.0377     -0.0287
         5        -0.1288     -0.1694      0.0411
 Ground to excited state transition velocity quadrupole moments (Au):
       state          XX          YY          ZZ          XY          XZ          YZ
         1        -0.0059      0.0069      0.0002     -0.0089     -0.0081      0.0017
         2         0.0483     -0.1118      0.0013     -0.0265     -0.0003      0.0388
         3        -0.0716      0.0810      0.0055     -0.0813      0.0331      0.0169
         4        -0.0575      0.0258     -0.0091      0.1028     -0.0270      0.0113
         5         0.0025      0.0245      0.0076     -0.0261     -0.0277      0.0220
 <0|del|b> * <b|rxdel|0> + <0|del|b> * <b|delr+rdel|0>
 Rotatory Strengths (R) in cgs (10**-40 erg-esu-cm/Gauss)
       state          XX          YY          ZZ    R(velocity)    E-M Angle
         1        -0.0444     -0.0069      0.0027     -0.0162       90.00
         2         6.4959     14.6047      0.9400      7.3469       19.06
         3         1.8746     33.0171     23.3413     19.4110       46.26
         4       -53.4214      8.6829     -3.7355    -16.1580      118.50
         5        28.3902      2.7401     40.7159     23.9487       33.82
 1/2[<0|r|b>*<b|rxdel|0> + (<0|rxdel|b>*<b|r|0>)*]
 Rotatory Strengths (R) in cgs (10**-40 erg-esu-cm/Gauss)
       state          XX          YY          ZZ     R(length)
         1        -0.0058      0.0125     -0.0119     -0.0017
         2         2.3464      0.3115      2.3185      1.6588
         3        24.9521     12.1601     -0.1365     12.3252
         4        10.1228    -40.1626      0.1836     -9.9521
         5         1.9283     42.7034     -0.4413     14.7301
  1/2[<0|del|b>*<b|r|0> + (<0|r|b>*<b|del|0>)*] (Au)
       state          X           Y           Z        Dip. S.   Osc.(frdel)
         1         0.0000      0.0000     -0.0000     -0.0000     -0.0000
         2        -0.0007     -0.0006     -0.0015      0.0028      0.0019
         3        -0.6757     -0.0588     -0.0000      0.7346      0.4897
         4        -0.0569     -0.7067      0.0001      0.7635      0.5090
         5        -0.0001     -0.0433      0.0002      0.0432      0.0288

 Excitation energies and oscillator strengths:
 
 Excited state symmetry could not be determined.
 Excited State   1:      Singlet-?Sym    3.7709 eV  328.79 nm  f=0.0000  <S**2>=0.000
       2 -> 23        -0.00292
       2 -> 25        -0.00219
       3 -> 22        -0.00171
       3 -> 24        -0.00320
       4 -> 16         0.00278
       4 -> 17         0.00119
       4 -> 27        -0.00233
       5 -> 17         0.00373
       5 -> 28        -0.00235
       7 -> 16         0.00110
       7 -> 27        -0.00114
       7 -> 29         0.00222
       8 -> 17        -0.00201
       8 -> 18         0.00941
       8 -> 20        -0.00113
       9 -> 22        -0.00174
       9 -> 23         0.00176
       9 -> 24        -0.00229
       9 -> 25         0.00140
       9 -> 26         0.00137
      10 -> 21        -0.00109
      10 -> 23        -0.00212
      10 -> 24        -0.00207
      10 -> 25        -0.00251
      11 -> 16        -0.00933
      11 -> 23         0.00140
      11 -> 25         0.00116
      11 -> 27         0.00189
      11 -> 28         0.00396
      11 -> 29        -0.00289
      12 -> 16        -0.00110
      12 -> 17         0.00186
      12 -> 18         0.00296
      12 -> 28         0.00111
      13 -> 16        -0.00168
      13 -> 18        -0.00215
      14 -> 16         0.50620
      14 -> 17         0.00455
      14 -> 19        -0.00340
      14 -> 21        -0.00166
      14 -> 22        -0.00336
      14 -> 27         0.00328
      14 -> 28        -0.00303
      14 -> 29         0.00166
      14 -> 30        -0.00108
      15 -> 16        -0.00328
      15 -> 17         0.50267
      15 -> 18         0.01291
      15 -> 20        -0.00224
      15 -> 23         0.00158
      15 -> 24         0.00322
      15 -> 25        -0.00239
      15 -> 27         0.00144
      15 -> 28         0.00172
       2 <- 23        -0.00100
       3 <- 24        -0.00113
       4 <- 27        -0.00183
       5 <- 28        -0.00189
       7 <- 29         0.00174
      11 <- 16        -0.00263
      12 <- 17         0.00660
      13 <- 16        -0.00478
      13 <- 17        -0.00101
      14 <- 16         0.06833
      14 <- 19        -0.00188
      14 <- 20         0.00228
      14 <- 21        -0.00180
      14 <- 27        -0.00114
      15 <- 17         0.06892
      15 <- 18         0.00238
      15 <- 19         0.00198
      15 <- 22        -0.00184
      15 <- 24         0.00104
 This state for optimization and/or second-order correction.
 Total Energy, E(TD-HF/TD-DFT) =  0.189886032870    
 Copying the excited state density for this state as the 1-particle RhoCI density.
 
 Excited state symmetry could not be determined.
 Excited State   2:      Singlet-?Sym    4.1096 eV  301.69 nm  f=0.0007  <S**2>=0.000
       1 -> 19         0.00164
       1 -> 21        -0.00153
       2 -> 16        -0.00143
       2 -> 22        -0.00167
       2 -> 24        -0.00173
       2 -> 26        -0.00226
       2 -> 28        -0.00100
       3 -> 17        -0.00100
       3 -> 21         0.00112
       3 -> 23         0.00318
       3 -> 25        -0.00177
       4 -> 17        -0.00123
       4 -> 22        -0.00123
       4 -> 24        -0.00192
       4 -> 26         0.00131
       4 -> 27        -0.00137
       4 -> 28        -0.00413
       4 -> 29        -0.00182
       5 -> 18         0.00198
       5 -> 22        -0.00105
       5 -> 26         0.00209
       5 -> 27         0.00452
       5 -> 28        -0.00130
       6 -> 20         0.00101
       6 -> 21         0.00240
       6 -> 23        -0.00138
       6 -> 24         0.00117
       7 -> 16         0.00179
       7 -> 18         0.00455
       7 -> 24         0.00181
       8 -> 19        -0.00193
       8 -> 20         0.00292
       8 -> 21        -0.00166
       8 -> 23         0.00128
       8 -> 24        -0.00135
       8 -> 25         0.00120
       8 -> 27        -0.00411
       8 -> 29         0.00183
       9 -> 17        -0.00115
       9 -> 18         0.00650
       9 -> 19        -0.00103
       9 -> 20         0.00192
       9 -> 22         0.00154
       9 -> 23         0.00445
       9 -> 24         0.00133
       9 -> 25        -0.00447
       9 -> 26         0.00317
       9 -> 28         0.00184
      10 -> 16        -0.00187
      10 -> 17         0.00127
      10 -> 18        -0.00320
      10 -> 19         0.00231
      10 -> 21        -0.00126
      10 -> 22        -0.00210
      10 -> 23         0.00248
      10 -> 24        -0.00112
      10 -> 25        -0.00261
      10 -> 26        -0.00604
      10 -> 27         0.00203
      10 -> 28        -0.00323
      10 -> 29         0.00189
      10 -> 30        -0.00103
      11 -> 17         0.00442
      11 -> 18        -0.11165
      11 -> 19        -0.00194
      11 -> 20         0.00291
      11 -> 21        -0.00309
      11 -> 22        -0.00769
      11 -> 23        -0.00216
      11 -> 24         0.00134
      11 -> 27         0.00256
      11 -> 29         0.00134
      12 -> 16         0.01012
      12 -> 18        -0.00779
      12 -> 19         0.00242
      12 -> 20        -0.00913
      12 -> 21         0.00722
      12 -> 22         0.00108
      12 -> 23        -0.00256
      12 -> 25         0.00143
      12 -> 26        -0.00156
      12 -> 27        -0.00464
      12 -> 29         0.00314
      12 -> 30        -0.00109
      13 -> 16        -0.00249
      13 -> 17         0.00756
      13 -> 18        -0.01128
      13 -> 19        -0.00667
      13 -> 20        -0.00179
      13 -> 21        -0.00115
      13 -> 22         0.00401
      13 -> 23         0.00257
      13 -> 24        -0.00616
      13 -> 26         0.00182
      13 -> 27        -0.00251
      13 -> 28        -0.00573
      13 -> 29        -0.00412
      13 -> 30         0.00125
      14 -> 16        -0.00595
      14 -> 17         0.48147
      14 -> 18        -0.00814
      14 -> 19        -0.00164
      14 -> 20        -0.00227
      14 -> 21        -0.00179
      14 -> 22        -0.00160
      14 -> 23         0.00424
      14 -> 24         0.00319
      14 -> 25        -0.00108
      14 -> 27        -0.00171
      14 -> 28        -0.00199
      15 -> 16        -0.50541
      15 -> 17        -0.00172
      15 -> 19         0.00320
      15 -> 20         0.00166
      15 -> 22         0.00524
      15 -> 23         0.00129
      15 -> 24         0.00151
      15 -> 26         0.00135
       1 <- 19         0.00336
       1 <- 20        -0.00213
       1 <- 21        -0.00350
       1 <- 22         0.00153
       1 <- 23         0.00113
       1 <- 30        -0.00224
       2 <- 21        -0.00171
       2 <- 22        -0.00335
       2 <- 24        -0.00558
       3 <- 21         0.00173
       3 <- 23         0.00642
       3 <- 25         0.00161
       4 <- 22        -0.00162
       4 <- 24        -0.00126
       4 <- 25        -0.00107
       4 <- 26         0.00116
       4 <- 27        -0.00151
       4 <- 28        -0.00461
       4 <- 29        -0.00192
       5 <- 26         0.00182
       5 <- 27         0.00496
       5 <- 28        -0.00183
       5 <- 29         0.00149
       6 <- 21         0.00163
       6 <- 30         0.00169
       7 <- 18         0.00107
       7 <- 24         0.00106
       8 <- 20         0.00134
       8 <- 21        -0.00117
       8 <- 27        -0.00376
       8 <- 28        -0.00114
       8 <- 29         0.00423
       9 <- 18        -0.00122
       9 <- 20         0.00145
       9 <- 21         0.00118
       9 <- 22         0.00102
       9 <- 23         0.00399
       9 <- 24         0.00284
      10 <- 19         0.00125
      10 <- 22        -0.00243
      10 <- 23         0.00312
      10 <- 24        -0.00329
      10 <- 26        -0.00128
      11 <- 17        -0.00428
      11 <- 18         0.01413
      12 <- 16        -0.00248
      12 <- 19         0.00105
      12 <- 20        -0.00301
      12 <- 21         0.00253
      12 <- 26        -0.00136
      12 <- 27        -0.00421
      12 <- 28         0.00118
      13 <- 17        -0.00250
      13 <- 19        -0.00172
      13 <- 24        -0.00281
      13 <- 26         0.00111
      13 <- 27        -0.00221
      13 <- 28        -0.00433
      13 <- 29        -0.00300
      14 <- 17         0.01708
      14 <- 18         0.00543
      14 <- 19         0.00210
      14 <- 22        -0.00186
      14 <- 24         0.00102
      14 <- 27        -0.00121
      14 <- 28        -0.00136
      14 <- 29        -0.00109
      15 <- 16        -0.01213
      15 <- 19         0.00173
      15 <- 20        -0.00184
      15 <- 21         0.00171
      15 <- 27         0.00150
      15 <- 28        -0.00121
 
 Excited state symmetry could not be determined.
 Excited State   3:      Singlet-?Sym    5.3130 eV  233.36 nm  f=0.3118  <S**2>=0.000
       1 -> 17        -0.00179
       1 -> 27         0.00118
       1 -> 28         0.00180
       2 -> 17        -0.00219
       2 -> 18         0.00511
       2 -> 19        -0.00261
       2 -> 20        -0.00273
       2 -> 21        -0.00221
       2 -> 22        -0.00250
       2 -> 23         0.00107
       2 -> 24         0.00513
       3 -> 16         0.00100
       3 -> 18         0.00130
       3 -> 22        -0.00178
       3 -> 23         0.00247
       3 -> 25         0.00211
       3 -> 27        -0.00127
       3 -> 29         0.00171
       4 -> 16         0.00265
       4 -> 17        -0.00469
       4 -> 18         0.00176
       4 -> 19        -0.00376
       4 -> 20         0.00351
       4 -> 21         0.01037
       4 -> 22        -0.00614
       4 -> 23        -0.00476
       4 -> 24         0.00299
       4 -> 28         0.00251
       4 -> 29         0.00138
       4 -> 30         0.00692
       5 -> 16        -0.00562
       5 -> 17        -0.00487
       5 -> 19         0.00311
       5 -> 20         0.00387
       5 -> 21        -0.00605
       5 -> 22        -0.00156
       5 -> 27         0.00199
       5 -> 30        -0.00178
       6 -> 16        -0.00135
       6 -> 17         0.01055
       6 -> 19         0.01136
       6 -> 20         0.00515
       6 -> 22        -0.00802
       6 -> 23        -0.00153
       6 -> 25        -0.00254
       6 -> 27        -0.00281
       6 -> 28        -0.00411
       6 -> 29        -0.00144
       7 -> 16        -0.00291
       7 -> 17         0.00606
       7 -> 18        -0.00139
       7 -> 20         0.00147
       7 -> 22         0.01762
       7 -> 23        -0.00848
       7 -> 24         0.02006
       7 -> 25        -0.00354
       7 -> 26        -0.00469
       7 -> 27        -0.00213
       7 -> 28        -0.00109
       7 -> 30        -0.00116
       8 -> 16         0.00743
       8 -> 18        -0.00470
       8 -> 19         0.00162
       8 -> 20         0.00602
       8 -> 21         0.01098
       8 -> 23         0.02490
       8 -> 24         0.01297
       8 -> 25         0.02605
       8 -> 26        -0.00278
       8 -> 28        -0.00290
       8 -> 29        -0.00260
       8 -> 30         0.00222
       9 -> 16         0.00105
       9 -> 17         0.00644
       9 -> 18        -0.01376
       9 -> 19         0.00325
       9 -> 20         0.00789
       9 -> 21        -0.00377
       9 -> 22        -0.00689
       9 -> 23         0.01059
       9 -> 24        -0.01387
       9 -> 25         0.01648
       9 -> 26         0.01318
       9 -> 27        -0.01601
       9 -> 28        -0.00540
       9 -> 29         0.01729
       9 -> 30        -0.00195
      10 -> 16         0.00718
      10 -> 17        -0.01465
      10 -> 18         0.03968
      10 -> 19        -0.00338
      10 -> 20         0.00128
      10 -> 23         0.01231
      10 -> 24         0.01797
      10 -> 25         0.02398
      10 -> 26        -0.00671
      10 -> 27        -0.00300
      10 -> 28        -0.00245
      10 -> 29         0.00626
      10 -> 30        -0.00294
      11 -> 16         0.00801
      11 -> 17        -0.00795
      11 -> 18        -0.00414
      11 -> 19         0.00236
      11 -> 20         0.00102
      11 -> 22        -0.01102
      11 -> 23         0.00560
      11 -> 24        -0.01745
      11 -> 25         0.00317
      11 -> 26         0.00830
      11 -> 27        -0.00347
      11 -> 28         0.00214
      12 -> 16         0.07094
      12 -> 17         0.07681
      12 -> 18        -0.00551
      12 -> 19        -0.01953
      12 -> 20        -0.02999
      12 -> 21         0.01200
      12 -> 22         0.01282
      12 -> 23         0.00511
      12 -> 24        -0.00538
      12 -> 25         0.01597
      12 -> 26         0.00664
      12 -> 27         0.03296
      12 -> 28         0.00217
      12 -> 29         0.01700
      12 -> 30         0.00155
      13 -> 16         0.07639
      13 -> 17        -0.07350
      13 -> 18         0.02156
      13 -> 19         0.01487
      13 -> 21         0.04357
      13 -> 22        -0.03322
      13 -> 23        -0.02025
      13 -> 24         0.01276
      13 -> 25        -0.00886
      13 -> 26         0.01356
      13 -> 27         0.00879
      13 -> 28        -0.03049
      13 -> 29        -0.00291
      13 -> 30         0.03225
      14 -> 16         0.40758
      14 -> 17        -0.26770
      14 -> 18         0.02137
      14 -> 19         0.02077
      14 -> 20        -0.01406
      14 -> 22        -0.00768
      14 -> 24        -0.00408
      14 -> 25         0.00155
      14 -> 26         0.00679
      14 -> 27         0.00765
      14 -> 28        -0.01333
      14 -> 29        -0.00367
      14 -> 30        -0.00808
      15 -> 16        -0.25874
      15 -> 17        -0.40948
      15 -> 18         0.02518
      15 -> 19         0.01229
      15 -> 20         0.01782
      15 -> 21        -0.00331
      15 -> 22        -0.00842
      15 -> 23         0.00504
      15 -> 24         0.00459
      15 -> 25         0.00299
      15 -> 26        -0.00146
      15 -> 27        -0.01756
      15 -> 28        -0.00380
      15 -> 29        -0.00625
       1 <- 19        -0.00123
       1 <- 22         0.00133
       1 <- 27         0.00171
       1 <- 28         0.00263
       1 <- 29         0.00148
       2 <- 19        -0.00178
       2 <- 20        -0.00115
       2 <- 23         0.00104
       2 <- 24         0.00622
       3 <- 22        -0.00182
       3 <- 23         0.00412
       3 <- 25         0.00293
       3 <- 27        -0.00157
       3 <- 29         0.00237
       4 <- 19        -0.00311
       4 <- 20         0.00275
       4 <- 21         0.00710
       4 <- 22        -0.00417
       4 <- 23        -0.00314
       4 <- 24         0.00206
       4 <- 30         0.00452
       5 <- 19         0.00211
       5 <- 20         0.00203
       5 <- 21        -0.00354
       5 <- 30        -0.00118
       6 <- 19         0.00476
       6 <- 20         0.00202
       6 <- 22        -0.00357
       6 <- 25        -0.00105
       7 <- 22         0.00685
       7 <- 23        -0.00363
       7 <- 24         0.00841
       7 <- 25        -0.00140
       7 <- 26        -0.00108
       8 <- 20         0.00244
       8 <- 21         0.00508
       8 <- 23         0.01177
       8 <- 24         0.00576
       8 <- 25         0.01005
       8 <- 28        -0.00129
       8 <- 29        -0.00112
       8 <- 30         0.00102
       9 <- 19         0.00187
       9 <- 20         0.00240
       9 <- 21        -0.00109
       9 <- 22        -0.00324
       9 <- 23         0.00496
       9 <- 24        -0.00641
       9 <- 25         0.00668
       9 <- 26         0.00585
       9 <- 27        -0.00564
       9 <- 29         0.00517
      10 <- 19        -0.00137
      10 <- 23         0.00535
      10 <- 24         0.00799
      10 <- 25         0.00973
      10 <- 26        -0.00337
      10 <- 28        -0.00116
      10 <- 29         0.00182
      11 <- 16        -0.00288
      11 <- 21        -0.00119
      11 <- 23         0.00103
      11 <- 24        -0.00251
      11 <- 27        -0.00114
      12 <- 16         0.00393
      12 <- 17         0.00544
      12 <- 19        -0.00535
      12 <- 20        -0.00885
      12 <- 21         0.00411
      12 <- 22         0.00410
      12 <- 23         0.00189
      12 <- 24        -0.00175
      12 <- 25         0.00487
      12 <- 26         0.00226
      12 <- 27         0.01150
      12 <- 28         0.00102
      12 <- 29         0.00545
      13 <- 16         0.00303
      13 <- 17        -0.00321
      13 <- 18         0.00112
      13 <- 19         0.00206
      13 <- 21         0.01384
      13 <- 22        -0.01031
      13 <- 23        -0.00669
      13 <- 24         0.00436
      13 <- 25        -0.00276
      13 <- 26         0.00384
      13 <- 27         0.00293
      13 <- 28        -0.01015
      13 <- 30         0.01163
      14 <- 16        -0.07121
      14 <- 17         0.04553
      14 <- 19         0.00309
      14 <- 20        -0.00193
      14 <- 23         0.00143
      14 <- 28        -0.00129
      15 <- 16         0.04571
      15 <- 17         0.07131
      15 <- 18        -0.00260
      15 <- 21        -0.00127
      15 <- 22        -0.00157
      15 <- 27        -0.00165
 
 Excited state symmetry could not be determined.
 Excited State   4:      Singlet-?Sym    5.3448 eV  231.97 nm  f=0.3219  <S**2>=0.000
       1 -> 16         0.00202
       1 -> 27        -0.00198
       1 -> 28         0.00133
       2 -> 18         0.00124
       2 -> 19        -0.00103
       2 -> 20        -0.00104
       2 -> 21        -0.00106
       2 -> 23        -0.00191
       2 -> 24         0.00120
       2 -> 25        -0.00210
       2 -> 27        -0.00166
       2 -> 29         0.00193
       3 -> 17         0.00117
       3 -> 18        -0.00520
       3 -> 19         0.00206
       3 -> 20         0.00395
       3 -> 21         0.00349
       3 -> 22         0.00492
       3 -> 25         0.00127
       3 -> 26        -0.00200
       4 -> 16        -0.00624
       4 -> 17        -0.00382
       4 -> 18         0.00126
       4 -> 20         0.00649
       4 -> 22        -0.00231
       4 -> 24         0.00258
       4 -> 26         0.00102
       4 -> 27         0.00132
       4 -> 29         0.00151
       4 -> 30         0.00181
       5 -> 16        -0.00495
       5 -> 17         0.00485
       5 -> 19        -0.01293
       5 -> 20         0.00644
       5 -> 21         0.00587
       5 -> 23        -0.00159
       5 -> 25        -0.00137
       5 -> 28        -0.00134
       5 -> 30         0.00809
       6 -> 16        -0.00848
       6 -> 19         0.00311
       6 -> 20        -0.01284
       6 -> 21         0.00721
       6 -> 22        -0.00226
       6 -> 23        -0.00221
       6 -> 25         0.00102
       6 -> 26         0.00395
       6 -> 27         0.00526
       6 -> 28        -0.00354
       6 -> 29         0.00142
       7 -> 17        -0.00206
       7 -> 18         0.00287
       7 -> 19         0.00379
       7 -> 20         0.00224
       7 -> 21         0.01056
       7 -> 23         0.02215
       7 -> 24         0.00931
       7 -> 25         0.01306
       7 -> 27         0.00311
       7 -> 30        -0.00146
       8 -> 18         0.00168
       8 -> 19         0.00525
       8 -> 20        -0.00252
       8 -> 21        -0.00377
       8 -> 22        -0.02195
       8 -> 23         0.01264
       8 -> 24        -0.03239
       8 -> 25         0.00672
       8 -> 26         0.01880
       8 -> 27        -0.00125
       8 -> 28         0.00512
       8 -> 29        -0.00166
       9 -> 16         0.00197
       9 -> 17         0.00958
       9 -> 18        -0.03865
       9 -> 19         0.00111
       9 -> 20         0.01216
       9 -> 21         0.00902
       9 -> 22         0.00310
       9 -> 23         0.00608
       9 -> 24         0.01073
       9 -> 25         0.02267
       9 -> 26        -0.01148
       9 -> 27         0.00451
       9 -> 29        -0.00776
       9 -> 30         0.00344
      10 -> 16        -0.00187
      10 -> 17         0.00279
      10 -> 18        -0.01441
      10 -> 19        -0.00742
      10 -> 20         0.00233
      10 -> 22         0.01198
      10 -> 23        -0.00932
      10 -> 24         0.00762
      10 -> 25        -0.01232
      10 -> 26        -0.01338
      10 -> 27        -0.01138
      10 -> 28        -0.00869
      10 -> 29         0.02289
      10 -> 30         0.00216
      11 -> 16        -0.00742
      11 -> 17        -0.00531
      11 -> 18        -0.00139
      11 -> 19         0.00244
      11 -> 21        -0.00348
      11 -> 22         0.00233
      11 -> 23        -0.00660
      11 -> 24        -0.00326
      11 -> 25        -0.00689
      11 -> 27         0.00111
      11 -> 28         0.00215
      11 -> 29        -0.00146
      12 -> 16         0.08933
      12 -> 17        -0.05596
      12 -> 18        -0.01148
      12 -> 19         0.04894
      12 -> 20        -0.01932
      12 -> 21         0.00149
      12 -> 22        -0.02379
      12 -> 23         0.00280
      12 -> 24        -0.00413
      12 -> 25         0.00301
      12 -> 26         0.01338
      12 -> 27         0.01117
      12 -> 28        -0.03516
      12 -> 29        -0.01104
      12 -> 30        -0.02861
      13 -> 16        -0.08512
      13 -> 17        -0.06994
      13 -> 18         0.00194
      13 -> 19         0.02072
      13 -> 20         0.04311
      13 -> 21        -0.00899
      13 -> 22        -0.01194
      13 -> 23        -0.00231
      13 -> 24         0.01023
      13 -> 25        -0.00717
      13 -> 26        -0.01470
      13 -> 27        -0.03728
      13 -> 28        -0.00601
      13 -> 29        -0.01229
      13 -> 30         0.00277
      14 -> 16        -0.26221
      14 -> 17        -0.41898
      14 -> 18         0.01981
      14 -> 19         0.00711
      14 -> 20         0.00846
      14 -> 21        -0.00592
      14 -> 22        -0.00831
      14 -> 23        -0.00446
      14 -> 24        -0.00932
      14 -> 25        -0.00833
      14 -> 26         0.00184
      14 -> 27        -0.01088
      14 -> 29        -0.00355
      15 -> 16        -0.39666
      15 -> 17         0.26553
      15 -> 18        -0.01222
      15 -> 19        -0.00989
      15 -> 20         0.00472
      15 -> 21        -0.01610
      15 -> 22         0.01187
      15 -> 24        -0.00502
      15 -> 25        -0.00289
      15 -> 26        -0.00415
      15 -> 27        -0.00807
      15 -> 28         0.01350
      15 -> 29         0.00427
      15 -> 30        -0.00233
       1 <- 20         0.00122
       1 <- 26        -0.00110
       1 <- 27        -0.00277
       1 <- 28         0.00216
       1 <- 29        -0.00103
       2 <- 20        -0.00109
       2 <- 21        -0.00123
       2 <- 23        -0.00373
       2 <- 24         0.00135
       2 <- 25        -0.00267
       2 <- 27        -0.00160
       2 <- 29         0.00274
       3 <- 19         0.00129
       3 <- 20         0.00270
       3 <- 21         0.00303
       3 <- 22         0.00438
       3 <- 24         0.00251
       3 <- 25         0.00114
       3 <- 26        -0.00158
       3 <- 28        -0.00127
       4 <- 20         0.00395
       4 <- 22        -0.00152
       4 <- 24         0.00107
       4 <- 30         0.00117
       5 <- 19        -0.00834
       5 <- 20         0.00420
       5 <- 21         0.00432
       5 <- 23        -0.00117
       5 <- 30         0.00494
       6 <- 19         0.00145
       6 <- 20        -0.00540
       6 <- 21         0.00338
       6 <- 23        -0.00120
       6 <- 27         0.00113
       7 <- 19         0.00145
       7 <- 21         0.00405
       7 <- 23         0.00961
       7 <- 24         0.00384
       7 <- 25         0.00454
       7 <- 27         0.00118
       8 <- 19         0.00146
       8 <- 21        -0.00138
       8 <- 22        -0.00948
       8 <- 23         0.00546
       8 <- 24        -0.01423
       8 <- 25         0.00262
       8 <- 26         0.00636
       8 <- 28         0.00245
       9 <- 20         0.00445
       9 <- 21         0.00366
       9 <- 22         0.00222
       9 <- 23         0.00315
       9 <- 24         0.00453
       9 <- 25         0.00889
       9 <- 26        -0.00457
       9 <- 27         0.00118
       9 <- 29        -0.00273
       9 <- 30         0.00170
      10 <- 19        -0.00233
      10 <- 22         0.00474
      10 <- 23        -0.00427
      10 <- 24         0.00394
      10 <- 25        -0.00537
      10 <- 26        -0.00580
      10 <- 27        -0.00301
      10 <- 28        -0.00290
      10 <- 29         0.00749
      11 <- 17        -0.00104
      11 <- 19        -0.00103
      11 <- 23        -0.00162
      11 <- 25         0.00125
      12 <- 16         0.00518
      12 <- 17        -0.00414
      12 <- 19         0.01516
      12 <- 20        -0.00674
      12 <- 22        -0.00556
      12 <- 23         0.00120
      12 <- 25         0.00124
      12 <- 26         0.00364
      12 <- 27         0.00373
      12 <- 28        -0.01242
      12 <- 29        -0.00353
      12 <- 30        -0.01042
      13 <- 16        -0.00308
      13 <- 17        -0.00347
      13 <- 19         0.00512
      13 <- 20         0.01162
      13 <- 21        -0.00259
      13 <- 22        -0.00365
      13 <- 24         0.00328
      13 <- 25        -0.00197
      13 <- 26        -0.00396
      13 <- 27        -0.01193
      13 <- 28        -0.00167
      13 <- 29        -0.00427
      14 <- 16         0.04597
      14 <- 17         0.06965
      14 <- 18         0.00177
      14 <- 22        -0.00163
      14 <- 25        -0.00125
      14 <- 27        -0.00141
      15 <- 16         0.07104
      15 <- 17        -0.04561
      15 <- 21        -0.00164
      15 <- 22         0.00109
      15 <- 24        -0.00110
      15 <- 26        -0.00124
      15 <- 28         0.00169
 
 Excited state symmetry could not be determined.
 Excited State   5:      Singlet-?Sym    5.9014 eV  210.09 nm  f=0.0185  <S**2>=0.000
       1 -> 16        -0.00326
       1 -> 17        -0.00208
       2 -> 17         0.00133
       2 -> 18         0.00204
       3 -> 16        -0.00245
       3 -> 18         0.00907
       3 -> 19         0.00102
       3 -> 21         0.00132
       3 -> 22         0.00228
       4 -> 16         0.04522
       4 -> 17         0.01403
       4 -> 18        -0.00415
       4 -> 20         0.00174
       4 -> 21        -0.00194
       5 -> 16        -0.00947
       5 -> 17         0.02072
       5 -> 19        -0.00345
       5 -> 21         0.00128
       5 -> 30         0.00166
       6 -> 16         0.02130
       6 -> 17         0.01433
       6 -> 18        -0.00134
       6 -> 20        -0.00295
       6 -> 21         0.00100
       6 -> 24        -0.00109
       6 -> 26         0.00111
       6 -> 27         0.00141
       7 -> 16         0.00391
       7 -> 17        -0.00292
       7 -> 18         0.00748
       7 -> 19         0.00193
       7 -> 20         0.00127
       7 -> 21         0.00238
       7 -> 23         0.00611
       7 -> 25         0.00188
       7 -> 27        -0.00126
       7 -> 29         0.00167
       8 -> 16        -0.00823
       8 -> 17        -0.02487
       8 -> 18         0.09526
       8 -> 19         0.00128
       8 -> 20        -0.00282
       8 -> 22         0.00275
       8 -> 23         0.00170
       8 -> 24        -0.01113
       8 -> 26         0.00446
       8 -> 28         0.00161
       9 -> 16        -0.02576
       9 -> 17        -0.00623
       9 -> 18         0.06637
       9 -> 19         0.00268
       9 -> 20         0.00158
       9 -> 21         0.00373
       9 -> 22         0.00825
       9 -> 24         0.00396
       9 -> 25         0.00235
       9 -> 26        -0.00447
       9 -> 27         0.00160
       9 -> 29        -0.00416
      10 -> 16        -0.01249
      10 -> 17         0.00695
      10 -> 18         0.07957
      10 -> 21         0.00240
      10 -> 22         0.00943
      10 -> 23        -0.00123
      10 -> 25        -0.00279
      10 -> 26        -0.00257
      10 -> 27        -0.00268
      10 -> 28        -0.00102
      10 -> 29         0.00460
      10 -> 30         0.00105
      11 -> 16        -0.02070
      11 -> 17        -0.00540
      11 -> 18         0.00162
      11 -> 19         0.00178
      11 -> 20        -0.00219
      11 -> 21         0.00241
      11 -> 22        -0.00103
      11 -> 23         0.01444
      11 -> 26        -0.00316
      11 -> 27        -0.00430
      11 -> 28         0.00104
      11 -> 29         0.00662
      11 -> 30        -0.00117
      12 -> 16        -0.02358
      12 -> 17        -0.06465
      12 -> 18         0.06047
      12 -> 19         0.01605
      12 -> 21         0.00299
      12 -> 22        -0.00286
      12 -> 24        -0.00122
      12 -> 26         0.00242
      12 -> 27        -0.00213
      12 -> 28        -0.01110
      12 -> 29        -0.00545
      12 -> 30        -0.00598
      13 -> 16         0.63475
      13 -> 17         0.21447
      13 -> 18        -0.02376
      13 -> 20         0.01188
      13 -> 21        -0.00845
      13 -> 22        -0.00514
      13 -> 23         0.00288
      13 -> 24         0.00253
      13 -> 26        -0.00582
      13 -> 27        -0.00649
      13 -> 29        -0.00278
      13 -> 30        -0.00258
      14 -> 16        -0.06257
      14 -> 17        -0.04747
      14 -> 19         0.01609
      14 -> 20         0.01084
      14 -> 21        -0.02654
      14 -> 22         0.00538
      14 -> 23         0.00430
      14 -> 24         0.00247
      14 -> 25        -0.00122
      14 -> 26        -0.00309
      14 -> 27        -0.00693
      14 -> 28         0.00658
      14 -> 30        -0.00827
      15 -> 16        -0.04605
      15 -> 17         0.06195
      15 -> 18        -0.01013
      15 -> 19        -0.03298
      15 -> 20         0.01383
      15 -> 21         0.01555
      15 -> 22        -0.01369
      15 -> 23        -0.01847
      15 -> 24        -0.00335
      15 -> 25        -0.01051
      15 -> 26         0.00187
      15 -> 27        -0.00787
      15 -> 28        -0.00750
      15 -> 29        -0.00351
      15 -> 30         0.01406
       3 <- 22         0.00110
       4 <- 16        -0.00126
       5 <- 17        -0.00191
       5 <- 19        -0.00199
       5 <- 30         0.00102
       6 <- 20        -0.00120
       7 <- 23         0.00230
       8 <- 18        -0.00138
       8 <- 22        -0.00185
       8 <- 24        -0.00338
       8 <- 26         0.00144
       9 <- 18        -0.00105
       9 <- 24         0.00150
       9 <- 25         0.00115
       9 <- 26        -0.00164
       9 <- 29        -0.00145
      10 <- 18        -0.00130
      10 <- 22         0.00111
      10 <- 25        -0.00134
      10 <- 29         0.00166
      11 <- 19        -0.00102
      11 <- 20        -0.00138
      11 <- 23         0.00128
      11 <- 27        -0.00138
      11 <- 29         0.00411
      12 <- 16         0.00106
      12 <- 17        -0.00182
      12 <- 19         0.00401
      12 <- 22        -0.00212
      12 <- 28        -0.00329
      12 <- 29        -0.00138
      12 <- 30        -0.00158
      13 <- 16        -0.00327
      13 <- 17        -0.00133
      13 <- 20         0.00148
      13 <- 27        -0.00185
      14 <- 16         0.00977
      14 <- 17         0.00980
      14 <- 19         0.00156
      14 <- 20         0.00826
      14 <- 21        -0.00829
      14 <- 22         0.00127
      14 <- 23         0.00175
      14 <- 24         0.00130
      14 <- 26        -0.00319
      14 <- 27        -0.00604
      14 <- 28         0.00336
      14 <- 29        -0.00153
      14 <- 30        -0.00191
      15 <- 16         0.01024
      15 <- 17        -0.01696
      15 <- 20         0.00440
      15 <- 21         0.00381
      15 <- 22        -0.00569
      15 <- 23        -0.00315
      15 <- 24         0.00173
      15 <- 25        -0.00196
      15 <- 27        -0.00317
      15 <- 28        -0.00433
      15 <- 29        -0.00212
      15 <- 30         0.00330
 SavETr:  write IOETrn=   770 NScale= 10 NData=  16 NLR=1 NState=    5 LETran=     100.

 **********************************************************************

            Population analysis using the SCF Density.

 **********************************************************************

 Alpha  occ. eigenvalues --   -1.43429  -1.15340  -1.15053  -0.85089  -0.84526
 Alpha  occ. eigenvalues --   -0.65594  -0.59616  -0.56544  -0.52211  -0.51879
 Alpha  occ. eigenvalues --   -0.48887  -0.44051  -0.43249  -0.35371  -0.35178
 Alpha virt. eigenvalues --    0.01775   0.01995   0.10688   0.14146   0.14486
 Alpha virt. eigenvalues --    0.15253   0.15707   0.16846   0.17306   0.18720
 Alpha virt. eigenvalues --    0.18960   0.20410   0.20826   0.21142   0.22499
          Condensed to atoms (all electrons):
               1          2          3          4          5          6
     1  C    4.143021   0.000000   0.000000   0.000000   0.000000   0.000000
     2  C    0.000000   4.141034   0.000000   0.000000   0.000000   0.000000
     3  C    0.000000   0.000000   4.121810   0.000000   0.000000   0.000000
     4  C    0.000000   0.000000   0.000000   4.120368   0.000000   0.000000
     5  C    0.000000   0.000000   0.000000   0.000000   4.125687   0.000000
     6  C    0.000000   0.000000   0.000000   0.000000   0.000000   4.130984
     7  H    0.000000   0.000000   0.000000   0.000000   0.000000   0.000000
     8  H    0.000000   0.000000   0.000000   0.000000   0.000000   0.000000
     9  H    0.000000   0.000000   0.000000   0.000000   0.000000   0.000000
    10  H    0.000000   0.000000   0.000000   0.000000   0.000000   0.000000
    11  H    0.000000   0.000000   0.000000   0.000000   0.000000   0.000000
    12  H    0.000000   0.000000   0.000000   0.000000   0.000000   0.000000
               7          8          9         10         11         12
     1  C    0.000000   0.000000   0.000000   0.000000   0.000000   0.000000
     2  C    0.000000   0.000000   0.000000   0.000000   0.000000   0.000000
     3  C    0.000000   0.000000   0.000000   0.000000   0.000000   0.000000
     4  C    0.000000   0.000000   0.000000   0.000000   0.000000   0.000000
     5  C    0.000000   0.000000   0.000000   0.000000   0.000000   0.000000
     6  C    0.000000   0.000000   0.000000   0.000000   0.000000   0.000000
     7  H    0.864127   0.000000   0.000000   0.000000   0.000000   0.000000
     8  H    0.000000   0.868794   0.000000   0.000000   0.000000   0.000000
     9  H    0.000000   0.000000   0.872392   0.000000   0.000000   0.000000
    10  H    0.000000   0.000000   0.000000   0.874329   0.000000   0.000000
    11  H    0.000000   0.000000   0.000000   0.000000   0.857052   0.000000
    12  H    0.000000   0.000000   0.000000   0.000000   0.000000   0.880402
 Mulliken charges:
               1
     1  C   -0.143021
     2  C   -0.141034
     3  C   -0.121810
     4  C   -0.120368
     5  C   -0.125687
     6  C   -0.130984
     7  H    0.135873
     8  H    0.131206
     9  H    0.127608
    10  H    0.125671
    11  H    0.142948
    12  H    0.119598
 Sum of Mulliken charges =   0.00000
 Mulliken charges with hydrogens summed into heavy atoms:
               1
     1  C   -0.007148
     2  C   -0.009828
     3  C    0.005798
     4  C    0.005303
     5  C    0.017261
     6  C   -0.011386
 Charge=              0.0000 electrons
 Dipole moment (field-independent basis, Debye):
    X=             -0.0130    Y=             -0.0336    Z=              0.0908  Tot=              0.0977
 N-N= 1.195047923580D+02 E-N=-1.703411429264D+02  KE=-4.784549689541D+01

 Test job not archived.
 1\1\GINC-BHC0189\SP\RAM1 TD-Full\STO-5G\C6H6\BWEIGHT\21-Mar-2025\0\\# 
 AM1/STO-5G SCF=XQC TD=(read,singlets,nstates=5,root=1) nosym IOp(9/40=
 3) guess=read\\MD Step 18\\0,1\C,0,-0.69755229,-1.24296935,0.00394111\
 C,0,0.70677863,-1.20744032,-0.00893807\C,0,1.37758862,0.00847994,-0.01
 716002\C,0,0.69538707,1.18697042,0.03061752\C,0,-0.70628052,1.25574309
 ,-0.04342773\C,0,-1.38233599,0.01491846,0.0080669\H,0,-1.202441,-2.187
 2124,-0.08421781\H,0,1.21647986,-2.21434129,0.13745569\H,0,2.44261536,
 -0.09002796,0.04360472\H,0,1.25279966,2.16781805,0.037032\H,0,-1.28750
 384,2.18971552,-0.11758502\H,0,-2.4102586,-0.08111729,0.10364458\\Vers
 ion=ES64L-G16RevC.01\HF=0.051309\RMSD=8.236e-09\PG=C01 [X(C6H6)]\\@


 BREAD HAS TO MOLD IN ORDER TO GET PENICILLIN.
          -- JERRY BOATZ
 Job cpu time:       0 days  0 hours  0 minutes  1.0 seconds.
 Elapsed time:       0 days  0 hours  0 minutes  0.8 seconds.
 File lengths (MBytes):  RWF=     34 Int=      0 D2E=      0 Chk=      2 Scr=      1
 Normal termination of Gaussian 16 at Fri Mar 21 15:21:53 2025.
