 Entering Gaussian System, Link 0=g16
 Initial command:
 /software/gaussian/g16-c01/avx2/g16/l1.exe "/local_scratch/28554153/Gau-25199.inp" -scrdir="/local_scratch/28554153/"
 Entering Link 1 = /software/gaussian/g16-c01/avx2/g16/l1.exe PID=     25227.
  
 Copyright (c) 1988-2019, Gaussian, Inc.  All Rights Reserved.
  
 This is part of the Gaussian(R) 16 program.  It is based on
 the Gaussian(R) 09 system (copyright 2009, Gaussian, Inc.),
 the Gaussian(R) 03 system (copyright 2003, Gaussian, Inc.),
 the Gaussian(R) 98 system (copyright 1998, Gaussian, Inc.),
 the Gaussian(R) 94 system (copyright 1995, Gaussian, Inc.),
 the Gaussian 92(TM) system (copyright 1992, Gaussian, Inc.),
 the Gaussian 90(TM) system (copyright 1990, Gaussian, Inc.),
 the Gaussian 88(TM) system (copyright 1988, Gaussian, Inc.),
 the Gaussian 86(TM) system (copyright 1986, Carnegie Mellon
 University), and the Gaussian 82(TM) system (copyright 1983,
 Carnegie Mellon University). Gaussian is a federally registered
 trademark of Gaussian, Inc.
  
 This software contains proprietary and confidential information,
 including trade secrets, belonging to Gaussian, Inc.
  
 This software is provided under written license and may be
 used, copied, transmitted, or stored only in accord with that
 written license.
  
 The following legend is applicable only to US Government
 contracts under FAR:
  
                    RESTRICTED RIGHTS LEGEND
  
 Use, reproduction and disclosure by the US Government is
 subject to restrictions as set forth in subparagraphs (a)
 and (c) of the Commercial Computer Software - Restricted
 Rights clause in FAR 52.227-19.
  
 Gaussian, Inc.
 340 Quinnipiac St., Bldg. 40, Wallingford CT 06492
  
  
 ---------------------------------------------------------------
 Warning -- This program may not be used in any manner that
 competes with the business of Gaussian, Inc. or will provide
 assistance to any competitor of Gaussian, Inc.  The licensee
 of this program is prohibited from giving any competitor of
 Gaussian, Inc. access to this program.  By using this program,
 the user acknowledges that Gaussian, Inc. is engaged in the
 business of creating and licensing software in the field of
 computational chemistry and represents and warrants to the
 licensee that it is not a competitor of Gaussian, Inc. and that
 it will not use this program in any manner prohibited above.
 ---------------------------------------------------------------
  

 Cite this work as:
 Gaussian 16, Revision C.01,
 M. J. Frisch, G. W. Trucks, H. B. Schlegel, G. E. Scuseria, 
 M. A. Robb, J. R. Cheeseman, G. Scalmani, V. Barone, 
 G. A. Petersson, H. Nakatsuji, X. Li, M. Caricato, A. V. Marenich, 
 J. Bloino, B. G. Janesko, R. Gomperts, B. Mennucci, H. P. Hratchian, 
 J. V. Ortiz, A. F. Izmaylov, J. L. Sonnenberg, D. Williams-Young, 
 F. Ding, F. Lipparini, F. Egidi, J. Goings, B. Peng, A. Petrone, 
 T. Henderson, D. Ranasinghe, V. G. Zakrzewski, J. Gao, N. Rega, 
 G. Zheng, W. Liang, M. Hada, M. Ehara, K. Toyota, R. Fukuda, 
 J. Hasegawa, M. Ishida, T. Nakajima, Y. Honda, O. Kitao, H. Nakai, 
 T. Vreven, K. Throssell, J. A. Montgomery, Jr., J. E. Peralta, 
 F. Ogliaro, M. J. Bearpark, J. J. Heyd, E. N. Brothers, K. N. Kudin, 
 V. N. Staroverov, T. A. Keith, R. Kobayashi, J. Normand, 
 K. Raghavachari, A. P. Rendell, J. C. Burant, S. S. Iyengar, 
 J. Tomasi, M. Cossi, J. M. Millam, M. Klene, C. Adamo, R. Cammi, 
 J. W. Ochterski, R. L. Martin, K. Morokuma, O. Farkas, 
 J. B. Foresman, and D. J. Fox, Gaussian, Inc., Wallingford CT, 2019.
 
 ******************************************
 Gaussian 16:  ES64L-G16RevC.01  3-Jul-2019
                21-Mar-2025 
 ******************************************
 %oldchk=../GS_OLD/geometry.chk
 %chk=geometry.chk
 %nprocshared=1
 Will use up to    1 processors via shared memory.
 %mem=2GB
 Copying data from "../GS_OLD/geometry.chk" to current chk file "geometry.chk"
 IOpt=  2 FromEx=T IUOpen= 4 IOptOp= 5 NList=   0 IFRang= 0 IUIn= 4 IUOut= 2.
 -------------------------------------------
 # AM1/STO-5G SCF=XQC FORCE nosym guess=read
 -------------------------------------------
 1/10=7,30=1,38=1/1,3;
 2/12=2,15=1,17=6,18=5,40=1/2;
 3/5=2,6=5,25=1,41=700000,71=1,116=-2/1,2,3;
 4/5=1,35=1/1;
 5/5=2,8=3,13=1,35=1,38=6/2,8;
 6/7=2,8=2,9=2,10=2,28=1/1;
 7/29=1,30=1/1,2,3,16;
 1/10=7,30=1/3;
 99//99;
 ----------
 MD Step 24
 ----------
 Symbolic Z-matrix:
 Charge =  0 Multiplicity = 1
 C                    -0.67086  -1.19316   0.03897 
 C                     0.72981  -1.25145  -0.01919 
 C                     1.40287  -0.02051  -0.04688 
 C                     0.67865   1.20274   0.05137 
 C                    -0.71495   1.21638  -0.06857 
 C                    -1.42162   0.03575   0.01222 
 H                    -1.16602  -2.16047   0.00391 
 H                     1.18638  -2.21379   0.13081 
 H                     2.53339   0.04489   0.01573 
 H                     1.15917   2.14092   0.28021 
 H                    -1.29709   2.18814  -0.13554 
 H                    -2.51598   0.0422   -0.09152 
 

 GradGradGradGradGradGradGradGradGradGradGradGradGradGradGradGradGradGrad
 Berny optimization.
 Initialization pass.
 Trust Radius=3.00D-01 FncErr=1.00D-07 GrdErr=1.00D-07 EigMax=2.50D+02 EigMin=1.00D-04
 Number of steps in this run=      2 maximum allowed number of steps=      2.
 GradGradGradGradGradGradGradGradGradGradGradGradGradGradGradGradGradGrad

                          Input orientation:                          
 ---------------------------------------------------------------------
 Center     Atomic      Atomic             Coordinates (Angstroms)
 Number     Number       Type             X           Y           Z
 ---------------------------------------------------------------------
      1          6           0       -0.670857   -1.193156    0.038967
      2          6           0        0.729810   -1.251453   -0.019186
      3          6           0        1.402867   -0.020506   -0.046884
      4          6           0        0.678649    1.202739    0.051373
      5          6           0       -0.714953    1.216383   -0.068569
      6          6           0       -1.421622    0.035746    0.012224
      7          1           0       -1.166021   -2.160474    0.003913
      8          1           0        1.186379   -2.213793    0.130814
      9          1           0        2.533393    0.044892    0.015730
     10          1           0        1.159174    2.140918    0.280209
     11          1           0       -1.297091    2.188137   -0.135541
     12          1           0       -2.515984    0.042199   -0.091516
 ---------------------------------------------------------------------
                    Distance matrix (angstroms):
                    1          2          3          4          5
     1  C    0.000000
     2  C    1.403085   0.000000
     3  C    2.383864   1.403211   0.000000
     4  C    2.749843   2.455739   1.424947   0.000000
     5  C    2.412340   2.860069   2.452657   1.398821   0.000000
     6  C    1.440334   2.507295   2.825667   2.403028   1.378337
     7  H    1.087253   2.102624   3.343834   3.836178   3.407620
     8  H    2.121194   1.075664   2.211097   3.454966   3.926949
     9  H    3.435188   2.221405   1.134146   2.186768   3.454164
    10  H    3.810940   3.432517   2.199575   1.078633   2.118670
    11  H    3.443220   3.994076   3.489375   2.215738   1.134758
    12  H    2.224324   3.494845   3.919606   3.401904   2.150104
                    6          7          8          9         10
     6  C    0.000000
     7  H    2.211059   0.000000
     8  H    3.446181   2.356424   0.000000
     9  H    3.955027   4.306906   2.632365   0.000000
    10  H    3.341268   4.897432   4.357357   2.520268   0.000000
    11  H    2.161048   4.352820   5.061181   4.391923   2.491649
    12  H    1.099287   2.585202   4.341247   5.050516   4.248481
                   11         12
    11  H    0.000000
    12  H    2.468337   0.000000
 Symmetry turned off by external request.
 Stoichiometry    C6H6
 Framework group  C1[X(C6H6)]
 Deg. of freedom    30
 Full point group                 C1      NOp   1
 Rotational constants (GHZ):           5.8155145           5.3919449           2.8058490
 Standard basis: VSTO-5G (5D, 7F)
    30 basis functions,   180 primitive gaussians,    30 cartesian basis functions
    15 alpha electrons       15 beta electrons
       nuclear repulsion energy       119.1252097252 Hartrees.
 Integral buffers will be    131072 words long.
 Regular integral format.
 Two-electron integral symmetry is turned off.
 Do NDO integrals.
 One-electron integrals computed using PRISM.
 NBasis=    30 RedAO= F EigKep=  0.00D+00  NBF=    30
 NBsUse=    30 1.00D-04 EigRej=  0.00D+00 NBFU=    30
 Initial guess from the checkpoint file:  "geometry.chk"
 B after Tr=     0.000636    0.001779   -0.000774
         Rot=    1.000000    0.000270   -0.000096    0.000446 Ang=   0.06 deg.
 Keep J ints in memory in canonical form, NReq=861816.
 Overlap will be assumed to be unity.
 Requested convergence on RMS density matrix=1.00D-08 within  32 cycles.
 Requested convergence on MAX density matrix=1.00D-06.
 Requested convergence on             energy=1.00D-06.
 No special actions if energy rises.
 SCF Done:  E(RAM1) =  0.508863327059E-01 A.U. after   12 cycles
            NFock= 11  Conv=0.70D-08     -V/T= 1.0011
 QCSCF skips out because SCF is already converged.

 **********************************************************************

            Population analysis using the SCF Density.

 **********************************************************************

 Alpha  occ. eigenvalues --   -1.42353  -1.15994  -1.13191  -0.84999  -0.83792
 Alpha  occ. eigenvalues --   -0.65208  -0.59524  -0.56176  -0.52629  -0.51403
 Alpha  occ. eigenvalues --   -0.48194  -0.43980  -0.43459  -0.35631  -0.34436
 Alpha virt. eigenvalues --    0.01499   0.02104   0.10475   0.14205   0.14586
 Alpha virt. eigenvalues --    0.15400   0.15455   0.16349   0.16891   0.18718
 Alpha virt. eigenvalues --    0.19038   0.20317   0.20562   0.20999   0.22437
          Condensed to atoms (all electrons):
               1          2          3          4          5          6
     1  C    4.138035   0.000000   0.000000   0.000000   0.000000   0.000000
     2  C    0.000000   4.129580   0.000000   0.000000   0.000000   0.000000
     3  C    0.000000   0.000000   4.123136   0.000000   0.000000   0.000000
     4  C    0.000000   0.000000   0.000000   4.134413   0.000000   0.000000
     5  C    0.000000   0.000000   0.000000   0.000000   4.134233   0.000000
     6  C    0.000000   0.000000   0.000000   0.000000   0.000000   4.128573
     7  H    0.000000   0.000000   0.000000   0.000000   0.000000   0.000000
     8  H    0.000000   0.000000   0.000000   0.000000   0.000000   0.000000
     9  H    0.000000   0.000000   0.000000   0.000000   0.000000   0.000000
    10  H    0.000000   0.000000   0.000000   0.000000   0.000000   0.000000
    11  H    0.000000   0.000000   0.000000   0.000000   0.000000   0.000000
    12  H    0.000000   0.000000   0.000000   0.000000   0.000000   0.000000
               7          8          9         10         11         12
     1  C    0.000000   0.000000   0.000000   0.000000   0.000000   0.000000
     2  C    0.000000   0.000000   0.000000   0.000000   0.000000   0.000000
     3  C    0.000000   0.000000   0.000000   0.000000   0.000000   0.000000
     4  C    0.000000   0.000000   0.000000   0.000000   0.000000   0.000000
     5  C    0.000000   0.000000   0.000000   0.000000   0.000000   0.000000
     6  C    0.000000   0.000000   0.000000   0.000000   0.000000   0.000000
     7  H    0.878366   0.000000   0.000000   0.000000   0.000000   0.000000
     8  H    0.000000   0.861085   0.000000   0.000000   0.000000   0.000000
     9  H    0.000000   0.000000   0.869629   0.000000   0.000000   0.000000
    10  H    0.000000   0.000000   0.000000   0.869742   0.000000   0.000000
    11  H    0.000000   0.000000   0.000000   0.000000   0.868764   0.000000
    12  H    0.000000   0.000000   0.000000   0.000000   0.000000   0.864444
 Mulliken charges:
               1
     1  C   -0.138035
     2  C   -0.129580
     3  C   -0.123136
     4  C   -0.134413
     5  C   -0.134233
     6  C   -0.128573
     7  H    0.121634
     8  H    0.138915
     9  H    0.130371
    10  H    0.130258
    11  H    0.131236
    12  H    0.135556
 Sum of Mulliken charges =  -0.00000
 Mulliken charges with hydrogens summed into heavy atoms:
               1
     1  C   -0.016400
     2  C    0.009335
     3  C    0.007235
     4  C   -0.004155
     5  C   -0.002997
     6  C    0.006983
 Charge=             -0.0000 electrons
 Dipole moment (field-independent basis, Debye):
    X=             -0.0178    Y=              0.0299    Z=              0.1602  Tot=              0.1639
 N-N= 1.191252097252D+02 E-N=-1.697223486848D+02  KE=-4.780692569812D+01
 Calling FoFJK, ICntrl=      2127 FMM=F ISym2X=0 I1Cent= 0 IOpClX= 0 NMat=1 NMatS=1 NMatT=0.
 -------------------------------------------------------------------
 Center     Atomic                   Forces (Hartrees/Bohr)
 Number     Number              X              Y              Z
 -------------------------------------------------------------------
      1        6          -0.014342934    0.025423834   -0.009516213
      2        6          -0.026111062    0.042553866    0.009482847
      3        6           0.007141618    0.025093604    0.019432324
      4        6           0.004341717   -0.036787606   -0.010969357
      5        6          -0.005668193    0.021361422    0.012425757
      6        6           0.025349380   -0.047859872   -0.017262804
      7        1          -0.012271728   -0.004460945    0.004597630
      8        1           0.014157436   -0.010570300   -0.006410052
      9        1          -0.022080045   -0.004349929   -0.004370248
     10        1           0.013204961    0.010418561   -0.004665433
     11        1           0.014651437   -0.016125703    0.002028317
     12        1           0.001627413   -0.004696932    0.005227233
 -------------------------------------------------------------------
 Cartesian Forces:  Max     0.047859872 RMS     0.018147525

 GradGradGradGradGradGradGradGradGradGradGradGradGradGradGradGradGradGrad
 Berny optimization.
 Search for a local minimum.
 Step number   1 out of a maximum of    2
 All quantities printed in internal units (Hartrees-Bohrs-Radians)
 Second derivative matrix not updated -- first step.
 ITU=  0
     Eigenvalues ---    0.01331   0.01555   0.02928   0.03970   0.06357
     Eigenvalues ---    0.06631   0.06702   0.06992   0.07097   0.09084
     Eigenvalues ---    0.09193   0.10219   0.11444   0.15610   0.18000
     Eigenvalues ---    0.27141   0.27329   0.28782   0.38842   0.40584
     Eigenvalues ---    0.42259   0.64072   0.66493   0.95190   1.05609
     Eigenvalues ---    1.14600   1.20307   1.40994   1.49765   1.55775
 Quadratic step=6.174D-01 exceeds max=3.000D-01 adjusted using Lamda=-6.534D-02.
 Angle between NR and scaled steps=  24.16 degrees.
 Angle between quadratic step and forces=  47.61 degrees.
 Linear search not attempted -- first point.
 B after Tr=    -0.002418    0.002848    0.003789
         Rot=    0.999997   -0.000292    0.002260   -0.000332 Ang=  -0.26 deg.
 Variable       Old X    -DE/DX   Delta X   Delta X   Delta X     New X
                                 (Linear)    (Quad)   (Total)
    X1       -1.26774  -0.01434   0.00000  -0.04103  -0.04210  -1.30983
    Y1       -2.25474   0.02542   0.00000   0.00541   0.00737  -2.24737
    Z1        0.07364  -0.00952   0.00000  -0.03910  -0.04254   0.03110
    X2        1.37914  -0.02611   0.00000  -0.05172  -0.05267   1.32647
    Y2       -2.36490   0.04255   0.00000   0.08560   0.08932  -2.27558
    Z2       -0.03626   0.00948   0.00000   0.04523   0.05369   0.01744
    X3        2.65103   0.00714   0.00000  -0.01766  -0.02004   2.63099
    Y3       -0.03875   0.02509   0.00000   0.04649   0.05109   0.01234
    Z3       -0.08860   0.01943   0.00000   0.07350   0.08919   0.00060
    X4        1.28246   0.00434   0.00000   0.02378   0.01947   1.30193
    Y4        2.27285  -0.03679   0.00000  -0.01119  -0.00752   2.26532
    Z4        0.09708  -0.01097   0.00000  -0.01551  -0.00450   0.09258
    X5       -1.35107  -0.00567   0.00000   0.02159   0.01806  -1.33300
    Y5        2.29863   0.02136   0.00000  -0.02484  -0.02282   2.27581
    Z5       -0.12958   0.01243   0.00000   0.04232   0.04142  -0.08815
    X6       -2.68648   0.02535   0.00000   0.03476   0.03255  -2.65393
    Y6        0.06755  -0.04786   0.00000  -0.06755  -0.06643   0.00112
    Z6        0.02310  -0.01726   0.00000  -0.06164  -0.06984  -0.04674
    X7       -2.20346  -0.01227   0.00000  -0.08073  -0.08056  -2.28402
    Y7       -4.08270  -0.00446   0.00000   0.00060   0.00192  -4.08078
    Z7        0.00739   0.00460   0.00000   0.02442   0.01551   0.02290
    X8        2.24193   0.01416   0.00000   0.03412   0.03360   2.27553
    Y8       -4.18346  -0.01057   0.00000   0.05539   0.05964  -4.12382
    Z8        0.24720  -0.00641   0.00000  -0.06503  -0.05336   0.19384
    X9        4.78742  -0.02208   0.00000  -0.06831  -0.07085   4.71656
    Y9        0.08483  -0.00435   0.00000  -0.01392  -0.00795   0.07688
    Z9        0.02972  -0.00437   0.00000  -0.02289   0.00227   0.03200
   X10        2.19052   0.01320   0.00000   0.08132   0.07423   2.26475
   Y10        4.04575   0.01042   0.00000   0.01708   0.02118   4.06693
   Z10        0.52952  -0.00467   0.00000  -0.09827  -0.08184   0.44768
   X11       -2.45115   0.01465   0.00000   0.06679   0.06263  -2.38851
   Y11        4.13498  -0.01613   0.00000  -0.05909  -0.05770   4.07728
   Z11       -0.25614   0.00203   0.00000   0.04580   0.04119  -0.21494
   X12       -4.75452   0.00163   0.00000   0.02739   0.02568  -4.72884
   Y12        0.07974  -0.00470   0.00000  -0.06789  -0.06809   0.01166
   Z12       -0.17294   0.00523   0.00000   0.02637   0.00880  -0.16414
         Item               Value     Threshold  Converged?
 Maximum Force            0.047860     0.000450     NO 
 RMS     Force            0.018148     0.000300     NO 
 Maximum Displacement     0.089319     0.001800     NO 
 RMS     Displacement     0.049425     0.001200     NO 
 Predicted change in Energy=-1.396527D-02
 GradGradGradGradGradGradGradGradGradGradGradGradGradGradGradGradGradGrad

 Unable to Open any file for archive entry.
 1\1\GINC-BHC0189\Force\RAM1\ZDO\C6H6\BWEIGHT\21-Mar-2025\0\\# AM1/STO-
 5G SCF=XQC FORCE nosym guess=read\\MD Step 24\\0,1\C,-0.67085724,-1.19
 315586,0.03896689\C,0.72980982,-1.25145287,-0.019186\C,1.40286669,-0.0
 2050622,-0.0468835\C,0.67864924,1.20273926,0.05137293\C,-0.71495333,1.
 21638308,-0.06856874\C,-1.42162223,0.03574615,0.01222378\H,-1.1660211,
 -2.16047369,0.00391297\H,1.18637926,-2.21379265,0.13081444\H,2.5333927
 2,0.0448919,0.01572974\H,1.15917401,2.14091794,0.28020869\H,-1.2970913
 7,2.18813688,-0.1355409\H,-2.51598404,0.04219852,-0.09151646\\Version=
 ES64L-G16RevC.01\HF=0.0508863\RMSD=7.029e-09\RMSF=1.815e-02\Dipole=-0.
 0070004,0.0117646,0.0630095\PG=C01 [X(C6H6)]\\@
 The archive entry for this job was punched.


 Money is a good servant but a bad master.
                        -- French Proverb
 Job cpu time:       0 days  0 hours  0 minutes  1.2 seconds.
 Elapsed time:       0 days  0 hours  0 minutes  0.9 seconds.
 File lengths (MBytes):  RWF=      6 Int=      0 D2E=      0 Chk=      2 Scr=      1
 Normal termination of Gaussian 16 at Fri Mar 21 15:03:15 2025.
