 Entering Gaussian System, Link 0=g16
 Initial command:
 /software/gaussian/g16-c01/avx2/g16/l1.exe "/local_scratch/28554159/Gau-25394.inp" -scrdir="/local_scratch/28554159/"
 Entering Link 1 = /software/gaussian/g16-c01/avx2/g16/l1.exe PID=     25415.
  
 Copyright (c) 1988-2019, Gaussian, Inc.  All Rights Reserved.
  
 This is part of the Gaussian(R) 16 program.  It is based on
 the Gaussian(R) 09 system (copyright 2009, Gaussian, Inc.),
 the Gaussian(R) 03 system (copyright 2003, Gaussian, Inc.),
 the Gaussian(R) 98 system (copyright 1998, Gaussian, Inc.),
 the Gaussian(R) 94 system (copyright 1995, Gaussian, Inc.),
 the Gaussian 92(TM) system (copyright 1992, Gaussian, Inc.),
 the Gaussian 90(TM) system (copyright 1990, Gaussian, Inc.),
 the Gaussian 88(TM) system (copyright 1988, Gaussian, Inc.),
 the Gaussian 86(TM) system (copyright 1986, Carnegie Mellon
 University), and the Gaussian 82(TM) system (copyright 1983,
 Carnegie Mellon University). Gaussian is a federally registered
 trademark of Gaussian, Inc.
  
 This software contains proprietary and confidential information,
 including trade secrets, belonging to Gaussian, Inc.
  
 This software is provided under written license and may be
 used, copied, transmitted, or stored only in accord with that
 written license.
  
 The following legend is applicable only to US Government
 contracts under FAR:
  
                    RESTRICTED RIGHTS LEGEND
  
 Use, reproduction and disclosure by the US Government is
 subject to restrictions as set forth in subparagraphs (a)
 and (c) of the Commercial Computer Software - Restricted
 Rights clause in FAR 52.227-19.
  
 Gaussian, Inc.
 340 Quinnipiac St., Bldg. 40, Wallingford CT 06492
  
  
 ---------------------------------------------------------------
 Warning -- This program may not be used in any manner that
 competes with the business of Gaussian, Inc. or will provide
 assistance to any competitor of Gaussian, Inc.  The licensee
 of this program is prohibited from giving any competitor of
 Gaussian, Inc. access to this program.  By using this program,
 the user acknowledges that Gaussian, Inc. is engaged in the
 business of creating and licensing software in the field of
 computational chemistry and represents and warrants to the
 licensee that it is not a competitor of Gaussian, Inc. and that
 it will not use this program in any manner prohibited above.
 ---------------------------------------------------------------
  

 Cite this work as:
 Gaussian 16, Revision C.01,
 M. J. Frisch, G. W. Trucks, H. B. Schlegel, G. E. Scuseria, 
 M. A. Robb, J. R. Cheeseman, G. Scalmani, V. Barone, 
 G. A. Petersson, H. Nakatsuji, X. Li, M. Caricato, A. V. Marenich, 
 J. Bloino, B. G. Janesko, R. Gomperts, B. Mennucci, H. P. Hratchian, 
 J. V. Ortiz, A. F. Izmaylov, J. L. Sonnenberg, D. Williams-Young, 
 F. Ding, F. Lipparini, F. Egidi, J. Goings, B. Peng, A. Petrone, 
 T. Henderson, D. Ranasinghe, V. G. Zakrzewski, J. Gao, N. Rega, 
 G. Zheng, W. Liang, M. Hada, M. Ehara, K. Toyota, R. Fukuda, 
 J. Hasegawa, M. Ishida, T. Nakajima, Y. Honda, O. Kitao, H. Nakai, 
 T. Vreven, K. Throssell, J. A. Montgomery, Jr., J. E. Peralta, 
 F. Ogliaro, M. J. Bearpark, J. J. Heyd, E. N. Brothers, K. N. Kudin, 
 V. N. Staroverov, T. A. Keith, R. Kobayashi, J. Normand, 
 K. Raghavachari, A. P. Rendell, J. C. Burant, S. S. Iyengar, 
 J. Tomasi, M. Cossi, J. M. Millam, M. Klene, C. Adamo, R. Cammi, 
 J. W. Ochterski, R. L. Martin, K. Morokuma, O. Farkas, 
 J. B. Foresman, and D. J. Fox, Gaussian, Inc., Wallingford CT, 2019.
 
 ******************************************
 Gaussian 16:  ES64L-G16RevC.01  3-Jul-2019
                21-Mar-2025 
 ******************************************
 %oldchk=../GS_OLD/geometry.chk
 %chk=geometry.chk
 %nprocshared=1
 Will use up to    1 processors via shared memory.
 %mem=2GB
 Copying data from "../GS_OLD/geometry.chk" to current chk file "geometry.chk"
 IOpt=  2 FromEx=T IUOpen= 4 IOptOp= 5 NList=   0 IFRang= 0 IUIn= 4 IUOut= 2.
 -------------------------------------------
 # AM1/STO-5G SCF=XQC FORCE nosym guess=read
 -------------------------------------------
 1/10=7,30=1,38=1/1,3;
 2/12=2,15=1,17=6,18=5,40=1/2;
 3/5=2,6=5,25=1,41=700000,71=1,116=-2/1,2,3;
 4/5=1,35=1/1;
 5/5=2,8=3,13=1,35=1,38=6/2,8;
 6/7=2,8=2,9=2,10=2,28=1/1;
 7/29=1,30=1/1,2,3,16;
 1/10=7,30=1/3;
 99//99;
 ----------
 MD Step 24
 ----------
 Symbolic Z-matrix:
 Charge =  0 Multiplicity = 1
 C                    -0.68226  -1.20463  -0.03354 
 C                     0.69346  -1.20741   0.0505 
 C                     1.43644   0.02487   0.02518 
 C                     0.70277   1.16597  -0.03865 
 C                    -0.71067   1.1769    0.00006 
 C                    -1.45306   0.03606   0.00479 
 H                    -1.263    -2.12022  -0.00897 
 H                     1.38454  -2.07963   0.03291 
 H                     2.52356   0.01867  -0.03482 
 H                     1.25381   2.1746    0.05418 
 H                    -1.26369   2.15715   0.07291 
 H                    -2.53968   0.08996   0.00568 
 

 GradGradGradGradGradGradGradGradGradGradGradGradGradGradGradGradGradGrad
 Berny optimization.
 Initialization pass.
 Trust Radius=3.00D-01 FncErr=1.00D-07 GrdErr=1.00D-07 EigMax=2.50D+02 EigMin=1.00D-04
 Number of steps in this run=      2 maximum allowed number of steps=      2.
 GradGradGradGradGradGradGradGradGradGradGradGradGradGradGradGradGradGrad

                          Input orientation:                          
 ---------------------------------------------------------------------
 Center     Atomic      Atomic             Coordinates (Angstroms)
 Number     Number       Type             X           Y           Z
 ---------------------------------------------------------------------
      1          6           0       -0.682259   -1.204634   -0.033539
      2          6           0        0.693462   -1.207410    0.050497
      3          6           0        1.436441    0.024871    0.025179
      4          6           0        0.702775    1.165968   -0.038647
      5          6           0       -0.710671    1.176898    0.000056
      6          6           0       -1.453059    0.036064    0.004789
      7          1           0       -1.263002   -2.120216   -0.008971
      8          1           0        1.384539   -2.079634    0.032911
      9          1           0        2.523564    0.018674   -0.034824
     10          1           0        1.253809    2.174603    0.054179
     11          1           0       -1.263692    2.157151    0.072908
     12          1           0       -2.539684    0.089959    0.005678
 ---------------------------------------------------------------------
                    Distance matrix (angstroms):
                    1          2          3          4          5
     1  C    0.000000
     2  C    1.378287   0.000000
     3  C    2.450310   1.439158   0.000000
     4  C    2.745560   2.375070   1.358103   0.000000
     5  C    2.381939   2.767501   2.436778   1.414018   0.000000
     6  C    1.461141   2.481102   2.889594   2.434377   1.361127
     7  H    1.084508   2.159746   3.448124   3.829383   3.343070
     8  H    2.245372   1.112956   2.105158   3.317206   3.872465
     9  H    3.431295   2.204504   1.088796   2.152109   3.435546
    10  H    3.895548   3.428121   2.157671   1.153082   2.203979
    11  H    3.413355   3.892457   3.440874   2.204967   1.127845
    12  H    2.264407   3.484022   3.976706   3.416622   2.127619
                    6          7          8          9         10
     6  C    0.000000
     7  H    2.164684   0.000000
     8  H    3.539623   2.648184   0.000000
     9  H    3.976859   4.348978   2.388485   0.000000
    10  H    3.450062   4.978333   4.256297   2.503643   0.000000
    11  H    2.130613   4.278151   4.996506   4.350633   2.517632
    12  H    1.087961   2.552451   4.484128   5.063912   4.328820
                   11         12
    11  H    0.000000
    12  H    2.430218   0.000000
 Symmetry turned off by external request.
 Stoichiometry    C6H6
 Framework group  C1[X(C6H6)]
 Deg. of freedom    30
 Full point group                 C1      NOp   1
 Rotational constants (GHZ):           5.8657328           5.4163846           2.8183182
 Standard basis: VSTO-5G (5D, 7F)
    30 basis functions,   180 primitive gaussians,    30 cartesian basis functions
    15 alpha electrons       15 beta electrons
       nuclear repulsion energy       119.2751747932 Hartrees.
 Integral buffers will be    131072 words long.
 Regular integral format.
 Two-electron integral symmetry is turned off.
 Do NDO integrals.
 One-electron integrals computed using PRISM.
 NBasis=    30 RedAO= F EigKep=  0.00D+00  NBF=    30
 NBsUse=    30 1.00D-04 EigRej=  0.00D+00 NBFU=    30
 Initial guess from the checkpoint file:  "geometry.chk"
 B after Tr=    -0.000618    0.001300   -0.001964
         Rot=    1.000000    0.000211    0.000040    0.000030 Ang=   0.02 deg.
 Keep J ints in memory in canonical form, NReq=861816.
 Overlap will be assumed to be unity.
 Requested convergence on RMS density matrix=1.00D-08 within  32 cycles.
 Requested convergence on MAX density matrix=1.00D-06.
 Requested convergence on             energy=1.00D-06.
 No special actions if energy rises.
 SCF Done:  E(RAM1) =  0.508229089877E-01 A.U. after   12 cycles
            NFock= 11  Conv=0.65D-08     -V/T= 1.0011
 QCSCF skips out because SCF is already converged.

 **********************************************************************

            Population analysis using the SCF Density.

 **********************************************************************

 Alpha  occ. eigenvalues --   -1.43020  -1.15996  -1.13756  -0.84839  -0.83901
 Alpha  occ. eigenvalues --   -0.65146  -0.59223  -0.56565  -0.52335  -0.51010
 Alpha  occ. eigenvalues --   -0.48841  -0.44491  -0.42282  -0.35587  -0.35340
 Alpha virt. eigenvalues --    0.01911   0.02343   0.10785   0.13702   0.14435
 Alpha virt. eigenvalues --    0.14971   0.15257   0.16411   0.17220   0.18649
 Alpha virt. eigenvalues --    0.18883   0.20429   0.20716   0.21180   0.22502
          Condensed to atoms (all electrons):
               1          2          3          4          5          6
     1  C    4.121523   0.000000   0.000000   0.000000   0.000000   0.000000
     2  C    0.000000   4.134656   0.000000   0.000000   0.000000   0.000000
     3  C    0.000000   0.000000   4.134600   0.000000   0.000000   0.000000
     4  C    0.000000   0.000000   0.000000   4.132103   0.000000   0.000000
     5  C    0.000000   0.000000   0.000000   0.000000   4.135129   0.000000
     6  C    0.000000   0.000000   0.000000   0.000000   0.000000   4.129357
     7  H    0.000000   0.000000   0.000000   0.000000   0.000000   0.000000
     8  H    0.000000   0.000000   0.000000   0.000000   0.000000   0.000000
     9  H    0.000000   0.000000   0.000000   0.000000   0.000000   0.000000
    10  H    0.000000   0.000000   0.000000   0.000000   0.000000   0.000000
    11  H    0.000000   0.000000   0.000000   0.000000   0.000000   0.000000
    12  H    0.000000   0.000000   0.000000   0.000000   0.000000   0.000000
               7          8          9         10         11         12
     1  C    0.000000   0.000000   0.000000   0.000000   0.000000   0.000000
     2  C    0.000000   0.000000   0.000000   0.000000   0.000000   0.000000
     3  C    0.000000   0.000000   0.000000   0.000000   0.000000   0.000000
     4  C    0.000000   0.000000   0.000000   0.000000   0.000000   0.000000
     5  C    0.000000   0.000000   0.000000   0.000000   0.000000   0.000000
     6  C    0.000000   0.000000   0.000000   0.000000   0.000000   0.000000
     7  H    0.874156   0.000000   0.000000   0.000000   0.000000   0.000000
     8  H    0.000000   0.867228   0.000000   0.000000   0.000000   0.000000
     9  H    0.000000   0.000000   0.862657   0.000000   0.000000   0.000000
    10  H    0.000000   0.000000   0.000000   0.874917   0.000000   0.000000
    11  H    0.000000   0.000000   0.000000   0.000000   0.874769   0.000000
    12  H    0.000000   0.000000   0.000000   0.000000   0.000000   0.858907
 Mulliken charges:
               1
     1  C   -0.121523
     2  C   -0.134656
     3  C   -0.134600
     4  C   -0.132103
     5  C   -0.135129
     6  C   -0.129357
     7  H    0.125844
     8  H    0.132772
     9  H    0.137343
    10  H    0.125083
    11  H    0.125231
    12  H    0.141093
 Sum of Mulliken charges =   0.00000
 Mulliken charges with hydrogens summed into heavy atoms:
               1
     1  C    0.004321
     2  C   -0.001883
     3  C    0.002744
     4  C   -0.007020
     5  C   -0.009898
     6  C    0.011736
 Charge=             -0.0000 electrons
 Dipole moment (field-independent basis, Debye):
    X=              0.0195    Y=              0.0631    Z=              0.0695  Tot=              0.0959
 N-N= 1.192751747932D+02 E-N=-1.699874336580D+02  KE=-4.781461461386D+01
 Calling FoFJK, ICntrl=      2127 FMM=F ISym2X=0 I1Cent= 0 IOpClX= 0 NMat=1 NMatS=1 NMatT=0.
 -------------------------------------------------------------------
 Center     Atomic                   Forces (Hartrees/Bohr)
 Number     Number              X              Y              Z
 -------------------------------------------------------------------
      1        6          -0.019732875    0.028799450    0.015077594
      2        6           0.022976516    0.016120572   -0.012523239
      3        6          -0.024944476   -0.033288494   -0.007832233
      4        6           0.003461734    0.056003435    0.017658569
      5        6           0.001589694    0.036891531    0.002522656
      6        6           0.039998005   -0.046716343   -0.007485863
      7        1          -0.002248014   -0.010708966   -0.002732877
      8        1          -0.018153209   -0.003015279    0.002747910
      9        1           0.005209855   -0.000954570    0.003815434
     10        1          -0.016068849   -0.023959447   -0.008378592
     11        1           0.012343826   -0.010711444   -0.003481472
     12        1          -0.004432206   -0.008460448    0.000612113
 -------------------------------------------------------------------
 Cartesian Forces:  Max     0.056003435 RMS     0.020166045

 GradGradGradGradGradGradGradGradGradGradGradGradGradGradGradGradGradGrad
 Berny optimization.
 Search for a local minimum.
 Step number   1 out of a maximum of    2
 All quantities printed in internal units (Hartrees-Bohrs-Radians)
 Second derivative matrix not updated -- first step.
 ITU=  0
     Eigenvalues ---    0.01397   0.01539   0.03081   0.04104   0.06219
     Eigenvalues ---    0.06541   0.06737   0.06924   0.07111   0.09213
     Eigenvalues ---    0.09424   0.10458   0.11453   0.15481   0.17656
     Eigenvalues ---    0.27395   0.28417   0.29576   0.37853   0.41382
     Eigenvalues ---    0.43422   0.62956   0.65093   0.93996   1.03854
     Eigenvalues ---    1.14449   1.18566   1.46428   1.55313   1.62337
 Quadratic step=4.358D-01 exceeds max=3.000D-01 adjusted using Lamda=-3.613D-02.
 Angle between NR and scaled steps=  13.61 degrees.
 Angle between quadratic step and forces=  51.85 degrees.
 Linear search not attempted -- first point.
 B after Tr=     0.004017    0.009712    0.002472
         Rot=    0.999999   -0.000985   -0.000498   -0.000241 Ang=  -0.13 deg.
 Variable       Old X    -DE/DX   Delta X   Delta X   Delta X     New X
                                 (Linear)    (Quad)   (Total)
    X1       -1.28928  -0.01973   0.00000  -0.00110   0.00400  -1.28528
    Y1       -2.27643   0.02880   0.00000   0.00731   0.01643  -2.26000
    Z1       -0.06338   0.01508   0.00000   0.04878   0.04807  -0.01531
    X2        1.31045   0.02298   0.00000  -0.01195  -0.00680   1.30366
    Y2       -2.28167   0.01612   0.00000   0.01641   0.02667  -2.25501
    Z2        0.09542  -0.01252   0.00000  -0.04954  -0.05283   0.04260
    X3        2.71448  -0.02494   0.00000  -0.05726  -0.05325   2.66123
    Y3        0.04700  -0.03329   0.00000  -0.00405   0.00690   0.05390
    Z3        0.04758  -0.00783   0.00000  -0.02773  -0.02782   0.01976
    X4        1.32805   0.00346   0.00000  -0.00073   0.00217   1.33022
    Y4        2.20336   0.05600   0.00000   0.08588   0.09625   2.29961
    Z4       -0.07303   0.01766   0.00000   0.06201   0.06768  -0.00535
    X5       -1.34297   0.00159   0.00000   0.02148   0.02441  -1.31856
    Y5        2.22402   0.03689   0.00000   0.05562   0.06466   2.28868
    Z5        0.00011   0.00252   0.00000   0.01205   0.02033   0.02044
    X6       -2.74588   0.04000   0.00000   0.09782   0.10182  -2.64406
    Y6        0.06815  -0.04672   0.00000  -0.04500  -0.03656   0.03159
    Z6        0.00905  -0.00749   0.00000  -0.01538  -0.01022  -0.00117
    X7       -2.38673  -0.00225   0.00000   0.00434   0.01031  -2.37642
    Y7       -4.00663  -0.01071   0.00000  -0.02907  -0.02051  -4.02714
    Z7       -0.01695  -0.00273   0.00000   0.01889   0.01578  -0.00117
    X8        2.61640  -0.01815   0.00000  -0.13776  -0.13177   2.48463
    Y8       -3.92994  -0.00302   0.00000  -0.05518  -0.04437  -3.97431
    Z8        0.06219   0.00275   0.00000  -0.00784  -0.01569   0.04650
    X9        4.76885   0.00521   0.00000  -0.03672  -0.03276   4.73609
    Y9        0.03529  -0.00095   0.00000  -0.03026  -0.01817   0.01712
    Z9       -0.06581   0.00382   0.00000   0.02200   0.01977  -0.04604
   X10        2.36936  -0.01607   0.00000  -0.03797  -0.03587   2.33349
   Y10        4.10940  -0.02396   0.00000  -0.00121   0.00947   4.11887
   Z10        0.10238  -0.00838   0.00000  -0.02875  -0.02051   0.08188
   X11       -2.38803   0.01234   0.00000   0.03786   0.04000  -2.34803
   Y11        4.07642  -0.01071   0.00000   0.01153   0.01991   4.09633
   Z11        0.13778  -0.00348   0.00000  -0.04231  -0.02945   0.10833
   X12       -4.79931  -0.00443   0.00000   0.07374   0.07772  -4.72158
   Y12        0.17000  -0.00846   0.00000  -0.12813  -0.12068   0.04931
   Z12        0.01073   0.00061   0.00000  -0.02237  -0.01512  -0.00439
         Item               Value     Threshold  Converged?
 Maximum Force            0.056003     0.000450     NO 
 RMS     Force            0.020166     0.000300     NO 
 Maximum Displacement     0.131767     0.001800     NO 
 RMS     Displacement     0.049523     0.001200     NO 
 Predicted change in Energy=-1.284878D-02
 GradGradGradGradGradGradGradGradGradGradGradGradGradGradGradGradGradGrad

 Unable to Open any file for archive entry.
 1\1\GINC-BHC0189\Force\RAM1\ZDO\C6H6\BWEIGHT\21-Mar-2025\0\\# AM1/STO-
 5G SCF=XQC FORCE nosym guess=read\\MD Step 24\\0,1\C,-0.6822587,-1.204
 63397,-0.03353858\C,0.69346172,-1.20741006,0.05049667\C,1.43644093,0.0
 2487065,0.02517862\C,0.70277495,1.16596832,-0.0386465\C,-0.71067059,1.
 17689849,0.00005588\C,-1.45305937,0.03606363,0.00478926\H,-1.2630023,-
 2.12021648,-0.0089709\H,1.38453935,-2.07963352,0.0329106\H,2.52356437,
 0.01867382,-0.03482422\H,1.25380945,2.17460254,0.05417856\H,-1.2636924
 5,2.15715083,0.07290833\H,-2.53968425,0.08995869,0.00567751\\Version=E
 S64L-G16RevC.01\HF=0.0508229\RMSD=6.477e-09\RMSF=2.017e-02\Dipole=0.00
 76701,0.0248447,0.0273505\PG=C01 [X(C6H6)]\\@
 The archive entry for this job was punched.


 THERE'S NOTHING WRONG WITH FOLLOWING A TRAIN OF THOUGHT...
 AS LONG AS IT ULTIMATELY PULLS INTO THE STATION.
 Job cpu time:       0 days  0 hours  0 minutes  1.2 seconds.
 Elapsed time:       0 days  0 hours  0 minutes  0.9 seconds.
 File lengths (MBytes):  RWF=      6 Int=      0 D2E=      0 Chk=      2 Scr=      1
 Normal termination of Gaussian 16 at Fri Mar 21 15:03:17 2025.
