 Entering Gaussian System, Link 0=g16
 Initial command:
 /software/gaussian/g16-c01/avx2/g16/l1.exe "/local_scratch/28554153/Gau-28366.inp" -scrdir="/local_scratch/28554153/"
 Entering Link 1 = /software/gaussian/g16-c01/avx2/g16/l1.exe PID=     28378.
  
 Copyright (c) 1988-2019, Gaussian, Inc.  All Rights Reserved.
  
 This is part of the Gaussian(R) 16 program.  It is based on
 the Gaussian(R) 09 system (copyright 2009, Gaussian, Inc.),
 the Gaussian(R) 03 system (copyright 2003, Gaussian, Inc.),
 the Gaussian(R) 98 system (copyright 1998, Gaussian, Inc.),
 the Gaussian(R) 94 system (copyright 1995, Gaussian, Inc.),
 the Gaussian 92(TM) system (copyright 1992, Gaussian, Inc.),
 the Gaussian 90(TM) system (copyright 1990, Gaussian, Inc.),
 the Gaussian 88(TM) system (copyright 1988, Gaussian, Inc.),
 the Gaussian 86(TM) system (copyright 1986, Carnegie Mellon
 University), and the Gaussian 82(TM) system (copyright 1983,
 Carnegie Mellon University). Gaussian is a federally registered
 trademark of Gaussian, Inc.
  
 This software contains proprietary and confidential information,
 including trade secrets, belonging to Gaussian, Inc.
  
 This software is provided under written license and may be
 used, copied, transmitted, or stored only in accord with that
 written license.
  
 The following legend is applicable only to US Government
 contracts under FAR:
  
                    RESTRICTED RIGHTS LEGEND
  
 Use, reproduction and disclosure by the US Government is
 subject to restrictions as set forth in subparagraphs (a)
 and (c) of the Commercial Computer Software - Restricted
 Rights clause in FAR 52.227-19.
  
 Gaussian, Inc.
 340 Quinnipiac St., Bldg. 40, Wallingford CT 06492
  
  
 ---------------------------------------------------------------
 Warning -- This program may not be used in any manner that
 competes with the business of Gaussian, Inc. or will provide
 assistance to any competitor of Gaussian, Inc.  The licensee
 of this program is prohibited from giving any competitor of
 Gaussian, Inc. access to this program.  By using this program,
 the user acknowledges that Gaussian, Inc. is engaged in the
 business of creating and licensing software in the field of
 computational chemistry and represents and warrants to the
 licensee that it is not a competitor of Gaussian, Inc. and that
 it will not use this program in any manner prohibited above.
 ---------------------------------------------------------------
  

 Cite this work as:
 Gaussian 16, Revision C.01,
 M. J. Frisch, G. W. Trucks, H. B. Schlegel, G. E. Scuseria, 
 M. A. Robb, J. R. Cheeseman, G. Scalmani, V. Barone, 
 G. A. Petersson, H. Nakatsuji, X. Li, M. Caricato, A. V. Marenich, 
 J. Bloino, B. G. Janesko, R. Gomperts, B. Mennucci, H. P. Hratchian, 
 J. V. Ortiz, A. F. Izmaylov, J. L. Sonnenberg, D. Williams-Young, 
 F. Ding, F. Lipparini, F. Egidi, J. Goings, B. Peng, A. Petrone, 
 T. Henderson, D. Ranasinghe, V. G. Zakrzewski, J. Gao, N. Rega, 
 G. Zheng, W. Liang, M. Hada, M. Ehara, K. Toyota, R. Fukuda, 
 J. Hasegawa, M. Ishida, T. Nakajima, Y. Honda, O. Kitao, H. Nakai, 
 T. Vreven, K. Throssell, J. A. Montgomery, Jr., J. E. Peralta, 
 F. Ogliaro, M. J. Bearpark, J. J. Heyd, E. N. Brothers, K. N. Kudin, 
 V. N. Staroverov, T. A. Keith, R. Kobayashi, J. Normand, 
 K. Raghavachari, A. P. Rendell, J. C. Burant, S. S. Iyengar, 
 J. Tomasi, M. Cossi, J. M. Millam, M. Klene, C. Adamo, R. Cammi, 
 J. W. Ochterski, R. L. Martin, K. Morokuma, O. Farkas, 
 J. B. Foresman, and D. J. Fox, Gaussian, Inc., Wallingford CT, 2019.
 
 ******************************************
 Gaussian 16:  ES64L-G16RevC.01  3-Jul-2019
                21-Mar-2025 
 ******************************************
 %oldchk=../TD_OLD_S1/geometry.chk
 %chk=geometry.chk
 %nprocshared=1
 Will use up to    1 processors via shared memory.
 %mem=2GB
 Copying data from "../TD_OLD_S1/geometry.chk" to current chk file "geometry.chk"
 IOpt=  2 FromEx=T IUOpen= 4 IOptOp= 5 NList=   0 IFRang= 0 IUIn= 4 IUOut= 2.
 ----------------------------------------------------------------------
 # AM1/STO-5G SCF=XQC TD=(read,singlets,nstates=5,root=1) nosym IOp(9/4
 0=3) guess=read
 ----------------------------------------------------------------------
 1/38=1,172=1/1;
 2/12=2,15=1,17=6,18=5,40=1/2;
 3/5=2,6=5,25=1,41=700000,116=-2/1,2,3,8;
 4/5=1,35=1/1;
 5/5=2,8=3,13=1,35=1,38=6/2,8;
 8/6=1,10=90,107=1,108=5/1;
 9/8=1,40=3,41=5,42=1,48=1,49=13,70=2/14;
 6/7=2,8=2,9=2,10=2/1;
 99/5=1,9=1/99;
 ----------
 MD Step 25
 ----------
 Symbolic Z-matrix:
 Charge =  0 Multiplicity = 1
 C                    -0.66784  -1.19668   0.03703 
 C                     0.72307  -1.25322  -0.01197 
 C                     1.40769  -0.01658  -0.05447 
 C                     0.67319   1.20334   0.05741 
 C                    -0.71799   1.21411  -0.06499 
 C                    -1.41698   0.03331   0.00795 
 H                    -1.18877  -2.14411   0.00289 
 H                     1.17211  -2.22596   0.12115 
 H                     2.56916   0.05324   0.01623 
 H                     1.17638   2.1494    0.26092 
 H                    -1.29521   2.21249  -0.15706 
 H                    -2.50088   0.062    -0.07684 
 
                          Input orientation:                          
 ---------------------------------------------------------------------
 Center     Atomic      Atomic             Coordinates (Angstroms)
 Number     Number       Type             X           Y           Z
 ---------------------------------------------------------------------
      1          6           0       -0.667840   -1.196680    0.037030
      2          6           0        0.723066   -1.253224   -0.011969
      3          6           0        1.407689   -0.016577   -0.054466
      4          6           0        0.673186    1.203344    0.057414
      5          6           0       -0.717993    1.214115   -0.064985
      6          6           0       -1.416979    0.033305    0.007949
      7          1           0       -1.188769   -2.144111    0.002892
      8          1           0        1.172107   -2.225957    0.121150
      9          1           0        2.569161    0.053238    0.016233
     10          1           0        1.176383    2.149398    0.260920
     11          1           0       -1.295212    2.212492   -0.157062
     12          1           0       -2.500875    0.062004   -0.076840
 ---------------------------------------------------------------------
                    Distance matrix (angstroms):
                    1          2          3          4          5
     1  C    0.000000
     2  C    1.392917   0.000000
     3  C    2.389317   1.414146   0.000000
     4  C    2.749342   2.458054   1.428363   0.000000
     5  C    2.413473   2.857835   2.456265   1.396594   0.000000
     6  C    1.440457   2.497067   2.825798   2.395877   1.374122
     7  H    1.081739   2.109269   3.357274   3.830836   3.391743
     8  H    2.109951   1.079614   2.228833   3.465990   3.929531
     9  H    3.470001   2.261793   1.165714   2.217919   3.487064
    10  H    3.827208   3.443516   2.201004   1.090706   2.137669
    11  H    3.471847   4.013189   3.504989   2.222379   1.156900
    12  H    2.226492   3.482503   3.909418   3.375699   2.122774
                    6          7          8          9         10
     6  C    0.000000
     7  H    2.189348   0.000000
     8  H    3.438087   2.365253   0.000000
     9  H    3.986199   4.353225   2.675350   0.000000
    10  H    3.356690   4.908640   4.377589   2.528555   0.000000
    11  H    2.188815   4.360838   5.085754   4.430100   2.507483
    12  H    1.087586   2.568058   4.331831   5.070898   4.241877
                   11         12
    11  H    0.000000
    12  H    2.466710   0.000000
 Symmetry turned off by external request.
 Stoichiometry    C6H6
 Framework group  C1[X(C6H6)]
 Deg. of freedom    30
 Full point group                 C1      NOp   1
 Rotational constants (GHZ):           5.8013134           5.3931664           2.8027633
 Standard basis: VSTO-5G (5D, 7F)
    30 basis functions,   180 primitive gaussians,    30 cartesian basis functions
    15 alpha electrons       15 beta electrons
       nuclear repulsion energy       119.0324044701 Hartrees.
 Integral buffers will be    131072 words long.
 Regular integral format.
 Two-electron integral symmetry is turned off.
 Do NDO integrals.
 One-electron integrals computed using PRISM.
 NBasis=    30 RedAO= F EigKep=  0.00D+00  NBF=    30
 NBsUse=    30 1.00D-04 EigRej=  0.00D+00 NBFU=    30
 Initial guess from the checkpoint file:  "geometry.chk"
 B after Tr=     0.000737    0.001453   -0.000813
         Rot=    1.000000    0.000285   -0.000205    0.000477 Ang=   0.07 deg.
 Keep J ints in memory in canonical form, NReq=861816.
 Overlap will be assumed to be unity.
 Requested convergence on RMS density matrix=1.00D-08 within  32 cycles.
 Requested convergence on MAX density matrix=1.00D-06.
 Requested convergence on             energy=1.00D-06.
 No special actions if energy rises.
 SCF Done:  E(RAM1) =  0.533542668323E-01 A.U. after   12 cycles
            NFock= 11  Conv=0.59D-08     -V/T= 1.0011
 QCSCF skips out because SCF is already converged.
 Range of M.O.s used for correlation:     1    30
 NBasis=    30 NAE=    15 NBE=    15 NFC=     0 NFV=     0
 NROrb=     30 NOA=    15 NOB=    15 NVA=    15 NVB=    15
 Keep J ints in memory in canonical form, NReq=862156.
 Generating guess from checkpoint file densities.
 Convergence on wavefunction:    0.001000000000000
 Iteration     1 Dimension    10 NMult     0 NNew     10
 CISAX will form    10 AO SS matrices at one time.
 Iteration     2 Dimension    20 NMult    10 NNew     10
 Iteration     3 Dimension    30 NMult    20 NNew     10
 Iteration     4 Dimension    38 NMult    30 NNew      8
 Iteration     5 Dimension    44 NMult    38 NNew      6
 Iteration     6 Dimension    50 NMult    44 NNew      6
 Iteration     7 Dimension    52 NMult    50 NNew      2
 Iteration     8 Dimension    54 NMult    52 NNew      2
 Iteration     9 Dimension    56 NMult    54 NNew      2
 Iteration    10 Dimension    58 NMult    56 NNew      2
 Convergence on energies, max DE= 8.47D-06.
 ***********************************************************************
 Excited states from <AA,BB:AA,BB> singles matrix:
 ***********************************************************************
 
 Ground to excited state transition densities written to RWF  633
 Ground to excited state transition electric dipole moments (Au):
       state          X           Y           Z        Dip. S.      Osc.
         1         0.0846     -0.0070     -0.0030      0.0072      0.0007
         2         0.0832     -0.2706     -0.0953      0.0892      0.0088
         3         1.5552     -0.1251     -0.0626      2.4381      0.3130
         4        -0.1257     -1.4953      0.0310      2.2528      0.2902
         5        -0.0160      0.1287      0.0867      0.0243      0.0035
 Ground to excited state transition velocity dipole moments (Au):
       state          X           Y           Z        Dip. S.      Osc.
         1        -0.0138      0.0020      0.0003      0.0002      0.0009
         2        -0.0213      0.0631      0.0576      0.0078      0.0350
         3        -0.4677      0.0451     -0.0284      0.2216      0.7672
         4         0.0315      0.4564     -0.0049      0.2093      0.7221
         5         0.0136     -0.0421      0.0993      0.0118      0.0362
 Ground to excited state transition magnetic dipole moments (Au):
       state          X           Y           Z
         1        -0.0074     -0.0274      0.0075
         2         0.0860     -0.0354      0.1230
         3        -0.0245     -0.0452     -0.0455
         4        -0.0091     -0.0322     -0.0669
         5         0.0138      0.1053     -0.0319
 Ground to excited state transition velocity quadrupole moments (Au):
       state          XX          YY          ZZ          XY          XZ          YZ
         1        -0.0070      0.0056     -0.0016     -0.0037      0.0183     -0.0047
         2        -0.0183      0.0279      0.0040     -0.0223      0.0314      0.0677
         3        -0.0424      0.0395     -0.0094      0.0275      0.0356     -0.0548
         4        -0.0533     -0.0035      0.0183      0.0444      0.0577      0.0178
         5        -0.1120      0.0838      0.0028      0.0275      0.0119     -0.0017
 <0|del|b> * <b|rxdel|0> + <0|del|b> * <b|delr+rdel|0>
 Rotatory Strengths (R) in cgs (10**-40 erg-esu-cm/Gauss)
       state          XX          YY          ZZ    R(velocity)    E-M Angle
         1        -0.2391      0.4407      0.0453      0.0823       90.00
         2         3.7839     12.2242     -1.5265      4.8272       77.13
         3        -5.7484     71.9404    -26.8452     13.1156       70.64
         4       -74.9046      1.4851     19.7382    -17.8938      115.38
         5        -7.1223     -9.3264     -7.6952     -8.0480      127.98
 1/2[<0|r|b>*<b|rxdel|0> + (<0|rxdel|b>*<b|r|0>)*]
 Rotatory Strengths (R) in cgs (10**-40 erg-esu-cm/Gauss)
       state          XX          YY          ZZ     R(length)
         1         0.4401     -0.1358      0.0159      0.1067
         2        -5.0601     -6.7730      8.2930     -1.1800
         3        26.9375     -3.9961     -2.0148      6.9756
         4        -0.8106    -34.0743      1.4683    -11.1389
         5         0.1555     -9.5865      1.9567     -2.4914
  1/2[<0|del|b>*<b|r|0> + (<0|r|b>*<b|del|0>)*] (Au)
       state          X           Y           Z        Dip. S.   Osc.(frdel)
         1        -0.0012     -0.0000     -0.0000      0.0012      0.0008
         2        -0.0018     -0.0171     -0.0055      0.0243      0.0162
         3        -0.7273     -0.0056      0.0018      0.7312      0.4875
         4        -0.0040     -0.6825     -0.0002      0.6866      0.4577
         5        -0.0002     -0.0054      0.0086     -0.0030     -0.0020

 Excitation energies and oscillator strengths:
 
 Excited state symmetry could not be determined.
 Excited State   1:      Singlet-?Sym    3.7011 eV  334.99 nm  f=0.0007  <S**2>=0.000
       2 -> 21         0.00101
       2 -> 23         0.00308
       2 -> 24         0.00126
       2 -> 25         0.00127
       3 -> 24         0.00284
       3 -> 26         0.00235
       4 -> 17        -0.00269
       4 -> 18        -0.00135
       4 -> 27         0.00283
       5 -> 16         0.00438
       5 -> 17        -0.00187
       5 -> 18         0.00125
       5 -> 28        -0.00243
       6 -> 17        -0.00142
       7 -> 23         0.00116
       7 -> 29        -0.00220
       8 -> 16        -0.00158
       8 -> 18        -0.01052
       8 -> 22         0.00105
       8 -> 24         0.00153
       9 -> 16         0.00102
       9 -> 17         0.00124
       9 -> 18         0.00544
       9 -> 21         0.00143
       9 -> 23         0.00301
       9 -> 24         0.00180
       9 -> 25         0.00243
       9 -> 29         0.00128
      10 -> 18         0.00192
      10 -> 21         0.00112
      10 -> 23         0.00142
      10 -> 24        -0.00153
      10 -> 26        -0.00129
      11 -> 16        -0.00277
      11 -> 17        -0.00127
      11 -> 18        -0.00172
      11 -> 22        -0.00179
      11 -> 23         0.00188
      11 -> 24         0.00315
      11 -> 25         0.00152
      11 -> 26         0.00345
      11 -> 27         0.00356
      11 -> 28        -0.00269
      11 -> 29        -0.00661
      12 -> 16         0.00415
      12 -> 27         0.00175
      13 -> 16        -0.00194
      13 -> 20         0.00137
      13 -> 28        -0.00172
      13 -> 29        -0.00115
      14 -> 16         0.47767
      14 -> 17         0.06276
      14 -> 18        -0.00104
      14 -> 19        -0.00343
      14 -> 20        -0.00258
      14 -> 21         0.00357
      14 -> 22         0.00165
      14 -> 24         0.00172
      14 -> 25         0.00122
      14 -> 27         0.00355
      14 -> 29         0.00275
      14 -> 30         0.00306
      15 -> 16        -0.09469
      15 -> 17         0.51769
      15 -> 18         0.00608
      15 -> 19         0.00236
      15 -> 20         0.00296
      15 -> 21        -0.00225
      15 -> 22        -0.00178
      15 -> 24         0.00201
      15 -> 26        -0.00172
      15 -> 27         0.00726
      15 -> 28         0.00117
      15 -> 29        -0.00143
      15 -> 30        -0.00208
       2 <- 23         0.00120
       4 <- 27         0.00207
       5 <- 28        -0.00202
       7 <- 29        -0.00186
       8 <- 24         0.00103
      10 <- 16        -0.00135
      12 <- 16         0.00929
      12 <- 17        -0.00436
      13 <- 16        -0.00193
      13 <- 17        -0.00233
      14 <- 16         0.07189
      14 <- 17         0.01261
      14 <- 18        -0.00100
      14 <- 21         0.00382
      14 <- 23        -0.00155
      14 <- 27        -0.00101
      14 <- 28        -0.00162
      15 <- 16        -0.00707
      15 <- 17         0.06417
      15 <- 18         0.00124
      15 <- 19         0.00317
      15 <- 20        -0.00150
      15 <- 22        -0.00118
      15 <- 23        -0.00197
      15 <- 24         0.00173
      15 <- 27        -0.00187
 This state for optimization and/or second-order correction.
 Total Energy, E(TD-HF/TD-DFT) =  0.189366605543    
 Copying the excited state density for this state as the 1-particle RhoCI density.
 
 Excited state symmetry could not be determined.
 Excited State   2:      Singlet-?Sym    4.0179 eV  308.58 nm  f=0.0088  <S**2>=0.000
       1 -> 16        -0.00140
       1 -> 19        -0.00243
       1 -> 21         0.00119
       2 -> 17         0.00106
       2 -> 24        -0.00272
       2 -> 26         0.00210
       3 -> 18        -0.00185
       3 -> 21         0.00139
       3 -> 23         0.00335
       3 -> 24         0.00116
       3 -> 25        -0.00188
       4 -> 16        -0.00251
       4 -> 17         0.00219
       4 -> 18        -0.00130
       4 -> 20        -0.00160
       4 -> 23         0.00175
       4 -> 24        -0.00148
       4 -> 27        -0.00147
       4 -> 28        -0.00473
       4 -> 29        -0.00113
       5 -> 16         0.00249
       5 -> 17        -0.00137
       5 -> 18        -0.00196
       5 -> 19         0.00246
       5 -> 21        -0.00157
       5 -> 22        -0.00147
       5 -> 23         0.00133
       5 -> 27        -0.00560
       5 -> 30         0.00137
       6 -> 16        -0.00210
       6 -> 18        -0.00115
       6 -> 19        -0.00296
       6 -> 20         0.00193
       6 -> 22         0.00215
       6 -> 27         0.00135
       7 -> 16        -0.00178
       7 -> 17        -0.00124
       7 -> 18        -0.00603
       7 -> 20        -0.00116
       7 -> 22         0.00131
       7 -> 24        -0.00369
       7 -> 26        -0.00127
       8 -> 17         0.00110
       8 -> 22        -0.00224
       8 -> 23         0.00723
       8 -> 24         0.00275
       8 -> 25         0.00248
       8 -> 26        -0.00313
       8 -> 27         0.00236
       8 -> 28         0.00207
       8 -> 29        -0.00381
       9 -> 16         0.00363
       9 -> 18         0.00987
       9 -> 21         0.00153
       9 -> 22        -0.00120
       9 -> 23         0.00186
       9 -> 24        -0.00171
       9 -> 25         0.00134
       9 -> 26         0.00946
       9 -> 27        -0.00135
       9 -> 28         0.00147
       9 -> 29        -0.00217
      10 -> 16         0.00314
      10 -> 17         0.00124
      10 -> 18        -0.01816
      10 -> 21        -0.00496
      10 -> 22         0.00162
      10 -> 23        -0.00639
      10 -> 24        -0.00404
      10 -> 25         0.00346
      10 -> 29         0.00327
      11 -> 16        -0.00182
      11 -> 18        -0.10845
      11 -> 21        -0.00826
      11 -> 23        -0.00195
      11 -> 27         0.00282
      11 -> 28         0.00105
      12 -> 16        -0.01404
      12 -> 17        -0.00177
      12 -> 18        -0.01572
      12 -> 20         0.00236
      12 -> 21         0.01002
      12 -> 22        -0.00279
      12 -> 23        -0.00707
      12 -> 25        -0.00126
      12 -> 26         0.00191
      12 -> 27         0.00942
      12 -> 28        -0.00362
      12 -> 30        -0.00520
      13 -> 16        -0.00765
      13 -> 17        -0.00123
      13 -> 18        -0.01106
      13 -> 19         0.00471
      13 -> 20         0.00850
      13 -> 21         0.00490
      13 -> 22        -0.00728
      13 -> 23        -0.00235
      13 -> 25        -0.00158
      13 -> 27        -0.00700
      13 -> 28         0.00243
      13 -> 30         0.00206
      14 -> 16        -0.05595
      14 -> 17         0.39995
      14 -> 18         0.00252
      14 -> 19         0.00382
      14 -> 20         0.00206
      14 -> 21        -0.00452
      14 -> 22        -0.00399
      14 -> 23        -0.00164
      14 -> 24         0.00452
      14 -> 25         0.00149
      14 -> 26        -0.00148
      14 -> 27        -0.00384
      14 -> 28         0.00305
      14 -> 29         0.00172
      15 -> 16        -0.56069
      15 -> 17        -0.10001
      15 -> 18        -0.00566
      15 -> 19         0.00523
      15 -> 20         0.00590
      15 -> 21        -0.00121
      15 -> 22        -0.00172
      15 -> 25        -0.00450
      15 -> 26        -0.00280
      15 -> 28         0.00218
      15 -> 29         0.00131
      15 -> 30        -0.00104
       1 <- 19        -0.00455
       1 <- 21         0.00276
       1 <- 22         0.00168
       1 <- 30        -0.00221
       2 <- 20        -0.00117
       2 <- 24        -0.00541
       2 <- 26        -0.00119
       3 <- 18        -0.00112
       3 <- 19        -0.00106
       3 <- 21         0.00239
       3 <- 22        -0.00174
       3 <- 23         0.00686
       3 <- 24         0.00286
       4 <- 16        -0.00132
       4 <- 23         0.00130
       4 <- 24        -0.00100
       4 <- 27        -0.00117
       4 <- 28        -0.00504
       4 <- 29        -0.00136
       5 <- 17        -0.00115
       5 <- 19         0.00227
       5 <- 22        -0.00128
       5 <- 27        -0.00615
       5 <- 28         0.00124
       6 <- 19        -0.00189
       6 <- 22         0.00142
       6 <- 30        -0.00177
       7 <- 16        -0.00111
       7 <- 18        -0.00187
       7 <- 24        -0.00190
       8 <- 22        -0.00117
       8 <- 23         0.00422
       8 <- 24         0.00171
       8 <- 25         0.00123
       8 <- 26        -0.00149
       8 <- 27         0.00207
       8 <- 28         0.00195
       8 <- 29        -0.00563
       9 <- 18        -0.00137
       9 <- 23         0.00153
       9 <- 24        -0.00267
       9 <- 26         0.00155
       9 <- 28         0.00141
      10 <- 17        -0.00158
      10 <- 18         0.00366
      10 <- 21        -0.00225
      10 <- 22         0.00172
      10 <- 23        -0.00567
      10 <- 24        -0.00397
      10 <- 29         0.00105
      11 <- 16         0.00164
      11 <- 17        -0.00134
      11 <- 18         0.01375
      11 <- 21         0.00106
      11 <- 23         0.00187
      12 <- 17         0.00504
      12 <- 18         0.00110
      12 <- 20         0.00114
      12 <- 21         0.00446
      12 <- 23        -0.00252
      12 <- 27         0.00635
      12 <- 28        -0.00116
      12 <- 30        -0.00222
      13 <- 16         0.00105
      13 <- 17        -0.00158
      13 <- 19         0.00208
      13 <- 20         0.00261
      13 <- 21         0.00185
      13 <- 22        -0.00238
      13 <- 23        -0.00137
      13 <- 27        -0.00401
      13 <- 28         0.00352
      14 <- 16        -0.00681
      14 <- 17         0.02954
      14 <- 18         0.00179
      14 <- 19         0.00301
      14 <- 20        -0.00188
      14 <- 22        -0.00171
      14 <- 23        -0.00200
      14 <- 24         0.00189
      14 <- 27        -0.00282
      14 <- 28         0.00168
      15 <- 16         0.00357
      15 <- 18         0.00230
      15 <- 19         0.00114
      15 <- 21        -0.00225
      15 <- 23         0.00122
      15 <- 28         0.00189
 
 Excited state symmetry could not be determined.
 Excited State   3:      Singlet-?Sym    5.2393 eV  236.64 nm  f=0.3130  <S**2>=0.000
       1 -> 16         0.00130
       1 -> 28        -0.00231
       2 -> 18         0.00281
       2 -> 19        -0.00164
       2 -> 22        -0.00387
       2 -> 23         0.00109
       2 -> 24         0.00127
       2 -> 25         0.00167
       2 -> 29         0.00175
       3 -> 16         0.00135
       3 -> 18         0.00468
       3 -> 19        -0.00282
       3 -> 20        -0.00167
       3 -> 22        -0.00548
       3 -> 23         0.00139
       3 -> 24        -0.00207
       3 -> 25         0.00113
       3 -> 26        -0.00214
       3 -> 29        -0.00132
       4 -> 16         0.00110
       4 -> 17        -0.00389
       4 -> 19        -0.00909
       4 -> 20        -0.00788
       4 -> 21         0.00594
       4 -> 22         0.00353
       4 -> 23        -0.00254
       4 -> 24         0.00105
       4 -> 25         0.00123
       4 -> 27         0.00171
       4 -> 28        -0.00131
       4 -> 30        -0.00642
       5 -> 16        -0.00511
       5 -> 17        -0.00553
       5 -> 18        -0.00184
       5 -> 19         0.00918
       5 -> 22        -0.00473
       5 -> 23        -0.00181
       5 -> 28         0.00114
       5 -> 30         0.00431
       6 -> 16         0.00865
       6 -> 17        -0.00372
       6 -> 20         0.01431
       6 -> 21         0.00528
       6 -> 22        -0.00328
       6 -> 23         0.00304
       6 -> 24        -0.00423
       6 -> 27         0.00236
       6 -> 28        -0.00539
       7 -> 16        -0.00372
       7 -> 17         0.00151
       7 -> 18         0.01462
       7 -> 19        -0.00152
       7 -> 20        -0.00745
       7 -> 21         0.01055
       7 -> 22        -0.00495
       7 -> 23         0.02425
       7 -> 24        -0.00485
       7 -> 25         0.00405
       7 -> 26        -0.00920
       7 -> 28         0.00149
       8 -> 16         0.01019
       8 -> 17        -0.00292
       8 -> 19        -0.00314
       8 -> 20         0.00280
       8 -> 21         0.00215
       8 -> 22        -0.00857
       8 -> 23         0.01524
       8 -> 24         0.02996
       8 -> 25         0.01502
       8 -> 26         0.01838
       8 -> 27         0.00267
       8 -> 29        -0.00287
       9 -> 16         0.00525
       9 -> 17         0.00253
       9 -> 18         0.02460
       9 -> 19         0.00113
       9 -> 20         0.00222
       9 -> 21         0.00483
       9 -> 22        -0.00812
       9 -> 23         0.01121
       9 -> 24         0.01012
       9 -> 25         0.02043
       9 -> 26         0.00602
       9 -> 27        -0.00410
       9 -> 28        -0.00506
       9 -> 29         0.01571
       9 -> 30         0.00264
      10 -> 16        -0.00830
      10 -> 17        -0.00751
      10 -> 18        -0.03103
      10 -> 19         0.00109
      10 -> 20        -0.00273
      10 -> 21        -0.00284
      10 -> 22         0.00411
      10 -> 23        -0.00392
      10 -> 24         0.00802
      10 -> 25        -0.00106
      10 -> 26         0.02279
      10 -> 27        -0.00551
      10 -> 28        -0.00297
      10 -> 29         0.01894
      10 -> 30        -0.00129
      11 -> 16        -0.00312
      11 -> 17         0.00364
      11 -> 18         0.01592
      11 -> 19        -0.00695
      11 -> 20        -0.00142
      11 -> 21         0.00998
      11 -> 22        -0.01057
      11 -> 23         0.02343
      11 -> 24        -0.00276
      11 -> 25         0.01120
      11 -> 26        -0.01821
      11 -> 27         0.00359
      11 -> 29        -0.00379
      11 -> 30        -0.00157
      12 -> 16         0.07788
      12 -> 17         0.12786
      12 -> 18         0.01716
      12 -> 19        -0.02134
      12 -> 20         0.01800
      12 -> 21        -0.02066
      12 -> 22         0.01606
      12 -> 23         0.01168
      12 -> 24        -0.00458
      12 -> 26         0.00378
      12 -> 27         0.03879
      12 -> 29         0.00761
      13 -> 16        -0.04090
      13 -> 17         0.01487
      13 -> 18        -0.01216
      13 -> 19         0.02255
      13 -> 20         0.03366
      13 -> 21         0.00426
      13 -> 22        -0.02265
      13 -> 23         0.00693
      13 -> 24        -0.01107
      13 -> 25        -0.00645
      13 -> 26         0.00465
      13 -> 28        -0.03929
      13 -> 29        -0.00846
      13 -> 30         0.02983
      14 -> 16        -0.45917
      14 -> 17        -0.22438
      14 -> 18        -0.02032
      14 -> 19         0.00440
      14 -> 20        -0.00490
      14 -> 21         0.02234
      14 -> 22        -0.00703
      14 -> 23        -0.00953
      14 -> 24         0.00104
      14 -> 25        -0.00183
      14 -> 26         0.00168
      14 -> 27        -0.01936
      14 -> 28        -0.00802
      14 -> 29        -0.00449
      14 -> 30        -0.00952
      15 -> 16        -0.19204
      15 -> 17         0.41423
      15 -> 19        -0.03183
      15 -> 20         0.01745
      15 -> 21         0.00791
      15 -> 22         0.00848
      15 -> 23         0.01604
      15 -> 24        -0.00518
      15 -> 25         0.00493
      15 -> 26        -0.01015
      15 -> 27         0.02580
      15 -> 28        -0.00441
      15 -> 29        -0.00433
      15 -> 30        -0.01221
       1 <- 20         0.00128
       1 <- 27         0.00108
       1 <- 28        -0.00347
       2 <- 19        -0.00133
       2 <- 22        -0.00307
       2 <- 23         0.00245
       2 <- 24         0.00312
       2 <- 25         0.00190
       2 <- 26         0.00111
       2 <- 29         0.00260
       3 <- 19        -0.00181
       3 <- 20        -0.00138
       3 <- 22        -0.00342
       3 <- 23         0.00248
       3 <- 24        -0.00271
       3 <- 25         0.00112
       3 <- 26        -0.00300
       3 <- 29        -0.00162
       4 <- 19        -0.00620
       4 <- 20        -0.00429
       4 <- 21         0.00432
       4 <- 22         0.00237
       4 <- 23        -0.00170
       4 <- 30        -0.00423
       5 <- 19         0.00556
       5 <- 22        -0.00278
       5 <- 30         0.00242
       6 <- 20         0.00614
       6 <- 21         0.00207
       6 <- 22        -0.00175
       6 <- 23         0.00119
       6 <- 24        -0.00173
       6 <- 28        -0.00118
       7 <- 18        -0.00183
       7 <- 20        -0.00311
       7 <- 21         0.00371
       7 <- 22        -0.00210
       7 <- 23         0.01001
       7 <- 24        -0.00213
       7 <- 25         0.00151
       7 <- 26        -0.00375
       8 <- 19        -0.00139
       8 <- 20         0.00134
       8 <- 22        -0.00378
       8 <- 23         0.00625
       8 <- 24         0.01385
       8 <- 25         0.00511
       8 <- 26         0.00728
       8 <- 27         0.00129
       9 <- 21         0.00155
       9 <- 22        -0.00404
       9 <- 23         0.00568
       9 <- 24         0.00484
       9 <- 25         0.00904
       9 <- 26         0.00233
       9 <- 28        -0.00220
       9 <- 29         0.00497
      10 <- 17        -0.00191
      10 <- 19         0.00137
      10 <- 22         0.00222
      10 <- 23        -0.00264
      10 <- 24         0.00438
      10 <- 25        -0.00114
      10 <- 26         0.01082
      10 <- 27        -0.00241
      10 <- 28        -0.00106
      10 <- 29         0.00596
      11 <- 16         0.00129
      11 <- 17         0.00108
      11 <- 20        -0.00107
      11 <- 21         0.00187
      11 <- 23         0.00317
      11 <- 25         0.00119
      11 <- 26        -0.00295
      12 <- 16         0.00467
      12 <- 17         0.00900
      12 <- 18         0.00154
      12 <- 19        -0.00623
      12 <- 20         0.00540
      12 <- 21        -0.00723
      12 <- 22         0.00524
      12 <- 23         0.00333
      12 <- 24        -0.00135
      12 <- 26         0.00197
      12 <- 27         0.01356
      12 <- 29         0.00224
      13 <- 16        -0.00297
      13 <- 17         0.00143
      13 <- 19         0.00882
      13 <- 20         0.01019
      13 <- 22        -0.00705
      13 <- 23         0.00224
      13 <- 24        -0.00324
      13 <- 25        -0.00232
      13 <- 26         0.00186
      13 <- 28        -0.01343
      13 <- 29        -0.00267
      13 <- 30         0.01095
      14 <- 16         0.07263
      14 <- 17         0.03379
      14 <- 18        -0.00145
      14 <- 19        -0.00105
      14 <- 20         0.00107
      14 <- 21         0.00201
      14 <- 23        -0.00162
      14 <- 28        -0.00108
      15 <- 16         0.03677
      15 <- 17        -0.07919
      15 <- 19        -0.00296
      15 <- 20         0.00165
      15 <- 21         0.00348
      15 <- 23         0.00101
      15 <- 24        -0.00239
      15 <- 27         0.00124
      15 <- 28        -0.00155
 
 Excited state symmetry could not be determined.
 Excited State   4:      Singlet-?Sym    5.2585 eV  235.78 nm  f=0.2902  <S**2>=0.000
       1 -> 17        -0.00190
       1 -> 27         0.00250
       2 -> 16         0.00135
       2 -> 18         0.00411
       2 -> 19        -0.00219
       2 -> 21        -0.00219
       2 -> 22        -0.00437
       2 -> 23        -0.00263
       2 -> 26         0.00177
       2 -> 29        -0.00107
       3 -> 16        -0.00135
       3 -> 18        -0.00209
       3 -> 19         0.00125
       3 -> 21         0.00127
       3 -> 22         0.00301
       3 -> 23         0.00220
       3 -> 24         0.00270
       3 -> 25         0.00162
       3 -> 29        -0.00198
       4 -> 16         0.00549
       4 -> 17        -0.00344
       4 -> 18         0.00245
       4 -> 19         0.00147
       4 -> 20         0.00102
       4 -> 21        -0.00809
       4 -> 23         0.00262
       4 -> 27        -0.00119
       4 -> 29        -0.00101
       4 -> 30         0.00323
       5 -> 16         0.01152
       5 -> 17        -0.00625
       5 -> 18         0.00112
       5 -> 19         0.01148
       5 -> 20        -0.00587
       5 -> 21        -0.00603
       5 -> 22        -0.00141
       5 -> 23         0.00105
       5 -> 28        -0.00243
       5 -> 30         0.00734
       6 -> 16        -0.00483
       6 -> 17        -0.00678
       6 -> 19        -0.00667
       6 -> 20         0.00413
       6 -> 21        -0.01038
       6 -> 22         0.00479
       6 -> 24        -0.00301
       6 -> 25        -0.00112
       6 -> 27         0.00691
       7 -> 16        -0.00161
       7 -> 17         0.00321
       7 -> 18        -0.00189
       7 -> 19         0.00520
       7 -> 20        -0.00334
       7 -> 22         0.00439
       7 -> 23        -0.00868
       7 -> 24        -0.02253
       7 -> 25        -0.00355
       7 -> 26        -0.00863
       7 -> 29        -0.00210
       8 -> 16        -0.00474
       8 -> 17         0.00758
       8 -> 18        -0.02513
       8 -> 19        -0.00483
       8 -> 20        -0.00291
       8 -> 21         0.01201
       8 -> 22        -0.00680
       8 -> 23         0.03167
       8 -> 24        -0.00265
       8 -> 25         0.01684
       8 -> 26        -0.02259
       8 -> 27         0.00301
       8 -> 30        -0.00134
       9 -> 16         0.01145
       9 -> 17        -0.00167
       9 -> 18         0.02524
       9 -> 19         0.00367
       9 -> 20        -0.00476
       9 -> 21        -0.00377
       9 -> 22        -0.00650
       9 -> 23        -0.00681
       9 -> 24         0.01014
       9 -> 25        -0.00358
       9 -> 26         0.02123
       9 -> 27         0.00194
       9 -> 28         0.00552
       9 -> 29        -0.01591
      10 -> 16         0.01252
      10 -> 17         0.00281
      10 -> 18         0.03300
      10 -> 19        -0.00106
      10 -> 20        -0.00304
      10 -> 21        -0.00470
      10 -> 22        -0.00157
      10 -> 23        -0.01537
      10 -> 24        -0.01684
      10 -> 25        -0.01979
      10 -> 26        -0.00501
      10 -> 27        -0.00543
      10 -> 28        -0.00370
      10 -> 29         0.01767
      10 -> 30         0.00238
      11 -> 17        -0.00917
      11 -> 18         0.02362
      11 -> 19         0.00842
      11 -> 21        -0.00123
      11 -> 23         0.00268
      11 -> 24         0.00140
      11 -> 26        -0.00149
      11 -> 27         0.00169
      11 -> 28         0.00223
      11 -> 29        -0.00684
      11 -> 30         0.00471
      12 -> 16        -0.13374
      12 -> 17         0.05527
      12 -> 18        -0.00324
      12 -> 19        -0.02287
      12 -> 20         0.03375
      12 -> 21         0.03274
      12 -> 22        -0.00384
      12 -> 23        -0.00268
      12 -> 24        -0.01162
      12 -> 25        -0.00167
      12 -> 26         0.00718
      12 -> 27         0.00769
      12 -> 28        -0.03240
      12 -> 29        -0.00750
      12 -> 30        -0.03071
      13 -> 16        -0.02748
      13 -> 17        -0.04359
      13 -> 18        -0.01537
      13 -> 19         0.02099
      13 -> 20        -0.02483
      13 -> 21         0.02431
      13 -> 22        -0.01613
      13 -> 23        -0.01056
      13 -> 24         0.00468
      13 -> 25         0.00182
      13 -> 26        -0.00856
      13 -> 27        -0.03955
      13 -> 28        -0.00243
      13 -> 29        -0.00226
      13 -> 30        -0.00244
      14 -> 16         0.21317
      14 -> 17        -0.51193
      14 -> 18         0.01142
      14 -> 19         0.00509
      14 -> 20        -0.01652
      14 -> 21        -0.00565
      14 -> 22         0.00189
      14 -> 23        -0.00415
      14 -> 24         0.01016
      14 -> 26         0.00515
      14 -> 27        -0.00733
      14 -> 28         0.00830
      14 -> 29         0.00261
      14 -> 30         0.00473
      15 -> 16        -0.35251
      15 -> 17        -0.19950
      15 -> 18        -0.01702
      15 -> 19         0.00578
      15 -> 20         0.00878
      15 -> 21         0.01018
      15 -> 23        -0.01318
      15 -> 24        -0.01508
      15 -> 25        -0.00837
      15 -> 26        -0.00598
      15 -> 27        -0.00798
      15 -> 28        -0.01073
      15 -> 29        -0.00419
      15 -> 30        -0.00339
       1 <- 21        -0.00153
       1 <- 27         0.00336
       2 <- 19        -0.00109
       2 <- 21        -0.00242
       2 <- 22        -0.00271
       2 <- 23        -0.00386
       2 <- 24         0.00270
       2 <- 26         0.00334
       2 <- 29        -0.00168
       3 <- 21         0.00117
       3 <- 22         0.00141
       3 <- 23         0.00208
       3 <- 24         0.00379
       3 <- 25         0.00118
       3 <- 26         0.00128
       3 <- 29        -0.00232
       4 <- 16         0.00109
       4 <- 18         0.00111
       4 <- 19         0.00174
       4 <- 21        -0.00533
       4 <- 23         0.00170
       4 <- 30         0.00241
       5 <- 19         0.00731
       5 <- 20        -0.00301
       5 <- 21        -0.00463
       5 <- 22        -0.00140
       5 <- 23         0.00110
       5 <- 30         0.00443
       6 <- 19        -0.00270
       6 <- 20         0.00171
       6 <- 21        -0.00460
       6 <- 22         0.00214
       6 <- 24        -0.00162
       6 <- 27         0.00116
       7 <- 19         0.00213
       7 <- 22         0.00204
       7 <- 23        -0.00346
       7 <- 24        -0.00973
       7 <- 26        -0.00309
       8 <- 17         0.00122
       8 <- 18        -0.00114
       8 <- 19        -0.00151
       8 <- 20        -0.00147
       8 <- 21         0.00577
       8 <- 22        -0.00256
       8 <- 23         0.01420
       8 <- 24        -0.00200
       8 <- 25         0.00600
       8 <- 26        -0.00900
       8 <- 27         0.00106
       9 <- 19         0.00118
       9 <- 20        -0.00134
       9 <- 21        -0.00245
       9 <- 22        -0.00228
       9 <- 23        -0.00366
       9 <- 24         0.00463
       9 <- 25        -0.00159
       9 <- 26         0.00974
       9 <- 28         0.00182
       9 <- 29        -0.00514
      10 <- 16         0.00237
      10 <- 20        -0.00115
      10 <- 21        -0.00287
      10 <- 23        -0.00566
      10 <- 24        -0.00652
      10 <- 25        -0.00704
      10 <- 26        -0.00189
      10 <- 27        -0.00133
      10 <- 28        -0.00109
      10 <- 29         0.00580
      10 <- 30         0.00108
      11 <- 16         0.00269
      11 <- 18        -0.00373
      11 <- 25         0.00262
      11 <- 26         0.00156
      11 <- 29        -0.00118
      12 <- 16        -0.00948
      12 <- 17         0.00422
      12 <- 18        -0.00248
      12 <- 19        -0.00862
      12 <- 20         0.00941
      12 <- 21         0.01112
      12 <- 23        -0.00184
      12 <- 24        -0.00343
      12 <- 26         0.00275
      12 <- 27         0.00180
      12 <- 28        -0.01126
      12 <- 29        -0.00291
      12 <- 30        -0.01158
      13 <- 17        -0.00236
      13 <- 18        -0.00198
      13 <- 19         0.00570
      13 <- 20        -0.00672
      13 <- 21         0.00748
      13 <- 22        -0.00434
      13 <- 23        -0.00309
      13 <- 24         0.00165
      13 <- 26        -0.00221
      13 <- 27        -0.01295
      13 <- 28        -0.00116
      13 <- 29        -0.00113
      13 <- 30        -0.00124
      14 <- 16        -0.03749
      14 <- 17         0.06930
      14 <- 18         0.00161
      14 <- 19         0.00174
      14 <- 22        -0.00114
      14 <- 23        -0.00140
      14 <- 27        -0.00192
      14 <- 28         0.00133
      15 <- 16         0.07808
      15 <- 17         0.03514
      15 <- 18         0.00256
      15 <- 19         0.00123
      15 <- 20        -0.00189
      15 <- 21         0.00285
      15 <- 27        -0.00227
      15 <- 28        -0.00165
 
 Excited state symmetry could not be determined.
 Excited State   5:      Singlet-?Sym    5.9120 eV  209.72 nm  f=0.0035  <S**2>=0.000
       1 -> 16         0.00182
       1 -> 17        -0.00331
       2 -> 16         0.00107
       2 -> 18         0.00729
       2 -> 22         0.00102
       3 -> 16         0.00208
       3 -> 18         0.00517
       4 -> 16         0.01541
       4 -> 17         0.00749
       4 -> 18         0.00161
       4 -> 30         0.00137
       5 -> 16        -0.02085
       5 -> 17        -0.00836
       5 -> 19        -0.00198
       5 -> 20         0.00133
       5 -> 23        -0.00100
       5 -> 27         0.00184
       6 -> 16         0.01062
       6 -> 17        -0.02442
       6 -> 18        -0.00444
       6 -> 28         0.00155
       7 -> 16        -0.01136
       7 -> 17         0.00751
       7 -> 18        -0.07860
       7 -> 19        -0.00163
       7 -> 21        -0.00705
       7 -> 22        -0.00325
       7 -> 23        -0.00323
       7 -> 24         0.00161
       7 -> 28        -0.00115
       7 -> 29         0.00182
       8 -> 16         0.01218
       8 -> 17        -0.00276
       8 -> 18         0.04187
       8 -> 19        -0.00121
       8 -> 20         0.00155
       8 -> 21         0.00262
       8 -> 22         0.00359
       8 -> 23        -0.00310
       8 -> 24        -0.00559
       8 -> 25        -0.00294
       8 -> 27        -0.00225
       8 -> 29         0.00239
       8 -> 30        -0.00130
       9 -> 16         0.01090
       9 -> 17        -0.00796
       9 -> 18         0.08009
       9 -> 19         0.00145
       9 -> 20         0.00224
       9 -> 21         0.00706
       9 -> 22         0.00788
       9 -> 27        -0.00238
      10 -> 16        -0.01203
      10 -> 17         0.00350
      10 -> 18        -0.02798
      10 -> 19        -0.00421
      10 -> 20        -0.00289
      10 -> 21        -0.00177
      10 -> 22        -0.00695
      10 -> 23         0.00474
      10 -> 24        -0.00442
      10 -> 25         0.00209
      10 -> 26        -0.00260
      10 -> 27        -0.00102
      10 -> 28         0.00218
      10 -> 29        -0.00177
      11 -> 16         0.00395
      11 -> 17         0.00382
      11 -> 18         0.01941
      11 -> 19        -0.01111
      11 -> 20        -0.00794
      11 -> 21         0.00350
      11 -> 22        -0.01275
      11 -> 23         0.00723
      11 -> 24        -0.01061
      11 -> 27         0.00238
      11 -> 29        -0.00211
      11 -> 30        -0.00148
      12 -> 16        -0.08322
      12 -> 17        -0.08105
      12 -> 18         0.00420
      12 -> 19         0.00253
      12 -> 20        -0.00650
      12 -> 21         0.00114
      12 -> 22        -0.00204
      12 -> 23         0.00158
      12 -> 26        -0.00282
      12 -> 27        -0.00524
      12 -> 28         0.00473
      12 -> 29        -0.00194
      12 -> 30         0.00189
      13 -> 16        -0.67151
      13 -> 17         0.07245
      13 -> 18        -0.02760
      13 -> 19        -0.00238
      13 -> 21        -0.00848
      13 -> 22         0.00158
      13 -> 24        -0.00133
      13 -> 25        -0.00130
      13 -> 26        -0.00318
      13 -> 27         0.00168
      13 -> 28         0.00193
      13 -> 29         0.00251
      13 -> 30        -0.00272
      14 -> 16         0.00618
      14 -> 17         0.02785
      14 -> 18        -0.01649
      14 -> 19        -0.02633
      14 -> 20        -0.03211
      14 -> 21         0.02314
      14 -> 22         0.01009
      14 -> 23        -0.00547
      14 -> 24         0.00133
      14 -> 25         0.00484
      14 -> 26        -0.00369
      14 -> 28         0.00168
      14 -> 30        -0.01230
      15 -> 16         0.02992
      15 -> 17        -0.00457
      15 -> 18        -0.05501
      15 -> 19        -0.03691
      15 -> 20        -0.03557
      15 -> 21        -0.01831
      15 -> 22         0.01715
      15 -> 23         0.01255
      15 -> 24         0.00577
      15 -> 25         0.00546
      15 -> 26         0.00366
      15 -> 27         0.00841
      15 -> 28        -0.00623
      15 -> 29        -0.00293
      15 -> 30        -0.00745
       4 <- 16         0.00103
       6 <- 17         0.00101
       8 <- 23        -0.00129
       9 <- 18        -0.00120
       9 <- 22         0.00106
      10 <- 16         0.00113
      10 <- 22        -0.00158
      10 <- 29        -0.00120
      11 <- 16         0.00357
      11 <- 19        -0.00310
      11 <- 20        -0.00198
      11 <- 21        -0.00167
      11 <- 22        -0.00591
      11 <- 24        -0.00210
      11 <- 26         0.00128
      11 <- 29        -0.00128
      12 <- 17        -0.00159
      12 <- 19         0.00128
      12 <- 20        -0.00227
      12 <- 27        -0.00208
      12 <- 28         0.00145
      13 <- 16         0.00235
      14 <- 17        -0.00704
      14 <- 19        -0.00163
      14 <- 20        -0.01235
      14 <- 21         0.00276
      14 <- 22         0.00230
      14 <- 23        -0.00292
      14 <- 24         0.00308
      14 <- 25         0.00152
      14 <- 26        -0.00180
      14 <- 27        -0.00386
      14 <- 28         0.00562
      14 <- 30        -0.00330
      15 <- 16        -0.00486
      15 <- 17         0.00232
      15 <- 18         0.00607
      15 <- 19        -0.00714
      15 <- 20        -0.00660
      15 <- 21        -0.00970
      15 <- 22         0.00774
      15 <- 23         0.00254
      15 <- 24         0.00128
      15 <- 25         0.00116
      15 <- 27         0.00531
      15 <- 28         0.00469
      15 <- 29         0.00138
      15 <- 30        -0.00112
 SavETr:  write IOETrn=   770 NScale= 10 NData=  16 NLR=1 NState=    5 LETran=     100.

 **********************************************************************

            Population analysis using the SCF Density.

 **********************************************************************

 Alpha  occ. eigenvalues --   -1.42241  -1.15814  -1.13021  -0.84837  -0.83557
 Alpha  occ. eigenvalues --   -0.65077  -0.59224  -0.56113  -0.52476  -0.51281
 Alpha  occ. eigenvalues --   -0.48198  -0.43786  -0.43475  -0.35577  -0.34425
 Alpha virt. eigenvalues --    0.01540   0.02189   0.10551   0.13837   0.14307
 Alpha virt. eigenvalues --    0.15238   0.15427   0.16400   0.16857   0.18693
 Alpha virt. eigenvalues --    0.19004   0.20282   0.20595   0.21065   0.22453
          Condensed to atoms (all electrons):
               1          2          3          4          5          6
     1  C    4.136491   0.000000   0.000000   0.000000   0.000000   0.000000
     2  C    0.000000   4.127943   0.000000   0.000000   0.000000   0.000000
     3  C    0.000000   0.000000   4.125785   0.000000   0.000000   0.000000
     4  C    0.000000   0.000000   0.000000   4.135892   0.000000   0.000000
     5  C    0.000000   0.000000   0.000000   0.000000   4.135705   0.000000
     6  C    0.000000   0.000000   0.000000   0.000000   0.000000   4.128408
     7  H    0.000000   0.000000   0.000000   0.000000   0.000000   0.000000
     8  H    0.000000   0.000000   0.000000   0.000000   0.000000   0.000000
     9  H    0.000000   0.000000   0.000000   0.000000   0.000000   0.000000
    10  H    0.000000   0.000000   0.000000   0.000000   0.000000   0.000000
    11  H    0.000000   0.000000   0.000000   0.000000   0.000000   0.000000
    12  H    0.000000   0.000000   0.000000   0.000000   0.000000   0.000000
               7          8          9         10         11         12
     1  C    0.000000   0.000000   0.000000   0.000000   0.000000   0.000000
     2  C    0.000000   0.000000   0.000000   0.000000   0.000000   0.000000
     3  C    0.000000   0.000000   0.000000   0.000000   0.000000   0.000000
     4  C    0.000000   0.000000   0.000000   0.000000   0.000000   0.000000
     5  C    0.000000   0.000000   0.000000   0.000000   0.000000   0.000000
     6  C    0.000000   0.000000   0.000000   0.000000   0.000000   0.000000
     7  H    0.878442   0.000000   0.000000   0.000000   0.000000   0.000000
     8  H    0.000000   0.861631   0.000000   0.000000   0.000000   0.000000
     9  H    0.000000   0.000000   0.865812   0.000000   0.000000   0.000000
    10  H    0.000000   0.000000   0.000000   0.870444   0.000000   0.000000
    11  H    0.000000   0.000000   0.000000   0.000000   0.867052   0.000000
    12  H    0.000000   0.000000   0.000000   0.000000   0.000000   0.866395
 Mulliken charges:
               1
     1  C   -0.136491
     2  C   -0.127943
     3  C   -0.125785
     4  C   -0.135892
     5  C   -0.135705
     6  C   -0.128408
     7  H    0.121558
     8  H    0.138369
     9  H    0.134188
    10  H    0.129556
    11  H    0.132948
    12  H    0.133605
 Sum of Mulliken charges =  -0.00000
 Mulliken charges with hydrogens summed into heavy atoms:
               1
     1  C   -0.014933
     2  C    0.010425
     3  C    0.008403
     4  C   -0.006336
     5  C   -0.002756
     6  C    0.005197
 Charge=             -0.0000 electrons
 Dipole moment (field-independent basis, Debye):
    X=              0.0249    Y=              0.0654    Z=              0.1317  Tot=              0.1492
 N-N= 1.190324044701D+02 E-N=-1.695828413822D+02  KE=-4.779317438959D+01

 Test job not archived.
 1\1\GINC-BHC0189\SP\RAM1 TD-Full\STO-5G\C6H6\BWEIGHT\21-Mar-2025\0\\# 
 AM1/STO-5G SCF=XQC TD=(read,singlets,nstates=5,root=1) nosym IOp(9/40=
 3) guess=read\\MD Step 25\\0,1\C,0,-0.66784044,-1.19667967,0.03703013\
 C,0,0.72306589,-1.25322398,-0.01196878\C,0,1.40768901,-0.01657736,-0.0
 5446579\C,0,0.6731856,1.20334433,0.05741351\C,0,-0.71799293,1.21411476
 ,-0.0649854\C,0,-1.41697895,0.03330505,0.00794929\H,0,-1.1887694,-2.14
 411121,0.00289227\H,0,1.17210677,-2.22595663,0.12115009\H,0,2.56916128
 ,0.05323801,0.01623265\H,0,1.17638305,2.14939807,0.26091976\H,0,-1.295
 21193,2.21249229,-0.15706203\H,0,-2.50087522,0.06200421,-0.0768396\\Ve
 rsion=ES64L-G16RevC.01\HF=0.0533543\RMSD=5.933e-09\PG=C01 [X(C6H6)]\\@


 ADVERTISING--  HE WHO HAS SOMETHING TO SELL AND GOES AND WHISPERS
                IN A WELL, IS NOT SO APT TO GET THE DOLLARS AS HE
                WHO CLIMBS A TREE AND HOLLERS.

                   -- FROM THE BACK OF A SUGAR PACKET
 Job cpu time:       0 days  0 hours  0 minutes  1.1 seconds.
 Elapsed time:       0 days  0 hours  0 minutes  0.9 seconds.
 File lengths (MBytes):  RWF=     34 Int=      0 D2E=      0 Chk=      2 Scr=      1
 Normal termination of Gaussian 16 at Fri Mar 21 15:03:36 2025.
