 Entering Gaussian System, Link 0=g16
 Initial command:
 /software/gaussian/g16-c01/avx2/g16/l1.exe "/local_scratch/28554152/Gau-28293.inp" -scrdir="/local_scratch/28554152/"
 Entering Link 1 = /software/gaussian/g16-c01/avx2/g16/l1.exe PID=     28310.
  
 Copyright (c) 1988-2019, Gaussian, Inc.  All Rights Reserved.
  
 This is part of the Gaussian(R) 16 program.  It is based on
 the Gaussian(R) 09 system (copyright 2009, Gaussian, Inc.),
 the Gaussian(R) 03 system (copyright 2003, Gaussian, Inc.),
 the Gaussian(R) 98 system (copyright 1998, Gaussian, Inc.),
 the Gaussian(R) 94 system (copyright 1995, Gaussian, Inc.),
 the Gaussian 92(TM) system (copyright 1992, Gaussian, Inc.),
 the Gaussian 90(TM) system (copyright 1990, Gaussian, Inc.),
 the Gaussian 88(TM) system (copyright 1988, Gaussian, Inc.),
 the Gaussian 86(TM) system (copyright 1986, Carnegie Mellon
 University), and the Gaussian 82(TM) system (copyright 1983,
 Carnegie Mellon University). Gaussian is a federally registered
 trademark of Gaussian, Inc.
  
 This software contains proprietary and confidential information,
 including trade secrets, belonging to Gaussian, Inc.
  
 This software is provided under written license and may be
 used, copied, transmitted, or stored only in accord with that
 written license.
  
 The following legend is applicable only to US Government
 contracts under FAR:
  
                    RESTRICTED RIGHTS LEGEND
  
 Use, reproduction and disclosure by the US Government is
 subject to restrictions as set forth in subparagraphs (a)
 and (c) of the Commercial Computer Software - Restricted
 Rights clause in FAR 52.227-19.
  
 Gaussian, Inc.
 340 Quinnipiac St., Bldg. 40, Wallingford CT 06492
  
  
 ---------------------------------------------------------------
 Warning -- This program may not be used in any manner that
 competes with the business of Gaussian, Inc. or will provide
 assistance to any competitor of Gaussian, Inc.  The licensee
 of this program is prohibited from giving any competitor of
 Gaussian, Inc. access to this program.  By using this program,
 the user acknowledges that Gaussian, Inc. is engaged in the
 business of creating and licensing software in the field of
 computational chemistry and represents and warrants to the
 licensee that it is not a competitor of Gaussian, Inc. and that
 it will not use this program in any manner prohibited above.
 ---------------------------------------------------------------
  

 Cite this work as:
 Gaussian 16, Revision C.01,
 M. J. Frisch, G. W. Trucks, H. B. Schlegel, G. E. Scuseria, 
 M. A. Robb, J. R. Cheeseman, G. Scalmani, V. Barone, 
 G. A. Petersson, H. Nakatsuji, X. Li, M. Caricato, A. V. Marenich, 
 J. Bloino, B. G. Janesko, R. Gomperts, B. Mennucci, H. P. Hratchian, 
 J. V. Ortiz, A. F. Izmaylov, J. L. Sonnenberg, D. Williams-Young, 
 F. Ding, F. Lipparini, F. Egidi, J. Goings, B. Peng, A. Petrone, 
 T. Henderson, D. Ranasinghe, V. G. Zakrzewski, J. Gao, N. Rega, 
 G. Zheng, W. Liang, M. Hada, M. Ehara, K. Toyota, R. Fukuda, 
 J. Hasegawa, M. Ishida, T. Nakajima, Y. Honda, O. Kitao, H. Nakai, 
 T. Vreven, K. Throssell, J. A. Montgomery, Jr., J. E. Peralta, 
 F. Ogliaro, M. J. Bearpark, J. J. Heyd, E. N. Brothers, K. N. Kudin, 
 V. N. Staroverov, T. A. Keith, R. Kobayashi, J. Normand, 
 K. Raghavachari, A. P. Rendell, J. C. Burant, S. S. Iyengar, 
 J. Tomasi, M. Cossi, J. M. Millam, M. Klene, C. Adamo, R. Cammi, 
 J. W. Ochterski, R. L. Martin, K. Morokuma, O. Farkas, 
 J. B. Foresman, and D. J. Fox, Gaussian, Inc., Wallingford CT, 2019.
 
 ******************************************
 Gaussian 16:  ES64L-G16RevC.01  3-Jul-2019
                21-Mar-2025 
 ******************************************
 %oldchk=../GS_OLD/geometry.chk
 %chk=geometry.chk
 %nprocshared=1
 Will use up to    1 processors via shared memory.
 %mem=2GB
 Copying data from "../GS_OLD/geometry.chk" to current chk file "geometry.chk"
 IOpt=  2 FromEx=T IUOpen= 4 IOptOp= 5 NList=   0 IFRang= 0 IUIn= 4 IUOut= 2.
 -------------------------------------------
 # AM1/STO-5G SCF=XQC FORCE nosym guess=read
 -------------------------------------------
 1/10=7,30=1,38=1/1,3;
 2/12=2,15=1,17=6,18=5,40=1/2;
 3/5=2,6=5,25=1,41=700000,71=1,116=-2/1,2,3;
 4/5=1,35=1/1;
 5/5=2,8=3,13=1,35=1,38=6/2,8;
 6/7=2,8=2,9=2,10=2,28=1/1;
 7/29=1,30=1/1,2,3,16;
 1/10=7,30=1/3;
 99//99;
 ----------
 MD Step 25
 ----------
 Symbolic Z-matrix:
 Charge =  0 Multiplicity = 1
 C                    -0.68153  -1.17535  -0.01242 
 C                     0.70798  -1.22605  -0.04087 
 C                     1.34452  -0.00024   0.05368 
 C                     0.72389   1.19822  -0.03662 
 C                    -0.68798   1.21595  -0.06419 
 C                    -1.41502   0.0128    0.04559 
 H                    -1.11107  -2.19659   0.03286 
 H                     1.30139  -2.15052   0.03662 
 H                     2.54515  -0.07522   0.08828 
 H                     1.12647   2.19206   0.21386 
 H                    -1.27274   2.13387  -0.0558 
 H                    -2.44034  -0.1166    0.15712 
 

 GradGradGradGradGradGradGradGradGradGradGradGradGradGradGradGradGradGrad
 Berny optimization.
 Initialization pass.
 Trust Radius=3.00D-01 FncErr=1.00D-07 GrdErr=1.00D-07 EigMax=2.50D+02 EigMin=1.00D-04
 Number of steps in this run=      2 maximum allowed number of steps=      2.
 GradGradGradGradGradGradGradGradGradGradGradGradGradGradGradGradGradGrad

                          Input orientation:                          
 ---------------------------------------------------------------------
 Center     Atomic      Atomic             Coordinates (Angstroms)
 Number     Number       Type             X           Y           Z
 ---------------------------------------------------------------------
      1          6           0       -0.681531   -1.175350   -0.012419
      2          6           0        0.707978   -1.226049   -0.040869
      3          6           0        1.344523   -0.000241    0.053684
      4          6           0        0.723894    1.198225   -0.036624
      5          6           0       -0.687982    1.215945   -0.064194
      6          6           0       -1.415019    0.012796    0.045590
      7          1           0       -1.111072   -2.196587    0.032861
      8          1           0        1.301388   -2.150518    0.036625
      9          1           0        2.545146   -0.075223    0.088282
     10          1           0        1.126472    2.192063    0.213862
     11          1           0       -1.272738    2.133870   -0.055797
     12          1           0       -2.440341   -0.116605    0.157117
 ---------------------------------------------------------------------
                    Distance matrix (angstroms):
                    1          2          3          4          5
     1  C    0.000000
     2  C    1.390725   0.000000
     3  C    2.343106   1.384462   0.000000
     4  C    2.758562   2.424330   1.352648   0.000000
     5  C    2.391864   2.812932   2.371515   1.412257   0.000000
     6  C    1.397519   2.459539   2.759585   2.446825   1.410037
     7  H    1.108820   2.063086   3.294589   3.859621   3.440030
     8  H    2.210277   1.101265   2.150777   3.398962   3.911628
     9  H    3.410552   2.171697   1.203460   2.225810   3.484750
    10  H    3.828778   3.453044   2.208936   1.101147   2.079029
    11  H    3.361896   3.900322   3.378827   2.205071   1.088391
    12  H    2.059878   3.343947   3.788065   3.432010   2.212562
                    6          7          8          9         10
     6  C    0.000000
     7  H    2.230228   0.000000
     8  H    3.472589   2.412903   0.000000
     9  H    3.961374   4.227433   2.420011   0.000000
    10  H    3.352118   4.929463   4.349714   2.677497   0.000000
    11  H    2.128257   4.334381   4.999065   4.413286   2.415018
    12  H    1.039455   2.471583   4.260500   4.986134   4.249155
                   11         12
    11  H    0.000000
    12  H    2.544261   0.000000
 Symmetry turned off by external request.
 Stoichiometry    C6H6
 Framework group  C1[X(C6H6)]
 Deg. of freedom    30
 Full point group                 C1      NOp   1
 Rotational constants (GHZ):           5.8028569           5.6403671           2.8676145
 Standard basis: VSTO-5G (5D, 7F)
    30 basis functions,   180 primitive gaussians,    30 cartesian basis functions
    15 alpha electrons       15 beta electrons
       nuclear repulsion energy       119.7937159037 Hartrees.
 Integral buffers will be    131072 words long.
 Regular integral format.
 Two-electron integral symmetry is turned off.
 Do NDO integrals.
 One-electron integrals computed using PRISM.
 NBasis=    30 RedAO= F EigKep=  0.00D+00  NBF=    30
 NBsUse=    30 1.00D-04 EigRej=  0.00D+00 NBFU=    30
 Initial guess from the checkpoint file:  "geometry.chk"
 B after Tr=    -0.000448   -0.000468    0.000127
         Rot=    1.000000    0.000068    0.000427   -0.000220 Ang=   0.06 deg.
 Keep J ints in memory in canonical form, NReq=861816.
 Overlap will be assumed to be unity.
 Requested convergence on RMS density matrix=1.00D-08 within  32 cycles.
 Requested convergence on MAX density matrix=1.00D-06.
 Requested convergence on             energy=1.00D-06.
 No special actions if energy rises.
 SCF Done:  E(RAM1) =  0.612816342372E-01 A.U. after   12 cycles
            NFock= 11  Conv=0.62D-08     -V/T= 1.0013
 QCSCF skips out because SCF is already converged.

 **********************************************************************

            Population analysis using the SCF Density.

 **********************************************************************

 Alpha  occ. eigenvalues --   -1.44568  -1.15575  -1.15392  -0.84961  -0.84403
 Alpha  occ. eigenvalues --   -0.65739  -0.59094  -0.56365  -0.52134  -0.51786
 Alpha  occ. eigenvalues --   -0.49323  -0.44160  -0.42365  -0.35814  -0.35210
 Alpha virt. eigenvalues --    0.01618   0.02329   0.10723   0.13243   0.14787
 Alpha virt. eigenvalues --    0.14856   0.15621   0.16630   0.17021   0.18636
 Alpha virt. eigenvalues --    0.19050   0.20458   0.20894   0.21229   0.22482
          Condensed to atoms (all electrons):
               1          2          3          4          5          6
     1  C    4.138151   0.000000   0.000000   0.000000   0.000000   0.000000
     2  C    0.000000   4.138707   0.000000   0.000000   0.000000   0.000000
     3  C    0.000000   0.000000   4.128036   0.000000   0.000000   0.000000
     4  C    0.000000   0.000000   0.000000   4.124368   0.000000   0.000000
     5  C    0.000000   0.000000   0.000000   0.000000   4.127515   0.000000
     6  C    0.000000   0.000000   0.000000   0.000000   0.000000   4.127360
     7  H    0.000000   0.000000   0.000000   0.000000   0.000000   0.000000
     8  H    0.000000   0.000000   0.000000   0.000000   0.000000   0.000000
     9  H    0.000000   0.000000   0.000000   0.000000   0.000000   0.000000
    10  H    0.000000   0.000000   0.000000   0.000000   0.000000   0.000000
    11  H    0.000000   0.000000   0.000000   0.000000   0.000000   0.000000
    12  H    0.000000   0.000000   0.000000   0.000000   0.000000   0.000000
               7          8          9         10         11         12
     1  C    0.000000   0.000000   0.000000   0.000000   0.000000   0.000000
     2  C    0.000000   0.000000   0.000000   0.000000   0.000000   0.000000
     3  C    0.000000   0.000000   0.000000   0.000000   0.000000   0.000000
     4  C    0.000000   0.000000   0.000000   0.000000   0.000000   0.000000
     5  C    0.000000   0.000000   0.000000   0.000000   0.000000   0.000000
     6  C    0.000000   0.000000   0.000000   0.000000   0.000000   0.000000
     7  H    0.878866   0.000000   0.000000   0.000000   0.000000   0.000000
     8  H    0.000000   0.859489   0.000000   0.000000   0.000000   0.000000
     9  H    0.000000   0.000000   0.877943   0.000000   0.000000   0.000000
    10  H    0.000000   0.000000   0.000000   0.862114   0.000000   0.000000
    11  H    0.000000   0.000000   0.000000   0.000000   0.871947   0.000000
    12  H    0.000000   0.000000   0.000000   0.000000   0.000000   0.865503
 Mulliken charges:
               1
     1  C   -0.138151
     2  C   -0.138707
     3  C   -0.128036
     4  C   -0.124368
     5  C   -0.127515
     6  C   -0.127360
     7  H    0.121134
     8  H    0.140511
     9  H    0.122057
    10  H    0.137886
    11  H    0.128053
    12  H    0.134497
 Sum of Mulliken charges =  -0.00000
 Mulliken charges with hydrogens summed into heavy atoms:
               1
     1  C   -0.017016
     2  C    0.001803
     3  C   -0.005979
     4  C    0.013517
     5  C    0.000538
     6  C    0.007136
 Charge=             -0.0000 electrons
 Dipole moment (field-independent basis, Debye):
    X=              0.0481    Y=             -0.0635    Z=              0.3784  Tot=              0.3867
 N-N= 1.197937159037D+02 E-N=-1.708807325619D+02  KE=-4.784639102769D+01
 Calling FoFJK, ICntrl=      2127 FMM=F ISym2X=0 I1Cent= 0 IOpClX= 0 NMat=1 NMatS=1 NMatT=0.
 -------------------------------------------------------------------
 Center     Atomic                   Forces (Hartrees/Bohr)
 Number     Number              X              Y              Z
 -------------------------------------------------------------------
      1        6           0.003228559   -0.034939388    0.003517525
      2        6          -0.008972223    0.010778581    0.012604278
      3        6           0.105837696   -0.022744393   -0.014036619
      4        6          -0.048772803    0.034878163    0.020847558
      5        6          -0.017438766   -0.021853559    0.009097910
      6        6           0.064345600    0.001190841   -0.016572354
      7        1          -0.013320126    0.008286902   -0.001240857
      8        1          -0.005770034   -0.000141398   -0.005170996
      9        1          -0.050503122    0.009322043    0.001808164
     10        1           0.015441667   -0.003204653   -0.011317023
     11        1           0.001721500    0.009823282   -0.002192428
     12        1          -0.045797947    0.008603579    0.002654842
 -------------------------------------------------------------------
 Cartesian Forces:  Max     0.105837696 RMS     0.028103890

 GradGradGradGradGradGradGradGradGradGradGradGradGradGradGradGradGradGrad
 Berny optimization.
 Search for a local minimum.
 Step number   1 out of a maximum of    2
 All quantities printed in internal units (Hartrees-Bohrs-Radians)
 Second derivative matrix not updated -- first step.
 ITU=  0
     Eigenvalues ---    0.01520   0.01701   0.03242   0.04304   0.05992
     Eigenvalues ---    0.06588   0.06749   0.07068   0.07283   0.09432
     Eigenvalues ---    0.09531   0.11234   0.12164   0.15497   0.18252
     Eigenvalues ---    0.27673   0.28741   0.31264   0.37880   0.42372
     Eigenvalues ---    0.45019   0.65261   0.65749   0.95359   1.07633
     Eigenvalues ---    1.19370   1.22420   1.47330   1.55926   1.67401
 Quadratic step=5.881D-01 exceeds max=3.000D-01 adjusted using Lamda=-5.905D-02.
 Angle between NR and scaled steps=  27.84 degrees.
 Angle between quadratic step and forces=  45.21 degrees.
 Linear search not attempted -- first point.
 B after Tr=     0.008974   -0.006547    0.009457
         Rot=    0.999999   -0.000690    0.000376   -0.001370 Ang=  -0.18 deg.
 Variable       Old X    -DE/DX   Delta X   Delta X   Delta X     New X
                                 (Linear)    (Quad)   (Total)
    X1       -1.28791   0.00323   0.00000   0.00682   0.02206  -1.26585
    Y1       -2.22109  -0.03494   0.00000  -0.06242  -0.07246  -2.29355
    Z1       -0.02347   0.00352   0.00000   0.02208   0.02743   0.00396
    X2        1.33788  -0.00897   0.00000   0.01859   0.03390   1.37178
    Y2       -2.31690   0.01078   0.00000   0.01145   0.00867  -2.30823
    Z2       -0.07723   0.01260   0.00000   0.04693   0.05423  -0.02300
    X3        2.54078   0.10584   0.00000   0.10626   0.11515   2.65593
    Y3       -0.00046  -0.02274   0.00000   0.01031   0.01093   0.01048
    Z3        0.10145  -0.01404   0.00000  -0.03759  -0.02613   0.07532
    X4        1.36796  -0.04877   0.00000  -0.03620  -0.03350   1.33446
    Y4        2.26432   0.03488   0.00000   0.02226   0.01935   2.28366
    Z4       -0.06921   0.02085   0.00000   0.07069   0.08431   0.01510
    X5       -1.30010  -0.01744   0.00000  -0.02677  -0.02396  -1.32406
    Y5        2.29780  -0.02185   0.00000  -0.02652  -0.03662   2.26119
    Z5       -0.12131   0.00910   0.00000   0.05230   0.06389  -0.05742
    X6       -2.67400   0.06435   0.00000   0.03924   0.04822  -2.62578
    Y6        0.02418   0.00119   0.00000  -0.03414  -0.04797  -0.02379
    Z6        0.08615  -0.01657   0.00000  -0.04119  -0.03373   0.05242
    X7       -2.09962  -0.01332   0.00000  -0.11086  -0.09055  -2.19017
    Y7       -4.15095   0.00829   0.00000   0.00258  -0.01008  -4.16103
    Z7        0.06210  -0.00124   0.00000  -0.00653  -0.00446   0.05764
    X8        2.45927  -0.00577   0.00000  -0.02707  -0.00696   2.45231
    Y8       -4.06389  -0.00014   0.00000  -0.01204  -0.01196  -4.07585
    Z8        0.06921  -0.00517   0.00000  -0.02807  -0.02241   0.04680
    X9        4.80963  -0.05050   0.00000  -0.07969  -0.07063   4.73900
    Y9       -0.14215   0.00932   0.00000   0.07105   0.07729  -0.06486
    Z9        0.16683   0.00181   0.00000  -0.04165  -0.02873   0.13810
   X10        2.12872   0.01544   0.00000   0.07868   0.07603   2.20475
   Y10        4.14240  -0.00320   0.00000   0.01071   0.00975   4.15214
   Z10        0.40414  -0.01132   0.00000  -0.08217  -0.06532   0.33882
   X11       -2.40513   0.00172   0.00000  -0.00011  -0.00213  -2.40726
   Y11        4.03243   0.00982   0.00000   0.01468   0.00168   4.03411
   Z11       -0.10544  -0.00219   0.00000  -0.00678   0.00644  -0.09900
   X12       -4.61158  -0.04580   0.00000  -0.07684  -0.06761  -4.67919
   Y12       -0.22035   0.00860   0.00000   0.07114   0.05143  -0.16892
   Z12        0.29691   0.00265   0.00000  -0.06124  -0.05552   0.24139
         Item               Value     Threshold  Converged?
 Maximum Force            0.105838     0.000450     NO 
 RMS     Force            0.028104     0.000300     NO 
 Maximum Displacement     0.115149     0.001800     NO 
 RMS     Displacement     0.048982     0.001200     NO 
 Predicted change in Energy=-2.053684D-02
 GradGradGradGradGradGradGradGradGradGradGradGradGradGradGradGradGradGrad

 Unable to Open any file for archive entry.
 1\1\GINC-BHC0189\Force\RAM1\ZDO\C6H6\BWEIGHT\21-Mar-2025\0\\# AM1/STO-
 5G SCF=XQC FORCE nosym guess=read\\MD Step 25\\0,1\C,-0.68153105,-1.17
 534978,-0.01241872\C,0.70797808,-1.226049,-0.040869\C,1.34452336,-0.00
 024103,0.05368368\C,0.72389396,1.19822489,-0.03662386\C,-0.68798223,1.
 21594546,-0.06419395\C,-1.41501946,0.01279561,0.04558994\H,-1.1110718,
 -2.19658732,0.0328607\H,1.30138812,-2.15051789,0.03662489\H,2.54514636
 ,-0.0752226,0.08828151\H,1.12647162,2.19206258,0.2138617\H,-1.2727384,
 2.13386972,-0.05579717\H,-2.4403411,-0.11660454,0.15711716\\Version=ES
 64L-G16RevC.01\HF=0.0612816\RMSD=6.158e-09\RMSF=2.810e-02\Dipole=0.018
 9112,-0.0249993,0.1488832\PG=C01 [X(C6H6)]\\@
 The archive entry for this job was punched.


 ADVERTISING--  HE WHO HAS SOMETHING TO SELL AND GOES AND WHISPERS
                IN A WELL, IS NOT SO APT TO GET THE DOLLARS AS HE
                WHO CLIMBS A TREE AND HOLLERS.

                   -- FROM THE BACK OF A SUGAR PACKET
 Job cpu time:       0 days  0 hours  0 minutes  1.2 seconds.
 Elapsed time:       0 days  0 hours  0 minutes  0.9 seconds.
 File lengths (MBytes):  RWF=      6 Int=      0 D2E=      0 Chk=      2 Scr=      1
 Normal termination of Gaussian 16 at Fri Mar 21 15:03:36 2025.
