 Entering Gaussian System, Link 0=g16
 Initial command:
 /software/gaussian/g16-c01/avx2/g16/l1.exe "/local_scratch/28554203/Gau-35690.inp" -scrdir="/local_scratch/28554203/"
 Entering Link 1 = /software/gaussian/g16-c01/avx2/g16/l1.exe PID=     35721.
  
 Copyright (c) 1988-2019, Gaussian, Inc.  All Rights Reserved.
  
 This is part of the Gaussian(R) 16 program.  It is based on
 the Gaussian(R) 09 system (copyright 2009, Gaussian, Inc.),
 the Gaussian(R) 03 system (copyright 2003, Gaussian, Inc.),
 the Gaussian(R) 98 system (copyright 1998, Gaussian, Inc.),
 the Gaussian(R) 94 system (copyright 1995, Gaussian, Inc.),
 the Gaussian 92(TM) system (copyright 1992, Gaussian, Inc.),
 the Gaussian 90(TM) system (copyright 1990, Gaussian, Inc.),
 the Gaussian 88(TM) system (copyright 1988, Gaussian, Inc.),
 the Gaussian 86(TM) system (copyright 1986, Carnegie Mellon
 University), and the Gaussian 82(TM) system (copyright 1983,
 Carnegie Mellon University). Gaussian is a federally registered
 trademark of Gaussian, Inc.
  
 This software contains proprietary and confidential information,
 including trade secrets, belonging to Gaussian, Inc.
  
 This software is provided under written license and may be
 used, copied, transmitted, or stored only in accord with that
 written license.
  
 The following legend is applicable only to US Government
 contracts under FAR:
  
                    RESTRICTED RIGHTS LEGEND
  
 Use, reproduction and disclosure by the US Government is
 subject to restrictions as set forth in subparagraphs (a)
 and (c) of the Commercial Computer Software - Restricted
 Rights clause in FAR 52.227-19.
  
 Gaussian, Inc.
 340 Quinnipiac St., Bldg. 40, Wallingford CT 06492
  
  
 ---------------------------------------------------------------
 Warning -- This program may not be used in any manner that
 competes with the business of Gaussian, Inc. or will provide
 assistance to any competitor of Gaussian, Inc.  The licensee
 of this program is prohibited from giving any competitor of
 Gaussian, Inc. access to this program.  By using this program,
 the user acknowledges that Gaussian, Inc. is engaged in the
 business of creating and licensing software in the field of
 computational chemistry and represents and warrants to the
 licensee that it is not a competitor of Gaussian, Inc. and that
 it will not use this program in any manner prohibited above.
 ---------------------------------------------------------------
  

 Cite this work as:
 Gaussian 16, Revision C.01,
 M. J. Frisch, G. W. Trucks, H. B. Schlegel, G. E. Scuseria, 
 M. A. Robb, J. R. Cheeseman, G. Scalmani, V. Barone, 
 G. A. Petersson, H. Nakatsuji, X. Li, M. Caricato, A. V. Marenich, 
 J. Bloino, B. G. Janesko, R. Gomperts, B. Mennucci, H. P. Hratchian, 
 J. V. Ortiz, A. F. Izmaylov, J. L. Sonnenberg, D. Williams-Young, 
 F. Ding, F. Lipparini, F. Egidi, J. Goings, B. Peng, A. Petrone, 
 T. Henderson, D. Ranasinghe, V. G. Zakrzewski, J. Gao, N. Rega, 
 G. Zheng, W. Liang, M. Hada, M. Ehara, K. Toyota, R. Fukuda, 
 J. Hasegawa, M. Ishida, T. Nakajima, Y. Honda, O. Kitao, H. Nakai, 
 T. Vreven, K. Throssell, J. A. Montgomery, Jr., J. E. Peralta, 
 F. Ogliaro, M. J. Bearpark, J. J. Heyd, E. N. Brothers, K. N. Kudin, 
 V. N. Staroverov, T. A. Keith, R. Kobayashi, J. Normand, 
 K. Raghavachari, A. P. Rendell, J. C. Burant, S. S. Iyengar, 
 J. Tomasi, M. Cossi, J. M. Millam, M. Klene, C. Adamo, R. Cammi, 
 J. W. Ochterski, R. L. Martin, K. Morokuma, O. Farkas, 
 J. B. Foresman, and D. J. Fox, Gaussian, Inc., Wallingford CT, 2019.
 
 ******************************************
 Gaussian 16:  ES64L-G16RevC.01  3-Jul-2019
                21-Mar-2025 
 ******************************************
 %oldchk=../GS_OLD/geometry.chk
 %chk=geometry.chk
 %nprocshared=1
 Will use up to    1 processors via shared memory.
 %mem=2GB
 Copying data from "../GS_OLD/geometry.chk" to current chk file "geometry.chk"
 IOpt=  2 FromEx=T IUOpen= 4 IOptOp= 5 NList=   0 IFRang= 0 IUIn= 4 IUOut= 2.
 -------------------------------------------
 # AM1/STO-5G SCF=XQC FORCE nosym guess=read
 -------------------------------------------
 1/10=7,30=1,38=1/1,3;
 2/12=2,15=1,17=6,18=5,40=1/2;
 3/5=2,6=5,25=1,41=700000,71=1,116=-2/1,2,3;
 4/5=1,35=1/1;
 5/5=2,8=3,13=1,35=1,38=6/2,8;
 6/7=2,8=2,9=2,10=2,28=1/1;
 7/29=1,30=1/1,2,3,16;
 1/10=7,30=1/3;
 99//99;
 ----------
 MD Step 26
 ----------
 Symbolic Z-matrix:
 Charge =  0 Multiplicity = 1
 C                    -0.67702  -1.1796    0.02024 
 C                     0.72259  -1.2319   -0.0156 
 C                     1.38187   0.01482   0.01547 
 C                     0.69031   1.21176  -0.02363 
 C                    -0.71599   1.17215  -0.02231 
 C                    -1.40803   0.01904  -0.00448 
 H                    -1.15683  -2.11108   0.17428 
 H                     1.27541  -2.19402  -0.01448 
 H                     2.47941  -0.04122   0.21413 
 H                     1.17045   2.17765   0.16817 
 H                    -1.24473   2.15182   0.10729 
 H                    -2.49809  -0.00941  -0.07524 
 

 GradGradGradGradGradGradGradGradGradGradGradGradGradGradGradGradGradGrad
 Berny optimization.
 Initialization pass.
 Trust Radius=3.00D-01 FncErr=1.00D-07 GrdErr=1.00D-07 EigMax=2.50D+02 EigMin=1.00D-04
 Number of steps in this run=      2 maximum allowed number of steps=      2.
 GradGradGradGradGradGradGradGradGradGradGradGradGradGradGradGradGradGrad

                          Input orientation:                          
 ---------------------------------------------------------------------
 Center     Atomic      Atomic             Coordinates (Angstroms)
 Number     Number       Type             X           Y           Z
 ---------------------------------------------------------------------
      1          6           0       -0.677016   -1.179597    0.020243
      2          6           0        0.722592   -1.231897   -0.015603
      3          6           0        1.381869    0.014819    0.015474
      4          6           0        0.690308    1.211765   -0.023627
      5          6           0       -0.715989    1.172149   -0.022308
      6          6           0       -1.408025    0.019039   -0.004480
      7          1           0       -1.156834   -2.111083    0.174277
      8          1           0        1.275406   -2.194019   -0.014477
      9          1           0        2.479412   -0.041218    0.214132
     10          1           0        1.170449    2.177654    0.168171
     11          1           0       -1.244730    2.151817    0.107292
     12          1           0       -2.498088   -0.009412   -0.075242
 ---------------------------------------------------------------------
                    Distance matrix (angstroms):
                    1          2          3          4          5
     1  C    0.000000
     2  C    1.401043   0.000000
     3  C    2.380264   1.410642   0.000000
     4  C    2.755015   2.443888   1.382919   0.000000
     5  C    2.352453   2.801606   2.396215   1.406855   0.000000
     6  C    1.404177   2.470728   2.789969   2.413704   1.344952
     7  H    1.059065   2.083570   3.315070   3.806891   3.318524
     8  H    2.200502   1.109632   2.211605   3.455689   3.911113
     9  H    3.361032   2.134691   1.116784   2.197132   3.426186
    10  H    3.834859   3.443745   2.178502   1.095565   2.146152
    11  H    3.380562   3.915990   3.387361   2.155275   1.120765
    12  H    2.166738   3.445403   3.881092   3.414645   2.138870
                    6          7          8          9         10
     6  C    0.000000
     7  H    2.152317   0.000000
     8  H    3.478294   2.440962   0.000000
     9  H    3.894046   4.184281   2.477184   0.000000
    10  H    3.367189   4.879503   4.376745   2.576604   0.000000
    11  H    2.141939   4.264332   5.025157   4.323200   2.416085
    12  H    1.092727   2.505642   4.360671   4.986005   4.277928
                   11         12
    11  H    0.000000
    12  H    2.505022   0.000000
 Symmetry turned off by external request.
 Stoichiometry    C6H6
 Framework group  C1[X(C6H6)]
 Deg. of freedom    30
 Full point group                 C1      NOp   1
 Rotational constants (GHZ):           5.8366953           5.5986181           2.8621081
 Standard basis: VSTO-5G (5D, 7F)
    30 basis functions,   180 primitive gaussians,    30 cartesian basis functions
    15 alpha electrons       15 beta electrons
       nuclear repulsion energy       119.8057579404 Hartrees.
 Integral buffers will be    131072 words long.
 Regular integral format.
 Two-electron integral symmetry is turned off.
 Do NDO integrals.
 One-electron integrals computed using PRISM.
 NBasis=    30 RedAO= F EigKep=  0.00D+00  NBF=    30
 NBsUse=    30 1.00D-04 EigRej=  0.00D+00 NBFU=    30
 Initial guess from the checkpoint file:  "geometry.chk"
 B after Tr=     0.001298    0.000200    0.001037
         Rot=    1.000000    0.000129   -0.000082    0.000132 Ang=   0.02 deg.
 Keep J ints in memory in canonical form, NReq=861816.
 Overlap will be assumed to be unity.
 Requested convergence on RMS density matrix=1.00D-08 within  32 cycles.
 Requested convergence on MAX density matrix=1.00D-06.
 Requested convergence on             energy=1.00D-06.
 No special actions if energy rises.
 SCF Done:  E(RAM1) =  0.480531198779E-01 A.U. after   12 cycles
            NFock= 11  Conv=0.73D-08     -V/T= 1.0010
 QCSCF skips out because SCF is already converged.

 **********************************************************************

            Population analysis using the SCF Density.

 **********************************************************************

 Alpha  occ. eigenvalues --   -1.44526  -1.16114  -1.15008  -0.85257  -0.84291
 Alpha  occ. eigenvalues --   -0.65747  -0.59174  -0.56700  -0.52416  -0.51933
 Alpha  occ. eigenvalues --   -0.49146  -0.43900  -0.43315  -0.35769  -0.35206
 Alpha virt. eigenvalues --    0.01776   0.02221   0.10714   0.14416   0.14496
 Alpha virt. eigenvalues --    0.14942   0.15741   0.16920   0.17223   0.18675
 Alpha virt. eigenvalues --    0.18877   0.20520   0.20855   0.21054   0.22508
          Condensed to atoms (all electrons):
               1          2          3          4          5          6
     1  C    4.130688   0.000000   0.000000   0.000000   0.000000   0.000000
     2  C    0.000000   4.138931   0.000000   0.000000   0.000000   0.000000
     3  C    0.000000   0.000000   4.128426   0.000000   0.000000   0.000000
     4  C    0.000000   0.000000   0.000000   4.129212   0.000000   0.000000
     5  C    0.000000   0.000000   0.000000   0.000000   4.129892   0.000000
     6  C    0.000000   0.000000   0.000000   0.000000   0.000000   4.123392
     7  H    0.000000   0.000000   0.000000   0.000000   0.000000   0.000000
     8  H    0.000000   0.000000   0.000000   0.000000   0.000000   0.000000
     9  H    0.000000   0.000000   0.000000   0.000000   0.000000   0.000000
    10  H    0.000000   0.000000   0.000000   0.000000   0.000000   0.000000
    11  H    0.000000   0.000000   0.000000   0.000000   0.000000   0.000000
    12  H    0.000000   0.000000   0.000000   0.000000   0.000000   0.000000
               7          8          9         10         11         12
     1  C    0.000000   0.000000   0.000000   0.000000   0.000000   0.000000
     2  C    0.000000   0.000000   0.000000   0.000000   0.000000   0.000000
     3  C    0.000000   0.000000   0.000000   0.000000   0.000000   0.000000
     4  C    0.000000   0.000000   0.000000   0.000000   0.000000   0.000000
     5  C    0.000000   0.000000   0.000000   0.000000   0.000000   0.000000
     6  C    0.000000   0.000000   0.000000   0.000000   0.000000   0.000000
     7  H    0.881439   0.000000   0.000000   0.000000   0.000000   0.000000
     8  H    0.000000   0.857886   0.000000   0.000000   0.000000   0.000000
     9  H    0.000000   0.000000   0.874677   0.000000   0.000000   0.000000
    10  H    0.000000   0.000000   0.000000   0.865685   0.000000   0.000000
    11  H    0.000000   0.000000   0.000000   0.000000   0.875863   0.000000
    12  H    0.000000   0.000000   0.000000   0.000000   0.000000   0.863910
 Mulliken charges:
               1
     1  C   -0.130688
     2  C   -0.138931
     3  C   -0.128426
     4  C   -0.129212
     5  C   -0.129892
     6  C   -0.123392
     7  H    0.118561
     8  H    0.142114
     9  H    0.125323
    10  H    0.134315
    11  H    0.124137
    12  H    0.136090
 Sum of Mulliken charges =   0.00000
 Mulliken charges with hydrogens summed into heavy atoms:
               1
     1  C   -0.012127
     2  C    0.003183
     3  C   -0.003103
     4  C    0.005103
     5  C   -0.005754
     6  C    0.012698
 Charge=              0.0000 electrons
 Dipole moment (field-independent basis, Debye):
    X=              0.0323    Y=             -0.0395    Z=              0.4022  Tot=              0.4055
 N-N= 1.198057579404D+02 E-N=-1.708863787626D+02  KE=-4.785902183922D+01
 Calling FoFJK, ICntrl=      2127 FMM=F ISym2X=0 I1Cent= 0 IOpClX= 0 NMat=1 NMatS=1 NMatT=0.
 -------------------------------------------------------------------
 Center     Atomic                   Forces (Hartrees/Bohr)
 Number     Number              X              Y              Z
 -------------------------------------------------------------------
      1        6           0.021606196   -0.001807907   -0.000436641
      2        6          -0.016115028    0.022642945    0.001851949
      3        6           0.023485488   -0.016808728    0.004540671
      4        6          -0.007450054   -0.007745590    0.016715822
      5        6           0.016453157    0.066975961    0.005563387
      6        6          -0.007706890   -0.045894732   -0.008523178
      7        1          -0.021381467   -0.026265385   -0.001457724
      8        1          -0.004785848    0.009292543    0.000685790
      9        1          -0.007623765    0.007493918   -0.008699308
     10        1           0.005613858    0.001240180   -0.007461421
     11        1           0.003210265   -0.008598745   -0.007478073
     12        1          -0.005305912   -0.000524458    0.004698726
 -------------------------------------------------------------------
 Cartesian Forces:  Max     0.066975961 RMS     0.017677511

 GradGradGradGradGradGradGradGradGradGradGradGradGradGradGradGradGradGrad
 Berny optimization.
 Search for a local minimum.
 Step number   1 out of a maximum of    2
 All quantities printed in internal units (Hartrees-Bohrs-Radians)
 Second derivative matrix not updated -- first step.
 ITU=  0
     Eigenvalues ---    0.01575   0.01641   0.03328   0.04232   0.06466
     Eigenvalues ---    0.06651   0.06786   0.06985   0.07308   0.09281
     Eigenvalues ---    0.09572   0.11448   0.11860   0.16450   0.18175
     Eigenvalues ---    0.27607   0.29277   0.30428   0.40501   0.41996
     Eigenvalues ---    0.44863   0.64127   0.68814   0.97988   1.06520
     Eigenvalues ---    1.19348   1.22600   1.46618   1.57248   1.67024
 Quadratic step=5.177D-01 exceeds max=3.000D-01 adjusted using Lamda=-3.950D-02.
 Angle between NR and scaled steps=  16.23 degrees.
 Angle between quadratic step and forces=  55.33 degrees.
 Linear search not attempted -- first point.
 B after Tr=     0.001627    0.000079    0.013037
         Rot=    0.999999   -0.001030    0.001323   -0.000039 Ang=  -0.19 deg.
 Variable       Old X    -DE/DX   Delta X   Delta X   Delta X     New X
                                 (Linear)    (Quad)   (Total)
    X1       -1.27937   0.02161   0.00000  -0.01294  -0.01123  -1.29060
    Y1       -2.22911  -0.00181   0.00000  -0.06080  -0.06089  -2.29001
    Z1        0.03825  -0.00044   0.00000   0.00064   0.00554   0.04379
    X2        1.36550  -0.01612   0.00000  -0.03095  -0.02915   1.33635
    Y2       -2.32795   0.02264   0.00000   0.04234   0.04252  -2.28543
    Z2       -0.02948   0.00185   0.00000   0.03277   0.04463   0.01514
    X3        2.61135   0.02349   0.00000   0.02236   0.02383   2.63518
    Y3        0.02800  -0.01681   0.00000   0.00008   0.00023   0.02824
    Z3        0.02924   0.00454   0.00000   0.02824   0.04830   0.07754
    X4        1.30449  -0.00745   0.00000   0.01498   0.01632   1.32081
    Y4        2.28990  -0.00775   0.00000   0.00368   0.00378   2.29368
    Z4       -0.04465   0.01672   0.00000   0.08169   0.10295   0.05830
    X5       -1.35302   0.01645   0.00000   0.01464   0.01612  -1.33690
    Y5        2.21504   0.06698   0.00000   0.05819   0.05819   2.27323
    Z5       -0.04216   0.00556   0.00000   0.02766   0.04184  -0.00032
    X6       -2.66078  -0.00771   0.00000   0.00914   0.01084  -2.64995
    Y6        0.03598  -0.04589   0.00000  -0.04434  -0.04441  -0.00844
    Z6       -0.00847  -0.00852   0.00000  -0.01458  -0.00857  -0.01703
    X7       -2.18610  -0.02138   0.00000  -0.09270  -0.09142  -2.27752
    Y7       -3.98937  -0.02627   0.00000  -0.11195  -0.11257  -4.10194
    Z7        0.32934  -0.00146   0.00000  -0.06916  -0.07060   0.25873
    X8        2.41017  -0.00479   0.00000  -0.02929  -0.02728   2.38289
    Y8       -4.14610   0.00929   0.00000   0.06975   0.07006  -4.07604
    Z8       -0.02736   0.00069   0.00000   0.00588   0.01681  -0.01055
    X9        4.68541  -0.00762   0.00000   0.02088   0.02173   4.70714
    Y9       -0.07789   0.00749   0.00000   0.04681   0.04665  -0.03124
    Z9        0.40465  -0.00870   0.00000  -0.11695  -0.09153   0.31312
   X10        2.21183   0.00561   0.00000   0.07323   0.07387   2.28569
   Y10        4.11517   0.00124   0.00000   0.00890   0.00864   4.12381
   Z10        0.31780  -0.00746   0.00000  -0.07297  -0.04539   0.27241
   X11       -2.35220   0.00321   0.00000   0.00051   0.00149  -2.35071
   Y11        4.06635  -0.00860   0.00000   0.02658   0.02622   4.09256
   Z11        0.20275  -0.00748   0.00000  -0.07860  -0.06335   0.13941
   X12       -4.72070  -0.00531   0.00000  -0.00709  -0.00512  -4.72582
   Y12       -0.01779  -0.00052   0.00000  -0.03839  -0.03842  -0.05620
   Z12       -0.14219   0.00470   0.00000   0.01897   0.01938  -0.12280
         Item               Value     Threshold  Converged?
 Maximum Force            0.066976     0.000450     NO 
 RMS     Force            0.017678     0.000300     NO 
 Maximum Displacement     0.112571     0.001800     NO 
 RMS     Displacement     0.049160     0.001200     NO 
 Predicted change in Energy=-1.083062D-02
 GradGradGradGradGradGradGradGradGradGradGradGradGradGradGradGradGradGrad

