 Entering Gaussian System, Link 0=g16
 Initial command:
 /software/gaussian/g16-c01/avx2/g16/l1.exe "/local_scratch/28554215/Gau-34276.inp" -scrdir="/local_scratch/28554215/"
 Entering Link 1 = /software/gaussian/g16-c01/avx2/g16/l1.exe PID=     34281.
  
 Copyright (c) 1988-2019, Gaussian, Inc.  All Rights Reserved.
  
 This is part of the Gaussian(R) 16 program.  It is based on
 the Gaussian(R) 09 system (copyright 2009, Gaussian, Inc.),
 the Gaussian(R) 03 system (copyright 2003, Gaussian, Inc.),
 the Gaussian(R) 98 system (copyright 1998, Gaussian, Inc.),
 the Gaussian(R) 94 system (copyright 1995, Gaussian, Inc.),
 the Gaussian 92(TM) system (copyright 1992, Gaussian, Inc.),
 the Gaussian 90(TM) system (copyright 1990, Gaussian, Inc.),
 the Gaussian 88(TM) system (copyright 1988, Gaussian, Inc.),
 the Gaussian 86(TM) system (copyright 1986, Carnegie Mellon
 University), and the Gaussian 82(TM) system (copyright 1983,
 Carnegie Mellon University). Gaussian is a federally registered
 trademark of Gaussian, Inc.
  
 This software contains proprietary and confidential information,
 including trade secrets, belonging to Gaussian, Inc.
  
 This software is provided under written license and may be
 used, copied, transmitted, or stored only in accord with that
 written license.
  
 The following legend is applicable only to US Government
 contracts under FAR:
  
                    RESTRICTED RIGHTS LEGEND
  
 Use, reproduction and disclosure by the US Government is
 subject to restrictions as set forth in subparagraphs (a)
 and (c) of the Commercial Computer Software - Restricted
 Rights clause in FAR 52.227-19.
  
 Gaussian, Inc.
 340 Quinnipiac St., Bldg. 40, Wallingford CT 06492
  
  
 ---------------------------------------------------------------
 Warning -- This program may not be used in any manner that
 competes with the business of Gaussian, Inc. or will provide
 assistance to any competitor of Gaussian, Inc.  The licensee
 of this program is prohibited from giving any competitor of
 Gaussian, Inc. access to this program.  By using this program,
 the user acknowledges that Gaussian, Inc. is engaged in the
 business of creating and licensing software in the field of
 computational chemistry and represents and warrants to the
 licensee that it is not a competitor of Gaussian, Inc. and that
 it will not use this program in any manner prohibited above.
 ---------------------------------------------------------------
  

 Cite this work as:
 Gaussian 16, Revision C.01,
 M. J. Frisch, G. W. Trucks, H. B. Schlegel, G. E. Scuseria, 
 M. A. Robb, J. R. Cheeseman, G. Scalmani, V. Barone, 
 G. A. Petersson, H. Nakatsuji, X. Li, M. Caricato, A. V. Marenich, 
 J. Bloino, B. G. Janesko, R. Gomperts, B. Mennucci, H. P. Hratchian, 
 J. V. Ortiz, A. F. Izmaylov, J. L. Sonnenberg, D. Williams-Young, 
 F. Ding, F. Lipparini, F. Egidi, J. Goings, B. Peng, A. Petrone, 
 T. Henderson, D. Ranasinghe, V. G. Zakrzewski, J. Gao, N. Rega, 
 G. Zheng, W. Liang, M. Hada, M. Ehara, K. Toyota, R. Fukuda, 
 J. Hasegawa, M. Ishida, T. Nakajima, Y. Honda, O. Kitao, H. Nakai, 
 T. Vreven, K. Throssell, J. A. Montgomery, Jr., J. E. Peralta, 
 F. Ogliaro, M. J. Bearpark, J. J. Heyd, E. N. Brothers, K. N. Kudin, 
 V. N. Staroverov, T. A. Keith, R. Kobayashi, J. Normand, 
 K. Raghavachari, A. P. Rendell, J. C. Burant, S. S. Iyengar, 
 J. Tomasi, M. Cossi, J. M. Millam, M. Klene, C. Adamo, R. Cammi, 
 J. W. Ochterski, R. L. Martin, K. Morokuma, O. Farkas, 
 J. B. Foresman, and D. J. Fox, Gaussian, Inc., Wallingford CT, 2019.
 
 ******************************************
 Gaussian 16:  ES64L-G16RevC.01  3-Jul-2019
                21-Mar-2025 
 ******************************************
 %oldchk=../TD_OLD_S1/geometry.chk
 %chk=geometry.chk
 %nprocshared=1
 Will use up to    1 processors via shared memory.
 %mem=2GB
 Copying data from "../TD_OLD_S1/geometry.chk" to current chk file "geometry.chk"
 IOpt=  2 FromEx=T IUOpen= 4 IOptOp= 5 NList=   0 IFRang= 0 IUIn= 4 IUOut= 2.
 ----------------------------------------------------------------------
 # AM1/STO-5G SCF=XQC TD=(read,singlets,nstates=5,root=1) nosym IOp(9/4
 0=3) guess=read
 ----------------------------------------------------------------------
 1/38=1,172=1/1;
 2/12=2,15=1,17=6,18=5,40=1/2;
 3/5=2,6=5,25=1,41=700000,116=-2/1,2,3,8;
 4/5=1,35=1/1;
 5/5=2,8=3,13=1,35=1,38=6/2,8;
 8/6=1,10=90,107=1,108=5/1;
 9/8=1,40=3,41=5,42=1,48=1,49=13,70=2/14;
 6/7=2,8=2,9=2,10=2/1;
 99/5=1,9=1/99;
 ----------
 MD Step 29
 ----------
 Symbolic Z-matrix:
 Charge =  0 Multiplicity = 1
 C                    -0.70641  -1.23779  -0.03071 
 C                     0.70082  -1.21003   0.05334 
 C                     1.36016   0.0056   -0.01097 
 C                     0.69847   1.22661  -0.00127 
 C                    -0.70856   1.23947  -0.00473 
 C                    -1.34714  -0.03017   0.00874 
 H                    -1.3279   -2.18043  -0.18301 
 H                     1.21543  -2.1949    0.1443 
 H                     2.44943   0.04279  -0.0478 
 H                     1.17969   2.22128   0.01427 
 H                    -1.27247   2.14583  -0.01988 
 H                    -2.48357  -0.0324    0.08427 
 
                          Input orientation:                          
 ---------------------------------------------------------------------
 Center     Atomic      Atomic             Coordinates (Angstroms)
 Number     Number       Type             X           Y           Z
 ---------------------------------------------------------------------
      1          6           0       -0.706410   -1.237788   -0.030705
      2          6           0        0.700816   -1.210032    0.053342
      3          6           0        1.360161    0.005601   -0.010969
      4          6           0        0.698471    1.226612   -0.001270
      5          6           0       -0.708565    1.239472   -0.004726
      6          6           0       -1.347141   -0.030172    0.008739
      7          1           0       -1.327897   -2.180434   -0.183008
      8          1           0        1.215432   -2.194904    0.144303
      9          1           0        2.449426    0.042789   -0.047803
     10          1           0        1.179686    2.221275    0.014270
     11          1           0       -1.272475    2.145829   -0.019879
     12          1           0       -2.483565   -0.032395    0.084273
 ---------------------------------------------------------------------
                    Distance matrix (angstroms):
                    1          2          3          4          5
     1  C    0.000000
     2  C    1.410006   0.000000
     3  C    2.411871   1.384426   0.000000
     4  C    2.836869   2.437257   1.388812   0.000000
     5  C    2.477397   2.826622   2.408756   1.407099   0.000000
     6  C    1.367636   2.363935   2.707611   2.400862   1.421251
     7  H    1.139308   2.261242   3.469006   3.968269   3.480102
     8  H    2.154106   1.114934   2.210719   3.463411   3.939405
     9  H    3.405799   2.153469   1.090522   2.114107   3.377397
    10  H    3.940114   3.464782   2.223156   1.105063   2.128330
    11  H    3.430657   3.893718   3.392850   2.174841   1.067571
    12  H    2.150459   3.395301   3.845094   3.423123   2.185450
                    6          7          8          9         10
     6  C    0.000000
     7  H    2.158880   0.000000
     8  H    3.357265   2.564344   0.000000
     9  H    3.797689   4.385107   2.562600   0.000000
    10  H    3.384361   5.069707   4.418238   2.522280   0.000000
    11  H    2.177469   4.329692   5.005857   4.275056   2.453559
    12  H    1.138933   2.453789   4.285164   4.935331   4.301551
                   11         12
    11  H    0.000000
    12  H    2.494443   0.000000
 Symmetry turned off by external request.
 Stoichiometry    C6H6
 Framework group  C1[X(C6H6)]
 Deg. of freedom    30
 Full point group                 C1      NOp   1
 Rotational constants (GHZ):           5.8591999           5.4939776           2.8387866
 Standard basis: VSTO-5G (5D, 7F)
    30 basis functions,   180 primitive gaussians,    30 cartesian basis functions
    15 alpha electrons       15 beta electrons
       nuclear repulsion energy       119.4700258796 Hartrees.
 Integral buffers will be    131072 words long.
 Regular integral format.
 Two-electron integral symmetry is turned off.
 Do NDO integrals.
 One-electron integrals computed using PRISM.
 NBasis=    30 RedAO= F EigKep=  0.00D+00  NBF=    30
 NBsUse=    30 1.00D-04 EigRej=  0.00D+00 NBFU=    30
 Initial guess from the checkpoint file:  "geometry.chk"
 B after Tr=    -0.000103   -0.000000   -0.000566
         Rot=    1.000000    0.000238    0.000234    0.000165 Ang=   0.04 deg.
 Keep J ints in memory in canonical form, NReq=861816.
 Overlap will be assumed to be unity.
 Requested convergence on RMS density matrix=1.00D-08 within  32 cycles.
 Requested convergence on MAX density matrix=1.00D-06.
 Requested convergence on             energy=1.00D-06.
 No special actions if energy rises.
 SCF Done:  E(RAM1) =  0.460442895694E-01 A.U. after   12 cycles
            NFock= 11  Conv=0.59D-08     -V/T= 1.0010
 QCSCF skips out because SCF is already converged.
 Range of M.O.s used for correlation:     1    30
 NBasis=    30 NAE=    15 NBE=    15 NFC=     0 NFV=     0
 NROrb=     30 NOA=    15 NOB=    15 NVA=    15 NVB=    15
 Keep J ints in memory in canonical form, NReq=862156.
 Generating guess from checkpoint file densities.
 Convergence on wavefunction:    0.001000000000000
 Iteration     1 Dimension    10 NMult     0 NNew     10
 CISAX will form    10 AO SS matrices at one time.
 Iteration     2 Dimension    20 NMult    10 NNew     10
 Iteration     3 Dimension    30 NMult    20 NNew     10
 Iteration     4 Dimension    40 NMult    30 NNew     10
 Iteration     5 Dimension    46 NMult    40 NNew      6
 Iteration     6 Dimension    50 NMult    46 NNew      4
 Iteration     7 Dimension    52 NMult    50 NNew      2
 Convergence on energies, max DE= 6.69D-06.
 ***********************************************************************
 Excited states from <AA,BB:AA,BB> singles matrix:
 ***********************************************************************
 
 Ground to excited state transition densities written to RWF  633
 Ground to excited state transition electric dipole moments (Au):
       state          X           Y           Z        Dip. S.      Osc.
         1         0.0206     -0.0424      0.0011      0.0022      0.0002
         2         0.1498     -0.1449      0.0582      0.0468      0.0047
         3         1.4494      0.3196      0.0087      2.2031      0.2863
         4        -0.3309      1.4633     -0.0226      2.2513      0.2963
         5         0.2851      0.5752     -0.0332      0.4132      0.0590
 Ground to excited state transition velocity dipole moments (Au):
       state          X           Y           Z        Dip. S.      Osc.
         1        -0.0032      0.0067     -0.0005      0.0001      0.0003
         2        -0.0368      0.0354     -0.0511      0.0052      0.0229
         3        -0.4425     -0.1003      0.0165      0.2061      0.7049
         4         0.1000     -0.4526     -0.0131      0.2150      0.7263
         5        -0.0953     -0.1930     -0.0371      0.0477      0.1484
 Ground to excited state transition magnetic dipole moments (Au):
       state          X           Y           Z
         1        -0.0028      0.0033      0.0169
         2         0.0245      0.0163      0.1163
         3         0.0390     -0.0428      0.0190
         4         0.0037     -0.0379     -0.0001
         5        -0.1134      0.0880     -0.0148
 Ground to excited state transition velocity quadrupole moments (Au):
       state          XX          YY          ZZ          XY          XZ          YZ
         1        -0.0011      0.0019     -0.0003     -0.0081      0.0051      0.0011
         2         0.0034      0.0306     -0.0015     -0.0296     -0.0070      0.0285
         3         0.0009     -0.0265     -0.0003     -0.0192     -0.0006      0.0111
         4        -0.0287      0.0199      0.0141      0.0361      0.0409     -0.0087
         5        -0.0011      0.0221     -0.0059     -0.0097      0.0343      0.0195
 <0|del|b> * <b|rxdel|0> + <0|del|b> * <b|delr+rdel|0>
 Rotatory Strengths (R) in cgs (10**-40 erg-esu-cm/Gauss)
       state          XX          YY          ZZ    R(velocity)    E-M Angle
         1        -0.0416     -0.0164      0.1738      0.0386       90.00
         2        -8.4041    -21.9410      1.1090     -9.7454      136.32
         3         7.6817    -38.9918    -14.4958    -15.2686      117.16
         4        63.0457     -0.0373     -0.1984     20.9367        6.99
         5       -15.6174     15.0994    -18.0461     -6.1880      100.28
 1/2[<0|r|b>*<b|rxdel|0> + (<0|rxdel|b>*<b|r|0>)*]
 Rotatory Strengths (R) in cgs (10**-40 erg-esu-cm/Gauss)
       state          XX          YY          ZZ     R(length)
         1         0.0413      0.0986     -0.0130      0.0423
         2        -2.6001      1.6724     -4.7839     -1.9039
         3       -39.9255      9.6808     -0.1172    -10.1206
         4         0.8764     39.2258     -0.0009     13.3671
         5        22.8632    -35.8078     -0.3477     -4.4308
  1/2[<0|del|b>*<b|r|0> + (<0|r|b>*<b|del|0>)*] (Au)
       state          X           Y           Z        Dip. S.   Osc.(frdel)
         1        -0.0001     -0.0003     -0.0000      0.0003      0.0002
         2        -0.0055     -0.0051     -0.0030      0.0136      0.0091
         3        -0.6414     -0.0320      0.0001      0.6733      0.4488
         4        -0.0331     -0.6623      0.0003      0.6951      0.4634
         5        -0.0272     -0.1110      0.0012      0.1369      0.0913

 Excitation energies and oscillator strengths:
 
 Excited state symmetry could not be determined.
 Excited State   1:      Singlet-?Sym    3.7981 eV  326.43 nm  f=0.0002  <S**2>=0.000
       2 -> 23        -0.00344
       2 -> 25         0.00107
       2 -> 26        -0.00122
       3 -> 24         0.00284
       3 -> 25         0.00181
       3 -> 26         0.00156
       4 -> 17        -0.00345
       4 -> 27         0.00269
       5 -> 16         0.00446
       5 -> 28        -0.00277
       7 -> 16         0.00137
       7 -> 29        -0.00253
       8 -> 18         0.01065
       8 -> 22        -0.00106
       9 -> 16         0.00109
       9 -> 18         0.00405
       9 -> 23        -0.00323
       9 -> 25         0.00220
       9 -> 26        -0.00139
      10 -> 24        -0.00237
      10 -> 25        -0.00146
      10 -> 26        -0.00209
      11 -> 16        -0.00109
      11 -> 17        -0.00232
      11 -> 19         0.00108
      11 -> 27        -0.00222
      11 -> 28        -0.00103
      11 -> 29         0.00484
      12 -> 16        -0.00202
      12 -> 17         0.00198
      12 -> 18         0.00241
      12 -> 27         0.00114
      13 -> 16        -0.00328
      14 -> 16         0.49585
      14 -> 17        -0.10547
      14 -> 18        -0.00396
      14 -> 20        -0.00155
      14 -> 28         0.00304
      15 -> 16         0.13365
      15 -> 17         0.48383
      15 -> 19        -0.00186
      15 -> 20        -0.00121
      15 -> 21        -0.00187
      15 -> 22        -0.00133
      15 -> 23         0.00126
      15 -> 27         0.00415
      15 -> 28         0.00142
       2 <- 23        -0.00131
       4 <- 27         0.00212
       5 <- 28        -0.00214
       7 <- 29        -0.00197
       9 <- 16         0.00106
      11 <- 17        -0.00121
      12 <- 16        -0.00204
      12 <- 17         0.00537
      13 <- 16        -0.00801
      14 <- 16         0.06489
      14 <- 17        -0.01805
      14 <- 20        -0.00286
      14 <- 22         0.00125
      14 <- 28        -0.00185
      15 <- 16         0.01280
      15 <- 17         0.06697
      15 <- 19        -0.00332
      15 <- 21        -0.00145
      15 <- 27        -0.00205
 This state for optimization and/or second-order correction.
 Total Energy, E(TD-HF/TD-DFT) =  0.185623302674    
 Copying the excited state density for this state as the 1-particle RhoCI density.
 
 Excited state symmetry could not be determined.
 Excited State   2:      Singlet-?Sym    4.1231 eV  300.71 nm  f=0.0047  <S**2>=0.000
       1 -> 19         0.00152
       1 -> 20         0.00116
       1 -> 21        -0.00164
       2 -> 24        -0.00315
       2 -> 25         0.00149
       2 -> 26         0.00112
       3 -> 23        -0.00308
       3 -> 25        -0.00166
       3 -> 26         0.00142
       4 -> 21        -0.00121
       4 -> 22         0.00237
       4 -> 28         0.00442
       5 -> 23         0.00182
       5 -> 25        -0.00134
       5 -> 27         0.00517
       6 -> 19        -0.00123
       6 -> 20        -0.00214
       7 -> 18        -0.00520
       7 -> 22         0.00116
       7 -> 23        -0.00146
       7 -> 26        -0.00128
       8 -> 19         0.00223
       8 -> 20         0.00185
       8 -> 23         0.00225
       8 -> 24        -0.00298
       8 -> 25        -0.00375
       8 -> 26        -0.00268
       8 -> 29         0.00193
       9 -> 17         0.00140
       9 -> 18         0.00484
       9 -> 19         0.00166
       9 -> 20         0.00139
       9 -> 22        -0.00155
       9 -> 23        -0.00281
       9 -> 24        -0.00491
       9 -> 25         0.00407
       9 -> 26         0.00330
       9 -> 28        -0.00123
       9 -> 29         0.00328
      10 -> 16         0.00108
      10 -> 18        -0.00387
      10 -> 19         0.00111
      10 -> 23         0.00370
      10 -> 25         0.00753
      10 -> 26        -0.00215
      10 -> 27         0.00112
      10 -> 28         0.00149
      10 -> 29         0.00211
      11 -> 18         0.11045
      11 -> 19         0.00749
      11 -> 20         0.00685
      11 -> 21         0.00829
      11 -> 28         0.00146
      12 -> 16        -0.01064
      12 -> 18         0.02030
      12 -> 20        -0.00746
      12 -> 21        -0.00381
      12 -> 22         0.01228
      12 -> 23         0.00268
      12 -> 24        -0.00283
      12 -> 25        -0.00172
      12 -> 26        -0.00201
      12 -> 27         0.00185
      12 -> 29         0.00132
      12 -> 30         0.00267
      13 -> 16         0.00472
      13 -> 17        -0.00505
      13 -> 18         0.00564
      13 -> 19        -0.00722
      13 -> 20         0.00551
      13 -> 22        -0.00320
      13 -> 23         0.00111
      13 -> 25        -0.00302
      13 -> 26         0.00122
      13 -> 27         0.00886
      13 -> 29         0.00173
      13 -> 30        -0.00136
      14 -> 16        -0.11016
      14 -> 17        -0.43598
      14 -> 18         0.00275
      14 -> 19         0.00108
      14 -> 20         0.00106
      14 -> 21         0.00151
      14 -> 22         0.00142
      14 -> 25        -0.00201
      14 -> 27         0.00319
      15 -> 16         0.51895
      15 -> 17        -0.12599
      15 -> 19        -0.00116
      15 -> 20         0.00136
      15 -> 22        -0.00311
      15 -> 24         0.00147
      15 -> 26        -0.00114
       1 <- 19         0.00320
       1 <- 20         0.00228
       1 <- 21        -0.00358
       1 <- 22         0.00170
       1 <- 30         0.00231
       2 <- 20         0.00145
       2 <- 24        -0.00616
       2 <- 25        -0.00118
       2 <- 26        -0.00130
       3 <- 23        -0.00700
       4 <- 28         0.00519
       4 <- 29         0.00116
       5 <- 23         0.00128
       5 <- 25        -0.00128
       5 <- 27         0.00583
       6 <- 20        -0.00121
       6 <- 30        -0.00164
       7 <- 18        -0.00146
       8 <- 23         0.00161
       8 <- 24        -0.00158
       8 <- 25        -0.00195
       8 <- 26        -0.00149
       8 <- 28        -0.00129
       8 <- 29         0.00481
       9 <- 23        -0.00228
       9 <- 24        -0.00466
       9 <- 26        -0.00114
       9 <- 29         0.00132
      10 <- 23         0.00497
      10 <- 25         0.00127
      11 <- 16        -0.00108
      11 <- 18        -0.01394
      12 <- 16         0.00185
      12 <- 17         0.00113
      12 <- 18        -0.00165
      12 <- 20        -0.00293
      12 <- 21        -0.00215
      12 <- 22         0.00427
      12 <- 24        -0.00118
      12 <- 27         0.00170
      12 <- 28         0.00219
      12 <- 29         0.00129
      12 <- 30         0.00103
      13 <- 17         0.00424
      13 <- 19        -0.00238
      13 <- 20         0.00134
      13 <- 22        -0.00140
      13 <- 25        -0.00184
      13 <- 27         0.00605
      13 <- 28        -0.00116
      14 <- 16        -0.00568
      14 <- 17        -0.02313
      14 <- 19         0.00321
      14 <- 20        -0.00106
      14 <- 21         0.00136
      14 <- 27         0.00288
      15 <- 16         0.00505
      15 <- 17        -0.00285
      15 <- 20        -0.00240
      15 <- 22         0.00131
      15 <- 28        -0.00220
 
 Excited state symmetry could not be determined.
 Excited State   3:      Singlet-?Sym    5.3048 eV  233.72 nm  f=0.2863  <S**2>=0.000
       1 -> 17         0.00231
       1 -> 27        -0.00230
       2 -> 18        -0.00400
       2 -> 20         0.00181
       2 -> 21         0.00242
       2 -> 22         0.00246
       2 -> 23        -0.00200
       2 -> 24        -0.00108
       2 -> 26        -0.00264
       2 -> 29         0.00129
       3 -> 17        -0.00103
       3 -> 18         0.00474
       3 -> 20        -0.00160
       3 -> 21        -0.00291
       3 -> 22        -0.00358
       3 -> 23         0.00221
       3 -> 24        -0.00221
       3 -> 25        -0.00181
       3 -> 29         0.00123
       4 -> 16        -0.00349
       4 -> 17        -0.00277
       4 -> 18         0.00159
       4 -> 19        -0.00317
       4 -> 20         0.00146
       4 -> 21        -0.00432
       4 -> 22         0.00457
       4 -> 27         0.00153
       4 -> 28         0.00148
       4 -> 30         0.00135
       5 -> 16        -0.01119
       5 -> 17         0.00469
       5 -> 19        -0.00538
       5 -> 20        -0.01009
       5 -> 21         0.00918
       5 -> 24        -0.00260
       5 -> 25         0.00147
       5 -> 28         0.00125
       5 -> 30        -0.00769
       6 -> 17        -0.01091
       6 -> 19         0.01195
       6 -> 20        -0.00777
       6 -> 21         0.00478
       6 -> 22        -0.00201
       6 -> 23         0.00283
       6 -> 24        -0.00112
       6 -> 25        -0.00185
       6 -> 27         0.00564
       6 -> 30        -0.00145
       7 -> 16        -0.00322
       7 -> 17        -0.00247
       7 -> 18         0.00689
       7 -> 19         0.00193
       7 -> 20        -0.00850
       7 -> 21        -0.00447
       7 -> 22        -0.00242
       7 -> 23        -0.02156
       7 -> 24         0.01450
       7 -> 25         0.01163
       7 -> 27         0.00164
       7 -> 30        -0.00112
       8 -> 17        -0.00395
       8 -> 18        -0.01105
       8 -> 19         0.00220
       8 -> 20         0.00339
       8 -> 21        -0.00224
       8 -> 22        -0.00315
       8 -> 23        -0.02141
       8 -> 24        -0.01921
       8 -> 25        -0.00622
       8 -> 26        -0.02333
       8 -> 28         0.00197
       8 -> 29        -0.00433
       8 -> 30         0.00124
       9 -> 17        -0.00332
       9 -> 18        -0.02280
       9 -> 19         0.00195
       9 -> 20         0.00538
       9 -> 21         0.00160
       9 -> 22        -0.00492
       9 -> 23        -0.00971
       9 -> 24        -0.01275
       9 -> 25        -0.01603
       9 -> 26        -0.03027
       9 -> 27        -0.00138
       9 -> 28        -0.00367
       9 -> 29         0.01818
       9 -> 30        -0.00105
      10 -> 16         0.00795
      10 -> 17         0.00613
      10 -> 18        -0.04527
      10 -> 19        -0.00443
      10 -> 20         0.00286
      10 -> 21        -0.00375
      10 -> 22         0.00456
      10 -> 23        -0.01131
      10 -> 24         0.00539
      10 -> 25         0.01709
      10 -> 26        -0.00489
      10 -> 27         0.00163
      10 -> 28         0.00507
      10 -> 29        -0.00895
      10 -> 30         0.00157
      11 -> 16         0.00561
      11 -> 17         0.00338
      11 -> 18        -0.00221
      11 -> 20         0.00177
      11 -> 21         0.00274
      11 -> 22         0.00187
      11 -> 23         0.01335
      11 -> 24        -0.00514
      11 -> 25        -0.00912
      11 -> 26         0.00383
      11 -> 29        -0.00122
      12 -> 16        -0.06416
      12 -> 17        -0.03503
      12 -> 18         0.00356
      12 -> 19        -0.02425
      12 -> 20        -0.00702
      12 -> 21        -0.00800
      12 -> 22         0.02097
      12 -> 23        -0.00374
      12 -> 24        -0.00369
      12 -> 25         0.00229
      12 -> 26        -0.01035
      12 -> 27        -0.02468
      12 -> 28        -0.02715
      12 -> 29        -0.00690
      12 -> 30        -0.00229
      13 -> 16        -0.12085
      13 -> 17         0.12263
      13 -> 18        -0.01011
      13 -> 19         0.01313
      13 -> 20        -0.05225
      13 -> 21         0.02228
      13 -> 22        -0.00297
      13 -> 23         0.00342
      13 -> 24        -0.00765
      13 -> 25         0.00318
      13 -> 26        -0.00679
      13 -> 27         0.03053
      13 -> 28        -0.02709
      13 -> 29        -0.00785
      13 -> 30        -0.02958
      14 -> 16        -0.41125
      14 -> 17         0.25842
      14 -> 18        -0.00335
      14 -> 19         0.01225
      14 -> 20        -0.01455
      14 -> 21        -0.00664
      14 -> 22         0.01127
      14 -> 23         0.00812
      14 -> 24        -0.00121
      14 -> 25        -0.00306
      14 -> 27         0.00811
      14 -> 28        -0.01367
      14 -> 29        -0.00673
      14 -> 30         0.00525
      15 -> 16         0.23172
      15 -> 17         0.41330
      15 -> 18        -0.00780
      15 -> 19         0.01929
      15 -> 21         0.00113
      15 -> 22        -0.00878
      15 -> 23        -0.00423
      15 -> 25         0.00212
      15 -> 26        -0.00164
      15 -> 27         0.01747
      15 -> 28         0.00867
      15 -> 29         0.00177
      15 -> 30         0.00346
       1 <- 19        -0.00128
       1 <- 27        -0.00344
       2 <- 20         0.00148
       2 <- 21         0.00165
       2 <- 22         0.00116
       2 <- 23        -0.00314
       2 <- 24        -0.00236
       2 <- 25        -0.00108
       2 <- 26        -0.00309
       2 <- 29         0.00179
       3 <- 21        -0.00128
       3 <- 22        -0.00198
       3 <- 23         0.00405
       3 <- 24        -0.00312
       3 <- 25        -0.00262
       3 <- 29         0.00138
       4 <- 19        -0.00151
       4 <- 21        -0.00275
       4 <- 22         0.00274
       4 <- 30         0.00109
       5 <- 19        -0.00395
       5 <- 20        -0.00647
       5 <- 21         0.00618
       5 <- 24        -0.00161
       5 <- 30        -0.00480
       6 <- 19         0.00509
       6 <- 20        -0.00325
       6 <- 21         0.00234
       6 <- 23         0.00119
       7 <- 20        -0.00347
       7 <- 21        -0.00161
       7 <- 23        -0.00913
       7 <- 24         0.00629
       7 <- 25         0.00425
       8 <- 19         0.00146
       8 <- 20         0.00184
       8 <- 22        -0.00106
       8 <- 23        -0.00969
       8 <- 24        -0.00917
       8 <- 25        -0.00262
       8 <- 26        -0.00888
       8 <- 29        -0.00229
       9 <- 20         0.00229
       9 <- 21         0.00107
       9 <- 22        -0.00158
       9 <- 23        -0.00449
       9 <- 24        -0.00574
       9 <- 25        -0.00612
       9 <- 26        -0.01151
       9 <- 29         0.00527
      10 <- 20         0.00179
      10 <- 22         0.00149
      10 <- 23        -0.00550
      10 <- 24         0.00259
      10 <- 25         0.00769
      10 <- 26        -0.00247
      10 <- 28         0.00199
      10 <- 29        -0.00254
      11 <- 16        -0.00139
      11 <- 23         0.00184
      11 <- 24        -0.00102
      11 <- 28         0.00107
      12 <- 16        -0.00542
      12 <- 17        -0.00235
      12 <- 18         0.00143
      12 <- 19        -0.00706
      12 <- 20        -0.00242
      12 <- 21        -0.00246
      12 <- 22         0.00641
      12 <- 23        -0.00151
      12 <- 24        -0.00147
      12 <- 25         0.00145
      12 <- 26        -0.00314
      12 <- 27        -0.00832
      12 <- 28        -0.00952
      12 <- 29        -0.00247
      13 <- 16        -0.00520
      13 <- 17         0.00584
      13 <- 19         0.00222
      13 <- 20        -0.01507
      13 <- 21         0.00827
      13 <- 22        -0.00152
      13 <- 24        -0.00266
      13 <- 25         0.00134
      13 <- 26        -0.00224
      13 <- 27         0.01002
      13 <- 28        -0.00887
      13 <- 29        -0.00242
      13 <- 30        -0.01061
      14 <- 16         0.07022
      14 <- 17        -0.04125
      14 <- 21        -0.00170
      14 <- 28        -0.00131
      15 <- 16        -0.04272
      15 <- 17        -0.06897
      15 <- 18        -0.00267
      15 <- 19         0.00298
      15 <- 20         0.00109
      15 <- 21         0.00130
      15 <- 22        -0.00153
      15 <- 27         0.00264
      15 <- 28         0.00141
 
 Excited state symmetry could not be determined.
 Excited State   4:      Singlet-?Sym    5.3712 eV  230.83 nm  f=0.2963  <S**2>=0.000
       1 -> 16         0.00239
       1 -> 28        -0.00226
       2 -> 18        -0.00566
       2 -> 20         0.00252
       2 -> 21         0.00342
       2 -> 22         0.00362
       2 -> 23         0.00119
       2 -> 25        -0.00149
       2 -> 29        -0.00119
       3 -> 18        -0.00435
       3 -> 20         0.00119
       3 -> 21         0.00256
       3 -> 22         0.00301
       3 -> 23         0.00132
       3 -> 24         0.00233
       3 -> 26         0.00186
       3 -> 29         0.00204
       4 -> 16         0.00731
       4 -> 17         0.00113
       4 -> 19        -0.00929
       4 -> 21         0.00780
       4 -> 22        -0.00705
       4 -> 23        -0.00143
       4 -> 28        -0.00248
       4 -> 29        -0.00128
       4 -> 30        -0.00707
       5 -> 16        -0.01128
       5 -> 17        -0.00661
       5 -> 18         0.00130
       5 -> 19        -0.00727
       5 -> 20        -0.00160
       5 -> 21        -0.00107
       5 -> 22         0.00191
       5 -> 27         0.00164
       5 -> 30        -0.00229
       6 -> 16        -0.01306
       6 -> 19         0.00416
       6 -> 20         0.01000
       6 -> 21         0.00408
       6 -> 22        -0.00765
       6 -> 25        -0.00174
       6 -> 26         0.00216
       6 -> 27         0.00187
       6 -> 28         0.00592
       7 -> 16        -0.00513
       7 -> 17         0.00245
       7 -> 18        -0.00494
       7 -> 19        -0.00365
       7 -> 20        -0.00393
       7 -> 23         0.01625
       7 -> 24         0.01675
       7 -> 25         0.00439
       7 -> 26         0.00924
       7 -> 28         0.00163
       7 -> 29         0.00111
       8 -> 16        -0.00141
       8 -> 17         0.00250
       8 -> 18        -0.01041
       8 -> 20        -0.00775
       8 -> 21        -0.00931
       8 -> 22        -0.00469
       8 -> 23        -0.02740
       8 -> 24         0.01501
       8 -> 25         0.02607
       8 -> 26        -0.00425
       8 -> 27         0.00465
       8 -> 30         0.00101
       9 -> 16         0.00242
       9 -> 17         0.00270
       9 -> 18        -0.05272
       9 -> 19        -0.00380
       9 -> 21         0.00368
       9 -> 22         0.00832
       9 -> 23         0.00971
       9 -> 24         0.00123
       9 -> 25        -0.01472
       9 -> 26         0.00976
       9 -> 27        -0.00120
       9 -> 29        -0.00873
       9 -> 30         0.00288
      10 -> 17        -0.00605
      10 -> 18         0.02356
      10 -> 19        -0.00146
      10 -> 20         0.00344
      10 -> 22        -0.00580
      10 -> 23        -0.00936
      10 -> 24        -0.01166
      10 -> 25        -0.01126
      10 -> 26        -0.01976
      10 -> 27         0.00188
      10 -> 28         0.00743
      10 -> 29        -0.02654
      11 -> 16        -0.00115
      11 -> 18         0.01604
      11 -> 19         0.00347
      11 -> 20         0.00442
      11 -> 21        -0.00292
      11 -> 22        -0.00197
      11 -> 23        -0.01229
      11 -> 24        -0.00938
      11 -> 25        -0.00389
      11 -> 26        -0.01337
      11 -> 27         0.00150
      11 -> 28         0.00105
      11 -> 30         0.00356
      12 -> 16         0.03942
      12 -> 17        -0.06348
      12 -> 18        -0.00803
      12 -> 19        -0.04075
      12 -> 20         0.02341
      12 -> 21         0.01060
      12 -> 22        -0.01419
      12 -> 23        -0.01529
      12 -> 24        -0.00387
      12 -> 25         0.00524
      12 -> 26         0.00168
      12 -> 27        -0.02613
      12 -> 28         0.01924
      12 -> 29         0.00108
      12 -> 30        -0.02924
      13 -> 16        -0.17907
      13 -> 17        -0.12301
      13 -> 18         0.02000
      13 -> 19        -0.02595
      13 -> 20        -0.00734
      13 -> 21        -0.01807
      13 -> 22         0.02687
      13 -> 23        -0.00653
      13 -> 24        -0.00213
      13 -> 25         0.00990
      13 -> 26        -0.00656
      13 -> 27        -0.02616
      13 -> 28        -0.02788
      13 -> 29        -0.01010
      13 -> 30         0.00536
      14 -> 16        -0.22919
      14 -> 17        -0.44414
      14 -> 18         0.01742
      14 -> 19        -0.01645
      14 -> 20         0.00672
      14 -> 21        -0.01051
      14 -> 22         0.00683
      14 -> 23        -0.00955
      14 -> 24        -0.00313
      14 -> 25         0.00451
      14 -> 26        -0.00686
      14 -> 27        -0.01831
      14 -> 28        -0.00481
      15 -> 16        -0.36531
      15 -> 17         0.23963
      15 -> 18         0.00594
      15 -> 19        -0.00410
      15 -> 20        -0.02553
      15 -> 21         0.00970
      15 -> 22         0.00233
      15 -> 23         0.00598
      15 -> 24         0.00130
      15 -> 25         0.00479
      15 -> 26         0.00353
      15 -> 27         0.00749
      15 -> 28        -0.01418
      15 -> 29        -0.00439
      15 -> 30        -0.00782
       1 <- 22         0.00106
       1 <- 28        -0.00348
       2 <- 20         0.00250
       2 <- 21         0.00271
       2 <- 22         0.00261
       2 <- 23         0.00311
       2 <- 24        -0.00208
       2 <- 25        -0.00242
       2 <- 29        -0.00214
       3 <- 21         0.00198
       3 <- 22         0.00181
       3 <- 23         0.00205
       3 <- 24         0.00330
       3 <- 26         0.00214
       3 <- 29         0.00286
       4 <- 19        -0.00617
       4 <- 21         0.00584
       4 <- 22        -0.00443
       4 <- 30        -0.00474
       5 <- 19        -0.00418
       5 <- 30        -0.00126
       6 <- 19         0.00165
       6 <- 20         0.00418
       6 <- 21         0.00154
       6 <- 22        -0.00369
       6 <- 28         0.00105
       7 <- 19        -0.00133
       7 <- 20        -0.00118
       7 <- 23         0.00675
       7 <- 24         0.00716
       7 <- 25         0.00163
       7 <- 26         0.00298
       8 <- 20        -0.00317
       8 <- 21        -0.00335
       8 <- 22        -0.00182
       8 <- 23        -0.01228
       8 <- 24         0.00743
       8 <- 25         0.00985
       8 <- 26        -0.00139
       8 <- 27         0.00243
       8 <- 29         0.00102
       9 <- 17         0.00102
       9 <- 20         0.00134
       9 <- 21         0.00288
       9 <- 22         0.00330
       9 <- 23         0.00474
       9 <- 25        -0.00703
       9 <- 26         0.00386
       9 <- 29        -0.00265
       9 <- 30         0.00113
      10 <- 20         0.00104
      10 <- 22        -0.00220
      10 <- 23        -0.00328
      10 <- 24        -0.00558
      10 <- 25        -0.00533
      10 <- 26        -0.00840
      10 <- 28         0.00264
      10 <- 29        -0.00850
      11 <- 17         0.00360
      11 <- 18        -0.00198
      11 <- 19         0.00185
      11 <- 23        -0.00147
      11 <- 24        -0.00208
      11 <- 27         0.00110
      12 <- 16         0.00266
      12 <- 17        -0.00390
      12 <- 19        -0.01266
      12 <- 20         0.00551
      12 <- 21         0.00517
      12 <- 22        -0.00501
      12 <- 23        -0.00416
      12 <- 24        -0.00116
      12 <- 25         0.00170
      12 <- 26         0.00144
      12 <- 27        -0.00872
      12 <- 28         0.00665
      12 <- 30        -0.01107
      13 <- 16        -0.00607
      13 <- 17        -0.00468
      13 <- 18         0.00196
      13 <- 19        -0.00697
      13 <- 20        -0.00231
      13 <- 21        -0.00554
      13 <- 22         0.00778
      13 <- 23        -0.00162
      13 <- 25         0.00244
      13 <- 26        -0.00195
      13 <- 27        -0.00835
      13 <- 28        -0.00917
      13 <- 29        -0.00278
      13 <- 30         0.00205
      14 <- 16         0.04189
      14 <- 17         0.06653
      14 <- 18        -0.00348
      14 <- 21        -0.00105
      14 <- 27        -0.00157
      15 <- 16         0.07193
      15 <- 17        -0.03699
      15 <- 20        -0.00427
      15 <- 21         0.00216
      15 <- 27         0.00223
      15 <- 28        -0.00207
 
 Excited state symmetry could not be determined.
 Excited State   5:      Singlet-?Sym    5.8288 eV  212.71 nm  f=0.0590  <S**2>=0.000
       1 -> 16        -0.00236
       1 -> 17        -0.00226
       2 -> 16         0.00253
       2 -> 17         0.00155
       2 -> 18         0.00777
       2 -> 19         0.00100
       2 -> 20         0.00225
       2 -> 21         0.00301
       2 -> 22         0.00221
       3 -> 17         0.00111
       3 -> 23         0.00108
       4 -> 16        -0.00863
       4 -> 17        -0.01798
       4 -> 19        -0.00389
       4 -> 21         0.00177
       4 -> 22        -0.00106
       4 -> 30        -0.00199
       5 -> 16         0.04241
       5 -> 17        -0.00253
       5 -> 18         0.00365
       5 -> 19        -0.00444
       5 -> 20        -0.00387
       5 -> 21         0.00192
       5 -> 24        -0.00131
       5 -> 30        -0.00276
       6 -> 16         0.01999
       6 -> 17         0.01829
       6 -> 19         0.00441
       6 -> 20         0.00122
       6 -> 21         0.00198
       6 -> 22        -0.00313
       6 -> 23         0.00103
       6 -> 27         0.00190
       6 -> 28         0.00179
       7 -> 16         0.01211
       7 -> 17         0.00594
       7 -> 18        -0.02748
       7 -> 19        -0.00386
       7 -> 20        -0.00608
       7 -> 21        -0.00401
       7 -> 24         0.01088
       7 -> 25         0.00429
       7 -> 26         0.00301
       7 -> 27         0.00147
       7 -> 29        -0.00140
       8 -> 16         0.01585
       8 -> 17        -0.00218
       8 -> 18         0.07853
       8 -> 19         0.00658
       8 -> 20         0.00337
       8 -> 21         0.00371
       8 -> 22        -0.00113
       8 -> 23        -0.01727
       8 -> 25         0.00757
       8 -> 26        -0.00751
       8 -> 27         0.00287
       8 -> 28         0.00192
       8 -> 29        -0.00164
       9 -> 16         0.02211
       9 -> 17         0.01703
       9 -> 18         0.09194
       9 -> 19         0.00648
       9 -> 20         0.00891
       9 -> 21         0.01288
       9 -> 22         0.00439
       9 -> 24        -0.00193
       9 -> 25        -0.01055
       9 -> 26        -0.00404
       9 -> 29         0.00151
      10 -> 17        -0.00679
      10 -> 18         0.02101
      10 -> 20         0.00282
      10 -> 21         0.00163
      10 -> 23        -0.00718
      10 -> 24        -0.00349
      10 -> 25         0.00223
      10 -> 26        -0.00717
      10 -> 28         0.00363
      10 -> 29        -0.01046
      11 -> 16        -0.01032
      11 -> 17         0.00297
      11 -> 18        -0.00692
      11 -> 19        -0.00106
      11 -> 20         0.00150
      11 -> 21         0.00140
      11 -> 22         0.00232
      11 -> 24         0.01217
      11 -> 25        -0.00244
      11 -> 26        -0.00212
      11 -> 27        -0.00153
      11 -> 28         0.00145
      11 -> 29        -0.00692
      11 -> 30         0.00223
      12 -> 16        -0.03942
      12 -> 17        -0.03553
      12 -> 18         0.03926
      12 -> 19        -0.01993
      12 -> 20         0.01114
      12 -> 21         0.00465
      12 -> 22         0.00280
      12 -> 23        -0.00750
      12 -> 25         0.00339
      12 -> 26        -0.00203
      12 -> 27        -0.01914
      12 -> 29        -0.00164
      12 -> 30        -0.01071
      13 -> 16         0.64584
      13 -> 17        -0.08661
      13 -> 18         0.03306
      13 -> 19        -0.00425
      13 -> 20        -0.01809
      13 -> 22         0.00864
      13 -> 23        -0.00201
      13 -> 24        -0.00224
      13 -> 25         0.00378
      13 -> 26        -0.00514
      13 -> 28        -0.01615
      13 -> 29        -0.00512
      13 -> 30        -0.00610
      14 -> 16        -0.13724
      14 -> 17        -0.05649
      14 -> 18         0.00667
      14 -> 19        -0.01723
      14 -> 20        -0.03139
      14 -> 21         0.01758
      14 -> 22         0.00363
      14 -> 23        -0.00467
      14 -> 24        -0.01160
      14 -> 25         0.00239
      14 -> 26        -0.00616
      14 -> 28        -0.01293
      14 -> 29        -0.00447
      14 -> 30        -0.00976
      15 -> 16        -0.05053
      15 -> 17         0.14244
      15 -> 18        -0.00773
      15 -> 19         0.02300
      15 -> 20        -0.01682
      15 -> 21        -0.01945
      15 -> 22         0.01672
      15 -> 24         0.00751
      15 -> 25         0.00706
      15 -> 26         0.00347
      15 -> 27        -0.00777
      15 -> 29        -0.00228
      15 -> 30         0.00827
       1 <- 27        -0.00117
       2 <- 20         0.00108
       2 <- 21         0.00135
       2 <- 22         0.00116
       2 <- 24        -0.00106
       2 <- 25        -0.00109
       3 <- 23         0.00189
       3 <- 29         0.00132
       4 <- 17         0.00159
       4 <- 19        -0.00259
       4 <- 21         0.00106
       4 <- 30        -0.00121
       5 <- 16        -0.00126
       5 <- 19        -0.00243
       5 <- 20        -0.00184
       5 <- 21         0.00151
       5 <- 30        -0.00165
       6 <- 19         0.00180
       6 <- 22        -0.00130
       7 <- 20        -0.00141
       7 <- 24         0.00417
       7 <- 25         0.00163
       7 <- 26         0.00101
       8 <- 18        -0.00122
       8 <- 21        -0.00136
       8 <- 22        -0.00103
       8 <- 23        -0.00653
       8 <- 25         0.00258
       8 <- 26        -0.00279
       8 <- 27         0.00113
       9 <- 18        -0.00185
       9 <- 21         0.00138
       9 <- 24        -0.00119
       9 <- 25        -0.00392
       9 <- 26        -0.00166
      10 <- 23        -0.00252
      10 <- 24        -0.00108
      10 <- 26        -0.00293
      10 <- 28         0.00123
      10 <- 29        -0.00319
      11 <- 17         0.00179
      11 <- 20         0.00130
      11 <- 21         0.00169
      11 <- 22         0.00130
      11 <- 24         0.00169
      11 <- 28         0.00130
      11 <- 29        -0.00413
      12 <- 17        -0.00289
      12 <- 19        -0.00634
      12 <- 20         0.00203
      12 <- 23        -0.00187
      12 <- 27        -0.00592
      12 <- 30        -0.00329
      13 <- 16        -0.00545
      13 <- 19        -0.00147
      13 <- 20        -0.00335
      13 <- 22         0.00141
      13 <- 26        -0.00102
      13 <- 28        -0.00418
      13 <- 29        -0.00124
      13 <- 30        -0.00180
      14 <- 16         0.02520
      14 <- 17         0.01221
      14 <- 20        -0.01124
      14 <- 21         0.00319
      14 <- 22         0.00339
      14 <- 24        -0.00207
      14 <- 25         0.00121
      14 <- 26        -0.00163
      14 <- 27         0.00259
      14 <- 28        -0.00674
      14 <- 29        -0.00174
      14 <- 30        -0.00291
      15 <- 16         0.00922
      15 <- 17        -0.03428
      15 <- 19        -0.00125
      15 <- 20        -0.00292
      15 <- 21        -0.00510
      15 <- 22         0.00671
      15 <- 25         0.00139
      15 <- 27        -0.00570
      15 <- 28        -0.00321
      15 <- 29        -0.00117
      15 <- 30         0.00219
 SavETr:  write IOETrn=   770 NScale= 10 NData=  16 NLR=1 NState=    5 LETran=     100.

 **********************************************************************

            Population analysis using the SCF Density.

 **********************************************************************

 Alpha  occ. eigenvalues --   -1.43608  -1.15604  -1.14390  -0.85155  -0.83767
 Alpha  occ. eigenvalues --   -0.65365  -0.59151  -0.56570  -0.52246  -0.51281
 Alpha  occ. eigenvalues --   -0.49011  -0.44411  -0.42724  -0.35587  -0.34972
 Alpha virt. eigenvalues --    0.01682   0.02404   0.10808   0.14129   0.14505
 Alpha virt. eigenvalues --    0.14789   0.15597   0.16710   0.16921   0.18712
 Alpha virt. eigenvalues --    0.18849   0.20451   0.20786   0.21172   0.22518
          Condensed to atoms (all electrons):
               1          2          3          4          5          6
     1  C    4.134108   0.000000   0.000000   0.000000   0.000000   0.000000
     2  C    0.000000   4.122090   0.000000   0.000000   0.000000   0.000000
     3  C    0.000000   0.000000   4.124511   0.000000   0.000000   0.000000
     4  C    0.000000   0.000000   0.000000   4.131124   0.000000   0.000000
     5  C    0.000000   0.000000   0.000000   0.000000   4.133548   0.000000
     6  C    0.000000   0.000000   0.000000   0.000000   0.000000   4.141654
     7  H    0.000000   0.000000   0.000000   0.000000   0.000000   0.000000
     8  H    0.000000   0.000000   0.000000   0.000000   0.000000   0.000000
     9  H    0.000000   0.000000   0.000000   0.000000   0.000000   0.000000
    10  H    0.000000   0.000000   0.000000   0.000000   0.000000   0.000000
    11  H    0.000000   0.000000   0.000000   0.000000   0.000000   0.000000
    12  H    0.000000   0.000000   0.000000   0.000000   0.000000   0.000000
               7          8          9         10         11         12
     1  C    0.000000   0.000000   0.000000   0.000000   0.000000   0.000000
     2  C    0.000000   0.000000   0.000000   0.000000   0.000000   0.000000
     3  C    0.000000   0.000000   0.000000   0.000000   0.000000   0.000000
     4  C    0.000000   0.000000   0.000000   0.000000   0.000000   0.000000
     5  C    0.000000   0.000000   0.000000   0.000000   0.000000   0.000000
     6  C    0.000000   0.000000   0.000000   0.000000   0.000000   0.000000
     7  H    0.858361   0.000000   0.000000   0.000000   0.000000   0.000000
     8  H    0.000000   0.866966   0.000000   0.000000   0.000000   0.000000
     9  H    0.000000   0.000000   0.875538   0.000000   0.000000   0.000000
    10  H    0.000000   0.000000   0.000000   0.866876   0.000000   0.000000
    11  H    0.000000   0.000000   0.000000   0.000000   0.863976   0.000000
    12  H    0.000000   0.000000   0.000000   0.000000   0.000000   0.881248
 Mulliken charges:
               1
     1  C   -0.134108
     2  C   -0.122090
     3  C   -0.124511
     4  C   -0.131124
     5  C   -0.133548
     6  C   -0.141654
     7  H    0.141639
     8  H    0.133034
     9  H    0.124462
    10  H    0.133124
    11  H    0.136024
    12  H    0.118752
 Sum of Mulliken charges =   0.00000
 Mulliken charges with hydrogens summed into heavy atoms:
               1
     1  C    0.007531
     2  C    0.010943
     3  C   -0.000049
     4  C    0.002000
     5  C    0.002476
     6  C   -0.022902
 Charge=              0.0000 electrons
 Dipole moment (field-independent basis, Debye):
    X=             -0.0787    Y=             -0.0374    Z=             -0.0221  Tot=              0.0899
 N-N= 1.194700258796D+02 E-N=-1.703414358828D+02  KE=-4.782967875627D+01

 Test job not archived.
 1\1\GINC-BHC0201\SP\RAM1 TD-Full\STO-5G\C6H6\BWEIGHT\21-Mar-2025\0\\# 
 AM1/STO-5G SCF=XQC TD=(read,singlets,nstates=5,root=1) nosym IOp(9/40=
 3) guess=read\\MD Step 29\\0,1\C,0,-0.70640971,-1.23778796,-0.03070514
 \C,0,0.70081589,-1.21003193,0.05334183\C,0,1.36016119,0.00560073,-0.01
 096885\C,0,0.69847083,1.22661248,-0.00126969\C,0,-0.70856496,1.2394715
 4,-0.0047258\C,0,-1.34714144,-0.03017195,0.00873867\H,0,-1.3278966,-2.
 18043406,-0.18300767\H,0,1.21543176,-2.19490436,0.14430279\H,0,2.44942
 599,0.04278892,-0.04780267\H,0,1.17968592,2.22127516,0.01426964\H,0,-1
 .27247498,2.14582883,-0.01987854\H,0,-2.48356501,-0.03239513,0.0842734
 3\\Version=ES64L-G16RevC.01\HF=0.0460443\RMSD=5.949e-09\PG=C01 [X(C6H6
 )]\\@


 IF YOU WANT TO LEARN FROM THE THEORETICAL PHYSICISTS ABOUT THE
 METHODS WHICH THEY USE, I ADVISE YOU TO FOLLOW THIS PRINCIPLE VERY STRICTLY:
 DON'T LISTEN TO THEIR WORDS; PAY ATTENTION, INSTEAD, TO THEIR ACTIONS.
 -- A.EINSTEIN, 1934
 Job cpu time:       0 days  0 hours  0 minutes  1.0 seconds.
 Elapsed time:       0 days  0 hours  0 minutes  0.8 seconds.
 File lengths (MBytes):  RWF=     34 Int=      0 D2E=      0 Chk=      2 Scr=      1
 Normal termination of Gaussian 16 at Fri Mar 21 15:03:25 2025.
