 Entering Gaussian System, Link 0=g16
 Initial command:
 /software/gaussian/g16-c01/avx2/g16/l1.exe "/local_scratch/28554153/Gau-25698.inp" -scrdir="/local_scratch/28554153/"
 Entering Link 1 = /software/gaussian/g16-c01/avx2/g16/l1.exe PID=     25713.
  
 Copyright (c) 1988-2019, Gaussian, Inc.  All Rights Reserved.
  
 This is part of the Gaussian(R) 16 program.  It is based on
 the Gaussian(R) 09 system (copyright 2009, Gaussian, Inc.),
 the Gaussian(R) 03 system (copyright 2003, Gaussian, Inc.),
 the Gaussian(R) 98 system (copyright 1998, Gaussian, Inc.),
 the Gaussian(R) 94 system (copyright 1995, Gaussian, Inc.),
 the Gaussian 92(TM) system (copyright 1992, Gaussian, Inc.),
 the Gaussian 90(TM) system (copyright 1990, Gaussian, Inc.),
 the Gaussian 88(TM) system (copyright 1988, Gaussian, Inc.),
 the Gaussian 86(TM) system (copyright 1986, Carnegie Mellon
 University), and the Gaussian 82(TM) system (copyright 1983,
 Carnegie Mellon University). Gaussian is a federally registered
 trademark of Gaussian, Inc.
  
 This software contains proprietary and confidential information,
 including trade secrets, belonging to Gaussian, Inc.
  
 This software is provided under written license and may be
 used, copied, transmitted, or stored only in accord with that
 written license.
  
 The following legend is applicable only to US Government
 contracts under FAR:
  
                    RESTRICTED RIGHTS LEGEND
  
 Use, reproduction and disclosure by the US Government is
 subject to restrictions as set forth in subparagraphs (a)
 and (c) of the Commercial Computer Software - Restricted
 Rights clause in FAR 52.227-19.
  
 Gaussian, Inc.
 340 Quinnipiac St., Bldg. 40, Wallingford CT 06492
  
  
 ---------------------------------------------------------------
 Warning -- This program may not be used in any manner that
 competes with the business of Gaussian, Inc. or will provide
 assistance to any competitor of Gaussian, Inc.  The licensee
 of this program is prohibited from giving any competitor of
 Gaussian, Inc. access to this program.  By using this program,
 the user acknowledges that Gaussian, Inc. is engaged in the
 business of creating and licensing software in the field of
 computational chemistry and represents and warrants to the
 licensee that it is not a competitor of Gaussian, Inc. and that
 it will not use this program in any manner prohibited above.
 ---------------------------------------------------------------
  

 Cite this work as:
 Gaussian 16, Revision C.01,
 M. J. Frisch, G. W. Trucks, H. B. Schlegel, G. E. Scuseria, 
 M. A. Robb, J. R. Cheeseman, G. Scalmani, V. Barone, 
 G. A. Petersson, H. Nakatsuji, X. Li, M. Caricato, A. V. Marenich, 
 J. Bloino, B. G. Janesko, R. Gomperts, B. Mennucci, H. P. Hratchian, 
 J. V. Ortiz, A. F. Izmaylov, J. L. Sonnenberg, D. Williams-Young, 
 F. Ding, F. Lipparini, F. Egidi, J. Goings, B. Peng, A. Petrone, 
 T. Henderson, D. Ranasinghe, V. G. Zakrzewski, J. Gao, N. Rega, 
 G. Zheng, W. Liang, M. Hada, M. Ehara, K. Toyota, R. Fukuda, 
 J. Hasegawa, M. Ishida, T. Nakajima, Y. Honda, O. Kitao, H. Nakai, 
 T. Vreven, K. Throssell, J. A. Montgomery, Jr., J. E. Peralta, 
 F. Ogliaro, M. J. Bearpark, J. J. Heyd, E. N. Brothers, K. N. Kudin, 
 V. N. Staroverov, T. A. Keith, R. Kobayashi, J. Normand, 
 K. Raghavachari, A. P. Rendell, J. C. Burant, S. S. Iyengar, 
 J. Tomasi, M. Cossi, J. M. Millam, M. Klene, C. Adamo, R. Cammi, 
 J. W. Ochterski, R. L. Martin, K. Morokuma, O. Farkas, 
 J. B. Foresman, and D. J. Fox, Gaussian, Inc., Wallingford CT, 2019.
 
 ******************************************
 Gaussian 16:  ES64L-G16RevC.01  3-Jul-2019
                21-Mar-2025 
 ******************************************
 %oldchk=../TD_OLD_S1/geometry.chk
 %chk=geometry.chk
 %nprocshared=1
 Will use up to    1 processors via shared memory.
 %mem=2GB
 Copying data from "../TD_OLD_S1/geometry.chk" to current chk file "geometry.chk"
 IOpt=  2 FromEx=T IUOpen= 4 IOptOp= 5 NList=   0 IFRang= 0 IUIn= 4 IUOut= 2.
 ----------------------------------------------------------------------
 # AM1/STO-5G SCF=XQC TD=(read,singlets,nstates=5,root=1) nosym IOp(9/4
 0=3) guess=read
 ----------------------------------------------------------------------
 1/38=1,172=1/1;
 2/12=2,15=1,17=6,18=5,40=1/2;
 3/5=2,6=5,25=1,41=700000,116=-2/1,2,3,8;
 4/5=1,35=1/1;
 5/5=2,8=3,13=1,35=1,38=6/2,8;
 8/6=1,10=90,107=1,108=5/1;
 9/8=1,40=3,41=5,42=1,48=1,49=13,70=2/14;
 6/7=2,8=2,9=2,10=2/1;
 99/5=1,9=1/99;
 ----------
 MD Step 24
 ----------
 Symbolic Z-matrix:
 Charge =  0 Multiplicity = 1
 C                    -0.67086  -1.19316   0.03897 
 C                     0.72981  -1.25145  -0.01919 
 C                     1.40287  -0.02051  -0.04688 
 C                     0.67865   1.20274   0.05137 
 C                    -0.71495   1.21638  -0.06857 
 C                    -1.42162   0.03575   0.01222 
 H                    -1.16602  -2.16047   0.00391 
 H                     1.18638  -2.21379   0.13081 
 H                     2.53339   0.04489   0.01573 
 H                     1.15917   2.14092   0.28021 
 H                    -1.29709   2.18814  -0.13554 
 H                    -2.51598   0.0422   -0.09152 
 
                          Input orientation:                          
 ---------------------------------------------------------------------
 Center     Atomic      Atomic             Coordinates (Angstroms)
 Number     Number       Type             X           Y           Z
 ---------------------------------------------------------------------
      1          6           0       -0.670857   -1.193156    0.038967
      2          6           0        0.729810   -1.251453   -0.019186
      3          6           0        1.402867   -0.020506   -0.046884
      4          6           0        0.678649    1.202739    0.051373
      5          6           0       -0.714953    1.216383   -0.068569
      6          6           0       -1.421622    0.035746    0.012224
      7          1           0       -1.166021   -2.160474    0.003913
      8          1           0        1.186379   -2.213793    0.130814
      9          1           0        2.533393    0.044892    0.015730
     10          1           0        1.159174    2.140918    0.280209
     11          1           0       -1.297091    2.188137   -0.135541
     12          1           0       -2.515984    0.042199   -0.091516
 ---------------------------------------------------------------------
                    Distance matrix (angstroms):
                    1          2          3          4          5
     1  C    0.000000
     2  C    1.403085   0.000000
     3  C    2.383864   1.403211   0.000000
     4  C    2.749843   2.455739   1.424947   0.000000
     5  C    2.412340   2.860069   2.452657   1.398821   0.000000
     6  C    1.440334   2.507295   2.825667   2.403028   1.378337
     7  H    1.087253   2.102624   3.343834   3.836178   3.407620
     8  H    2.121194   1.075664   2.211097   3.454966   3.926949
     9  H    3.435188   2.221405   1.134146   2.186768   3.454164
    10  H    3.810940   3.432517   2.199575   1.078633   2.118670
    11  H    3.443220   3.994076   3.489375   2.215738   1.134758
    12  H    2.224324   3.494845   3.919606   3.401904   2.150104
                    6          7          8          9         10
     6  C    0.000000
     7  H    2.211059   0.000000
     8  H    3.446181   2.356424   0.000000
     9  H    3.955027   4.306906   2.632365   0.000000
    10  H    3.341268   4.897432   4.357357   2.520268   0.000000
    11  H    2.161048   4.352820   5.061181   4.391923   2.491649
    12  H    1.099287   2.585202   4.341247   5.050516   4.248481
                   11         12
    11  H    0.000000
    12  H    2.468337   0.000000
 Symmetry turned off by external request.
 Stoichiometry    C6H6
 Framework group  C1[X(C6H6)]
 Deg. of freedom    30
 Full point group                 C1      NOp   1
 Rotational constants (GHZ):           5.8155145           5.3919449           2.8058490
 Standard basis: VSTO-5G (5D, 7F)
    30 basis functions,   180 primitive gaussians,    30 cartesian basis functions
    15 alpha electrons       15 beta electrons
       nuclear repulsion energy       119.1252097252 Hartrees.
 Integral buffers will be    131072 words long.
 Regular integral format.
 Two-electron integral symmetry is turned off.
 Do NDO integrals.
 One-electron integrals computed using PRISM.
 NBasis=    30 RedAO= F EigKep=  0.00D+00  NBF=    30
 NBsUse=    30 1.00D-04 EigRej=  0.00D+00 NBFU=    30
 Initial guess from the checkpoint file:  "geometry.chk"
 B after Tr=     0.000636    0.001779   -0.000774
         Rot=    1.000000    0.000270   -0.000096    0.000446 Ang=   0.06 deg.
 Keep J ints in memory in canonical form, NReq=861816.
 Overlap will be assumed to be unity.
 Requested convergence on RMS density matrix=1.00D-08 within  32 cycles.
 Requested convergence on MAX density matrix=1.00D-06.
 Requested convergence on             energy=1.00D-06.
 No special actions if energy rises.
 SCF Done:  E(RAM1) =  0.508863327060E-01 A.U. after   12 cycles
            NFock= 11  Conv=0.70D-08     -V/T= 1.0011
 QCSCF skips out because SCF is already converged.
 Range of M.O.s used for correlation:     1    30
 NBasis=    30 NAE=    15 NBE=    15 NFC=     0 NFV=     0
 NROrb=     30 NOA=    15 NOB=    15 NVA=    15 NVB=    15
 Keep J ints in memory in canonical form, NReq=862156.
 Generating guess from checkpoint file densities.
 Convergence on wavefunction:    0.001000000000000
 Iteration     1 Dimension    10 NMult     0 NNew     10
 CISAX will form    10 AO SS matrices at one time.
 Iteration     2 Dimension    20 NMult    10 NNew     10
 Iteration     3 Dimension    30 NMult    20 NNew     10
 Iteration     4 Dimension    38 NMult    30 NNew      8
 Iteration     5 Dimension    44 NMult    38 NNew      6
 Iteration     6 Dimension    50 NMult    44 NNew      6
 Iteration     7 Dimension    52 NMult    50 NNew      2
 Iteration     8 Dimension    54 NMult    52 NNew      2
 Iteration     9 Dimension    56 NMult    54 NNew      2
 ***********************************************************************
 Excited states from <AA,BB:AA,BB> singles matrix:
 ***********************************************************************
 
 Ground to excited state transition densities written to RWF  633
 Ground to excited state transition electric dipole moments (Au):
       state          X           Y           Z        Dip. S.      Osc.
         1         0.0909     -0.0175     -0.0029      0.0086      0.0008
         2         0.0127     -0.2838     -0.0740      0.0862      0.0085
         3         1.5170     -0.3774     -0.0587      2.4472      0.3138
         4        -0.3785     -1.4676      0.0473      2.2995      0.2972
         5         0.0570      0.1843      0.0778      0.0433      0.0062
 Ground to excited state transition velocity dipole moments (Au):
       state          X           Y           Z        Dip. S.      Osc.
         1        -0.0152      0.0039     -0.0001      0.0002      0.0012
         2        -0.0051      0.0657      0.0526      0.0071      0.0322
         3        -0.4593      0.1232     -0.0289      0.2270      0.7867
         4         0.1089      0.4473      0.0025      0.2120      0.7289
         5        -0.0124     -0.0603      0.0958      0.0130      0.0399
 Ground to excited state transition magnetic dipole moments (Au):
       state          X           Y           Z
         1         0.0025     -0.0297      0.0106
         2         0.0933     -0.0147      0.0902
         3        -0.0266     -0.0606     -0.0468
         4        -0.0030     -0.0271     -0.0418
         5         0.0180      0.0304     -0.0145
 Ground to excited state transition velocity quadrupole moments (Au):
       state          XX          YY          ZZ          XY          XZ          YZ
         1        -0.0039      0.0030     -0.0015     -0.0014      0.0179     -0.0023
         2        -0.0002      0.0169      0.0059     -0.0253      0.0203      0.0709
         3        -0.0231      0.0279     -0.0034      0.0258      0.0363     -0.0553
         4        -0.0434     -0.0137      0.0183      0.0295      0.0567      0.0136
         5        -0.1421      0.1119      0.0110      0.0569      0.0079     -0.0064
 <0|del|b> * <b|rxdel|0> + <0|del|b> * <b|delr+rdel|0>
 Rotatory Strengths (R) in cgs (10**-40 erg-esu-cm/Gauss)
       state          XX          YY          ZZ    R(velocity)    E-M Angle
         1        -0.4853     -0.0092     -0.3089     -0.2678      108.05
         2         2.6783     12.5759      0.6218      5.2920       72.53
         3       -20.8397     73.0444    -29.7429      7.4873       80.90
         4       -68.4268      1.7804     20.8825    -15.2546      123.09
         5         4.4099    -11.3984     -4.2644     -3.7510      142.37
 1/2[<0|r|b>*<b|rxdel|0> + (<0|rxdel|b>*<b|r|0>)*]
 Rotatory Strengths (R) in cgs (10**-40 erg-esu-cm/Gauss)
       state          XX          YY          ZZ     R(length)
         1        -0.1578     -0.3674      0.0213     -0.1679
         2        -0.8374     -2.9439      4.7235      0.3141
         3        28.5629    -16.1856     -1.9437      3.4779
         4        -0.7999    -28.1135      1.3990     -9.1715
         5        -0.7255     -3.9631      0.7974     -1.2971
  1/2[<0|del|b>*<b|r|0> + (<0|r|b>*<b|del|0>)*] (Au)
       state          X           Y           Z        Dip. S.   Osc.(frdel)
         1        -0.0014     -0.0001      0.0000      0.0015      0.0010
         2        -0.0001     -0.0187     -0.0039      0.0226      0.0151
         3        -0.6968     -0.0465      0.0017      0.7416      0.4944
         4        -0.0412     -0.6565      0.0001      0.6976      0.4651
         5        -0.0007     -0.0111      0.0075      0.0044      0.0029

 Excitation energies and oscillator strengths:
 
 Excited state symmetry could not be determined.
 Excited State   1:      Singlet-?Sym    3.6910 eV  335.91 nm  f=0.0008  <S**2>=0.000
       2 -> 22        -0.00113
       2 -> 23        -0.00334
       2 -> 24         0.00102
       2 -> 25         0.00113
       3 -> 24         0.00294
       3 -> 26         0.00218
       4 -> 17        -0.00279
       4 -> 18        -0.00145
       4 -> 27         0.00278
       5 -> 16        -0.00378
       5 -> 17        -0.00238
       5 -> 18         0.00125
       5 -> 28        -0.00236
       6 -> 17        -0.00151
       7 -> 23        -0.00127
       7 -> 29        -0.00218
       8 -> 16         0.00157
       8 -> 18        -0.01012
       8 -> 22         0.00109
       8 -> 24         0.00154
       9 -> 16        -0.00104
       9 -> 18         0.00571
       9 -> 23        -0.00341
       9 -> 24         0.00183
       9 -> 25         0.00239
       9 -> 29         0.00115
      10 -> 18         0.00186
      10 -> 21         0.00109
      10 -> 23        -0.00153
      10 -> 24        -0.00150
      10 -> 26        -0.00112
      11 -> 16         0.00225
      11 -> 18        -0.00138
      11 -> 19         0.00113
      11 -> 21         0.00103
      11 -> 22        -0.00200
      11 -> 23        -0.00183
      11 -> 24         0.00345
      11 -> 25         0.00211
      11 -> 26         0.00296
      11 -> 27         0.00264
      11 -> 28        -0.00331
      11 -> 29        -0.00607
      12 -> 16        -0.00418
      12 -> 18         0.00107
      12 -> 19        -0.00135
      12 -> 27         0.00173
      13 -> 20         0.00205
      13 -> 28        -0.00220
      13 -> 29        -0.00115
      14 -> 16        -0.47497
      14 -> 17         0.04999
      14 -> 19        -0.00319
      14 -> 20        -0.00217
      14 -> 21         0.00452
      14 -> 24         0.00243
      14 -> 27         0.00429
      14 -> 29         0.00316
      14 -> 30         0.00314
      15 -> 16        -0.07737
      15 -> 17        -0.52452
      15 -> 18        -0.00488
      15 -> 19        -0.00155
      15 -> 20        -0.00296
      15 -> 21         0.00354
      15 -> 22         0.00166
      15 -> 23        -0.00121
      15 -> 24        -0.00217
      15 -> 25         0.00255
      15 -> 26         0.00189
      15 -> 27        -0.00604
      15 -> 28        -0.00152
      15 -> 29         0.00129
      15 -> 30         0.00244
       2 <- 23        -0.00131
       4 <- 27         0.00206
       5 <- 28        -0.00202
       7 <- 29        -0.00188
      10 <- 16         0.00132
      10 <- 17         0.00141
      12 <- 16        -0.00819
      12 <- 17        -0.00507
      12 <- 19        -0.00101
      13 <- 17        -0.00245
      13 <- 20         0.00102
      14 <- 16        -0.07340
      14 <- 17         0.01035
      14 <- 21         0.00403
      14 <- 23         0.00150
      14 <- 27        -0.00114
      14 <- 28        -0.00136
      15 <- 16        -0.00569
      15 <- 17        -0.06398
      15 <- 18        -0.00121
      15 <- 19        -0.00324
      15 <- 20         0.00107
      15 <- 22         0.00126
      15 <- 23        -0.00128
      15 <- 24        -0.00219
      15 <- 27         0.00147
 This state for optimization and/or second-order correction.
 Total Energy, E(TD-HF/TD-DFT) =  0.186526720700    
 Copying the excited state density for this state as the 1-particle RhoCI density.
 
 Excited state symmetry could not be determined.
 Excited State   2:      Singlet-?Sym    4.0097 eV  309.21 nm  f=0.0085  <S**2>=0.000
       1 -> 16         0.00150
       1 -> 19        -0.00242
       1 -> 21         0.00116
       2 -> 17         0.00133
       2 -> 22        -0.00104
       2 -> 24        -0.00267
       2 -> 25         0.00105
       2 -> 26         0.00195
       3 -> 18        -0.00206
       3 -> 23        -0.00370
       3 -> 25        -0.00184
       4 -> 16         0.00148
       4 -> 17         0.00254
       4 -> 23        -0.00160
       4 -> 24        -0.00108
       4 -> 27        -0.00171
       4 -> 28        -0.00487
       5 -> 16        -0.00273
       5 -> 17        -0.00143
       5 -> 18        -0.00219
       5 -> 19         0.00272
       5 -> 21        -0.00195
       5 -> 23        -0.00138
       5 -> 27        -0.00543
       5 -> 30         0.00132
       6 -> 16         0.00220
       6 -> 18        -0.00117
       6 -> 19        -0.00357
       6 -> 22         0.00194
       6 -> 27         0.00126
       7 -> 16         0.00145
       7 -> 17        -0.00161
       7 -> 18        -0.00564
       7 -> 22         0.00134
       7 -> 23         0.00139
       7 -> 24        -0.00367
       8 -> 17         0.00127
       8 -> 19         0.00101
       8 -> 22        -0.00157
       8 -> 23        -0.00760
       8 -> 26        -0.00441
       8 -> 27         0.00163
       8 -> 28         0.00199
       8 -> 29        -0.00407
       9 -> 16        -0.00353
       9 -> 18         0.00956
       9 -> 22        -0.00120
       9 -> 23        -0.00147
       9 -> 24        -0.00173
       9 -> 25         0.00261
       9 -> 26         0.00913
       9 -> 28         0.00148
       9 -> 29        -0.00330
      10 -> 16        -0.00381
      10 -> 17         0.00176
      10 -> 18        -0.01839
      10 -> 20        -0.00250
      10 -> 21        -0.00405
      10 -> 22         0.00171
      10 -> 23         0.00726
      10 -> 24        -0.00348
      10 -> 25         0.00376
      10 -> 29         0.00230
      11 -> 16         0.00185
      11 -> 18        -0.10797
      11 -> 19         0.00332
      11 -> 20        -0.00421
      11 -> 21        -0.00788
      11 -> 23         0.00314
      11 -> 24         0.00153
      11 -> 27         0.00341
      11 -> 30         0.00120
      12 -> 16         0.01468
      12 -> 17        -0.00199
      12 -> 18        -0.01289
      12 -> 20         0.00244
      12 -> 21         0.01050
      12 -> 22        -0.00428
      12 -> 23         0.00610
      12 -> 25        -0.00136
      12 -> 26         0.00101
      12 -> 27         0.00871
      12 -> 28        -0.00414
      12 -> 30        -0.00572
      13 -> 16         0.00915
      13 -> 18        -0.01771
      13 -> 19         0.00359
      13 -> 20         0.00900
      13 -> 21         0.00450
      13 -> 22        -0.00542
      13 -> 23         0.00370
      13 -> 24         0.00131
      13 -> 25        -0.00165
      13 -> 27        -0.00660
      13 -> 28         0.00383
      14 -> 16         0.04363
      14 -> 17         0.39682
      14 -> 18         0.00276
      14 -> 19         0.00326
      14 -> 20         0.00227
      14 -> 21        -0.00625
      14 -> 22        -0.00339
      14 -> 23         0.00122
      14 -> 24         0.00574
      14 -> 26        -0.00154
      14 -> 27        -0.00244
      14 -> 28         0.00343
      14 -> 29         0.00153
      15 -> 16        -0.56681
      15 -> 17         0.08239
      15 -> 18         0.00503
      15 -> 19        -0.00454
      15 -> 20        -0.00575
      15 -> 21         0.00201
      15 -> 23        -0.00133
      15 -> 24         0.00327
      15 -> 25         0.00502
      15 -> 26         0.00119
      15 -> 28        -0.00102
      15 -> 29        -0.00132
      15 -> 30         0.00124
       1 <- 19        -0.00468
       1 <- 20        -0.00122
       1 <- 21         0.00286
       1 <- 30        -0.00217
       2 <- 17         0.00115
       2 <- 24        -0.00552
       2 <- 26        -0.00110
       3 <- 18        -0.00121
       3 <- 21         0.00107
       3 <- 22        -0.00184
       3 <- 23        -0.00747
       3 <- 24         0.00225
       4 <- 23        -0.00109
       4 <- 27        -0.00141
       4 <- 28        -0.00516
       4 <- 29        -0.00114
       5 <- 19         0.00258
       5 <- 21        -0.00107
       5 <- 27        -0.00594
       5 <- 28         0.00148
       6 <- 19        -0.00227
       6 <- 22         0.00116
       6 <- 30        -0.00180
       7 <- 17        -0.00102
       7 <- 18        -0.00155
       7 <- 24        -0.00197
       8 <- 23        -0.00457
       8 <- 26        -0.00213
       8 <- 27         0.00157
       8 <- 28         0.00170
       8 <- 29        -0.00580
       9 <- 17         0.00113
       9 <- 18        -0.00143
       9 <- 23        -0.00139
       9 <- 24        -0.00286
       9 <- 26         0.00159
       9 <- 28         0.00129
       9 <- 29        -0.00144
      10 <- 17        -0.00132
      10 <- 18         0.00395
      10 <- 20        -0.00104
      10 <- 21        -0.00140
      10 <- 22         0.00169
      10 <- 23         0.00619
      10 <- 24        -0.00367
      11 <- 17        -0.00106
      11 <- 18         0.01376
      11 <- 23        -0.00194
      12 <- 17         0.00456
      12 <- 20         0.00131
      12 <- 21         0.00460
      12 <- 22        -0.00134
      12 <- 23         0.00230
      12 <- 27         0.00613
      12 <- 28        -0.00176
      12 <- 30        -0.00252
      13 <- 18         0.00117
      13 <- 19         0.00140
      13 <- 20         0.00278
      13 <- 21         0.00210
      13 <- 22        -0.00180
      13 <- 23         0.00167
      13 <- 25        -0.00106
      13 <- 27        -0.00360
      13 <- 28         0.00423
      14 <- 16         0.00581
      14 <- 17         0.03060
      14 <- 18         0.00159
      14 <- 19         0.00333
      14 <- 20        -0.00150
      14 <- 21        -0.00120
      14 <- 22        -0.00185
      14 <- 23         0.00136
      14 <- 24         0.00237
      14 <- 27        -0.00224
      14 <- 28         0.00185
      15 <- 16         0.00409
      15 <- 18        -0.00122
      15 <- 19        -0.00101
      15 <- 21         0.00228
      15 <- 22        -0.00107
      15 <- 23         0.00122
      15 <- 28        -0.00156
 
 Excited state symmetry could not be determined.
 Excited State   3:      Singlet-?Sym    5.2343 eV  236.87 nm  f=0.3138  <S**2>=0.000
       1 -> 17        -0.00110
       1 -> 27         0.00132
       1 -> 28        -0.00230
       2 -> 18         0.00342
       2 -> 19        -0.00139
       2 -> 21        -0.00204
       2 -> 22        -0.00502
       2 -> 24         0.00136
       2 -> 25         0.00183
       2 -> 29         0.00138
       3 -> 16        -0.00116
       3 -> 18         0.00377
       3 -> 19        -0.00157
       3 -> 21        -0.00115
       3 -> 22        -0.00480
       3 -> 23        -0.00167
       3 -> 24        -0.00194
       3 -> 26        -0.00241
       3 -> 29        -0.00191
       4 -> 17        -0.00529
       4 -> 19        -0.00696
       4 -> 20        -0.00906
       4 -> 21         0.00576
       4 -> 27         0.00138
       4 -> 28        -0.00110
       4 -> 30        -0.00558
       5 -> 16         0.00277
       5 -> 17        -0.00546
       5 -> 18        -0.00128
       5 -> 19         0.01144
       5 -> 20         0.00242
       5 -> 22        -0.00350
       5 -> 23         0.00135
       5 -> 30         0.00579
       6 -> 16        -0.00688
       6 -> 17        -0.00500
       6 -> 19        -0.00420
       6 -> 20         0.01545
       6 -> 21         0.00167
       6 -> 24        -0.00359
       6 -> 27         0.00340
       6 -> 28        -0.00525
       7 -> 16         0.00186
       7 -> 17         0.00304
       7 -> 18         0.01396
       7 -> 21         0.00628
       7 -> 22        -0.00597
       7 -> 23        -0.02403
       7 -> 24        -0.01099
       7 -> 25         0.00213
       7 -> 26        -0.00957
       7 -> 28         0.00122
       8 -> 16        -0.00795
       8 -> 17        -0.00384
       8 -> 18        -0.00725
       8 -> 19        -0.00244
       8 -> 20         0.00410
       8 -> 22        -0.00889
       8 -> 23        -0.02295
       8 -> 24         0.02874
       8 -> 25         0.01904
       8 -> 26         0.01019
       8 -> 27         0.00350
       8 -> 29        -0.00346
       9 -> 16        -0.00797
       9 -> 17         0.00146
       9 -> 18         0.02736
       9 -> 20         0.00415
       9 -> 21         0.00106
       9 -> 22        -0.00965
       9 -> 23        -0.01194
       9 -> 24         0.01266
       9 -> 25         0.02135
       9 -> 26         0.00366
       9 -> 27        -0.00256
       9 -> 28        -0.00208
       9 -> 29         0.01154
       9 -> 30         0.00260
      10 -> 16         0.00592
      10 -> 17        -0.00825
      10 -> 18        -0.02301
      10 -> 19         0.00151
      10 -> 20        -0.00324
      10 -> 21        -0.00194
      10 -> 23         0.00525
      10 -> 24         0.00808
      10 -> 25         0.00458
      10 -> 26         0.02224
      10 -> 27        -0.00442
      10 -> 28        -0.00296
      10 -> 29         0.02260
      10 -> 30        -0.00106
      11 -> 17         0.00229
      11 -> 18         0.01451
      11 -> 19        -0.00356
      11 -> 20         0.00414
      11 -> 21         0.00314
      11 -> 22        -0.01051
      11 -> 23        -0.02402
      11 -> 24        -0.00677
      11 -> 25         0.00530
      11 -> 26        -0.02073
      11 -> 27         0.00324
      11 -> 28         0.00210
      11 -> 29        -0.00590
      11 -> 30        -0.00116
      12 -> 16        -0.07161
      12 -> 17         0.11916
      12 -> 18         0.01637
      12 -> 19        -0.03394
      12 -> 20         0.01092
      12 -> 21        -0.01525
      12 -> 22         0.01803
      12 -> 23        -0.00416
      12 -> 24        -0.00511
      12 -> 25         0.00103
      12 -> 26         0.00262
      12 -> 27         0.03953
      12 -> 29         0.00752
      12 -> 30        -0.00810
      13 -> 16         0.01895
      13 -> 17         0.03113
      13 -> 18        -0.01150
      13 -> 19         0.02010
      13 -> 20         0.04568
      13 -> 21         0.00140
      13 -> 22        -0.01311
      13 -> 23        -0.00189
      13 -> 24        -0.00540
      13 -> 26         0.00222
      13 -> 27        -0.00144
      13 -> 28        -0.04121
      13 -> 29        -0.00567
      13 -> 30         0.02825
      14 -> 16         0.47968
      14 -> 17        -0.18798
      14 -> 18        -0.01587
      14 -> 19         0.00408
      14 -> 20        -0.00315
      14 -> 21         0.02068
      14 -> 22        -0.00914
      14 -> 23         0.00515
      14 -> 24         0.00477
      14 -> 26         0.00368
      14 -> 27        -0.01781
      14 -> 28        -0.00633
      14 -> 29        -0.00284
      14 -> 30        -0.01056
      15 -> 16        -0.16050
      15 -> 17        -0.42687
      15 -> 18        -0.00126
      15 -> 19         0.03393
      15 -> 20        -0.01505
      15 -> 21        -0.00388
      15 -> 22        -0.00968
      15 -> 23         0.00922
      15 -> 24         0.01184
      15 -> 25         0.00173
      15 -> 26         0.01368
      15 -> 27        -0.02416
      15 -> 28         0.00503
      15 -> 29         0.00468
      15 -> 30         0.01141
       1 <- 20         0.00152
       1 <- 27         0.00163
       1 <- 28        -0.00332
       2 <- 19        -0.00111
       2 <- 21        -0.00121
       2 <- 22        -0.00371
       2 <- 23        -0.00247
       2 <- 24         0.00308
       2 <- 25         0.00199
       2 <- 29         0.00205
       3 <- 22        -0.00318
       3 <- 23        -0.00283
       3 <- 24        -0.00270
       3 <- 26        -0.00303
       3 <- 29        -0.00230
       4 <- 19        -0.00491
       4 <- 20        -0.00518
       4 <- 21         0.00397
       4 <- 30        -0.00360
       5 <- 19         0.00717
       5 <- 20         0.00157
       5 <- 21        -0.00106
       5 <- 22        -0.00193
       5 <- 30         0.00328
       6 <- 19        -0.00163
       6 <- 20         0.00667
       6 <- 24        -0.00157
       6 <- 28        -0.00115
       7 <- 18        -0.00176
       7 <- 21         0.00200
       7 <- 22        -0.00255
       7 <- 23        -0.00983
       7 <- 24        -0.00477
       7 <- 26        -0.00378
       8 <- 19        -0.00112
       8 <- 20         0.00176
       8 <- 22        -0.00372
       8 <- 23        -0.00997
       8 <- 24         0.01290
       8 <- 25         0.00650
       8 <- 26         0.00412
       8 <- 27         0.00171
       9 <- 20         0.00144
       9 <- 22        -0.00434
       9 <- 23        -0.00593
       9 <- 24         0.00560
       9 <- 25         0.00931
       9 <- 26         0.00113
       9 <- 28        -0.00103
       9 <- 29         0.00357
      10 <- 17        -0.00247
      10 <- 19         0.00104
      10 <- 20        -0.00120
      10 <- 22         0.00124
      10 <- 23         0.00305
      10 <- 24         0.00456
      10 <- 25         0.00120
      10 <- 26         0.01077
      10 <- 27        -0.00195
      10 <- 29         0.00730
      11 <- 16        -0.00136
      11 <- 21         0.00136
      11 <- 23        -0.00342
      11 <- 24        -0.00138
      11 <- 26        -0.00316
      11 <- 28         0.00146
      11 <- 29        -0.00126
      12 <- 16        -0.00413
      12 <- 17         0.00857
      12 <- 18         0.00115
      12 <- 19        -0.01065
      12 <- 20         0.00281
      12 <- 21        -0.00507
      12 <- 22         0.00605
      12 <- 24        -0.00158
      12 <- 26         0.00152
      12 <- 27         0.01389
      12 <- 29         0.00206
      12 <- 30        -0.00281
      13 <- 16         0.00160
      13 <- 17         0.00258
      13 <- 19         0.00781
      13 <- 20         0.01373
      13 <- 21        -0.00102
      13 <- 22        -0.00323
      13 <- 24        -0.00146
      13 <- 26         0.00142
      13 <- 28        -0.01385
      13 <- 29        -0.00190
      13 <- 30         0.01028
      14 <- 16        -0.07464
      14 <- 17         0.02808
      14 <- 19        -0.00129
      14 <- 20         0.00110
      14 <- 21         0.00279
      14 <- 23         0.00155
      15 <- 16         0.03066
      15 <- 17         0.08285
      15 <- 19         0.00256
      15 <- 20        -0.00134
      15 <- 21        -0.00354
      15 <- 24         0.00247
      15 <- 28         0.00154
 
 Excited state symmetry could not be determined.
 Excited State   4:      Singlet-?Sym    5.2752 eV  235.03 nm  f=0.2972  <S**2>=0.000
       1 -> 16         0.00118
       1 -> 17        -0.00159
       1 -> 27         0.00231
       2 -> 16        -0.00129
       2 -> 18         0.00330
       2 -> 19        -0.00125
       2 -> 21        -0.00219
       2 -> 22        -0.00340
       2 -> 23         0.00261
       2 -> 24         0.00128
       2 -> 26         0.00156
       2 -> 29        -0.00159
       3 -> 16         0.00171
       3 -> 18        -0.00277
       3 -> 19         0.00120
       3 -> 21         0.00218
       3 -> 22         0.00432
       3 -> 23        -0.00247
       3 -> 24         0.00253
       3 -> 25         0.00153
       3 -> 29        -0.00160
       4 -> 16        -0.00538
       4 -> 17        -0.00370
       4 -> 18         0.00251
       4 -> 19         0.00330
       4 -> 20         0.00179
       4 -> 21        -0.00905
       4 -> 22         0.00237
       4 -> 23        -0.00170
       4 -> 27        -0.00148
       4 -> 30         0.00462
       5 -> 16        -0.01041
       5 -> 17        -0.00617
       5 -> 18         0.00161
       5 -> 19         0.01088
       5 -> 20        -0.00425
       5 -> 21        -0.00455
       5 -> 23        -0.00105
       5 -> 28        -0.00271
       5 -> 30         0.00623
       6 -> 16         0.00605
       6 -> 17        -0.00529
       6 -> 19        -0.00671
       6 -> 20        -0.00140
       6 -> 21        -0.01008
       6 -> 22         0.00618
       6 -> 24        -0.00190
       6 -> 27         0.00656
       6 -> 28         0.00176
       7 -> 17         0.00407
       7 -> 18        -0.00676
       7 -> 19         0.00426
       7 -> 20        -0.00257
       7 -> 21         0.00153
       7 -> 22         0.00420
       7 -> 23         0.01458
       7 -> 24        -0.02054
       7 -> 25        -0.00464
       7 -> 26        -0.00676
       7 -> 27        -0.00122
       7 -> 29        -0.00182
       8 -> 16         0.00270
       8 -> 17         0.00843
       8 -> 18        -0.02400
       8 -> 19        -0.00255
       8 -> 20         0.00215
       8 -> 21         0.00589
       8 -> 22        -0.00665
       8 -> 23        -0.03071
       8 -> 24        -0.01060
       8 -> 25         0.00922
       8 -> 26        -0.02676
       8 -> 27         0.00186
       8 -> 28         0.00103
       8 -> 30        -0.00117
       9 -> 16        -0.00954
       9 -> 17        -0.00353
       9 -> 18         0.01835
       9 -> 19         0.00454
       9 -> 20        -0.00399
       9 -> 21        -0.00301
       9 -> 22        -0.00452
       9 -> 23         0.00670
       9 -> 24         0.01070
       9 -> 25        -0.00135
       9 -> 26         0.02051
       9 -> 27         0.00320
       9 -> 28         0.00507
       9 -> 29        -0.01975
      10 -> 16        -0.01432
      10 -> 17         0.00134
      10 -> 18         0.03691
      10 -> 20        -0.00268
      10 -> 21        -0.00515
      10 -> 22        -0.00383
      10 -> 23         0.01614
      10 -> 24        -0.01647
      10 -> 25        -0.01956
      10 -> 26        -0.00294
      10 -> 27        -0.00356
      10 -> 28        -0.00282
      10 -> 29         0.01343
      10 -> 30         0.00308
      11 -> 17        -0.00724
      11 -> 18         0.02301
      11 -> 19         0.00839
      11 -> 20         0.00292
      11 -> 22         0.00334
      11 -> 24         0.00303
      11 -> 25        -0.00109
      11 -> 26         0.00189
      11 -> 27         0.00173
      11 -> 28         0.00157
      11 -> 29        -0.00650
      11 -> 30         0.00476
      12 -> 16         0.12753
      12 -> 17         0.04904
      12 -> 18        -0.00477
      12 -> 19        -0.02731
      12 -> 20         0.03515
      12 -> 21         0.02761
      12 -> 22        -0.00574
      12 -> 23         0.00588
      12 -> 24        -0.00662
      12 -> 26         0.00721
      12 -> 27         0.00489
      12 -> 28        -0.03224
      12 -> 29        -0.00754
      12 -> 30        -0.02956
      13 -> 16         0.05220
      13 -> 17        -0.02839
      13 -> 18        -0.01109
      13 -> 19         0.02119
      13 -> 20        -0.01998
      13 -> 21         0.02842
      13 -> 22        -0.02094
      13 -> 23         0.00526
      13 -> 24         0.00517
      13 -> 25        -0.00114
      13 -> 26        -0.00637
      13 -> 27        -0.03861
      13 -> 29        -0.00200
      13 -> 30        -0.01013
      14 -> 16        -0.17842
      14 -> 17        -0.53168
      14 -> 18         0.01185
      14 -> 19         0.00632
      14 -> 20        -0.01467
      14 -> 21        -0.00575
      14 -> 22         0.00225
      14 -> 23         0.00235
      14 -> 24         0.00580
      14 -> 26         0.00425
      14 -> 27        -0.00349
      14 -> 28         0.00745
      14 -> 29         0.00302
      14 -> 30         0.00608
      15 -> 16        -0.36344
      15 -> 17         0.16482
      15 -> 18         0.01654
      15 -> 19        -0.00594
      15 -> 20        -0.00911
      15 -> 21        -0.01164
      15 -> 23        -0.01828
      15 -> 24         0.01291
      15 -> 25         0.00941
      15 -> 26         0.00200
      15 -> 27         0.01082
      15 -> 28         0.01171
      15 -> 29         0.00291
      15 -> 30         0.00334
       1 <- 21        -0.00168
       1 <- 27         0.00322
       1 <- 28         0.00131
       2 <- 21        -0.00211
       2 <- 22        -0.00176
       2 <- 23         0.00397
       2 <- 24         0.00335
       2 <- 26         0.00317
       2 <- 29        -0.00231
       3 <- 21         0.00155
       3 <- 22         0.00225
       3 <- 23        -0.00243
       3 <- 24         0.00367
       3 <- 25         0.00114
       3 <- 26         0.00126
       3 <- 29        -0.00188
       4 <- 16        -0.00131
       4 <- 18         0.00122
       4 <- 19         0.00297
       4 <- 20         0.00120
       4 <- 21        -0.00618
       4 <- 22         0.00158
       4 <- 23        -0.00104
       4 <- 30         0.00325
       5 <- 18         0.00103
       5 <- 19         0.00685
       5 <- 20        -0.00202
       5 <- 21        -0.00391
       5 <- 30         0.00380
       6 <- 19        -0.00269
       6 <- 21        -0.00449
       6 <- 22         0.00289
       6 <- 24        -0.00103
       6 <- 27         0.00116
       7 <- 19         0.00152
       7 <- 21         0.00102
       7 <- 22         0.00203
       7 <- 23         0.00593
       7 <- 24        -0.00886
       7 <- 26        -0.00255
       8 <- 17         0.00121
       8 <- 18        -0.00122
       8 <- 21         0.00329
       8 <- 22        -0.00269
       8 <- 23        -0.01362
       8 <- 24        -0.00572
       8 <- 25         0.00326
       8 <- 26        -0.01044
       9 <- 19         0.00163
       9 <- 20        -0.00155
       9 <- 21        -0.00195
       9 <- 22        -0.00133
       9 <- 23         0.00382
       9 <- 24         0.00505
       9 <- 26         0.00961
       9 <- 28         0.00180
       9 <- 29        -0.00635
      10 <- 16        -0.00246
      10 <- 20        -0.00149
      10 <- 21        -0.00300
      10 <- 22        -0.00112
      10 <- 23         0.00610
      10 <- 24        -0.00653
      10 <- 25        -0.00688
      10 <- 26        -0.00144
      10 <- 29         0.00453
      10 <- 30         0.00134
      11 <- 16        -0.00179
      11 <- 18        -0.00378
      11 <- 25         0.00296
      11 <- 26         0.00141
      11 <- 29        -0.00118
      12 <- 16         0.00925
      12 <- 17         0.00398
      12 <- 18        -0.00280
      12 <- 19        -0.00976
      12 <- 20         0.00946
      12 <- 21         0.00980
      12 <- 22        -0.00189
      12 <- 23         0.00240
      12 <- 24        -0.00183
      12 <- 26         0.00241
      12 <- 28        -0.01122
      12 <- 29        -0.00276
      12 <- 30        -0.01117
      13 <- 16         0.00185
      13 <- 17        -0.00130
      13 <- 18        -0.00227
      13 <- 19         0.00488
      13 <- 20        -0.00562
      13 <- 21         0.00913
      13 <- 22        -0.00587
      13 <- 23         0.00157
      13 <- 24         0.00161
      13 <- 26        -0.00170
      13 <- 27        -0.01274
      13 <- 29        -0.00100
      13 <- 30        -0.00420
      14 <- 16         0.03175
      14 <- 17         0.07288
      14 <- 18         0.00136
      14 <- 19         0.00209
      14 <- 22        -0.00151
      14 <- 27        -0.00187
      14 <- 28         0.00146
      15 <- 16         0.08198
      15 <- 17        -0.02990
      15 <- 18        -0.00205
      15 <- 19        -0.00140
      15 <- 20         0.00161
      15 <- 21        -0.00245
      15 <- 27         0.00195
      15 <- 28         0.00145
 
 Excited state symmetry could not be determined.
 Excited State   5:      Singlet-?Sym    5.8924 eV  210.41 nm  f=0.0062  <S**2>=0.000
       1 -> 17        -0.00382
       2 -> 18         0.00855
       2 -> 21         0.00104
       3 -> 16        -0.00169
       3 -> 18         0.00286
       4 -> 16        -0.01713
       4 -> 17         0.01152
       4 -> 22        -0.00114
       5 -> 16         0.02441
       5 -> 17        -0.00676
       5 -> 19        -0.00219
       5 -> 23         0.00168
       5 -> 25        -0.00112
       5 -> 27         0.00160
       5 -> 28         0.00102
       6 -> 16        -0.00137
       6 -> 17        -0.02839
       6 -> 18        -0.00204
       6 -> 20         0.00138
       6 -> 21         0.00101
       6 -> 22        -0.00104
       6 -> 23        -0.00113
       6 -> 28         0.00121
       7 -> 16         0.00555
       7 -> 17         0.00817
       7 -> 18        -0.06868
       7 -> 21        -0.00534
       7 -> 22        -0.00246
       7 -> 23         0.00188
       7 -> 24         0.00250
       7 -> 28        -0.00133
       7 -> 29         0.00217
       8 -> 16        -0.00736
       8 -> 17        -0.00671
       8 -> 18         0.05815
       8 -> 19        -0.00353
       8 -> 20         0.00323
       8 -> 21         0.00352
       8 -> 22         0.00314
       8 -> 23         0.00325
       8 -> 24        -0.00376
       8 -> 25        -0.00258
       8 -> 26         0.00288
       8 -> 27        -0.00139
       8 -> 29         0.00196
       8 -> 30        -0.00112
       9 -> 16        -0.00558
       9 -> 17        -0.01045
       9 -> 18         0.08835
       9 -> 19        -0.00185
       9 -> 20         0.00291
       9 -> 21         0.00879
       9 -> 22         0.00634
       9 -> 23        -0.00320
       9 -> 27        -0.00255
       9 -> 28        -0.00160
       9 -> 29         0.00174
      10 -> 16         0.01127
      10 -> 19        -0.00164
      10 -> 21        -0.00162
      10 -> 22        -0.00542
      10 -> 23        -0.00524
      10 -> 24        -0.00533
      10 -> 25         0.00242
      10 -> 26        -0.00173
      10 -> 27        -0.00206
      10 -> 28         0.00191
      10 -> 29        -0.00201
      11 -> 16        -0.00693
      11 -> 17         0.00616
      11 -> 18         0.01135
      11 -> 19        -0.00704
      11 -> 20        -0.00306
      11 -> 22        -0.01371
      11 -> 23        -0.00350
      11 -> 24        -0.01330
      11 -> 25         0.00142
      11 -> 27         0.00184
      11 -> 29        -0.00289
      11 -> 30        -0.00156
      12 -> 16         0.02094
      12 -> 17        -0.07375
      12 -> 18         0.01368
      12 -> 19         0.00445
      12 -> 20        -0.00581
      12 -> 23        -0.00378
      12 -> 26        -0.00180
      12 -> 27        -0.00371
      12 -> 28         0.00680
      12 -> 29        -0.00258
      12 -> 30         0.00328
      13 -> 16         0.67857
      13 -> 17         0.04111
      13 -> 18        -0.01426
      13 -> 19        -0.00249
      13 -> 20         0.00113
      13 -> 21        -0.00872
      13 -> 22         0.00333
      13 -> 24        -0.00372
      13 -> 25        -0.00163
      13 -> 26        -0.00181
      13 -> 27         0.00155
      13 -> 29         0.00277
      13 -> 30        -0.00113
      14 -> 16         0.00563
      14 -> 17         0.03571
      14 -> 18        -0.02237
      14 -> 19        -0.02618
      14 -> 20        -0.03304
      14 -> 21         0.02435
      14 -> 22        -0.00182
      14 -> 24        -0.00205
      14 -> 25         0.00232
      14 -> 26        -0.00444
      14 -> 28         0.00344
      14 -> 30        -0.01369
      15 -> 16         0.03537
      15 -> 17        -0.00650
      15 -> 18         0.06865
      15 -> 19         0.01438
      15 -> 20         0.03190
      15 -> 21         0.02320
      15 -> 22        -0.01111
      15 -> 23         0.01429
      15 -> 24        -0.00368
      15 -> 25        -0.00479
      15 -> 26        -0.00183
      15 -> 27        -0.00817
      15 -> 28         0.00891
      15 -> 29         0.00314
      15 -> 30         0.00168
       4 <- 17        -0.00114
       5 <- 23         0.00107
       6 <- 17         0.00118
       7 <- 24         0.00110
       7 <- 28        -0.00107
       8 <- 23         0.00174
       8 <- 26         0.00115
       9 <- 18        -0.00135
       9 <- 29         0.00108
      10 <- 16        -0.00137
      10 <- 22        -0.00124
      10 <- 29        -0.00137
      11 <- 16        -0.00479
      11 <- 19        -0.00176
      11 <- 20        -0.00121
      11 <- 21        -0.00222
      11 <- 22        -0.00593
      11 <- 24        -0.00195
      11 <- 26         0.00104
      11 <- 29        -0.00193
      12 <- 17        -0.00122
      12 <- 19         0.00181
      12 <- 20        -0.00234
      12 <- 27        -0.00153
      12 <- 28         0.00212
      13 <- 16        -0.00305
      14 <- 16        -0.00177
      14 <- 17        -0.00825
      14 <- 18         0.00105
      14 <- 19        -0.00165
      14 <- 20        -0.01339
      14 <- 21         0.00279
      14 <- 24         0.00156
      14 <- 26        -0.00128
      14 <- 27        -0.00234
      14 <- 28         0.00644
      14 <- 30        -0.00339
      15 <- 16        -0.00652
      15 <- 18        -0.00763
      15 <- 19         0.00606
      15 <- 20         0.00684
      15 <- 21         0.00912
      15 <- 22        -0.00716
      15 <- 23         0.00283
      15 <- 26        -0.00102
      15 <- 27        -0.00632
      15 <- 28        -0.00283
 SavETr:  write IOETrn=   770 NScale= 10 NData=  16 NLR=1 NState=    5 LETran=     100.

 **********************************************************************

            Population analysis using the SCF Density.

 **********************************************************************

 Alpha  occ. eigenvalues --   -1.42353  -1.15994  -1.13191  -0.84999  -0.83792
 Alpha  occ. eigenvalues --   -0.65208  -0.59524  -0.56176  -0.52629  -0.51403
 Alpha  occ. eigenvalues --   -0.48194  -0.43980  -0.43459  -0.35631  -0.34436
 Alpha virt. eigenvalues --    0.01499   0.02104   0.10475   0.14205   0.14586
 Alpha virt. eigenvalues --    0.15400   0.15455   0.16349   0.16891   0.18718
 Alpha virt. eigenvalues --    0.19038   0.20317   0.20562   0.20999   0.22437
          Condensed to atoms (all electrons):
               1          2          3          4          5          6
     1  C    4.138035   0.000000   0.000000   0.000000   0.000000   0.000000
     2  C    0.000000   4.129580   0.000000   0.000000   0.000000   0.000000
     3  C    0.000000   0.000000   4.123136   0.000000   0.000000   0.000000
     4  C    0.000000   0.000000   0.000000   4.134413   0.000000   0.000000
     5  C    0.000000   0.000000   0.000000   0.000000   4.134233   0.000000
     6  C    0.000000   0.000000   0.000000   0.000000   0.000000   4.128573
     7  H    0.000000   0.000000   0.000000   0.000000   0.000000   0.000000
     8  H    0.000000   0.000000   0.000000   0.000000   0.000000   0.000000
     9  H    0.000000   0.000000   0.000000   0.000000   0.000000   0.000000
    10  H    0.000000   0.000000   0.000000   0.000000   0.000000   0.000000
    11  H    0.000000   0.000000   0.000000   0.000000   0.000000   0.000000
    12  H    0.000000   0.000000   0.000000   0.000000   0.000000   0.000000
               7          8          9         10         11         12
     1  C    0.000000   0.000000   0.000000   0.000000   0.000000   0.000000
     2  C    0.000000   0.000000   0.000000   0.000000   0.000000   0.000000
     3  C    0.000000   0.000000   0.000000   0.000000   0.000000   0.000000
     4  C    0.000000   0.000000   0.000000   0.000000   0.000000   0.000000
     5  C    0.000000   0.000000   0.000000   0.000000   0.000000   0.000000
     6  C    0.000000   0.000000   0.000000   0.000000   0.000000   0.000000
     7  H    0.878366   0.000000   0.000000   0.000000   0.000000   0.000000
     8  H    0.000000   0.861085   0.000000   0.000000   0.000000   0.000000
     9  H    0.000000   0.000000   0.869629   0.000000   0.000000   0.000000
    10  H    0.000000   0.000000   0.000000   0.869742   0.000000   0.000000
    11  H    0.000000   0.000000   0.000000   0.000000   0.868764   0.000000
    12  H    0.000000   0.000000   0.000000   0.000000   0.000000   0.864444
 Mulliken charges:
               1
     1  C   -0.138035
     2  C   -0.129580
     3  C   -0.123136
     4  C   -0.134413
     5  C   -0.134233
     6  C   -0.128573
     7  H    0.121634
     8  H    0.138915
     9  H    0.130371
    10  H    0.130258
    11  H    0.131236
    12  H    0.135556
 Sum of Mulliken charges =  -0.00000
 Mulliken charges with hydrogens summed into heavy atoms:
               1
     1  C   -0.016400
     2  C    0.009335
     3  C    0.007235
     4  C   -0.004155
     5  C   -0.002997
     6  C    0.006983
 Charge=             -0.0000 electrons
 Dipole moment (field-independent basis, Debye):
    X=             -0.0178    Y=              0.0299    Z=              0.1602  Tot=              0.1639
 N-N= 1.191252097252D+02 E-N=-1.697223486848D+02  KE=-4.780692569812D+01

 Test job not archived.
 1\1\GINC-BHC0189\SP\RAM1 TD-Full\STO-5G\C6H6\BWEIGHT\21-Mar-2025\0\\# 
 AM1/STO-5G SCF=XQC TD=(read,singlets,nstates=5,root=1) nosym IOp(9/40=
 3) guess=read\\MD Step 24\\0,1\C,0,-0.67085724,-1.19315586,0.03896689\
 C,0,0.72980982,-1.25145287,-0.019186\C,0,1.40286669,-0.02050622,-0.046
 8835\C,0,0.67864924,1.20273926,0.05137293\C,0,-0.71495333,1.21638308,-
 0.06856874\C,0,-1.42162223,0.03574615,0.01222378\H,0,-1.1660211,-2.160
 47369,0.00391297\H,0,1.18637926,-2.21379265,0.13081444\H,0,2.53339272,
 0.0448919,0.01572974\H,0,1.15917401,2.14091794,0.28020869\H,0,-1.29709
 137,2.18813688,-0.1355409\H,0,-2.51598404,0.04219852,-0.09151646\\Vers
 ion=ES64L-G16RevC.01\HF=0.0508863\RMSD=7.029e-09\PG=C01 [X(C6H6)]\\@


 HE THAT IS UNAWARE OF HIS IGNORANCE WILL BE MISLED BY HIS KNOWLEDGE.

                                        -- WHATLEY
 Job cpu time:       0 days  0 hours  0 minutes  1.1 seconds.
 Elapsed time:       0 days  0 hours  0 minutes  0.8 seconds.
 File lengths (MBytes):  RWF=     34 Int=      0 D2E=      0 Chk=      2 Scr=      1
 Normal termination of Gaussian 16 at Fri Mar 21 15:03:19 2025.
