%chk=geometry.chk
%nprocshared=4
%mem=5GB

# OPT B3LYP/6-31G*

Title Card Required

0 1
 C                 -0.71092831   -0.03525264    0.00000000
 C                  0.65369469   -0.03525264    0.00000000
 C                  1.38658569    1.19596836    0.00000000
 C                  0.66258869    2.42771536   -0.00551800
 C                 -0.76965131    2.38622436   -0.00681800
 C                 -1.43343431    1.19393136   -0.00344700
 C                  2.76190669    3.66176636   -0.00161400
 C                  3.48587569    2.43006336    0.00580600
 C                  4.91805769    2.47168736    0.01291600
 H                  5.46392769    1.51616036    0.01951700
 C                  5.58179469    3.66404236    0.01395800
 C                  4.85931169    4.89315736    0.00578600
 C                  3.49466869    4.89301236   -0.00158100
 H                 -1.27680031   -0.97853064    0.00240400
 H                  1.22302069   -0.97698664    0.00310600
 H                 -1.31546431    3.34177036   -0.01142200
 H                  6.68120069    3.69994636    0.02011800
 H                  2.92512569    5.83462936   -0.00785300
 N                  5.61579085    6.15356885    0.00724930
 N                 -2.90263837    1.14560148   -0.00535935
 P                  4.88206651    9.43561238    0.19050681
 C                  2.78548669    1.21885736    0.00489600
 C                  3.56588103   -0.10875886    0.00934925
 C                  3.96891842   -0.79982696    1.13039217
 S                  4.02937792   -0.89064910   -1.39420492
 C                  4.67319398   -1.99777310    0.78415062
 H                  3.78571908   -0.49264922    2.16161203
 C                  4.76781123   -2.15159879   -0.58115054
 H                  5.07627021   -2.68845549    1.52701165
 H                  5.25513363   -2.97809283   -1.09458002
 O                  1.36296569    3.63888236   -0.00723900
 C                  6.46640319    6.21591423   -1.19002748
 H                  6.80928634    7.21948459   -1.33207561
 H                  7.30719397    5.56614844   -1.06442780
 H                  5.90188217    5.90749026   -2.04506589
 C                  6.45781517    6.21828173    1.21045638
 H                  7.26490494    5.52177972    1.11885368
 H                  6.85094322    7.20763029    1.31787975
 H                  5.87049912    5.97253910    2.07043918
 C                 -3.36791918    0.43353317   -1.20426405
 H                 -3.20749324   -0.61703356   -1.07987332
 H                 -4.41168135    0.62044876   -1.34752289
 H                 -2.82325657    0.77887633   -2.05806774
 C                 -3.37126551    0.44027549    1.19622454
 H                 -2.87476049    0.83504293    2.05793299
 H                 -4.42759201    0.57556739    1.30000520
 H                 -3.15255340   -0.60318422    1.10535735
 F                  4.18056389    7.96430902    0.19828428
 F                  3.41080954   10.13699109    0.17125007
 F                  5.58356913   10.90691574    0.18272933
 F                  6.35332348    8.73423366    0.20976353
 F                  4.86803121    9.45091993    1.82037450
 F                  4.89610180    9.42030483   -1.43936088







