 Entering Gaussian System, Link 0=g16
 Initial command:
 /software/gaussian/g16-c01/avx2/g16/l1.exe "/local_scratch/28554381/Gau-12118.inp" -scrdir="/local_scratch/28554381/"
 Entering Link 1 = /software/gaussian/g16-c01/avx2/g16/l1.exe PID=     12129.
  
 Copyright (c) 1988-2019, Gaussian, Inc.  All Rights Reserved.
  
 This is part of the Gaussian(R) 16 program.  It is based on
 the Gaussian(R) 09 system (copyright 2009, Gaussian, Inc.),
 the Gaussian(R) 03 system (copyright 2003, Gaussian, Inc.),
 the Gaussian(R) 98 system (copyright 1998, Gaussian, Inc.),
 the Gaussian(R) 94 system (copyright 1995, Gaussian, Inc.),
 the Gaussian 92(TM) system (copyright 1992, Gaussian, Inc.),
 the Gaussian 90(TM) system (copyright 1990, Gaussian, Inc.),
 the Gaussian 88(TM) system (copyright 1988, Gaussian, Inc.),
 the Gaussian 86(TM) system (copyright 1986, Carnegie Mellon
 University), and the Gaussian 82(TM) system (copyright 1983,
 Carnegie Mellon University). Gaussian is a federally registered
 trademark of Gaussian, Inc.
  
 This software contains proprietary and confidential information,
 including trade secrets, belonging to Gaussian, Inc.
  
 This software is provided under written license and may be
 used, copied, transmitted, or stored only in accord with that
 written license.
  
 The following legend is applicable only to US Government
 contracts under FAR:
  
                    RESTRICTED RIGHTS LEGEND
  
 Use, reproduction and disclosure by the US Government is
 subject to restrictions as set forth in subparagraphs (a)
 and (c) of the Commercial Computer Software - Restricted
 Rights clause in FAR 52.227-19.
  
 Gaussian, Inc.
 340 Quinnipiac St., Bldg. 40, Wallingford CT 06492
  
  
 ---------------------------------------------------------------
 Warning -- This program may not be used in any manner that
 competes with the business of Gaussian, Inc. or will provide
 assistance to any competitor of Gaussian, Inc.  The licensee
 of this program is prohibited from giving any competitor of
 Gaussian, Inc. access to this program.  By using this program,
 the user acknowledges that Gaussian, Inc. is engaged in the
 business of creating and licensing software in the field of
 computational chemistry and represents and warrants to the
 licensee that it is not a competitor of Gaussian, Inc. and that
 it will not use this program in any manner prohibited above.
 ---------------------------------------------------------------
  

 Cite this work as:
 Gaussian 16, Revision C.01,
 M. J. Frisch, G. W. Trucks, H. B. Schlegel, G. E. Scuseria, 
 M. A. Robb, J. R. Cheeseman, G. Scalmani, V. Barone, 
 G. A. Petersson, H. Nakatsuji, X. Li, M. Caricato, A. V. Marenich, 
 J. Bloino, B. G. Janesko, R. Gomperts, B. Mennucci, H. P. Hratchian, 
 J. V. Ortiz, A. F. Izmaylov, J. L. Sonnenberg, D. Williams-Young, 
 F. Ding, F. Lipparini, F. Egidi, J. Goings, B. Peng, A. Petrone, 
 T. Henderson, D. Ranasinghe, V. G. Zakrzewski, J. Gao, N. Rega, 
 G. Zheng, W. Liang, M. Hada, M. Ehara, K. Toyota, R. Fukuda, 
 J. Hasegawa, M. Ishida, T. Nakajima, Y. Honda, O. Kitao, H. Nakai, 
 T. Vreven, K. Throssell, J. A. Montgomery, Jr., J. E. Peralta, 
 F. Ogliaro, M. J. Bearpark, J. J. Heyd, E. N. Brothers, K. N. Kudin, 
 V. N. Staroverov, T. A. Keith, R. Kobayashi, J. Normand, 
 K. Raghavachari, A. P. Rendell, J. C. Burant, S. S. Iyengar, 
 J. Tomasi, M. Cossi, J. M. Millam, M. Klene, C. Adamo, R. Cammi, 
 J. W. Ochterski, R. L. Martin, K. Morokuma, O. Farkas, 
 J. B. Foresman, and D. J. Fox, Gaussian, Inc., Wallingford CT, 2019.
 
 ******************************************
 Gaussian 16:  ES64L-G16RevC.01  3-Jul-2019
                21-Mar-2025 
 ******************************************
 %oldchk=../TD_OLD_S1/geometry.chk
 %chk=geometry.chk
 %nprocshared=1
 Will use up to    1 processors via shared memory.
 %mem=2GB
 Copying data from "../TD_OLD_S1/geometry.chk" to current chk file "geometry.chk"
 IOpt=  2 FromEx=T IUOpen= 4 IOptOp= 5 NList=   0 IFRang= 0 IUIn= 4 IUOut= 2.
 ----------------------------------------------------------------------
 # AM1/STO-5G SCF=XQC TD=(read,singlets,nstates=5,root=1) nosym IOp(9/4
 0=3) guess=read
 ----------------------------------------------------------------------
 1/38=1,172=1/1;
 2/12=2,15=1,17=6,18=5,40=1/2;
 3/5=2,6=5,25=1,41=700000,116=-2/1,2,3,8;
 4/5=1,35=1/1;
 5/5=2,8=3,13=1,35=1,38=6/2,8;
 8/6=1,10=90,107=1,108=5/1;
 9/8=1,40=3,41=5,42=1,48=1,49=13,70=2/14;
 6/7=2,8=2,9=2,10=2/1;
 99/5=1,9=1/99;
 ----------
 MD Step 13
 ----------
 Symbolic Z-matrix:
 Charge =  0 Multiplicity = 1
 C                    -0.71496  -1.19359  -0.02647 
 C                     0.69165  -1.19261   0.01052 
 C                     1.42864   0.00359   0.01421 
 C                     0.69901   1.19818  -0.02331 
 C                    -0.69077   1.20158  -0.00653 
 C                    -1.43241   0.00078   0.01924 
 H                    -1.23294  -2.22185   0.07 
 H                     1.21053  -2.20863  -0.06067 
 H                     2.50907  -0.08385   0.10522 
 H                     1.18941   2.21613  -0.06781 
 H                    -1.16289   2.17323   0.0344 
 H                    -2.49605  -0.17298  -0.13722 
 
                          Input orientation:                          
 ---------------------------------------------------------------------
 Center     Atomic      Atomic             Coordinates (Angstroms)
 Number     Number       Type             X           Y           Z
 ---------------------------------------------------------------------
      1          6           0       -0.714957   -1.193587   -0.026467
      2          6           0        0.691653   -1.192615    0.010524
      3          6           0        1.428638    0.003589    0.014211
      4          6           0        0.699010    1.198183   -0.023314
      5          6           0       -0.690766    1.201582   -0.006533
      6          6           0       -1.432409    0.000777    0.019241
      7          1           0       -1.232945   -2.221849    0.069998
      8          1           0        1.210525   -2.208627   -0.060674
      9          1           0        2.509074   -0.083846    0.105216
     10          1           0        1.189410    2.216127   -0.067814
     11          1           0       -1.162892    2.173232    0.034404
     12          1           0       -2.496052   -0.172977   -0.137223
 ---------------------------------------------------------------------
                    Distance matrix (angstroms):
                    1          2          3          4          5
     1  C    0.000000
     2  C    1.407097   0.000000
     3  C    2.455582   1.405014   0.000000
     4  C    2.778466   2.391048   1.400292   0.000000
     5  C    2.395374   2.764697   2.434643   1.389881   0.000000
     6  C    1.394035   2.436370   2.861053   2.445105   1.411606
     7  H    1.155396   2.183332   3.469829   3.929094   3.466943
     8  H    2.176914   1.143056   2.224204   3.445199   3.904787
     9  H    3.412219   2.131045   1.087782   2.221813   3.450187
    10  H    3.905698   3.445783   2.226944   1.130789   2.137316
    11  H    3.397032   3.843024   3.379909   2.102553   1.081057
    12  H    2.055776   3.350068   3.931577   3.478718   2.272785
                    6          7          8          9         10
     6  C    0.000000
     7  H    2.232136   0.000000
     8  H    3.445715   2.446997   0.000000
     9  H    3.943329   4.309873   2.495684   0.000000
    10  H    3.433554   5.057908   4.424810   2.657316   0.000000
    11  H    2.189162   4.395784   4.984259   4.310771   2.354912
    12  H    1.089040   2.415835   4.229474   5.011787   4.392638
                   11         12
    11  H    0.000000
    12  H    2.703973   0.000000
 Symmetry turned off by external request.
 Stoichiometry    C6H6
 Framework group  C1[X(C6H6)]
 Deg. of freedom    30
 Full point group                 C1      NOp   1
 Rotational constants (GHZ):           5.7327631           5.5335565           2.8177367
 Standard basis: VSTO-5G (5D, 7F)
    30 basis functions,   180 primitive gaussians,    30 cartesian basis functions
    15 alpha electrons       15 beta electrons
       nuclear repulsion energy       119.2209776791 Hartrees.
 Integral buffers will be    131072 words long.
 Regular integral format.
 Two-electron integral symmetry is turned off.
 Do NDO integrals.
 One-electron integrals computed using PRISM.
 NBasis=    30 RedAO= F EigKep=  0.00D+00  NBF=    30
 NBsUse=    30 1.00D-04 EigRej=  0.00D+00 NBFU=    30
 Initial guess from the checkpoint file:  "geometry.chk"
 B after Tr=    -0.000798   -0.000562   -0.002235
         Rot=    1.000000   -0.000060   -0.000023    0.000024 Ang=  -0.01 deg.
 Keep J ints in memory in canonical form, NReq=861816.
 Overlap will be assumed to be unity.
 Requested convergence on RMS density matrix=1.00D-08 within  32 cycles.
 Requested convergence on MAX density matrix=1.00D-06.
 Requested convergence on             energy=1.00D-06.
 No special actions if energy rises.
 SCF Done:  E(RAM1) =  0.490384762943E-01 A.U. after   12 cycles
            NFock= 11  Conv=0.93D-08     -V/T= 1.0010
 QCSCF skips out because SCF is already converged.
 Range of M.O.s used for correlation:     1    30
 NBasis=    30 NAE=    15 NBE=    15 NFC=     0 NFV=     0
 NROrb=     30 NOA=    15 NOB=    15 NVA=    15 NVB=    15
 Keep J ints in memory in canonical form, NReq=862156.
 Generating guess from checkpoint file densities.
 Convergence on wavefunction:    0.001000000000000
 Iteration     1 Dimension    10 NMult     0 NNew     10
 CISAX will form    10 AO SS matrices at one time.
 Iteration     2 Dimension    20 NMult    10 NNew     10
 Iteration     3 Dimension    30 NMult    20 NNew     10
 Iteration     4 Dimension    38 NMult    30 NNew      8
 Iteration     5 Dimension    44 NMult    38 NNew      6
 Iteration     6 Dimension    50 NMult    44 NNew      6
 Iteration     7 Dimension    52 NMult    50 NNew      2
 Iteration     8 Dimension    54 NMult    52 NNew      2
 Iteration     9 Dimension    56 NMult    54 NNew      2
 Iteration    10 Dimension    58 NMult    56 NNew      2
 Iteration    11 Dimension    60 NMult    58 NNew      2
 Iteration    12 Dimension    62 NMult    60 NNew      2
 ***********************************************************************
 Excited states from <AA,BB:AA,BB> singles matrix:
 ***********************************************************************
 
 Ground to excited state transition densities written to RWF  633
 Ground to excited state transition electric dipole moments (Au):
       state          X           Y           Z        Dip. S.      Osc.
         1        -0.0143     -0.0402     -0.0011      0.0018      0.0002
         2         0.0489      0.0715     -0.1071      0.0190      0.0019
         3        -0.1825     -1.5728     -0.0010      2.5069      0.3294
         4         1.6284     -0.1897     -0.0192      2.6882      0.3554
         5        -0.0076     -0.1884     -0.0918      0.0440      0.0064
 Ground to excited state transition velocity dipole moments (Au):
       state          X           Y           Z        Dip. S.      Osc.
         1         0.0024      0.0062      0.0005      0.0000      0.0002
         2        -0.0125     -0.0179     -0.0019      0.0005      0.0021
         3         0.0594      0.4851      0.0012      0.2389      0.8080
         4        -0.5043      0.0585     -0.0119      0.2579      0.8670
         5         0.0036      0.0632     -0.1002      0.0141      0.0429
 Ground to excited state transition magnetic dipole moments (Au):
       state          X           Y           Z
         1         0.0128      0.0088     -0.0032
         2        -0.0397      0.0464     -0.0594
         3         0.0030      0.0190     -0.0102
         4         0.0237      0.0217     -0.0038
         5         0.0027      0.0409      0.0336
 Ground to excited state transition velocity quadrupole moments (Au):
       state          XX          YY          ZZ          XY          XZ          YZ
         1         0.0091     -0.0078      0.0003     -0.0015     -0.0053      0.0062
         2        -0.0040     -0.0020      0.0010     -0.0109     -0.0294     -0.0227
         3         0.0473     -0.0223      0.0044     -0.0102     -0.0164     -0.0323
         4         0.0138     -0.0112     -0.0001     -0.0063     -0.0233      0.0170
         5        -0.0153     -0.0011     -0.0023     -0.0121      0.0026      0.0012
 <0|del|b> * <b|rxdel|0> + <0|del|b> * <b|delr+rdel|0>
 Rotatory Strengths (R) in cgs (10**-40 erg-esu-cm/Gauss)
       state          XX          YY          ZZ    R(velocity)    E-M Angle
         1         0.2174      0.1153      0.0964      0.1430       90.00
         2        -2.8457      2.0241     -0.2143     -0.3453       96.85
         3        30.7858     -3.1170      5.9691     11.2126       28.26
         4         4.9049    -36.6372     -6.1779    -12.6367      130.29
         5         0.4435     -7.3820      4.4593     -0.8264       97.00
 1/2[<0|r|b>*<b|rxdel|0> + (<0|rxdel|b>*<b|r|0>)*]
 Rotatory Strengths (R) in cgs (10**-40 erg-esu-cm/Gauss)
       state          XX          YY          ZZ     R(length)
         1         0.1301      0.2498     -0.0025      0.1258
         2         1.3723     -2.3452     -4.4947     -1.8226
         3         0.3902     21.1071     -0.0070      7.1634
         4       -27.2828      2.9145     -0.0518     -8.1400
         5         0.0143      5.4554      2.1783      2.5493
  1/2[<0|del|b>*<b|r|0> + (<0|r|b>*<b|del|0>)*] (Au)
       state          X           Y           Z        Dip. S.   Osc.(frdel)
         1        -0.0000     -0.0003     -0.0000      0.0003      0.0002
         2        -0.0006     -0.0013      0.0002      0.0017      0.0011
         3        -0.0108     -0.7630     -0.0000      0.7738      0.5159
         4        -0.8213     -0.0111      0.0002      0.8322      0.5548
         5        -0.0000     -0.0119      0.0092      0.0027      0.0018

 Excitation energies and oscillator strengths:
 
 Excited state symmetry could not be determined.
 Excited State   1:      Singlet-?Sym    3.7838 eV  327.67 nm  f=0.0002  <S**2>=0.000
       2 -> 23        -0.00284
       2 -> 24         0.00152
       2 -> 25         0.00183
       3 -> 23         0.00177
       3 -> 24         0.00247
       3 -> 25         0.00128
       3 -> 26         0.00197
       4 -> 17        -0.00335
       4 -> 27         0.00255
       5 -> 16         0.00291
       5 -> 28         0.00265
       5 -> 29         0.00111
       7 -> 16        -0.00108
       7 -> 29        -0.00259
       8 -> 18        -0.00750
       8 -> 22         0.00106
       9 -> 21        -0.00110
       9 -> 23        -0.00234
       9 -> 24         0.00163
       9 -> 25         0.00286
      10 -> 18        -0.00168
      10 -> 23        -0.00237
      10 -> 24        -0.00202
      10 -> 26        -0.00245
      11 -> 16        -0.00163
      11 -> 20        -0.00145
      11 -> 25        -0.00144
      11 -> 27        -0.00166
      11 -> 28         0.00201
      11 -> 29         0.00178
      12 -> 16        -0.00145
      12 -> 17        -0.00183
      12 -> 18        -0.00166
      12 -> 27        -0.00154
      13 -> 16         0.00116
      14 -> 16         0.44466
      14 -> 17         0.23030
      14 -> 19        -0.00198
      14 -> 20        -0.00492
      14 -> 21         0.00298
      14 -> 26        -0.00162
      14 -> 28        -0.00306
      15 -> 16         0.25459
      15 -> 17        -0.44013
      15 -> 18        -0.00268
      15 -> 19         0.00327
      15 -> 20         0.00123
      15 -> 21         0.00530
      15 -> 25         0.00243
      15 -> 26        -0.00115
      15 -> 28        -0.00197
      15 -> 29        -0.00134
       2 <- 23        -0.00109
       4 <- 27         0.00212
       5 <- 28         0.00204
       7 <- 29        -0.00189
      12 <- 16        -0.00194
      12 <- 17        -0.00479
      13 <- 16         0.00280
      14 <- 16         0.06018
      14 <- 17         0.03527
      14 <- 20        -0.00262
      14 <- 21         0.00155
      15 <- 16         0.03067
      15 <- 17        -0.06105
      15 <- 19         0.00172
      15 <- 21         0.00250
 This state for optimization and/or second-order correction.
 Total Energy, E(TD-HF/TD-DFT) =  0.188091345729    
 Copying the excited state density for this state as the 1-particle RhoCI density.
 
 Excited state symmetry could not be determined.
 Excited State   2:      Singlet-?Sym    4.1291 eV  300.27 nm  f=0.0019  <S**2>=0.000
       1 -> 19        -0.00207
       1 -> 21         0.00113
       1 -> 22        -0.00113
       2 -> 20        -0.00101
       2 -> 23         0.00195
       2 -> 24         0.00250
       2 -> 26        -0.00181
       3 -> 23         0.00257
       3 -> 24        -0.00193
       3 -> 25         0.00195
       4 -> 16        -0.00336
       4 -> 20        -0.00116
       4 -> 24        -0.00122
       4 -> 28        -0.00418
       4 -> 29        -0.00199
       5 -> 17        -0.00217
       5 -> 18         0.00170
       5 -> 21        -0.00130
       5 -> 23        -0.00115
       5 -> 24        -0.00133
       5 -> 26         0.00127
       5 -> 27         0.00583
       6 -> 19         0.00154
       6 -> 21        -0.00120
       6 -> 22         0.00108
       7 -> 17         0.00170
       7 -> 23        -0.00131
       7 -> 27        -0.00112
       8 -> 20        -0.00130
       8 -> 21         0.00251
       8 -> 23         0.00286
       8 -> 28        -0.00161
       8 -> 29         0.00319
       9 -> 18         0.00423
       9 -> 23         0.00349
       9 -> 24         0.00215
       9 -> 25        -0.00113
       9 -> 26        -0.00588
       9 -> 27         0.00134
      10 -> 18        -0.00166
      10 -> 23        -0.00276
      10 -> 24         0.00291
      10 -> 25        -0.00597
      11 -> 18         0.11196
      11 -> 19         0.00214
      11 -> 20         0.00482
      11 -> 21         0.01104
      11 -> 22         0.00803
      11 -> 23         0.00162
      11 -> 24         0.00424
      11 -> 27        -0.00106
      11 -> 28        -0.00140
      11 -> 29        -0.00105
      12 -> 16         0.00849
      12 -> 17        -0.00115
      12 -> 18         0.00660
      12 -> 19        -0.00313
      12 -> 20         0.00761
      12 -> 21        -0.00791
      12 -> 22         0.00410
      12 -> 23         0.00188
      12 -> 24        -0.00111
      12 -> 27         0.00213
      12 -> 28         0.00260
      12 -> 29         0.00296
      13 -> 16         0.00277
      13 -> 17         0.00495
      13 -> 18        -0.00382
      13 -> 19         0.00473
      13 -> 20         0.00954
      13 -> 22        -0.00463
      13 -> 23         0.00383
      13 -> 24         0.00167
      13 -> 26        -0.00213
      13 -> 27        -0.00537
      13 -> 30        -0.00112
      14 -> 16         0.23119
      14 -> 17        -0.41262
      14 -> 18        -0.00111
      14 -> 19         0.00104
      14 -> 20         0.00155
      14 -> 21         0.00603
      14 -> 22         0.00213
      14 -> 23         0.00268
      14 -> 25         0.00110
      14 -> 27        -0.00316
      14 -> 28        -0.00269
      14 -> 29        -0.00169
      15 -> 16        -0.45188
      15 -> 17        -0.24393
      15 -> 18         0.00179
      15 -> 19         0.00183
      15 -> 20         0.00185
      15 -> 22         0.00122
      15 -> 23        -0.00209
      15 -> 24        -0.00176
      15 -> 27        -0.00275
      15 -> 28         0.00422
      15 -> 29         0.00329
       1 <- 19        -0.00408
       1 <- 20         0.00140
       1 <- 21         0.00258
       1 <- 22        -0.00263
       1 <- 30        -0.00236
       2 <- 20        -0.00123
       2 <- 21        -0.00128
       2 <- 23         0.00391
       2 <- 24         0.00501
       2 <- 25         0.00119
       2 <- 26         0.00127
       3 <- 20        -0.00151
       3 <- 21         0.00146
       3 <- 23         0.00574
       3 <- 24        -0.00357
       4 <- 16        -0.00149
       4 <- 24        -0.00111
       4 <- 28        -0.00487
       4 <- 29        -0.00227
       5 <- 17        -0.00126
       5 <- 26         0.00116
       5 <- 27         0.00615
       6 <- 19         0.00112
       6 <- 30         0.00187
       8 <- 21         0.00136
       8 <- 23         0.00190
       8 <- 28        -0.00259
       8 <- 29         0.00500
       9 <- 23         0.00380
       9 <- 24         0.00261
      10 <- 23        -0.00367
      10 <- 24         0.00336
      11 <- 18        -0.01476
      12 <- 16        -0.00176
      12 <- 20         0.00225
      12 <- 21        -0.00273
      12 <- 22         0.00117
      12 <- 27         0.00184
      12 <- 28         0.00351
      12 <- 29         0.00258
      13 <- 17        -0.00115
      13 <- 19         0.00128
      13 <- 20         0.00312
      13 <- 22        -0.00122
      13 <- 23         0.00115
      13 <- 26        -0.00159
      13 <- 27        -0.00480
      14 <- 16         0.00881
      14 <- 17        -0.01719
      14 <- 18        -0.00109
      14 <- 19         0.00173
      14 <- 21         0.00270
      15 <- 16        -0.00911
      15 <- 17        -0.00623
      15 <- 20         0.00238
      15 <- 21        -0.00146
 
 Excited state symmetry could not be determined.
 Excited State   3:      Singlet-?Sym    5.3625 eV  231.21 nm  f=0.3294  <S**2>=0.000
       1 -> 17        -0.00166
       1 -> 27         0.00238
       2 -> 18         0.00191
       2 -> 21        -0.00211
       2 -> 22        -0.00232
       2 -> 23        -0.00145
       2 -> 24         0.00115
       2 -> 25         0.00209
       2 -> 29        -0.00190
       3 -> 18        -0.00505
       3 -> 20         0.00264
       3 -> 21         0.00383
       3 -> 22         0.00526
       3 -> 23        -0.00183
       3 -> 26        -0.00202
       4 -> 16         0.00326
       4 -> 17         0.00646
       4 -> 19         0.00160
       4 -> 20         0.00619
       4 -> 22        -0.00172
       4 -> 23         0.00207
       4 -> 26        -0.00151
       4 -> 27        -0.00111
       5 -> 16         0.00285
       5 -> 17        -0.00372
       5 -> 19        -0.01490
       5 -> 20         0.00564
       5 -> 21         0.00167
       5 -> 22        -0.00386
       5 -> 24        -0.00129
       5 -> 25         0.00122
       5 -> 28         0.00242
       5 -> 30        -0.00846
       6 -> 16         0.00141
       6 -> 17         0.00701
       6 -> 19        -0.01047
       6 -> 20        -0.00925
       6 -> 21        -0.00144
       6 -> 22         0.00648
       6 -> 24         0.00261
       6 -> 26        -0.00123
       6 -> 27        -0.00672
       7 -> 17         0.00212
       7 -> 18        -0.00251
       7 -> 19         0.00231
       7 -> 20        -0.00617
       7 -> 21         0.01217
       7 -> 22         0.00250
       7 -> 23         0.01956
       7 -> 24        -0.01895
       7 -> 25        -0.01458
       7 -> 26         0.00158
       7 -> 30         0.00186
       8 -> 16         0.00497
       8 -> 17         0.00288
       8 -> 18         0.00400
       8 -> 19         0.00166
       8 -> 20         0.00560
       8 -> 21         0.00384
       8 -> 22         0.00255
       8 -> 23        -0.02672
       8 -> 24        -0.01879
       8 -> 25        -0.00583
       8 -> 26        -0.02969
       8 -> 27         0.00217
       8 -> 29        -0.00149
       9 -> 18         0.00427
       9 -> 19         0.00122
       9 -> 20         0.00216
       9 -> 21        -0.00976
       9 -> 22         0.00338
       9 -> 23        -0.01122
       9 -> 24         0.00409
       9 -> 25         0.02025
       9 -> 26        -0.00156
       9 -> 28         0.01302
       9 -> 29        -0.02179
      10 -> 16        -0.00113
      10 -> 18         0.03567
      10 -> 19         0.00164
      10 -> 21        -0.00446
      10 -> 22        -0.00827
      10 -> 23         0.01061
      10 -> 24         0.00527
      10 -> 25         0.00855
      10 -> 26         0.02114
      10 -> 27        -0.00240
      10 -> 28        -0.00225
      10 -> 29         0.00356
      11 -> 16         0.00111
      11 -> 18         0.00647
      11 -> 19        -0.00245
      11 -> 21         0.00697
      11 -> 22        -0.00136
      11 -> 23         0.01027
      11 -> 24        -0.00827
      11 -> 25        -0.01264
      11 -> 26         0.00137
      11 -> 30        -0.00105
      12 -> 16        -0.02933
      12 -> 17        -0.08247
      12 -> 19        -0.02925
      12 -> 20        -0.03053
      12 -> 21         0.01009
      12 -> 22         0.02059
      12 -> 23        -0.00626
      12 -> 24         0.00633
      12 -> 25        -0.00378
      12 -> 26        -0.01269
      12 -> 27        -0.03952
      12 -> 28         0.00989
      12 -> 29         0.00434
      12 -> 30        -0.00416
      13 -> 16        -0.06701
      13 -> 17         0.01963
      13 -> 18         0.00499
      13 -> 19         0.04170
      13 -> 20        -0.03251
      13 -> 21         0.01754
      13 -> 23        -0.01032
      13 -> 24         0.00908
      13 -> 25        -0.00564
      13 -> 26         0.00397
      13 -> 27         0.01571
      13 -> 28         0.03185
      13 -> 29         0.01996
      13 -> 30         0.03220
      14 -> 16         0.19201
      14 -> 17        -0.47571
      14 -> 18         0.00300
      14 -> 19        -0.00538
      14 -> 20        -0.00538
      14 -> 21        -0.00936
      14 -> 22         0.01273
      14 -> 23         0.00237
      14 -> 24         0.00337
      14 -> 25         0.00135
      14 -> 26        -0.00126
      14 -> 27        -0.01440
      14 -> 28        -0.00729
      14 -> 29        -0.00215
      14 -> 30         0.00532
      15 -> 16         0.42930
      15 -> 17         0.19351
      15 -> 19         0.00942
      15 -> 20         0.01345
      15 -> 21        -0.01362
      15 -> 22         0.00192
      15 -> 23        -0.00393
      15 -> 24        -0.00418
      15 -> 25         0.00131
      15 -> 26        -0.00408
      15 -> 27         0.00771
      15 -> 28        -0.01218
      15 -> 29        -0.00539
      15 -> 30         0.00571
       1 <- 27         0.00380
       2 <- 21        -0.00261
       2 <- 22        -0.00153
       2 <- 23        -0.00258
       2 <- 24         0.00318
       2 <- 25         0.00304
       2 <- 29        -0.00260
       3 <- 20         0.00222
       3 <- 21         0.00266
       3 <- 22         0.00352
       3 <- 23        -0.00358
       3 <- 24        -0.00116
       3 <- 26        -0.00282
       3 <- 29        -0.00119
       4 <- 20         0.00376
       4 <- 22        -0.00139
       5 <- 19        -0.00965
       5 <- 20         0.00371
       5 <- 21         0.00200
       5 <- 22        -0.00313
       5 <- 30        -0.00547
       6 <- 19        -0.00458
       6 <- 20        -0.00422
       6 <- 21        -0.00107
       6 <- 22         0.00276
       6 <- 27        -0.00163
       7 <- 19         0.00109
       7 <- 20        -0.00229
       7 <- 21         0.00414
       7 <- 22         0.00145
       7 <- 23         0.00825
       7 <- 24        -0.00836
       7 <- 25        -0.00520
       8 <- 20         0.00274
       8 <- 21         0.00140
       8 <- 23        -0.01241
       8 <- 24        -0.00880
       8 <- 25        -0.00252
       8 <- 26        -0.01153
       8 <- 27         0.00101
       9 <- 21        -0.00325
       9 <- 23        -0.00486
       9 <- 24         0.00263
       9 <- 25         0.00935
       9 <- 26        -0.00104
       9 <- 28         0.00376
       9 <- 29        -0.00709
      10 <- 21        -0.00254
      10 <- 22        -0.00336
      10 <- 23         0.00441
      10 <- 24         0.00260
      10 <- 25         0.00361
      10 <- 26         0.00925
      10 <- 27        -0.00102
      10 <- 29         0.00120
      11 <- 16        -0.00102
      11 <- 23         0.00113
      11 <- 24        -0.00143
      12 <- 16        -0.00154
      12 <- 17        -0.00482
      12 <- 19        -0.00835
      12 <- 20        -0.00845
      12 <- 21         0.00248
      12 <- 22         0.00544
      12 <- 23        -0.00221
      12 <- 24         0.00157
      12 <- 26        -0.00334
      12 <- 27        -0.01331
      12 <- 28         0.00364
      12 <- 29         0.00156
      12 <- 30        -0.00156
      13 <- 16        -0.00281
      13 <- 17         0.00103
      13 <- 19         0.01326
      13 <- 20        -0.00968
      13 <- 21         0.00357
      13 <- 22         0.00136
      13 <- 23        -0.00300
      13 <- 24         0.00252
      13 <- 25        -0.00205
      13 <- 26         0.00128
      13 <- 27         0.00491
      13 <- 28         0.01053
      13 <- 29         0.00654
      13 <- 30         0.01177
      14 <- 16        -0.03477
      14 <- 17         0.07755
      14 <- 21        -0.00285
      14 <- 22         0.00116
      15 <- 16        -0.08098
      15 <- 17        -0.03332
      15 <- 18         0.00123
      15 <- 19         0.00111
      15 <- 20         0.00164
      15 <- 21        -0.00213
      15 <- 22         0.00112
      15 <- 24        -0.00116
 
 Excited state symmetry could not be determined.
 Excited State   4:      Singlet-?Sym    5.3970 eV  229.73 nm  f=0.3554  <S**2>=0.000
       1 -> 16        -0.00171
       1 -> 28        -0.00235
       1 -> 29        -0.00104
       2 -> 18        -0.00495
       2 -> 20         0.00177
       2 -> 21         0.00344
       2 -> 22         0.00475
       2 -> 23         0.00222
       2 -> 24         0.00288
       2 -> 26         0.00238
       3 -> 18        -0.00196
       3 -> 20         0.00119
       3 -> 22         0.00196
       3 -> 23        -0.00148
       3 -> 24         0.00271
       3 -> 25         0.00213
       3 -> 28        -0.00102
       3 -> 29         0.00219
       4 -> 16        -0.00594
       4 -> 17         0.00332
       4 -> 19        -0.00627
       4 -> 20         0.00203
       4 -> 21         0.01078
       4 -> 22        -0.00940
       4 -> 24         0.00170
       4 -> 25         0.00224
       4 -> 30        -0.00800
       5 -> 16         0.00411
       5 -> 17         0.00429
       5 -> 19         0.00519
       5 -> 20         0.00584
       5 -> 21        -0.00209
       5 -> 22        -0.00143
       5 -> 23         0.00187
       5 -> 27        -0.00138
       5 -> 30         0.00137
       6 -> 16         0.00733
       6 -> 17        -0.00112
       6 -> 19         0.00696
       6 -> 20        -0.00987
       6 -> 21         0.00896
       6 -> 22        -0.00340
       6 -> 23        -0.00448
       6 -> 24         0.00327
       6 -> 25         0.00124
       6 -> 27         0.00138
       6 -> 28         0.00546
       6 -> 29         0.00122
       7 -> 16        -0.00139
       7 -> 17        -0.00241
       7 -> 18         0.00947
       7 -> 19        -0.00215
       7 -> 20        -0.00782
       7 -> 21        -0.00407
       7 -> 22        -0.00265
       7 -> 23         0.01996
       7 -> 24         0.01571
       7 -> 25         0.00604
       7 -> 26         0.00910
       8 -> 17         0.00216
       8 -> 18        -0.00176
       8 -> 20        -0.00638
       8 -> 21         0.01302
       8 -> 23         0.02442
       8 -> 24        -0.02164
       8 -> 25        -0.02803
       8 -> 26         0.00228
       8 -> 28         0.00295
       8 -> 30        -0.00216
       9 -> 16        -0.00135
       9 -> 18        -0.03239
       9 -> 19        -0.00196
       9 -> 20        -0.00123
       9 -> 21        -0.00235
       9 -> 22         0.00480
       9 -> 23         0.01278
       9 -> 24         0.01511
       9 -> 25         0.00922
       9 -> 26         0.02595
       9 -> 27        -0.00387
       9 -> 28         0.00108
       9 -> 29        -0.00236
      10 -> 16        -0.00212
      10 -> 17         0.00172
      10 -> 18         0.00505
      10 -> 20        -0.00136
      10 -> 21         0.00267
      10 -> 22        -0.00430
      10 -> 23         0.01344
      10 -> 24        -0.00690
      10 -> 25        -0.03085
      10 -> 26         0.00720
      10 -> 28         0.01368
      10 -> 29        -0.02450
      11 -> 18         0.00386
      11 -> 19         0.00204
      11 -> 20        -0.00198
      11 -> 21        -0.00168
      11 -> 22        -0.00127
      11 -> 23         0.00699
      11 -> 24         0.00264
      11 -> 26         0.00827
      11 -> 28         0.00134
      12 -> 16         0.10363
      12 -> 17        -0.03254
      12 -> 18         0.00104
      12 -> 19        -0.00138
      12 -> 20         0.01684
      12 -> 21        -0.04320
      12 -> 22         0.02988
      12 -> 23         0.01535
      12 -> 24        -0.01277
      12 -> 25        -0.01138
      12 -> 26        -0.00256
      12 -> 27        -0.01266
      12 -> 28        -0.03736
      12 -> 29        -0.01433
      12 -> 30         0.03307
      13 -> 16        -0.02084
      13 -> 17        -0.05536
      13 -> 18         0.00165
      13 -> 19        -0.01920
      13 -> 20        -0.03131
      13 -> 21         0.00200
      13 -> 22         0.02216
      13 -> 23        -0.00503
      13 -> 24         0.00530
      13 -> 25        -0.00534
      13 -> 26        -0.00643
      13 -> 27        -0.04410
      13 -> 28         0.01106
      13 -> 29         0.00527
      13 -> 30         0.00578
      14 -> 16         0.45272
      14 -> 17         0.19584
      14 -> 19        -0.00426
      14 -> 20         0.01233
      14 -> 21        -0.00700
      14 -> 23         0.00521
      14 -> 24        -0.00559
      14 -> 25        -0.00130
      14 -> 26        -0.00103
      14 -> 27         0.00340
      14 -> 28        -0.01130
      14 -> 29        -0.00713
      14 -> 30        -0.00113
      15 -> 16        -0.18805
      15 -> 17         0.45079
      15 -> 18        -0.00381
      15 -> 19         0.01369
      15 -> 20        -0.00405
      15 -> 21         0.00508
      15 -> 22        -0.00406
      15 -> 23         0.00469
      15 -> 25        -0.00447
      15 -> 26         0.00465
      15 -> 27         0.01120
      15 -> 28         0.00611
      15 -> 29         0.00405
      15 -> 30         0.00276
       1 <- 20         0.00103
       1 <- 21        -0.00110
       1 <- 28        -0.00354
       1 <- 29        -0.00154
       2 <- 21         0.00193
       2 <- 22         0.00276
       2 <- 23         0.00384
       2 <- 24         0.00326
       2 <- 26         0.00294
       2 <- 29        -0.00129
       3 <- 22         0.00112
       3 <- 23        -0.00248
       3 <- 24         0.00385
       3 <- 25         0.00296
       3 <- 28        -0.00173
       3 <- 29         0.00289
       4 <- 19        -0.00471
       4 <- 20         0.00147
       4 <- 21         0.00687
       4 <- 22        -0.00617
       4 <- 25         0.00154
       4 <- 30        -0.00501
       5 <- 19         0.00257
       5 <- 20         0.00291
       5 <- 21        -0.00134
       6 <- 19         0.00257
       6 <- 20        -0.00410
       6 <- 21         0.00376
       6 <- 22        -0.00151
       6 <- 23        -0.00196
       6 <- 24         0.00135
       7 <- 20        -0.00302
       7 <- 21        -0.00174
       7 <- 23         0.00787
       7 <- 24         0.00646
       7 <- 25         0.00247
       7 <- 26         0.00283
       8 <- 20        -0.00248
       8 <- 21         0.00555
       8 <- 23         0.01024
       8 <- 24        -0.01002
       8 <- 25        -0.01037
       8 <- 28         0.00158
       9 <- 22         0.00232
       9 <- 23         0.00530
       9 <- 24         0.00641
       9 <- 25         0.00390
       9 <- 26         0.01056
       9 <- 27        -0.00165
      10 <- 21         0.00174
      10 <- 22        -0.00150
      10 <- 23         0.00611
      10 <- 24        -0.00365
      10 <- 25        -0.01165
      10 <- 26         0.00281
      10 <- 28         0.00453
      10 <- 29        -0.00769
      11 <- 17         0.00139
      12 <- 16         0.00475
      12 <- 17        -0.00146
      12 <- 19         0.00177
      12 <- 20         0.00391
      12 <- 21        -0.01333
      12 <- 22         0.00970
      12 <- 23         0.00422
      12 <- 24        -0.00384
      12 <- 25        -0.00356
      12 <- 26        -0.00106
      12 <- 27        -0.00421
      12 <- 28        -0.01244
      12 <- 29        -0.00446
      12 <- 30         0.01162
      13 <- 16        -0.00122
      13 <- 17        -0.00303
      13 <- 19        -0.00499
      13 <- 20        -0.00892
      13 <- 22         0.00633
      13 <- 23        -0.00157
      13 <- 24         0.00136
      13 <- 25        -0.00158
      13 <- 26        -0.00191
      13 <- 27        -0.01363
      13 <- 28         0.00349
      13 <- 29         0.00176
      13 <- 30         0.00216
      14 <- 16        -0.07922
      14 <- 17        -0.03289
      14 <- 20         0.00229
      15 <- 16         0.03391
      15 <- 17        -0.07944
      15 <- 19         0.00277
      15 <- 27         0.00119
 
 Excited state symmetry could not be determined.
 Excited State   5:      Singlet-?Sym    5.9459 eV  208.52 nm  f=0.0064  <S**2>=0.000
       1 -> 16         0.00194
       1 -> 17         0.00269
       2 -> 16        -0.00165
       3 -> 18         0.00755
       3 -> 21         0.00118
       3 -> 22         0.00132
       4 -> 16        -0.00357
       4 -> 17         0.00683
       4 -> 20         0.00138
       5 -> 16        -0.03049
       5 -> 17         0.00148
       5 -> 19        -0.00163
       5 -> 20         0.00169
       6 -> 16        -0.01509
       6 -> 17        -0.02108
       6 -> 19        -0.00131
       6 -> 20        -0.00137
       6 -> 27        -0.00162
       6 -> 30        -0.00121
       7 -> 16         0.00481
       7 -> 17        -0.00290
       7 -> 18         0.07725
       7 -> 19         0.00112
       7 -> 21         0.00716
       7 -> 22         0.00465
       7 -> 23         0.00387
       8 -> 16        -0.00180
       8 -> 17        -0.00703
       8 -> 18         0.06737
       8 -> 19         0.00242
       8 -> 20         0.00256
       8 -> 21         0.00678
       8 -> 22         0.00524
       8 -> 23        -0.00291
       8 -> 24        -0.00149
       8 -> 25        -0.00120
       8 -> 26        -0.00408
       9 -> 16        -0.00812
       9 -> 17         0.00917
       9 -> 18         0.03262
       9 -> 20         0.00213
       9 -> 21         0.00146
       9 -> 22         0.00308
       9 -> 23        -0.00252
       9 -> 24         0.00314
       9 -> 25         0.00385
       9 -> 26        -0.00219
       9 -> 27         0.00169
       9 -> 29        -0.00455
      10 -> 16         0.00154
      10 -> 17         0.00366
      10 -> 18        -0.07361
      10 -> 19        -0.00223
      10 -> 20        -0.00269
      10 -> 21        -0.00717
      10 -> 22        -0.00680
      10 -> 23         0.00169
      10 -> 24        -0.00235
      10 -> 25        -0.00121
      10 -> 26         0.00317
      11 -> 18        -0.00647
      11 -> 19        -0.00306
      11 -> 20         0.01003
      11 -> 21         0.00864
      11 -> 22         0.01136
      11 -> 23        -0.01004
      11 -> 24         0.01021
      11 -> 25        -0.00289
      11 -> 29        -0.00438
      12 -> 16         0.25110
      12 -> 17        -0.02984
      12 -> 18         0.00941
      12 -> 19        -0.00479
      12 -> 20        -0.00366
      12 -> 21         0.00348
      12 -> 22         0.00477
      12 -> 24         0.00165
      12 -> 25        -0.00127
      12 -> 26        -0.00211
      12 -> 27        -0.00739
      13 -> 16         0.55799
      13 -> 17         0.31089
      13 -> 18        -0.00407
      13 -> 19         0.00463
      13 -> 20        -0.00732
      13 -> 21         0.00484
      13 -> 24         0.00152
      13 -> 25        -0.00112
      13 -> 26        -0.00109
      13 -> 27         0.00266
      13 -> 28         0.00185
      13 -> 29         0.00119
      13 -> 30         0.00509
      14 -> 16         0.01622
      14 -> 17        -0.03186
      14 -> 19         0.00874
      14 -> 20         0.01398
      14 -> 21         0.01853
      14 -> 22        -0.02144
      14 -> 23         0.00514
      14 -> 24         0.00545
      14 -> 25         0.00317
      14 -> 27         0.00448
      14 -> 28        -0.00212
      14 -> 29        -0.00185
      14 -> 30        -0.00545
      15 -> 16         0.03764
      15 -> 17         0.02087
      15 -> 18         0.00566
      15 -> 19        -0.02007
      15 -> 20         0.05576
      15 -> 21        -0.00300
      15 -> 22        -0.01737
      15 -> 23         0.00442
      15 -> 24        -0.00324
      15 -> 25         0.00181
      15 -> 26        -0.00750
      15 -> 27        -0.01080
      15 -> 28         0.00199
      15 -> 29        -0.00305
      15 -> 30        -0.01168
       4 <- 17        -0.00108
       7 <- 23         0.00104
       8 <- 23        -0.00138
       8 <- 24        -0.00101
       8 <- 26        -0.00128
      10 <- 18         0.00120
      11 <- 20         0.00270
      11 <- 21         0.00398
      11 <- 22         0.00525
      11 <- 24         0.00267
      11 <- 25        -0.00170
      11 <- 29        -0.00215
      12 <- 17        -0.00121
      12 <- 19        -0.00152
      12 <- 22         0.00133
      12 <- 27        -0.00230
      13 <- 16        -0.00201
      13 <- 19         0.00124
      13 <- 27         0.00101
      13 <- 30         0.00102
      14 <- 16        -0.00390
      14 <- 17         0.00871
      14 <- 19         0.00652
      14 <- 20         0.00566
      14 <- 21         0.00395
      14 <- 22        -0.00730
      14 <- 25         0.00167
      14 <- 26         0.00106
      14 <- 27         0.00805
      14 <- 30        -0.00136
      15 <- 16        -0.00617
      15 <- 17        -0.00453
      15 <- 19        -0.00370
      15 <- 20         0.01567
      15 <- 21        -0.00667
      15 <- 22        -0.00224
      15 <- 23         0.00455
      15 <- 24        -0.00276
      15 <- 28        -0.00633
      15 <- 29        -0.00309
      15 <- 30        -0.00297
 SavETr:  write IOETrn=   770 NScale= 10 NData=  16 NLR=1 NState=    5 LETran=     100.

 **********************************************************************

            Population analysis using the SCF Density.

 **********************************************************************

 Alpha  occ. eigenvalues --   -1.42870  -1.15161  -1.14207  -0.85270  -0.83346
 Alpha  occ. eigenvalues --   -0.65139  -0.58963  -0.56352  -0.52094  -0.51213
 Alpha  occ. eigenvalues --   -0.48780  -0.43678  -0.43208  -0.35381  -0.35108
 Alpha virt. eigenvalues --    0.01806   0.02138   0.10727   0.14019   0.14527
 Alpha virt. eigenvalues --    0.14815   0.15090   0.16689   0.16754   0.18463
 Alpha virt. eigenvalues --    0.18978   0.20248   0.20799   0.21191   0.22447
          Condensed to atoms (all electrons):
               1          2          3          4          5          6
     1  C    4.149296   0.000000   0.000000   0.000000   0.000000   0.000000
     2  C    0.000000   4.143926   0.000000   0.000000   0.000000   0.000000
     3  C    0.000000   0.000000   4.120375   0.000000   0.000000   0.000000
     4  C    0.000000   0.000000   0.000000   4.131825   0.000000   0.000000
     5  C    0.000000   0.000000   0.000000   0.000000   4.123800   0.000000
     6  C    0.000000   0.000000   0.000000   0.000000   0.000000   4.122591
     7  H    0.000000   0.000000   0.000000   0.000000   0.000000   0.000000
     8  H    0.000000   0.000000   0.000000   0.000000   0.000000   0.000000
     9  H    0.000000   0.000000   0.000000   0.000000   0.000000   0.000000
    10  H    0.000000   0.000000   0.000000   0.000000   0.000000   0.000000
    11  H    0.000000   0.000000   0.000000   0.000000   0.000000   0.000000
    12  H    0.000000   0.000000   0.000000   0.000000   0.000000   0.000000
               7          8          9         10         11         12
     1  C    0.000000   0.000000   0.000000   0.000000   0.000000   0.000000
     2  C    0.000000   0.000000   0.000000   0.000000   0.000000   0.000000
     3  C    0.000000   0.000000   0.000000   0.000000   0.000000   0.000000
     4  C    0.000000   0.000000   0.000000   0.000000   0.000000   0.000000
     5  C    0.000000   0.000000   0.000000   0.000000   0.000000   0.000000
     6  C    0.000000   0.000000   0.000000   0.000000   0.000000   0.000000
     7  H    0.868446   0.000000   0.000000   0.000000   0.000000   0.000000
     8  H    0.000000   0.871273   0.000000   0.000000   0.000000   0.000000
     9  H    0.000000   0.000000   0.863512   0.000000   0.000000   0.000000
    10  H    0.000000   0.000000   0.000000   0.869405   0.000000   0.000000
    11  H    0.000000   0.000000   0.000000   0.000000   0.873139   0.000000
    12  H    0.000000   0.000000   0.000000   0.000000   0.000000   0.862413
 Mulliken charges:
               1
     1  C   -0.149296
     2  C   -0.143926
     3  C   -0.120375
     4  C   -0.131825
     5  C   -0.123800
     6  C   -0.122591
     7  H    0.131554
     8  H    0.128727
     9  H    0.136488
    10  H    0.130595
    11  H    0.126861
    12  H    0.137587
 Sum of Mulliken charges =   0.00000
 Mulliken charges with hydrogens summed into heavy atoms:
               1
     1  C   -0.017742
     2  C   -0.015198
     3  C    0.016113
     4  C   -0.001230
     5  C    0.003061
     6  C    0.014996
 Charge=              0.0000 electrons
 Dipole moment (field-independent basis, Debye):
    X=              0.0350    Y=             -0.1150    Z=             -0.0294  Tot=              0.1237
 N-N= 1.192209776791D+02 E-N=-1.699203686231D+02  KE=-4.780807066646D+01

 Test job not archived.
 1\1\GINC-BHC0189\SP\RAM1 TD-Full\STO-5G\C6H6\BWEIGHT\21-Mar-2025\0\\# 
 AM1/STO-5G SCF=XQC TD=(read,singlets,nstates=5,root=1) nosym IOp(9/40=
 3) guess=read\\MD Step 13\\0,1\C,0,-0.7149568,-1.19358717,-0.02646686\
 C,0,0.6916531,-1.1926147,0.01052365\C,0,1.42863766,0.00358949,0.014210
 61\C,0,0.69900972,1.19818299,-0.02331361\C,0,-0.69076582,1.20158182,-0
 .00653285\C,0,-1.43240907,0.00077696,0.01924119\H,0,-1.23294484,-2.221
 8494,0.06999838\H,0,1.2105252,-2.20862688,-0.0606739\H,0,2.5090739,-0.
 08384642,0.10521602\H,0,1.18941019,2.2161269,-0.06781387\H,0,-1.162891
 57,2.17323234,0.03440442\H,0,-2.49605242,-0.17297676,-0.13722263\\Vers
 ion=ES64L-G16RevC.01\HF=0.0490385\RMSD=9.292e-09\PG=C01 [X(C6H6)]\\@


 ABSOLUTISM, OBSOLETISM -- IF IT WORKS, IT'S OUT OF DATE

                          -- STAFFORD BEER
 Job cpu time:       0 days  0 hours  0 minutes  1.1 seconds.
 Elapsed time:       0 days  0 hours  0 minutes  0.8 seconds.
 File lengths (MBytes):  RWF=     34 Int=      0 D2E=      0 Chk=      2 Scr=      1
 Normal termination of Gaussian 16 at Fri Mar 21 15:21:47 2025.
