12
MD Step 0 Units = [Angstroms]
C  -0.67825397 -1.21588294 0.04991713
C  0.68589203 -1.22172194 0.00483913
C  1.39198403 0.03812206 0.03211413
C  0.71620503 1.22451706 -0.02848587
C  -0.72916197 1.16652206 -0.03945287
C  -1.38819897 -0.00705394 -0.00288787
H  -1.27696097 -2.13695894 0.13566613
H  1.28461103 -2.09499394 -0.15748887
H  2.52953303 0.07232406 0.00776713
H  1.19774203 2.19717506 -0.01073387
H  -1.23591497 2.16620706 -0.09275787
H  -2.48073297 -0.01908294 -0.07363087
12
MD Step 1 Units = [Angstroms]
C  -0.67488969 -1.21490832 0.04965146
C  0.68341292 -1.22216338 0.00450183
C  1.38823365 0.03584759 0.03239298
C  0.71768654 1.22682532 -0.02975455
C  -0.73001715 1.16797907 -0.03844934
C  -1.38546435 -0.01022048 -0.00340366
H  -1.26936770 -2.13994839 0.13547336
H  1.28172670 -2.07947460 -0.15325721
H  2.52749516 0.06686074 0.01554594
H  1.20437976 2.20071207 -0.01557118
H  -1.23232096 2.15868131 -0.08837096
H  -2.49954312 -0.00854611 -0.07183008
12
MD Step 2 Units = [Angstroms]
C  -0.67175032 -1.21411576 0.04940165
C  0.68120937 -1.22205588 0.00416441
C  1.38471050 0.03336802 0.03256435
C  0.71870289 1.22903016 -0.03092944
C  -0.73039079 1.16995745 -0.03748066
C  -1.38305288 -0.01347884 -0.00393151
H  -1.26135379 -2.14320464 0.13490380
H  1.28046920 -2.06753666 -0.14864678
H  2.52244918 0.06058228 0.02357718
H  1.21145936 2.20466344 -0.02059765
H  -1.22892647 2.15004610 -0.08396601
H  -2.51729079 0.00153555 -0.06957824
12
MD Step 3 Units = [Angstroms]
C  -0.66891814 -1.21353555 0.04916745
C  0.67930591 -1.22134981 0.00383732
C  1.38142285 0.03073519 0.03263343
C  0.71926070 1.23112992 -0.03201029
C  -0.73025217 1.17236395 -0.03654579
C  -1.38107632 -0.01675895 -0.00447360
H  -1.25298939 -2.14667388 0.13395845
H  1.28137597 -2.06007141 -0.14380045
H  2.51453346 0.05353748 0.03180072
H  1.21877895 2.20867426 -0.02579536
H  -1.22615182 2.14107730 -0.07958911
H  -2.53248278 0.01097684 -0.06681770
12
MD Step 4 Units = [Angstroms]
C  -0.66646841 -1.21319265 0.04894762
C  0.67774135 -1.22003300 0.00352566
C  1.37836272 0.02800132 0.03260564
C  0.71937317 1.23312626 -0.03299763
C  -0.72957723 1.17509290 -0.03564358
C  -1.37961616 -0.01998823 -0.00503004
H  -1.24435693 -2.15032081 0.13264339
H  1.28470594 -2.05754287 -0.13878865
H  2.50410455 0.04579124 0.04015572
H  1.22612074 2.21236587 -0.03114194
H  -1.22443502 2.13260852 -0.07528425
H  -2.54394007 0.01959196 -0.06351833
12
MD Step 5 Units = [Angstroms]
C  -0.66446690 -1.21310603 0.04873982
C  0.67657091 -1.21813575 0.00322866
C  1.37550723 0.02521778 0.03248627
C  0.71905820 1.23502222 -0.03389280
C  -0.72835046 1.17803462 -0.03477308
C  -1.37872240 -0.02309495 -0.00559891
H  -1.23555095 -2.15413027 0.13096979
H  1.29038287 -2.05992131 -0.13360286
H  2.49172423 0.03742313 0.04858488
H  1.23326748 2.21537041 -0.03661042
H  -1.22419129 2.12544863 -0.07108944
H  -2.55082525 0.02720589 -0.05967575
12
MD Step 6 Units = [Angstroms]
C  -0.66296774 -1.21328811 0.04854057
C  0.67586309 -1.21572907 0.00294063
C  1.37282096 0.02243411 0.03228027
C  0.71833682 1.23682065 -0.03469798
C  -0.72656760 1.18108509 -0.03393389
C  -1.37841421 -0.02601135 -0.00617649
H  -1.22667675 -2.15810666 0.12895365
H  1.29800207 -2.06670079 -0.12816683
H  2.47813417 0.02852544 0.05703861
H  1.24001792 2.21736188 -0.04216953
H  -1.22576522 2.12028709 -0.06703336
H  -2.55264586 0.03366380 -0.05530810
12
MD Step 7 Units = [Angstroms]
C  -0.66201175 -1.21374436 0.04834527
C  0.67569187 -1.21291684 0.00265297
C  1.37025945 0.01969745 0.03199200
C  0.71723186 1.23852280 -0.03541614
C  -0.72423874 1.18415531 -0.03312632
C  -1.37868093 -0.02867662 -0.00675747
H  -1.21784786 -2.16227119 0.12661524
H  1.30689848 -2.07699371 -0.12236130
H  2.46421370 0.01920088 0.06547835
H  1.24620023 2.21808142 -0.04778458
H  -1.22938193 2.11760238 -0.06313316
H  -2.54925051 0.03883881 -0.05045237
12
MD Step 8 Units = [Angstroms]
C  -0.66162518 -1.21447309 0.04814818
C  0.67612621 -1.20982418 0.00235656
C  1.36777439 0.01705224 0.03162521
C  0.71576722 1.24012743 -0.03605099
C  -0.72139097 1.18717865 -0.03235154
C  -1.37948279 -0.03103938 -0.00733513
H  -1.20918262 -2.16665726 0.12397833
H  1.31625308 -2.08967206 -0.11605369
H  2.45091672 0.00956012 0.07387833
H  1.25168272 2.21735575 -0.05341871
H  -1.23510698 2.11759297 -0.05939420
H  -2.54082716 0.04263862 -0.04516081
12
MD Step 9 Units = [Angstroms]
C  -0.66181907 -1.21546549 0.04794259
C  0.67721955 -1.20658539 0.00204383
C  1.36532032 0.01454009 0.03118316
C  0.71396743 1.24163006 -0.03660681
C  -0.71806990 1.19011477 -0.03161137
C  -1.38075101 -0.03305981 -0.00790160
H  -1.20080011 -2.17130407 0.12106936
H  1.32520697 -2.10351692 -0.10912444
H  2.43918771 -0.00028011 0.08222488
H  1.25638171 2.21510882 -0.05903441
H  -1.24282461 2.12014847 -0.05581177
H  -2.52790671 0.04501180 -0.03949722
12
MD Step 10 Units = [Angstroms]
C  -0.66258913 -1.21670595 0.04772088
C  0.67900185 -1.20333361 0.00171014
C  1.36286233 0.01219962 0.03066897
C  0.71185775 1.24302280 -0.03708836
C  -0.71433954 1.19294917 -0.03090808
C  -1.38238763 -0.03471103 -0.00844811
H  -1.19281555 -2.17624927 0.11791645
H  1.33295795 -2.11734623 -0.10148493
H  2.42986306 -0.01019778 0.09051247
H  1.26026622 2.21136668 -0.06459510
H  -1.25224061 2.12486874 -0.05237441
H  -2.51136839 0.04595338 -0.03353283
12
MD Step 11 Units = [Angstroms]
C  -0.66391627 -1.21817276 0.04747470
C  0.68147486 -1.20019344 0.00135438
C  1.36038359 0.01006625 0.03008622
C  0.70946460 1.24429425 -0.03750071
C  -0.71028036 1.19568897 -0.03024404
C  -1.38426608 -0.03597988 -0.00896538
H  -1.18533589 -2.18152089 0.11454838
H  1.33882778 -2.13010684 -0.09308603
H  2.42357159 -0.02006459 0.09873649
H  1.26335962 2.20625592 -0.07006674
H  -1.26290992 2.13112586 -0.04906782
H  -2.49243661 0.04550911 -0.02734134
12
MD Step 12 Units = [Angstroms]
C  -0.66576781 -1.21983900 0.04719516
C  0.68461095 -1.19727611 0.00097900
C  1.35789128 0.00817165 0.02943966
C  0.70681619 1.24542991 -0.03784908
C  -0.70598596 1.19835621 -0.02962138
C  -1.38623383 -0.03686683 -0.00944412
H  -1.17845573 -2.18712969 0.11099376
H  1.34230041 -2.14093148 -0.08391935
H  2.42065365 -0.02974346 0.10688401
H  1.26573781 2.19999596 -0.07541917
H  -1.27428261 2.13815263 -0.04587858
H  -2.47265140 0.04377607 -0.02099275
12
MD Step 13 Units = [Angstroms]
C  -0.66809911 -1.22167367 0.04687296
C  0.68835448 -1.19467669 0.00058963
C  1.35541922 0.00654317 0.02873590
C  0.70394344 1.24641284 -0.03813876
C  -0.70155910 1.20098032 -0.02904178
C  -1.38811911 -0.03738481 -0.00987567
H  -1.17225405 -2.19306234 0.10728021
H  1.34303828 -2.14916904 -0.07401373
H  2.42111777 -0.03908560 0.11492460
H  1.26752372 2.19288496 -0.08062717
H  -1.28575849 2.14513774 -0.04279679
H  -2.45378984 0.04089721 -0.01454639
12
MD Step 14 Units = [Angstroms]
C  -0.67085582 -1.22364295 0.04649865
C  0.69262507 -1.19247221 0.00019459
C  1.35302636 0.00520313 0.02798379
C  0.70088083 1.24722483 -0.03837500
C  -0.69710770 1.20359115 -0.02850626
C  -1.38974343 -0.03755704 -0.01025257
H  -1.16679220 -2.19927657 0.10343384
H  1.34088510 -2.15439871 -0.06342940
H  2.42464572 -0.04792886 0.12280392
H  1.26887768 2.18527964 -0.08567091
H  -1.29674047 2.15131068 -0.03981749
H  -2.43771783 0.03704792 -0.00804467
12
MD Step 15 Units = [Angstroms]
C  -0.67397625 -1.22571132 0.04606278
C  0.69732158 -1.19072010 -0.00019570
C  1.35079147 0.00416823 0.02719447
C  0.69766737 1.24784784 -0.03856300
C  -0.69274116 1.20621348 -0.02801513
C  -1.39094015 -0.03741393 -0.01056894
H  -1.16211316 -2.20569869 0.09947892
H  1.33586213 -2.15643657 -0.05225119
H  2.43064443 -0.05609872 0.13044203
H  1.26998380 2.17756949 -0.09053580
H  -1.30668028 2.15600717 -0.03694102
H  -2.42616867 0.03241497 -0.00150988
12
MD Step 16 Units = [Angstroms]
C  -0.67739392 -1.22784263 0.04555611
C  0.70232653 -1.18945650 -0.00056930
C  1.34880510 0.00344912 0.02638091
C  0.69434746 1.24826586 -0.03870796
C  -0.68856719 1.20886319 -0.02756798
C  -1.39157678 -0.03698971 -0.01082039
H  -1.15824224 -2.21222406 0.09543773
H  1.32816207 -2.15533968 -0.04058129
H  2.43833125 -0.06341270 0.13773676
H  1.27103266 2.17014663 -0.09521151
H  -1.31511345 2.15871328 -0.03417239
H  -2.42047726 0.02717270 0.00505300
12
MD Step 17 Units = [Angstroms]
C  -0.68103991 -1.23000086 0.04496977
C  0.70751026 -1.18869449 -0.00091341
C  1.34716047 0.00305016 0.02555716
C  0.69097143 1.24846678 -0.03881517
C  -0.68468887 1.21154490 -0.02716372
C  -1.39157559 -0.03631954 -0.01100337
H  -1.15518911 -2.21872056 0.09133067
H  1.31814157 -2.15140915 -0.02853170
H  2.44683275 -0.06968750 0.14457128
H  1.27220162 2.16337368 -0.09969026
H  -1.32168415 2.15909134 -0.03152041
H  -2.42133555 0.02146447 0.01164653
12
MD Step 18 Units = [Angstroms]
C  -0.68484495 -1.23215076 0.04429544
C  0.71273501 -1.18842241 -0.00121496
C  1.34594504 0.00296935 0.02473746
C  0.68759576 1.24844428 -0.03889015
C  -0.68120176 1.21425077 -0.02680065
C  -1.39092578 -0.03543792 -0.01111417
H  -1.15295067 -2.22503483 0.08717643
H  1.30631072 -2.14518927 -0.01621605
H  2.45527880 -0.07474756 0.15082373
H  1.27363478 2.15755314 -0.10396460
H  -1.32616184 2.15699270 -0.02899633
H  -2.42864972 0.01539663 0.01826656
12
MD Step 19 Units = [Angstroms]
C  -0.68874101 -1.23425821 0.04352543
C  0.71785878 -1.18860320 -0.00146141
C  1.34523356 0.00319828 0.02393534
C  0.68428272 1.24819921 -0.03893881
C  -0.67819090 1.21696016 -0.02647654
C  -1.38968285 -0.03437845 -0.01114790
H  -1.15151462 -2.23100077 0.08299228
H  1.29331566 -2.13745635 -0.00374072
H  2.46287994 -0.07843348 0.15637702
H  1.27542523 2.15290186 -0.10802492
H  -1.32845184 2.15246205 -0.02661265
H  -2.44155378 0.00904663 0.02488867
12
MD Step 20 Units = [Angstroms]
C  -0.69266240 -1.23629061 0.04265288
C  0.72273968 -1.18917552 -0.00164150
C  1.34508329 0.00372223 0.02316282
C  0.68109914 1.24774039 -0.03896754
C  -0.67572766 1.21963987 -0.02618879
C  -1.38795526 -0.03317457 -0.01109807
H  -1.15086308 -2.23644944 0.07879430
H  1.27990882 -2.12918691 0.00880425
H  2.46898349 -0.08060930 0.16112746
H  1.27760243 2.14953460 -0.11185719
H  -1.32860150 2.14573598 -0.02438176
H  -2.45857504 0.00247999 0.03146106
12
MD Step 21 Units = [Angstroms]
C  -0.69654629 -1.23821708 0.04167176
C  0.72724084 -1.19005791 -0.00174588
C  1.34553093 0.00452032 0.02242988
C  0.67811452 1.24708454 -0.03898331
C  -0.67386659 1.22224474 -0.02593457
C  -1.38588378 -0.03186036 -0.01095679
H  -1.15097603 -2.24121950 0.07459765
H  1.26690167 -2.12149431 0.02135306
H  2.47310979 -0.08116811 0.16499140
H  1.28012678 2.14745881 -0.11544150
H  -1.32680172 2.13723644 -0.02231479
H  -2.47789024 -0.00423296 0.03790590
12
MD Step 22 Units = [Angstroms]
C  -0.70033287 -1.24000869 0.04057702
C  0.73123638 -1.19115660 -0.00176762
C  1.34659123 0.00556590 0.02174404
C  0.67539817 1.24625541 -0.03899360
C  -0.67264288 1.22471886 -0.02571097
C  -1.38361991 -0.03047080 -0.01071547
H  -1.15183418 -2.24516710 0.07041669
H  1.25509789 -2.11552607 0.03386850
H  2.47497281 -0.08003604 0.16791008
H  1.28289247 2.14658139 -0.11875157
H  -1.32338234 2.12755703 -0.02042049
H  -2.49759108 -0.01100680 0.04412754
12
MD Step 23 Units = [Angstroms]
C  -0.70396511 -1.24163871 0.03936461
C  0.73461812 -1.19237682 -0.00170206
C  1.34825661 0.00682703 0.02111017
C  0.67301599 1.24528217 -0.03900628
C  -0.67207065 1.22699737 -0.02551514
C  -1.38130866 -0.02904127 -0.01036582
H  -1.15342107 -2.24817460 0.06626505
H  1.24521136 -2.11232527 0.04633964
H  2.47448972 -0.07717486 0.16985280
H  1.28573806 2.14672587 -0.12175551
H  -1.31879807 2.11743824 -0.01870432
H  -2.51589766 -0.01773907 0.05002350
12
MD Step 24 Units = [Angstroms]
C  -0.70738838 -1.24308284 0.03803154
C  0.73730208 -1.19363598 -0.00154609
C  1.35049748 0.00826726 0.02053033
C  0.67102686 1.24419737 -0.03902940
C  -0.67214291 1.22900951 -0.02534446
C  -1.37907747 -0.02760644 -0.00990060
H  -1.15572431 -2.25015724 0.06215556
H  1.23778186 -2.11267546 0.05877140
H  2.47178266 -0.07258332 0.17081866
H  1.28846307 2.14765703 -0.12441754
H  -1.31360108 2.10772683 -0.01716795
H  -2.53129593 -0.02431425 0.05549487
12
MD Step 25 Units = [Angstroms]
C  -0.71055006 -1.24431947 0.03657597
C  0.73923349 -1.19487569 -0.00129680
C  1.35326329 0.00984651 0.02000388
C  0.66947925 1.24303470 -0.03907089
C  -0.67283350 1.23068302 -0.02519658
C  -1.37703068 -0.02619894 -0.00931431
H  -1.15873597 -2.25106745 0.05810017
H  1.23310757 -2.11696467 0.07116675
H  2.46717370 -0.06629748 0.17083706
H  1.29084793 2.14910912 -0.12670063
H  -1.30839693 2.09931502 -0.01580921
H  -2.54260654 -0.03061044 0.06045411
12
MD Step 26 Units = [Angstroms]
C  -0.71339933 -1.24533000 0.03499727
C  0.74038895 -1.19606928 -0.00094996
C  1.35648405 0.01152218 0.01952755
C  0.66840827 1.24182683 -0.03913824
C  -0.67410114 1.23195026 -0.02506947
C  -1.37524775 -0.02484782 -0.00860350
H  -1.16245210 -2.25089642 0.05410976
H  1.23121276 -2.12510759 0.08350629
H  2.46117164 -0.05838959 0.16996658
H  1.29267454 2.15081410 -0.12856932
H  -1.30378380 2.09305959 -0.01462269
H  -2.54900704 -0.03650626 0.06483023
12
MD Step 27 Units = [Angstroms]
C  -0.71588721 -1.24609923 0.03329606
C  0.74077496 -1.19722253 -0.00049877
C  1.36007291 0.01325021 0.01909580
C  0.66783359 1.24060343 -0.03923822
C  -0.67589506 1.23275535 -0.02496134
C  -1.37378324 -0.02357739 -0.00776700
H  -1.16687146 -2.24967299 0.05019395
H  1.23186005 -2.13655167 0.09573198
H  2.45444729 -0.04896539 0.16829189
H  1.29374526 2.15252696 -0.12999262
H  -1.30028041 2.08968686 -0.01360110
H  -2.55003052 -0.04188688 0.06857201
12
MD Step 28 Units = [Angstroms]
C  -0.71796697 -1.24661579 0.03147427
C  0.74042352 -1.19836773 0.00006655
C  1.36392984 0.01498613 0.01870124
C  0.66775818 1.23938964 -0.03937660
C  -0.67816140 1.23306153 -0.02487054
C  -1.37266726 -0.02240607 -0.00680605
H  -1.17199347 -2.24745973 0.04636086
H  1.23460211 -2.15036498 0.10774059
H  2.44779256 -0.03815949 0.16591801
H  1.29389870 2.15404645 -0.13094645
H  -1.29825459 2.08969788 -0.01273698
H  -2.54555787 -0.04664909 0.07165013
12
MD Step 29 Units = [Angstroms]
C  -0.71959486 -1.24687256 0.02953517
C  0.73938588 -1.19955335 0.00075831
C  1.36794697 0.01668609 0.01833537
C  0.66816812 1.23820467 -0.03955793
C  -0.68084861 1.23285699 -0.02479544
C  -1.37190550 -0.02134576 -0.00572437
H  -1.17781549 -2.24434673 0.04261696
H  1.23885690 -2.16537775 0.11938841
H  2.44205974 -0.02612917 0.16296150
H  1.29302138 2.15523031 -0.13141561
H  -1.29786846 2.09329345 -0.01202454
H  -2.53581336 -0.05070569 0.07405900
12
MD Step 30 Units = [Angstroms]
C  -0.72073112 -1.24686715 0.02748333
C  0.73772614 -1.20083251 0.00159025
C  1.37201551 0.01830781 0.01798950
C  0.66903341 1.23706098 -0.03978540
C  -0.68391088 1.23215784 -0.02473433
C  -1.37147877 -0.02040139 -0.00452828
H  -1.18432947 -2.24044325 0.03896689
H  1.24398657 -2.18033802 0.13050467
H  2.43808057 -0.01304728 0.15953879
H  1.29105511 2.15600474 -0.13139500
H  -1.29905498 2.10033786 -0.01146089
H  -2.52136658 -0.05398981 0.07581860
12
MD Step 31 Units = [Angstroms]
C  -0.72134121 -1.24660232 0.02532461
C  0.73551581 -1.20225300 0.00257605
C  1.37603393 0.01981161 0.01765582
C  0.67030959 1.23596357 -0.04006074
C  -0.68730867 1.23100717 -0.02468536
C  -1.37134211 -0.01957096 -0.00322678
H  -1.19151817 -2.23586816 0.03541335
H  1.24936532 -2.19404805 0.14090875
H  2.43657129 0.00090394 0.15575291
H  1.28799995 2.15636834 -0.13089013
H  -1.30153259 2.11037158 -0.01104647
H  -2.50313696 -0.05645923 0.07697618
12
MD Step 32 Units = [Angstroms]
C  -0.72139724 -1.24608621 0.02306607
C  0.73282977 -1.20385036 0.00372805
C  1.37991610 0.02116159 0.01732834
C  0.67194006 1.23490978 -0.04038420
C  -0.69100679 1.22947058 -0.02464664
C  -1.37142454 -0.01884585 -0.00183163
H  -1.19935119 -2.23073978 0.03195704
H  1.25442892 -2.20546406 0.15042678
H  2.43803689 0.01553646 0.15168096
H  1.28391303 2.15639059 -0.12991688
H  -1.30485362 2.12266996 -0.01078438
H  -2.48239059 -0.05810032 0.07760711
12
MD Step 33 Units = [Angstroms]
C  -0.72087942 -1.24533246 0.02071585
C  0.72974365 -1.20564402 0.00505617
C  1.38359816 0.02232702 0.01700369
C  0.67385907 1.23388944 -0.04075461
C  -0.69497095 1.22762925 -0.02461627
C  -1.37163060 -0.01821157 -0.00035719
H  -1.20778105 -2.22516636 0.02859666
H  1.25870641 -2.21375791 0.15890515
H  2.44269385 0.03065621 0.14736523
H  1.27890329 2.15620488 -0.12850064
H  -1.30847301 2.13633285 -0.01067899
H  -2.46071186 -0.05893087 0.07781356
12
MD Step 34 Units = [Angstroms]
C  -0.71977764 -1.24435999 0.01828309
C  0.72633208 -1.20763582 0.00656715
C  1.38704231 0.02328393 0.01668126
C  0.67599490 1.23288551 -0.04116950
C  -0.69916427 1.22557209 -0.02459247
C  -1.37184582 -0.01764892 0.00118001
H  -1.21673994 -2.21923792 0.02532898
H  1.26183797 -2.21834848 0.16622020
H  2.45042986 0.04605941 0.14281051
H  1.27312249 2.15599628 -0.12667467
H  -1.31182085 2.15038493 -0.01073436
H  -2.43992726 -0.05900009 0.07771924
12
MD Step 35 Units = [Angstroms]
C  -0.71809293 -1.24319237 0.01577780
C  0.72266763 -1.20981011 0.00826407
C  1.39023680 0.02401651 0.01636290
C  0.67827337 1.23187528 -0.04162531
C  -0.70354459 1.22338845 -0.02457368
C  -1.37194757 -0.01713556 0.00276221
H  -1.22613752 -2.21302073 0.02214892
H  1.26358445 -2.21891386 0.17228483
H  2.46081165 0.06152752 0.13798848
H  1.26675271 2.15598406 -0.12447802
H  -1.31436519 2.16386866 -0.01095265
H  -2.42196086 -0.05838438 0.07745860
12
MD Step 36 Units = [Angstroms]
C  -0.71583882 -1.24185694 0.01321067
C  0.71881992 -1.21213445 0.01014603
C  1.39319212 0.02451819 0.01605214
C  0.68062116 1.23083211 -0.04211760
C  -0.70806308 1.22116223 -0.02455858
C  -1.37182197 -0.01664802 0.00437172
H  -1.23586011 -2.20655484 0.01904968
H  1.26383294 -2.21539365 0.17705291
H  2.47313950 0.07682379 0.13284783
H  1.25999121 2.15639969 -0.12195300
H  -1.31565841 2.17591895 -0.01133314
H  -2.40861664 -0.05717825 0.07716052
12
MD Step 37 Units = [Angstroms]
C  -0.71304238 -1.24038349 0.01059300
C  0.71485472 -1.21456050 0.01220794
C  1.39593453 0.02479205 0.01575313
C  0.68296894 1.22972766 -0.04264131
C  -0.71266427 1.21896748 -0.02454610
C  -1.37138463 -0.01616385 0.00599262
H  -1.24577173 -2.19985516 0.01602295
H  1.26260103 -2.20798714 0.18052233
H  2.48653482 0.09169371 0.12732760
H  1.25303369 2.15746156 -0.11914255
H  -1.31536617 2.18581665 -0.01187161
H  -2.40131451 -0.05548186 0.07692882
12
MD Step 38 Units = [Angstroms]
C  -0.70974484 -1.23880282 0.00793646
C  0.71083306 -1.21702496 0.01444047
C  1.39849853 0.02485052 0.01546964
C  0.68525404 1.22853434 -0.04319108
C  -0.71728677 1.21686547 -0.02453543
C  -1.37060013 -0.01566359 0.00761218
H  -1.25571708 -2.19291590 0.01305902
H  1.26004053 -2.19714895 0.18273698
H  2.50004128 0.10587026 0.12137017
H  1.24605765 2.15934872 -0.11608779
H  -1.31328205 2.19302313 -0.01256028
H  -2.40084288 -0.05338885 0.07682513
12
MD Step 39 Units = [Angstroms]
C  -0.70600160 -1.23714516 0.00525303
C  0.70681039 -1.21945055 0.01683000
C  1.40091974 0.02471427 0.01520433
C  0.68742244 1.22722788 -0.04376143
C  -0.72186454 1.21490276 -0.02452594
C  -1.36949368 -0.01513206 0.00922163
H  -1.26552630 -2.18571791 0.01014702
H  1.25643910 -2.18357975 0.18378714
H  2.51272078 0.11908286 0.11493170
H  1.23920788 2.16217654 -0.11282610
H  -1.30933236 2.19720102 -0.01338798
H  -2.40720742 -0.05097866 0.07686006
12
MD Step 40 Units = [Angstroms]
C  -0.70188143 -1.23543879 0.00255476
C  0.70283612 -1.22174778 0.01935895
C  1.40322914 0.02441077 0.01495822
C  0.68942998 1.22578956 -0.04434699
C  -0.72632817 1.21310999 -0.02451718
C  -1.36815047 -0.01455881 0.01081601
H  -1.27502131 -2.17823804 0.00727506
H  1.25221604 -2.16820560 0.18380718
H  2.52373212 0.13106821 0.10798884
H  1.23258589 2.16597767 -0.10939007
H  -1.30357491 2.19822583 -0.01434062
H  -2.41963252 -0.04831570 0.07699624
12
MD Step 41 Units = [Angstroms]
C  -0.69746507 -1.23370884 -0.00014633
C  0.69895386 -1.22381801 0.02200633
C  1.40544914 0.02397229 0.01473061
C  0.69124276 1.22420780 -0.04494256
C  -0.73060596 1.21150106 -0.02450880
C  -1.36670257 -0.01393786 0.01239305
H  -1.28402335 -2.17045938 0.00443037
H  1.24790645 -2.15213699 0.18296895
H  2.53238794 0.14158114 0.10054160
H  1.22624501 2.17069135 -0.10580731
H  -1.29619413 2.19619147 -0.01540180
H  -2.43671476 -0.04545432 0.07716179
12
MD Step 42 Units = [Angstroms]
C  -0.69284299 -1.23197632 -0.00283841
C  0.69520297 -1.22555872 0.02474887
C  1.40759105 0.02343384 0.01451913
C  0.69283668 1.22247908 -0.04554313
C  -0.73462482 1.21007275 -0.02450051
C  -1.36530831 -0.01326697 0.01395181
H  -1.29236092 -2.16238144 0.00159949
H  1.24412718 -2.13659838 0.18146913
H  2.53819129 0.15040413 0.09261328
H  1.22019158 2.17616307 -0.10210131
H  -1.28749317 2.19141040 -0.01655347
H  -2.45667135 -0.04244579 0.07726872
12
MD Step 43 Units = [Angstroms]
C  -0.68811273 -1.23025750 -0.00550994
C  0.69162178 -1.22687140 0.02756264
C  1.40965386 0.02283098 0.01432000
C  0.69419644 1.22060797 -0.04614388
C  -0.73831127 1.20880490 -0.02449209
C  -1.36413069 -0.01254690 0.01549131
H  -1.29987782 -2.15402900 -0.00123165
H  1.24151975 -2.12282337 0.17951012
H  2.54085635 0.15735513 0.08424836
H  1.21439191 2.18215473 -0.09829293
H  -1.27788215 2.18440596 -0.01777677
H  -2.47760382 -0.03934378 0.07723022
12
MD Step 44 Units = [Angstroms]
C  -0.68337571 -1.22856357 -0.00814974
C  0.68825230 -1.22767166 0.03042502
C  1.41162379 0.02219771 0.01412841
C  0.69531386 1.21860632 -0.04674007
C  -0.74159259 1.20766158 -0.02448323
C  -1.36331983 -0.01178077 0.01700956
H  -1.30644046 -2.14545911 -0.00407756
H  1.24067127 -2.11192117 0.17727593
H  2.54031803 0.16229369 0.07550904
H  1.20878361 2.18836407 -0.09440227
H  -1.26786016 2.17589223 -0.01905301
H  -2.49771446 -0.03620674 0.07697287
12
MD Step 45 Units = [Angstroms]
C  -0.67873398 -1.22690051 -0.01074703
C  0.68514567 -1.22790004 0.03331682
C  1.41347433 0.02156447 0.01393889
C  0.69618616 1.21649208 -0.04732693
C  -0.74439858 1.20659368 -0.02447357
C  -1.36300170 -0.01097364 0.01850318
H  -1.31194399 -2.13676540 -0.00695311
H  1.24202403 -2.10473420 0.17490795
H  2.53673381 0.16512537 0.06647101
H  1.20328937 2.19445048 -0.09045052
H  -1.25798824 2.16673497 -0.02036461
H  -2.51544955 -0.03309737 0.07644307
12
MD Step 46 Units = [Angstroms]
C  -0.67428674 -1.22526931 -0.01329145
C  0.68236661 -1.22753097 0.03622369
C  1.41516677 0.02095646 0.01374574
C  0.69681408 1.21428755 -0.04789963
C  -0.74666419 1.20554366 -0.02446252
C  -1.36327245 -0.01013215 0.01996725
H  -1.31631680 -2.12807952 -0.00987336
H  1.24579367 -2.10171879 0.17248683
H  2.53047882 0.16580478 0.05721869
H  1.19783120 2.20006378 -0.08646145
H  -1.24885117 2.15788802 -0.02169608
H  -2.52957448 -0.03008060 0.07560876
12
MD Step 47 Units = [Angstroms]
C  -0.67012714 -1.22366633 -0.01577303
C  0.67999495 -1.22657721 0.03913665
C  1.41665135 0.02039246 0.01354340
C  0.69720020 1.21201777 -0.04845323
C  -0.74833291 1.20445239 -0.02444928
C  -1.36419672 -0.00926423 0.02139547
H  -1.31952286 -2.11956963 -0.01285344
H  1.25191950 -2.10288197 0.17002649
H  2.52213247 0.16433666 0.04783998
H  1.19234340 2.20487270 -0.08246238
H  -1.24100818 2.15030350 -0.02303480
H  -2.53920153 -0.02722112 0.07445843
12
MD Step 48 Units = [Angstroms]
C  -0.66633916 -1.22208394 -0.01818210
C  0.67812301 -1.22508834 0.04205139
C  1.41786937 0.01988425 0.01332694
C  0.69734759 1.20970886 -0.04898266
C  -0.74936090 1.20326774 -0.02443275
C  -1.36580780 -0.00837877 0.02278033
H  -1.32156183 -2.11143564 -0.01590838
H  1.26006325 -2.10779344 0.16748234
H  2.51245275 0.16077439 0.03842076
H  1.18678322 2.20859049 -0.07848455
H  -1.23493643 2.14482249 -0.02437126
H  -2.54379280 -0.02458128 0.07299886
12
MD Step 49 Units = [Angstroms]
C  -0.66299491 -1.22051127 -0.02050926
C  0.67684880 -1.22314370 0.04496665
C  1.41875671 0.01943668 0.01309235
C  0.69725883 1.20738658 -0.04948278
C  -0.74972102 1.20195354 -0.02441155
C  -1.36810841 -0.00748537 0.02411333
H  -1.32246644 -2.10390163 -0.01905299
H  1.26965725 -2.11566798 0.16477052
H  2.50233304 0.15521529 0.02903947
H  1.18113865 2.21099583 -0.07456293
H  -1.23097583 2.14206253 -0.02569877
H  -2.54315563 -0.02221952 0.07125277
12
MD Step 50 Units = [Angstroms]
C  -0.66015234 -1.21893511 -0.02274522
C  0.67626653 -1.22084191 0.04788216
C  1.41924907 0.01904857 0.01283693
C  0.69693551 1.20507514 -0.04994848
C  -0.74940603 1.20049686 -0.02438410
C  -1.37107107 -0.00659406 0.02538516
H  -1.32229737 -2.09720533 -0.02230164
H  1.27998673 -2.12549235 0.16179182
H  2.49273688 0.14779210 0.01976237
H  1.17543324 2.21194819 -0.07073555
H  -1.22928627 2.14232626 -0.02701250
H  -2.53744061 -0.02018920 0.06925655
12
MD Step 51 Units = [Angstroms]
C  -0.65785360 -1.21734097 -0.02488070
C  0.67645658 -1.21828973 0.05079683
C  1.41928908 0.01871407 0.01255937
C  0.69637820 1.20279635 -0.05037473
C  -0.74843010 1.19891171 -0.02434867
C  -1.37463780 -0.00571513 0.02658582
H  -1.32113566 -2.09158532 -0.02566804
H  1.29028327 -2.13616277 0.15845350
H  2.48461021 0.13866127 0.01064057
H  1.16972804 2.21139732 -0.06704251
H  -1.22982783 2.14555461 -0.02830812
H  -2.52714576 -0.01853765 0.06705836
12
MD Step 52 Units = [Angstroms]
C  -0.65612407 -1.21571418 -0.02690629
C  0.67747697 -1.21559263 0.05370734
C  1.41883459 0.01842436 0.01225973
C  0.69558678 1.20056892 -0.05075679
C  -0.74682823 1.19723809 -0.02430351
C  -1.37871956 -0.00485891 0.02770477
H  -1.31907311 -2.08726621 -0.02916496
H  1.29980882 -2.14660512 0.15468491
H  2.47877716 0.12799011 0.00170979
H  1.16412101 2.20938678 -0.06352485
H  -1.23236918 2.15133800 -0.02958042
H  -2.51312372 -0.01730535 0.06471613
12
MD Step 53 Units = [Angstroms]
C  -0.65497238 -1.21404106 -0.02881237
C  0.67935734 -1.21284781 0.05660746
C  1.41786703 0.01816926 0.01193909
C  0.69456121 1.19840827 -0.05109027
C  -0.74465372 1.19553655 -0.02424688
C  -1.38319610 -0.00403578 0.02873113
H  -1.31620161 -2.08444293 -0.03280386
H  1.30791866 -2.15586395 0.15044583
H  2.47583467 0.11594590 -0.00700641
H  1.15874394 2.20605142 -0.06022324
H  -1.23652186 2.15898204 -0.03082240
H  -2.49658177 -0.01652516 0.06229518
12
MD Step 54 Units = [Angstroms]
C  -0.65439123 -1.21231005 -0.03058902
C  0.68209596 -1.21014010 0.05948778
C  1.41639808 0.01793828 0.01159897
C  0.69330250 1.19632661 -0.05137132
C  -0.74197442 1.19387996 -0.02417704
C  -1.38791784 -0.00325615 0.02965397
H  -1.31260238 -2.08326508 -0.03659439
H  1.31410137 -2.16315923 0.14572874
H  2.47606703 0.10269053 -0.01549048
H  1.15375702 2.20160875 -0.05717684
H  -1.24179160 2.16760926 -0.03202494
H  -2.47905717 -0.01622149 0.05986483
12
MD Step 55 Units = [Angstroms]
C  -0.65435912 -1.21051276 -0.03222602
C  0.68565937 -1.20753963 0.06233588
C  1.41447269 0.01772108 0.01124067
C  0.69181379 1.19433347 -0.05159673
C  -0.73886855 1.19234445 -0.02409228
C  -1.39271170 -0.00253055 0.03046265
H  -1.30833657 -2.08382288 -0.04054389
H  1.31799981 -2.16791781 0.14055702
H  2.47940175 0.08838240 -0.02372315
H  1.14934099 2.19634411 -0.05442216
H  -1.24763528 2.17627211 -0.03317717
H  -2.46234399 -0.01640963 0.05749374
12
MD Step 56 Units = [Angstroms]
C  -0.65484275 -1.20864478 -0.03371291
C  0.68998392 -1.20510078 0.06513673
C  1.41216776 0.01750721 0.01086469
C  0.69010153 1.19243667 -0.05176401
C  -0.73542080 1.19100131 -0.02399079
C  -1.39739287 -0.00186982 0.03114736
H  -1.30343847 -2.08613608 -0.04465664
H  1.31941936 -2.16978862 0.13498111
H  2.48541924 0.07318462 -0.03167648
H  1.14568710 2.19058978 -0.05199229
H  -1.25351341 2.18405545 -0.03426723
H  -2.44834944 -0.01709478 0.05524395
12
MD Step 57 Units = [Angstroms]
C  -0.65579978 -1.20670615 -0.03503917
C  0.69497882 -1.20286162 0.06787315
C  1.40958631 0.01728556 0.01047034
C  0.68817668 1.19064369 -0.05187148
C  -0.73171910 1.18991092 -0.02387068
C  -1.40178306 -0.00128542 0.03169972
H  -1.29791253 -2.09014744 -0.04893323
H  1.31832889 -2.16864956 0.12907363
H  2.49341435 0.05727598 -0.03930973
H  1.14298479 2.18469870 -0.04991629
H  -1.25893234 2.19015620 -0.03528327
H  -2.43887265 -0.01827041 0.05316437
12
MD Step 58 Units = [Angstroms]
C  -0.65718180 -1.20470152 -0.03619443
C  0.70052985 -1.20084337 0.07052644
C  1.40684863 0.01704390 0.01005574
C  0.68605576 1.18896321 -0.05191824
C  -0.72785211 1.18911884 -0.02372990
C  -1.40573319 -0.00078983 0.03211325
H  -1.29173476 -2.09572173 -0.05336981
H  1.31485792 -2.16461061 0.12292416
H  2.50249410 0.04086004 -0.04656916
H  1.14140810 2.17901455 -0.04821894
H  -1.26347467 2.19393717 -0.03621442
H  -2.43533228 -0.01991548 0.05128541
12
MD Step 59 Units = [Angstroms]
C  -0.65893694 -1.20263990 -0.03716869
C  0.70650360 -1.19904991 0.07307701
C  1.40408229 0.01676879 0.00961806
C  0.68376183 1.18740674 -0.05190412
C  -0.72390710 1.18865373 -0.02356624
C  -1.40914518 -0.00039702 0.03238364
H  -1.28485828 -2.10265081 -0.05795752
H  1.30929091 -2.15801432 0.11663381
H  2.51168919 0.02416933 -0.05339122
H  1.14110131 2.17384077 -0.04692076
H  -1.26681940 2.19495872 -0.03705159
H  -2.43850763 -0.02199037 0.04961619
12
MD Step 60 Units = [Angstroms]
C  -0.66101206 -1.20053419 -0.03795270
C  0.71275192 -1.19746748 0.07550510
C  1.40141257 0.01644601 0.00915394
C  0.68132521 1.18598988 -0.05182964
C  -0.71996806 1.18852665 -0.02337734
C  -1.41198579 -0.00012275 0.03250881
H  -1.27722262 -2.11066468 -0.06268211
H  1.30205728 -2.14943103 0.11030936
H  2.52005829 0.00746325 -0.05970813
H  1.14216565 2.16941214 -0.04603814
H  -1.26875448 2.19299455 -0.03778821
H  -2.44837756 -0.02443303 0.04814564
12
MD Step 61 Units = [Angstroms]
C  -0.66335432 -1.19840051 -0.03853819
C  0.71911665 -1.19606527 0.07779152
C  1.39895468 0.01606141 0.00866001
C  0.67878385 1.18473305 -0.05169585
C  -0.71611378 1.18873110 -0.02316072
C  -1.41428757 0.00001541 0.03248859
H  -1.26876511 -2.11944734 -0.06752386
H  1.29371355 -2.13964245 0.10405704
H  2.52677219 -0.00897892 -0.06545418
H  1.14464826 2.16587279 -0.04558363
H  -1.26918448 2.18803730 -0.03842070
H  -2.46411822 -0.02715728 0.04684681
12
MD Step 62 Units = [Angstroms]
C  -0.66591192 -1.19625738 -0.03891819
C  0.72543484 -1.19479748 0.07991841
C  1.39680795 0.01560189 0.00813329
C  0.67618320 1.18366148 -0.05150429
C  -0.71241581 1.18924352 -0.02291382
C  -1.41613657 -0.00000129 0.03232434
H  -1.25943316 -2.12865617 -0.07245781
H  1.28491308 -2.12960499 0.09797588
H  2.53117311 -0.02486813 -0.07057158
H  1.14853533 2.16326394 -0.04556603
H  -1.26813515 2.18029784 -0.03894896
H  -2.48426093 -0.03005548 0.04568292
12
MD Step 63 Units = [Angstroms]
C  -0.66863441 -1.19412499 -0.03908720
C  0.73154482 -1.19360796 0.08186995
C  1.39505204 0.01505659 0.00757162
C  0.67357551 1.18280423 -0.05125684
C  -0.70893638 1.19002407 -0.02263403
C  -1.41765189 -0.00019167 0.03201851
H  -1.24919586 -2.13794296 -0.07745439
H  1.27635923 -2.12038374 0.09215163
H  2.53281152 -0.03991674 -0.07501530
H  1.15375019 2.16152353 -0.04599038
H  -1.26575500 2.17019885 -0.03937667
H  -2.50695055 -0.03300555 0.04461322
12
MD Step 64 Units = [Angstroms]
C  -0.67147242 -1.19202437 -0.03904137
C  0.73729300 -1.19243757 0.08363290
C  1.39374449 0.01441776 0.00697388
C  0.67101857 1.18219252 -0.05095567
C  -0.70572665 1.19101781 -0.02231869
C  -1.41896386 -0.00057310 0.03157437
H  -1.23805364 -2.14697470 -0.08248034
H  1.26874114 -2.11305243 0.08665218
H  2.53146567 -0.05384943 -0.07875673
H  1.16015706 2.16049747 -0.04685772
H  -1.26231264 2.15836113 -0.03971145
H  -2.53022033 -0.03588080 0.04359746
12
MD Step 65 Units = [Angstroms]
C  -0.67437714 -1.18997668 -0.03877856
C  0.74254123 -1.19123412 0.08519682
C  1.39291953 0.01368156 0.00634022
C  0.66857382 1.18185743 -0.05060322
C  -0.70282537 1.19215665 -0.02196520
C  -1.42019622 -0.00115992 0.03099578
H  -1.22604544 -2.15545274 -0.08749990
H  1.26265736 -2.10856489 0.08152611
H  2.52714913 -0.06641323 -0.08178619
H  1.16756979 2.15996077 -0.04816469
H  -1.25818703 2.14557793 -0.03996482
H  -2.55221690 -0.03855973 0.04259866
12
MD Step 66 Units = [Angstroms]
C  -0.67729979 -1.18800245 -0.03829834
C  0.74717363 -1.18996311 0.08655397
C  1.39258755 0.01284858 0.00567215
C  0.66630404 1.18182740 -0.05020215
C  -0.70025872 1.19336246 -0.02157100
C  -1.42145461 -0.00196200 0.03028711
H  -1.21325286 -2.16312900 -0.09247623
H  1.25854014 -2.10761742 0.07680506
H  2.52011011 -0.07738646 -0.08411443
H  1.17576467 2.15964517 -0.04990318
H  -1.25384700 2.13277202 -0.04015171
H  -2.57134793 -0.04093387 0.04158434
12
MD Step 67 Units = [Angstroms]
C  -0.68019121 -1.18612101 -0.03760192
C  0.75110176 -1.18861678 0.08769885
C  1.39273522 0.01192407 0.00497267
C  0.66427073 1.18212581 -0.04975534
C  -0.69804145 1.19455195 -0.02113373
C  -1.42282080 -0.00298362 0.02945312
H  -1.19980128 -2.16981859 -0.09737279
H  1.25659778 -2.11053338 0.07250959
H  2.51082341 -0.08658641 -0.08577322
H  1.18449567 2.15926915 -0.05206000
H  -1.24981626 2.12093064 -0.04028943
H  -2.58635804 -0.04291271 0.04052696
12
MD Step 68 Units = [Angstroms]
C  -0.68300159 -1.18434995 -0.03669209
C  0.75426693 -1.18721866 0.08862757
C  1.39332655 0.01091788 0.00424624
C  0.66253139 1.18276886 -0.04926587
C  -0.69617955 1.19564324 -0.02065135
C  -1.42435076 -0.00422269 0.02849898
H  -1.18585827 -2.17540817 -0.10215477
H  1.25679076 -2.11720232 0.06865656
H  2.49997328 -0.09387540 -0.08681469
H  1.19351042 2.15856712 -0.05461691
H  -1.24662293 2.11101759 -0.04039607
H  -2.59635529 -0.04442610 0.03940374
12
MD Step 69 Units = [Angstroms]
C  -0.68568073 -1.18270473 -0.03557305
C  0.75663911 -1.18582212 0.08933729
C  1.39430487 0.00984412 0.00349871
C  0.66113690 1.18376403 -0.04873701
C  -0.69467423 1.19656390 -0.02012232
C  -1.42607463 -0.00567024 0.02743024
H  -1.17162946 -2.17985989 -0.10679039
H  1.25884863 -2.12709284 0.06526531
H  2.48842294 -0.09916454 -0.08730919
H  1.20256571 2.15731477 -0.05755078
H  -1.24473677 2.10386925 -0.04048814
H  -2.60081194 -0.04542479 0.03819635
12
MD Step 70 Units = [Angstroms]
C  -0.68817851 -1.18119850 -0.03425035
C  0.75821328 -1.18450313 0.08982590
C  1.39559655 0.00872031 0.00273711
C  0.66012910 1.18510904 -0.04817216
C  -0.69352637 1.19725914 -0.01954583
C  -1.42799724 -0.00731031 0.02625272
H  -1.15735226 -2.18321056 -0.11125185
H  1.26232145 -2.13933503 0.06236067
H  2.47716515 -0.10241396 -0.08734105
H  1.21144119 2.15534916 -0.06083426
H  -1.24450352 2.10008984 -0.04057803
H  -2.59955788 -0.04588009 0.03689062
12
MD Step 71 Units = [Angstroms]
C  -0.69044581 -1.17984214 -0.03273077
C  0.75900421 -1.18334937 0.09009195
C  1.39711657 0.00756621 0.00196922
C  0.65953886 1.18679133 -0.04757485
C  -0.69274033 1.19769841 -0.01892202
C  -1.43009818 -0.00912006 0.02497254
H  -1.14328775 -2.18556596 -0.11551599
H  1.26665080 -2.15284747 0.05997207
H  2.46724924 -0.10362887 -0.08700205
H  1.21995083 2.15258287 -0.06443658
H  -1.24609036 2.09996795 -0.04067153
H  -2.59277720 -0.04578309 0.03547631
12
MD Step 72 Units = [Angstroms]
C  -0.69243565 -1.17864455 -0.03102220
C  0.75904124 -1.18244849 0.09013483
C  1.39877611 0.00640226 0.00120306
C  0.65938465 1.18878806 -0.04694863
C  -0.69232589 1.19787875 -0.01825210
C  -1.43233131 -0.01107026 0.02359603
H  -1.12971122 -2.18709032 -0.11956438
H  1.27124245 -2.16647566 0.05813019
H  2.45968440 -0.10285100 -0.08638256
H  1.22795146 2.14901192 -0.06832466
H  -1.24945662 2.10343514 -0.04076619
H  -2.58101122 -0.04514373 0.03394696
12
MD Step 73 Units = [Angstroms]
C  -0.69410458 -1.17761325 -0.02913365
C  0.75836399 -1.18187788 0.08995499
C  1.40049158 0.00524789 0.00044611
C  0.65967172 1.19106636 -0.04629705
C  -0.69229775 1.19782405 -0.01753844
C  -1.43462399 -0.01312612 0.02212970
H  -1.11690166 -2.18799109 -0.12338284
H  1.27552769 -2.17911396 0.05686243
H  2.45532656 -0.10014691 -0.08556135
H  1.23534827 2.14471792 -0.07246432
H  -1.25435820 2.11007811 -0.04085096
H  -2.56516425 -0.04398963 0.03229983
12
MD Step 74 Units = [Angstroms]
C  -0.69541419 -1.17675515 -0.02707521
C  0.75701929 -1.18169727 0.08955412
C  1.40219377 0.00412008 -0.00029531
C  0.66039199 1.19358409 -0.04562353
C  -0.69267256 1.19758031 -0.01678447
C  -1.43687695 -0.01524837 0.02058020
H  -1.10513087 -2.18849987 -0.12696027
H  1.27900754 -2.18979669 0.05618904
H  2.45476568 -0.09559613 -0.08459592
H  1.24209692 2.13986426 -0.07682156
H  -1.26038441 2.11920083 -0.04090715
H  -2.54650101 -0.04236424 0.03053566
12
MD Step 75 Units = [Angstroms]
C  -0.69633269 -1.17607760 -0.02485808
C  0.75505921 -1.18194429 0.08893529
C  1.40383530 0.00303249 -0.00101662
C  0.66152459 1.19629081 -0.04493131
C  -0.69346459 1.19720830 -0.01599451
C  -1.43896625 -0.01739470 0.01895431
H  -1.09465263 -2.18885058 -0.13028684
H  1.28128030 -2.19775661 0.05612033
H  2.45823684 -0.08928279 -0.08351549
H  1.24820185 2.13468663 -0.08136369
H  -1.26701669 2.12992001 -0.04091060
H  -2.52661723 -0.04032381 0.02865823
12
MD Step 76 Units = [Angstroms]
C  -0.69683641 -1.17558935 -0.02249459
C  0.75253973 -1.18263252 0.08810303
C  1.40539452 0.00199557 -0.00171517
C  0.66303720 1.19912921 -0.04422339
C  -0.69468118 1.19677544 -0.01517359
C  -1.44074941 -0.01952133 0.01725898
H  -1.08569288 -2.18925686 -0.13335167
H  1.28205662 -2.20245707 0.05665533
H  2.46557737 -0.08129393 -0.08231881
H  1.25371073 2.12947780 -0.08606025
H  -1.27369479 2.14127126 -0.04083428
H  -2.50735907 -0.03793282 0.02667343
12
MD Step 77 Units = [Angstroms]
C  -0.69691131 -1.17530148 -0.01999833
C  0.74951972 -1.18375138 0.08706329
C  1.40687484 0.00101755 -0.00239003
C  0.66488795 1.20203692 -0.04350249
C  -0.69631906 1.19634831 -0.01432720
C  -1.44207740 -0.02158466 0.01550138
H  -1.07844119 -2.18989096 -0.13614027
H  1.28116670 -2.20360673 0.05778156
H  2.47624263 -0.07172477 -0.08097738
H  1.25870462 2.12456698 -0.09088346
H  -1.27987734 2.15230649 -0.04065102
H  -2.49066994 -0.03525828 0.02458756
12
MD Step 78 Units = [Angstroms]
C  -0.69655420 -1.17522788 -0.01738413
C  0.74605974 -1.18526702 0.08582348
C  1.40829990 0.00010605 -0.00304149
C  0.66702788 1.20494882 -0.04277105
C  -0.69836223 1.19598666 -0.01346104
C  -1.44281296 -0.02354275 0.01368900
H  -1.07304440 -2.19086652 -0.13863200
H  1.27856379 -2.20116427 0.05947569
H  2.48937668 -0.06068862 -0.07944322
H  1.26328422 2.12029430 -0.09580806
H  -1.28508905 2.16217092 -0.04033571
H  -2.47836090 -0.03236445 0.02240519
12
MD Step 79 Units = [Angstroms]
C  -0.69577375 -1.17538540 -0.01466808
C  0.74222084 -1.18712382 0.08439238
C  1.40970580 -0.00073007 -0.00367040
C  0.66940383 1.20779956 -0.04203137
C  -0.70078129 1.19573927 -0.01258093
C  -1.44285266 -0.02535634 0.01182982
H  -1.06960249 -2.19222758 -0.14079809
H  1.27432590 -2.19533766 0.06170494
H  2.50392009 -0.04832707 -0.07765893
H  1.26755309 2.11698217 -0.10081048
H  -1.28895271 2.17015691 -0.03986704
H  -2.47183498 -0.02931022 0.02012676
12
MD Step 80 Units = [Angstroms]
C  -0.69459100 -1.17579333 -0.01186754
C  0.73806312 -1.18924633 0.08278004
C  1.41113253 -0.00147926 -0.00427753
C  0.67196144 1.21052644 -0.04128566
C  -0.70353408 1.19564117 -0.01169261
C  -1.44214721 -0.02698938 0.00993235
H  -1.06816695 -2.19394508 -0.14260041
H  1.26865616 -2.18657876 0.06442905
H  2.51873047 -0.03481676 -0.07556783
H  1.27159936 2.11490576 -0.10586721
H  -1.29120768 2.17573741 -0.03922857
H  -2.47183406 -0.02615113 0.01774700
12
MD Step 81 Units = [Angstroms]
C  -0.69303944 -1.17647240 -0.00900090
C  0.73364448 -1.19154173 0.08099765
C  1.41261624 -0.00212635 -0.00486310
C  0.67464800 1.21307203 -0.04053626
C  -0.70656699 1.19571214 -0.01080164
C  -1.44071311 -0.02840902 0.00800559
H  -1.06874143 -2.19592125 -0.14399138
H  1.26187999 -2.17557025 0.06760304
H  2.53269388 -0.02037059 -0.07312205
H  1.27547825 2.11426594 -0.11095263
H  -1.29171872 2.17858482 -0.03840942
H  -2.47829223 -0.02294529 0.01525488
12
MD Step 82 Units = [Angstroms]
C  -0.69116452 -1.17744340 -0.00608746
C  0.72901977 -1.19390324 0.07905728
C  1.41418339 -0.00265233 -0.00542648
C  0.67741487 1.21538660 -0.03978588
C  -0.70981656 1.19595586 -0.00991335
C  -1.43863097 -0.02958543 0.00605882
H  -1.07128442 -2.19800101 -0.14491498
H  1.25443551 -2.16319895 0.07118052
H  2.54481395 -0.00523351 -0.07028794
H  1.27919815 2.11516821 -0.11603659
H  -1.29047835 2.17858016 -0.03740461
H  -2.49035140 -0.01976029 0.01263549
12
MD Step 83 Units = [Angstroms]
C  -0.68902263 -1.17872543 -0.00314706
C  0.72424083 -1.19621501 0.07697157
C  1.41584697 -0.00303479 -0.00596615
C  0.68021915 1.21742983 -0.03903772
C  -0.71321113 1.19635963 -0.00903276
C  -1.43603118 -0.03049195 0.00410131
H  -1.07571366 -2.19998877 -0.14530883
H  1.24685245 -2.15050745 0.07511755
H  2.55427474 0.01032547 -0.06704875
H  1.28271261 2.11761080 -0.12108223
H  -1.28760524 2.17581628 -0.03621514
H  -2.50653291 -0.01667676 0.00987326
12
MD Step 84 Units = [Angstroms]
C  -0.68667958 -1.18033412 -0.00019976
C  0.71935783 -1.19835911 0.07475340
C  1.41760464 -0.00324886 -0.00647978
C  0.68302457 1.21917175 -0.03829568
C  -0.71667237 1.19689456 -0.00816454
C  -1.43307205 -0.03110562 0.00214199
H  -1.08191174 -2.20166821 -0.14510701
H  1.23971491 -2.13861749 0.07937619
H  2.56048012 0.02602332 -0.06340513
H  1.28591987 2.12148367 -0.12604444
H  -1.28333904 2.17059559 -0.03484793
H  -2.52500081 -0.01378666 0.00695545
12
MD Step 85 Units = [Angstroms]
C  -0.68420867 -1.18227986 0.00273456
C  0.71442207 -1.20022456 0.07241564
C  1.41943809 -0.00326855 -0.00696432
C  0.68580140 1.22059287 -0.03756433
C  -0.72011681 1.19751639 -0.00731296
C  -1.42991772 -0.03140811 0.00018926
H  -1.08973269 -2.20282285 -0.14424335
H  1.23360602 -2.12862349 0.08392671
H  2.56307564 0.04157365 -0.05937419
H  1.28867004 2.12657876 -0.13086950
H  -1.27803101 2.16342062 -0.03331540
H  -2.54383267 -0.01118703 0.00387475
12
MD Step 86 Units = [Angstroms]
C  -0.68168852 -1.18456636 0.00563660
C  0.70948991 -1.20171782 0.06997101
C  1.42131317 -0.00306839 -0.00741624
C  0.68852561 1.22168359 -0.03684893
C  -0.72345766 1.19816725 -0.00648194
C  -1.42672050 -0.03138671 -0.00174919
H  -1.09900913 -2.20325532 -0.14265479
H  1.22903842 -2.12146550 0.08874712
H  2.56195865 0.05669701 -0.05498751
H  1.29077891 2.13260974 -0.13549595
H  -1.27212791 2.15497277 -0.03163469
H  -2.56123591 -0.00897186 0.00063061
12
MD Step 87 Units = [Angstroms]
C  -0.67920060 -1.18718945 0.00848802
C  0.70462705 -1.20277301 0.06743231
C  1.42318048 -0.00262522 -0.00783164
C  0.69117744 1.22244303 -0.03615520
C  -0.72660711 1.19877886 -0.00567503
C  -1.42360994 -0.03103528 -0.00366636
H  -1.10955965 -2.20280396 -0.14028450
H  1.22638157 -2.11780266 0.09381898
H  2.55728063 0.07113072 -0.05028872
H  1.29204599 2.13923829 -0.13985667
H  -1.26614632 2.14607370 -0.02982642
H  -2.57568620 -0.00722481 -0.00277086
12
MD Step 88 Units = [Angstroms]
C  -0.67682668 -1.19013643 0.01127179
C  0.69991147 -1.20335945 0.06481279
C  1.42497634 -0.00191998 -0.00820649
C  0.69373960 1.22287771 -0.03548913
C  -0.72947941 1.19927766 -0.00489558
C  -1.42068756 -0.03035472 -0.00555588
H  -1.12119621 -2.20135580 -0.13708464
H  1.22580299 -2.11791659 0.09911976
H  2.54944293 0.08463793 -0.04533056
H  1.29227418 2.14610338 -0.14388189
H  -1.26063506 2.13762403 -0.02791277
H  -2.58599660 -0.00601407 -0.00631778
12
MD Step 89 Units = [Angstroms]
C  -0.67464617 -1.19338576 0.01397245
C  0.69543387 -1.20348451 0.06212675
C  1.42662427 -0.00093935 -0.00853683
C  0.69619548 1.22300003 -0.03485669
C  -0.73199478 1.19959186 -0.00414679
C  -1.41802554 -0.02935325 -0.00741192
H  -1.13373117 -2.19885550 -0.13301843
H  1.22724000 -2.12167140 0.10461378
H  2.53908390 0.09701579 -0.04017149
H  1.29128860 2.15285021 -0.14750269
H  -1.25612534 2.13051831 -0.02591521
H  -2.59134000 -0.00538959 -0.00999393
12
MD Step 90 Units = [Angstroms]
C  -0.67273331 -1.19690731 0.01657636
C  0.69129468 -1.20319079 0.05938997
C  1.42803734 0.00032288 -0.00881894
C  0.69852748 1.22282695 -0.03426352
C  -0.73408391 1.19966005 -0.00343193
C  -1.41566724 -0.02804630 -0.00922910
H  -1.14698365 -2.19531012 -0.12806156
H  1.23041078 -2.12854193 0.11024463
H  2.52705276 0.10810190 -0.03487204
H  1.28895269 2.15915630 -0.15065459
H  -1.25307285 2.12554250 -0.02385202
H  -2.59124850 -0.00538217 -0.01378034
12
MD Step 91 Units = [Angstroms]
C  -0.67115451 -1.20066288 0.01907183
C  0.68759814 -1.20254855 0.05661980
C  1.42912215 0.00186498 -0.00904968
C  0.70071570 1.22237876 -0.03371470
C  -0.73569235 1.19943991 -0.00275445
C  -1.41362827 -0.02645620 -0.01100234
H  -1.16078492 -2.19078979 -0.12220293
H  1.23486152 -2.13770127 0.11593183
H  2.51436399 0.11777788 -0.02949073
H  1.28518054 2.16475302 -0.15328086
H  -1.25180009 2.12326915 -0.02173622
H  -2.58560659 -0.00600371 -0.01765696
12
MD Step 92 Units = [Angstroms]
C  -0.66996570 -1.20460712 0.02144919
C  0.68444445 -1.20164545 0.05383490
C  1.42978459 0.00367709 -0.00922667
C  0.70273717 1.22167813 -0.03321445
C  -0.73678391 1.19891545 -0.00211798
C  -1.41189714 -0.02461162 -0.01272685
H  -1.17498228 -2.18542431 -0.11544452
H  1.24003550 -2.14814201 0.12157269
H  2.50212635 0.12596840 -0.02408017
H  1.27994503 2.16944189 -0.15533530
H  -1.25245119 2.12397269 -0.01957469
H  -2.57464793 -0.00724812 -0.02160442
12
MD Step 93 Units = [Angstroms]
C  -0.66921003 -1.20868881 0.02370075
C  0.68192186 -1.20057606 0.05105468
C  1.42993777 0.00574178 -0.00934860
C  0.70456551 1.22074931 -0.03276602
C  -0.73734230 1.19810064 -0.00152634
C  -1.41043543 -0.02254700 -0.01439794
H  -1.18944131 -2.17939595 -0.10780070
H  1.24534674 -2.15880177 0.12704873
H  2.49144508 0.13263461 -0.01868391
H  1.27328188 2.17310539 -0.15678422
H  -1.25497027 2.12758606 -0.01736851
H  -2.55895795 -0.00909284 -0.02560596
12
MD Step 94 Units = [Angstroms]
C  -0.66891600 -1.21285230 0.02582070
C  0.68009984 -1.19943302 0.04829852
C  1.42951153 0.00803519 -0.00941527
C  0.70617130 1.21961749 -0.03237152
C  -0.73737045 1.19703859 -0.00098330
C  -1.40917767 -0.02030169 -0.01601101
H  -1.20404589 -2.17292869 -0.09929669
H  1.25024399 -2.16867033 0.13223437
H  2.48330350 0.13776208 -0.01333485
H  1.26528986 2.17571239 -0.15760778
H  -1.25910937 2.13371125 -0.01511486
H  -2.53947798 -0.01150097 -0.02964965
12
MD Step 95 Units = [Angstroms]
C  -0.66909631 -1.21703916 0.02780493
C  0.67902426 -1.19830066 0.04558510
C  1.42846208 0.01052864 -0.00942756
C  0.70752283 1.21830849 -0.03203188
C  -0.73688792 1.19579652 -0.00049239
C  -1.40803190 -0.01791898 -0.01756135
H  -1.21869601 -2.16627433 -0.08996676
H  1.25425787 -2.17686799 0.13700614
H  2.47844073 0.14134575 -0.00805601
H  1.25612742 2.17731816 -0.15780026
H  -1.26446390 2.14168024 -0.01280961
H  -2.51749929 -0.01442438 -0.03373066
12
MD Step 96 Units = [Angstroms]
C  -0.66974766 -1.22119001 0.02965079
C  0.67871464 -1.19725087 0.04293182
C  1.42677997 0.01319011 -0.00938714
C  0.70858733 1.21684861 -0.03174684
C  -0.73592696 1.19445769 -0.00005663
C  -1.40688236 -0.01544505 -0.01904409
H  -1.23330329 -2.15969610 -0.07985189
H  1.25703082 -2.18269520 0.14125074
H  2.47724979 0.14337619 -0.00286372
H  1.24600597 2.17805903 -0.15736956
H  -1.27052617 2.15064999 -0.01045000
H  -2.49462858 -0.01780808 -0.03785360
12
MD Step 97 Units = [Angstroms]
C  -0.67085145 -1.22524634 0.03135680
C  0.67916333 -1.19634083 0.04035431
C  1.42449409 0.01598525 -0.00929611
C  0.70933253 1.21526485 -0.03151508
C  -0.73452841 1.19311242 0.00032160
C  -1.40559627 -0.01292772 -0.02045412
H  -1.24778459 -2.15345091 -0.06899759
H  1.25833308 -2.18566012 0.14487160
H  2.47972104 0.14383227 0.00222754
H  1.23518011 2.17814141 -0.15633569
H  -1.27674488 2.15970844 -0.00803677
H  -2.47270153 -0.02159523 -0.04203385
12
MD Step 98 Units = [Angstroms]
C  -0.67237554 -1.22915213 0.03292246
C  0.68033628 -1.19561173 0.03786617
C  1.42167073 0.01887761 -0.00915656
C  0.70972837 1.21358552 -0.03133433
C  -0.73273806 1.19184967 0.00064068
C  -1.40403628 -0.01041540 -0.02178616
H  -1.26205438 -2.14777146 -0.05745196
H  1.25806954 -2.18549179 0.14779391
H  2.48544629 0.14268301 0.00720002
H  1.22393493 2.17782509 -0.15472840
H  -1.28257976 2.16797157 -0.00557523
H  -2.45362543 -0.02573152 -0.04629699
12
MD Step 99 Units = [Angstroms]
C  -0.67427676 -1.23285543 0.03434797
C  0.68217482 -1.19508804 0.03547871
C  1.41840759 0.02182818 -0.00897024
C  0.70974883 1.21184113 -0.03120164
C  -0.73060402 1.19075037 0.00089968
C  -1.40207870 -0.00795632 -0.02303511
H  -1.27601687 -2.14284993 -0.04526435
H  1.25628107 -2.18214556 0.14996860
H  2.49368221 0.13989810 0.01202890
H  1.21257101 2.17740122 -0.15258398
H  -1.28754500 2.17465977 -0.00307546
H  -2.43915037 -0.03016625 -0.05067491
12
MD Step 100 Units = [Angstroms]
C  -0.67650397 -1.23630946 0.03563416
C  0.68459831 -1.19477687 0.03320075
C  1.41482432 0.02479457 -0.00873845
C  0.70937380 1.21006551 -0.03111365
C  -0.72817498 1.18988256 0.00109833
C  -1.39963485 -0.00559843 -0.02419663
H  -1.28955915 -2.13882484 -0.03248485
H  1.25314270 -2.17580426 0.15137534
H  2.50345593 0.13546314 0.01668092
H  1.20138802 2.17716588 -0.14994159
H  -1.29123999 2.17915041 -0.00055174
H  -2.43060251 -0.03484766 -0.05519798
12
MD Step 101 Units = [Angstroms]
C  -0.67900123 -1.23947347 0.03678237
C  0.68750726 -1.19466763 0.03103842
C  1.41105163 0.02773047 -0.00846213
C  0.70859076 1.20829701 -0.03106686
C  -0.72549918 1.18929835 0.00123681
C  -1.39666999 -0.00338973 -0.02526798
H  -1.30254652 -2.13577268 -0.01916476
H  1.24895889 -2.16687549 0.15202484
H  2.51368720 0.12939451 0.02111535
H  1.19066809 2.17739128 -0.14683942
H  -1.29336888 2.18100980 0.00197853
H  -2.42864774 -0.03971230 -0.05988445
12
MD Step 102 Units = [Angstroms]
C  -0.68171069 -1.24231326 0.03779457
C  0.69078696 -1.19473203 0.02899509
C  1.40722094 0.03058553 -0.00814200
C  0.70739632 1.20657936 -0.03105796
C  -0.72262367 1.18903221 0.00131566
C  -1.39321326 -0.00137891 -0.02624876
H  -1.31482108 -2.13370512 -0.00535773
H  1.24415415 -2.15598180 0.15195974
H  2.52330373 0.12174982 0.02528688
H  1.18066060 2.17829766 -0.14331126
H  -1.29375221 2.18001003 0.00449613
H  -2.43316457 -0.04467221 -0.06472982
12
MD Step 103 Units = [Angstroms]
C  -0.68457496 -1.24480138 0.03867338
C  0.69431158 -1.19492519 0.02707133
C  1.40345574 0.03330604 -0.00777885
C  0.70579735 1.20496204 -0.03108398
C  -0.71959366 1.18910002 0.00133553
C  -1.38935486 0.00038456 -0.02714140
H  -1.32620397 -2.13257230 0.00887848
H  1.23925598 -2.14393772 0.15125353
H  2.53133473 0.11263215 0.02914925
H  1.17157009 2.18002933 -0.13938401
H  -1.29233324 2.17613602 0.00698144
H  -2.44327460 -0.04960617 -0.06970032
12
MD Step 104 Units = [Angstroms]
C  -0.68753869 -1.24691720 0.03942232
C  0.69794898 -1.19518848 0.02526522
C  1.39986519 0.03583629 -0.00737382
C  0.70381181 1.20349983 -0.03114240
C  -0.71645179 1.18949876 0.00129705
C  -1.38523129 0.00185123 -0.02795108
H  -1.33650145 -2.13227144 0.02348028
H  1.23486576 -2.13170560 0.15000595
H  2.53697747 0.10218867 0.03265894
H  1.16354847 2.18263844 -0.13507643
H  -1.28918112 2.16958605 0.00941591
H  -2.45751808 -0.05436024 -0.07473277
12
MD Step 105 Units = [Angstroms]
C  -0.69054943 -1.24864674 0.04004593
C  0.70156640 -1.19545476 0.02357296
C  1.39653971 0.03812032 -0.00692856
C  0.70146890 1.20225147 -0.03123112
C  -0.71323725 1.19020658 0.00120071
C  -1.38100416 0.00297354 -0.02868512
H  -1.34551378 -2.13265979 0.03837675
H  1.23161441 -2.12032344 0.14833403
H  2.53963973 0.09060503 0.03577839
H  1.15669236 2.18607914 -0.13039947
H  -1.28449102 2.16076649 0.01178351
H  -2.47411023 -0.05875826 -0.07974083
12
MD Step 106 Units = [Angstroms]
C  -0.69355780 -1.24998241 0.04054991
C  0.70503704 -1.19565625 0.02198987
C  1.39354804 0.04010399 -0.00644545
C  0.69880884 1.20127739 -0.03134833
C  -0.70998514 1.19118357 0.00104666
C  -1.37683912 0.00370839 -0.02935214
H  -1.35304630 -2.13357009 0.05348888
H  1.23010196 -2.11080325 0.14635820
H  2.53896383 0.07809741 0.03847859
H  1.15104550 2.19021283 -0.12535796
H  -1.27857996 2.15027870 0.01407206
H  -2.49119880 -0.06261827 -0.08462489
12
MD Step 107 Units = [Angstroms]
C  -0.69651720 -1.25092259 0.04094122
C  0.70824719 -1.19573421 0.02051178
C  1.39093541 0.04173708 -0.00592769
C  0.69588206 1.20063685 -0.03149225
C  -0.70672620 1.19237332 0.00083465
C  -1.37288937 0.00401968 -0.02996120
H  -1.35892102 -2.13482694 0.06872974
H  1.23082636 -2.10400847 0.14418485
H  2.53483859 0.06490332 0.04074100
H  1.14660531 2.19482370 -0.11995330
H  -1.27187549 2.13889362 0.01627442
H  -2.50706666 -0.06576930 -0.08928258
12
MD Step 108 Units = [Angstroms]
C  -0.69938331 -1.25147118 0.04122805
C  0.71110291 -1.19564903 0.01913636
C  1.38872241 0.04297527 -0.00537937
C  0.69274803 1.20038460 -0.03166088
C  -0.70348729 1.19370611 0.00056394
C  -1.36928549 0.00388068 -0.03052104
H  -1.36298782 -2.13626245 0.08400554
H  1.23411271 -2.10053148 0.14188868
H  2.52740344 0.05127215 0.04255895
H  1.14333247 2.19964198 -0.11418660
H  -1.26489349 2.12750875 0.01838912
H  -2.52026002 -0.06806453 -0.09361735
12
MD Step 109 Units = [Angstroms]
C  -0.70211349 -1.25163709 0.04141976
C  0.71353526 -1.19538787 0.01786415
C  1.38690452 0.04378194 -0.00480553
C  0.68947368 1.20056769 -0.03185173
C  -0.70029300 1.19510382 0.00023335
C  -1.36613067 0.00327564 -0.03103969
H  -1.36513402 -2.13773005 0.09921758
H  1.24005891 -2.10060028 0.13949940
H  2.51704612 0.03745543 0.04393848
H  1.14116193 2.20437125 -0.10806168
H  -1.25820181 2.11708276 0.02042023
H  -2.52965177 -0.06938944 -0.09754457
12
MD Step 110 Units = [Angstroms]
C  -0.70466642 -1.25143371 0.04152670
C  0.71550271 -1.19496799 0.01669899
C  1.38545245 0.04412971 -0.00421219
C  0.68613158 1.20122257 -0.03206159
C  -0.69716840 1.19648695 -0.00015871
C  -1.36349941 0.00220099 -0.03152410
H  -1.36529179 -2.13911546 0.11426478
H  1.24851244 -2.10404078 0.13699713
H  2.50439228 0.02369722 0.04489860
H  1.14001407 2.20871650 -0.10158763
H  -1.25236877 2.10854753 0.02237615
H  -2.53446183 -0.06966553 -0.10099538
12
MD Step 111 Units = [Angstroms]
C  -0.70700189 -1.25087854 0.04156004
C  0.71699039 -1.19443456 0.01564748
C  1.38431372 0.04400159 -0.00360631
C  0.68279787 1.20237287 -0.03228638
C  -0.69414267 1.19778293 -0.00061397
C  -1.36143792 0.00066584 -0.03198003
H  -1.36344284 -2.14034451 0.12904671
H  1.25908524 -2.11030659 0.13431801
H  2.49028234 0.01022485 0.04547068
H  1.13980500 2.21240977 -0.09478039
H  -1.24790028 2.10270463 0.02426698
H  -2.53425650 -0.06885092 -0.10391899
12
MD Step 112 Units = [Angstroms]
C  -0.70908091 -1.24999276 0.04153145
C  0.71800654 -1.19385365 0.01471786
C  1.38341597 0.04339173 -0.00299564
C  0.67955006 1.20402788 -0.03252107
C  -0.69125283 1.19893474 -0.00113404
C  -1.35996495 -0.00130792 -0.03241194
H  -1.35962026 -2.14138745 0.14346650
H  1.27120278 -2.11856719 0.13136824
H  2.47572917 -0.00275915 0.04569672
H  1.14045546 2.21523155 -0.08766354
H  -1.24517512 2.10012217 0.02610087
H  -2.52894257 -0.06693941 -0.10628437
12
MD Step 113 Units = [Angstroms]
C  -0.71086613 -1.24880101 0.04145297
C  0.71857718 -1.19330256 0.01391859
C  1.38267258 0.04230558 -0.00238851
C  0.67646470 1.20618190 -0.03275966
C  -0.68854643 1.19990777 -0.00172005
C  -1.35907216 -0.00368601 -0.03282286
H  -1.35390742 -2.14225959 0.15743373
H  1.28417377 -2.12782921 0.12804220
H  2.46185026 -0.01508252 0.04562608
H  1.14189796 2.21702671 -0.08026820
H  -1.24439203 2.10105393 0.02787989
H  -2.51876479 -0.06395861 -0.10808187
12
MD Step 114 Units = [Angstroms]
C  -0.71232240 -1.24733123 0.04133667
C  0.71874040 -1.19285984 0.01325691
C  1.38199077 0.04075951 -0.00179344
C  0.67361506 1.20881422 -0.03299526
C  -0.68608211 1.20069343 -0.00237239
C  -1.35872400 -0.00642253 -0.03321431
H  -1.34643413 -2.14301841 0.17086659
H  1.29726446 -2.13706129 0.12423979
H  2.44977187 -0.02660460 0.04531080
H  1.14408198 2.21771462 -0.07263219
H  -1.24554237 2.10540126 0.02959648
H  -2.50430873 -0.05996736 -0.10932491
12
MD Step 115 Units = [Angstroms]
C  -0.71341771 -1.24561459 0.04119456
C  0.71854131 -1.19259693 0.01273782
C  1.38128171 0.03877969 -0.00121867
C  0.67106878 1.21188978 -0.03322020
C  -0.68392742 1.20130849 -0.00309053
C  -1.35885735 -0.00946137 -0.03358608
H  -1.33737020 -2.14375708 0.18369343
H  1.30976424 -2.14529995 0.11987978
H  2.44051045 -0.03721229 0.04479977
H  1.14697740 2.21729352 -0.06479861
H  -1.24841576 2.11272846 0.03123160
H  -2.48650448 -0.05505210 -0.11005162
12
MD Step 116 Units = [Angstroms]
C  -0.71412411 -1.24368545 0.04103842
C  0.71802812 -1.19257216 0.01236345
C  1.38047137 0.03640050 -0.00067166
C  0.66888572 1.21536033 -0.03342620
C  -0.68215417 1.20179060 -0.00387305
C  -1.35938196 -0.01273801 -0.03393622
H  -1.32691686 -2.14459482 0.19585326
H  1.32103564 -2.15172605 0.11490792
H  2.43484698 -0.04681134 0.04413277
H  1.15057575 2.21583920 -0.05681415
H  -1.25263693 2.12232721 0.03275499
H  -2.46661959 -0.04932137 -0.11032554
12
MD Step 117 Units = [Angstroms]
C  -0.71441899 -1.24158139 0.04087974
C  0.71724943 -1.19282732 0.01213288
C  1.37951004 0.03366270 -0.00015871
C  0.66711596 1.21916594 -0.03360453
C  -0.68083213 1.20219117 -0.00471782
C  -1.36018300 -0.01618188 -0.03426106
H  -1.31529667 -2.14566456 0.20729515
H  1.33054824 -2.15571224 0.10930029
H  2.43321902 -0.05531522 0.04333572
H  1.15488943 2.21349829 -0.04872714
H  -1.25772344 2.13331268 0.03412753
H  -2.44622352 -0.04289775 -0.11023424
12
MD Step 118 Units = [Angstroms]
C  -0.71428627 -1.23934312 0.04072972
C  0.71625231 -1.19338599 0.01204211
C  1.37837834 0.03061183 0.00031532
C  0.66579820 1.22323696 -0.03374627
C  -0.68002255 1.20256763 -0.00562229
C  -1.36112766 -0.01971915 -0.03455554
H  -1.30274262 -2.14709876 0.21797668
H  1.33789935 -2.15684787 0.10306317
H  2.43565653 -0.06263581 0.04241851
H  1.15994852 2.21047617 -0.04058567
H  -1.26314999 2.14472911 0.03530491
H  -2.42710103 -0.03590754 -0.10988387
12
MD Step 119 Units = [Angstroms]
C  -0.71371773 -1.23701436 0.04059925
C  0.71508104 -1.19425330 0.01208436
C  1.37708815 0.02729715 0.00074693
C  0.66495867 1.22749630 -0.03384247
C  -0.67977254 1.20297626 -0.00658381
C  -1.36207737 -0.02327547 -0.03481402
H  -1.28948754 -2.14901472 0.22786151
H  1.34282601 -2.15494925 0.09623077
H  2.44177903 -0.06867955 0.04137596
H  1.16579499 2.20702011 -0.03243594
H  -1.26840726 2.15564543 0.03624167
H  -2.41109687 -0.02847007 -0.10938834
12
MD Step 120 Units = [Angstroms]
C  -0.71271416 -1.23464142 0.04049904
C  0.71377583 -1.19541625 0.01225035
C  1.37567870 0.02377128 0.00113376
C  0.66461059 1.23186194 -0.03388437
C  -0.68011099 1.20346672 -0.00759990
C  -1.36290547 -0.02677843 -0.03503147
H  -1.27575458 -2.15150084 0.23691653
H  1.34521206 -2.15006183 0.08886166
H  2.45085449 -0.07335086 0.04019152
H  1.17247441 2.20339802 -0.02432102
H  -1.27304779 2.16523024 0.03689495
H  -2.39989242 -0.02069058 -0.10885310
12
MD Step 121 Units = [Angstroms]
C  -0.71128624 -1.23227264 0.04043960
C  0.71237176 -1.19684446 0.01252870
C  1.37420872 0.02009032 0.00147418
C  0.66475435 1.23624976 -0.03386355
C  -0.68104626 1.20407809 -0.00866846
C  -1.36351781 -0.03015905 -0.03520491
H  -1.26174998 -2.15460548 0.24510903
H  1.34509252 -2.14245790 0.08103450
H  2.46190352 -0.07656147 0.03884264
H  1.18002546 2.19987451 -0.01628030
H  -1.27671736 2.17280347 0.03722738
H  -2.39474761 -0.01266150 -0.10835602
12
MD Step 122 Units = [Angstroms]
C  -0.70945506 -1.22995750 0.04043125
C  0.71089766 -1.19849116 0.01290633
C  1.37274718 0.01631426 0.00176699
C  0.66537836 1.24057632 -0.03377204
C  -0.68256553 1.20483654 -0.00978791
C  -1.36387067 -0.03335215 -0.03533462
H  -1.24765843 -2.15832994 0.25240447
H  1.34265531 -2.13263003 0.07284306
H  2.47382304 -0.07824223 0.03730613
H  1.18846806 2.19668597 -0.00834958
H  -1.27917354 2.17786817 0.03720923
H  -2.39627449 -0.00447381 -0.10793091
12
MD Step 123 Units = [Angstroms]
C  -0.70725199 -1.22774549 0.04048412
C  0.70937526 -1.20029459 0.01336902
C  1.37136434 0.01250704 0.00201105
C  0.66646038 1.24476164 -0.03360239
C  -0.68463523 1.20575382 -0.01095720
C  -1.36398007 -0.03629598 -0.03542475
H  -1.23364150 -2.16262644 0.25876528
H  1.33823839 -2.12127738 0.06439046
H  2.48550453 -0.07835376 0.03556264
H  1.19779139 2.19401749 -0.00056200
H  -1.28029500 2.18012780 0.03681971
H  -2.40431795 0.00376484 -0.10755959
12
MD Step 124 Units = [Angstroms]
C  -0.70471816 -1.22568468 0.04060798
C  0.70781895 -1.20218025 0.01390192
C  1.37012455 0.00873623 0.00220518
C  0.66796938 1.24873154 -0.03334767
C  -0.68720243 1.20682662 -0.01217584
C  -1.36391848 -0.03893184 -0.03548284
H  -1.21983874 -2.16740137 0.26415091
H  1.33231806 -2.10927931 0.05578255
H  2.49593071 -0.07689353 0.03359952
H  1.20794351 2.19198458 0.00705060
H  -1.28008448 2.17949418 0.03604780
H  -2.41798833 0.01191401 -0.10717599
12
MD Step 125 Units = [Angstroms]
C  -0.70190336 -1.22382009 0.04081204
C  0.70623670 -1.20406454 0.01449023
C  1.36908121 0.00507215 0.00234808
C  0.66986747 1.25241952 -0.03300144
C  -0.69019672 1.20803625 -0.01344375
C  -1.36380028 -0.04120444 -0.03551861
H  -1.20637095 -2.17252333 0.26851926
H  1.32548289 -2.09764910 0.04712054
H  2.50424475 -0.07389844 0.03141210
H  1.21882429 2.19062199 0.01445593
H  -1.27866767 2.17608926 0.03489256
H  -2.43583331 0.01979445 -0.10668066
12
MD Step 126 Units = [Angstroms]
C  -0.69886453 -1.22219187 0.04110468
C  0.70463247 -1.20586028 0.01511987
C  1.36827367 0.00158640 0.00243837
C  0.67211180 1.25576793 -0.03255779
C  -0.69353252 1.20934887 -0.01476126
C  -1.36376104 -0.04306343 -0.03554230
H  -1.19334484 -2.17783478 0.27182913
H  1.31838836 -2.08746183 0.03849372
H  2.50979433 -0.06944375 0.02900386
H  1.23028306 2.18988165 0.02161972
H  -1.27628831 2.17024132 0.03336310
H  -2.45608627 0.02719538 -0.10596039
12
MD Step 127 Units = [Angstroms]
C  -0.69566408 -1.22083349 0.04149311
C  0.70301034 -1.20748430 0.01577802
C  1.36772562 -0.00164993 0.00247470
C  0.67465620 1.25872846 -0.03201130
C  -0.69711179 1.21071630 -0.01612892
C  -1.36393695 -0.04446562 -0.03556315
H  -1.18085812 -2.18316574 0.27404339
H  1.31169093 -2.07975537 0.02997371
H  2.51215653 -0.06363919 0.02638577
H  1.24212178 2.18963982 0.02850469
H  -1.27329829 2.16247319 0.03147793
H  -2.47691560 0.03389143 -0.10490655
12
MD Step 128 Units = [Angstroms]
C  -0.69236803 -1.21977009 0.04198304
C  0.70137995 -1.20886647 0.01645341
C  1.36744434 -0.00456826 0.00245580
C  0.67745242 1.26126197 -0.03135715
C  -0.70082733 1.21207781 -0.01754734
C  -1.36444874 -0.04537742 -0.03558833
H  -1.16900438 -2.18834796 0.27513231
H  1.30596683 -2.07541245 0.02161197
H  2.51115010 -0.05662363 0.02357513
H  1.25410338 2.18971226 0.03507023
H  -1.27014051 2.15347840 0.02926366
H  -2.49662106 0.03966258 -0.10342836
12
MD Step 129 Units = [Angstroms]
C  -0.68904410 -1.21901711 0.04257837
C  0.69976200 -1.20995865 0.01713630
C  1.36742039 -0.00710460 0.00238061
C  0.68045095 1.26333790 -0.03059114
C  -0.70456676 1.21336337 -0.01901695
C  -1.36539180 -0.04577666 -0.03562230
H  -1.15787710 -2.19322815 0.27507672
H  1.30162988 -2.07504308 0.01344207
H  2.50683989 -0.04855882 0.02059422
H  1.26596454 2.18987535 0.04127310
H  -1.26732122 2.14407935 0.02675263
H  -2.51375887 0.04431138 -0.10146005
12
MD Step 130 Units = [Angstroms]
C  -0.68575986 -1.21857944 0.04328094
C  0.69819229 -1.21074155 0.01781798
C  1.36762784 -0.00920155 0.00224836
C  0.68360146 1.26493338 -0.02970995
C  -0.70821738 1.21449871 -0.02053777
C  -1.36683137 -0.04565382 -0.03566673
H  -1.14757243 -2.19767908 0.27387042
H  1.29886823 -2.07889370 0.00548668
H  2.49953536 -0.03962269 0.01746875
H  1.27743106 2.18988992 0.04706882
H  -1.26536968 2.13516343 0.02397946
H  -2.52720442 0.04767494 -0.09896306
12
MD Step 131 Units = [Angstroms]
C  -0.68258084 -1.21845113 0.04409030
C  0.69672267 -1.21122743 0.01849015
C  1.36802476 -0.01081003 0.00205863
C  0.68685293 1.26603222 -0.02871121
C  -0.71167196 1.21541225 -0.02210897
C  -1.36880142 -0.04501229 -0.03572053
H  -1.13819069 -2.20160779 0.27152184
H  1.29761800 -2.08680742 -0.00223267
H  2.48978191 -0.03000228 0.01422620
H  1.28823416 2.18952531 0.05241370
H  -1.26478531 2.12759683 0.02097659
H  -2.53617355 0.04963155 -0.09592517
12
MD Step 132 Units = [Angstroms]
C  -0.67956874 -1.21861559 0.04500371
C  0.69541832 -1.21145783 0.01914425
C  1.36855470 -0.01189083 0.00181148
C  0.69015352 1.26662399 -0.02759375
C  -0.71483477 1.21604324 -0.02372860
C  -1.37130516 -0.04386800 -0.03578014
H  -1.12983635 -2.20496048 0.26805465
H  1.29758245 -2.09824711 -0.00968611
H  2.47834103 -0.01988638 0.01089402
H  1.29812600 2.18858107 0.05726717
H  -1.26597672 2.12212390 0.01776945
H  -2.54022323 0.05010351 -0.09235806
12
MD Step 133 Units = [Angstroms]
C  -0.67677971 -1.21904646 0.04601611
C  0.69435185 -1.21149697 0.01977113
C  1.36914940 -0.01241577 0.00150751
C  0.69345058 1.26670320 -0.02635772
C  -0.71762750 1.21634985 -0.02539323
C  -1.37431616 -0.04224844 -0.03583977
H  -1.12261680 -2.20772382 0.26350737
H  1.29828991 -2.11237427 -0.01682954
H  2.46615296 -0.00945829 0.00749771
H  1.30689315 2.18690474 0.06159406
H  -1.26920229 2.11926819 0.01437228
H  -2.53924686 0.04905770 -0.08829459
12
MD Step 134 Units = [Angstroms]
C  -0.67426267 -1.21970887 0.04712030
C  0.69359583 -1.21142243 0.02036101
C  1.36973346 -0.01236848 0.00114797
C  0.69669054 1.26626870 -0.02500474
C  -0.71999366 1.21631533 -0.02709786
C  -1.37777919 -0.04019144 -0.03589171
H  -1.11663975 -2.20992268 0.25793202
H  1.29917349 -2.12816154 -0.02360352
H  2.45427565 0.00111079 0.00405907
H  1.31436714 2.18440498 0.06536665
H  -1.27452492 2.11925686 0.01078587
H  -2.53347227 0.04650490 -0.08378584
12
MD Step 135 Units = [Angstroms]
C  -0.67205791 -1.22056114 0.04830713
C  0.69321527 -1.21131560 0.02090389
C  1.37023114 -0.01174486 0.00073485
C  0.69981917 1.26532329 -0.02353797
C  -0.72190080 1.21595074 -0.02883601
C  -1.38161085 -0.03774354 -0.03592666
H  -1.11200953 -2.21161448 0.25139193
H  1.29965233 -2.14451212 -0.02993671
H  2.44379656 0.01166618 0.00059491
H  1.32043175 2.18105961 0.06856622
H  -1.28179258 2.12198815 0.00699794
H  -2.52346407 0.04249822 -0.07889821
12
MD Step 136 Units = [Angstroms]
C  -0.67019595 -1.22155677 0.04956587
C  0.69326166 -1.21125329 0.02139002
C  1.37057509 -0.01055298 0.00027087
C  0.70278199 1.26387349 -0.02196214
C  -0.72334002 1.21529328 -0.03060006
C  -1.38570013 -0.03495826 -0.03593406
H  -1.10882248 -2.21288046 0.24395902
H  1.29919908 -2.16036448 -0.03575199
H  2.43572139 0.02207110 -0.00288346
H  1.32502662 2.17691841 0.07118405
H  -1.29065049 2.12705074 0.00298628
H  -2.51012531 0.03713009 -0.07371009
12
MD Step 137 Units = [Angstroms]
C  -0.66869678 -1.22264657 0.05088452
C  0.69376890 -1.21130162 0.02181054
C  1.37071586 -0.00881271 -0.00024053
C  0.70552490 1.26192966 -0.02028349
C  -0.72432310 1.21440091 -0.03238169
C  -1.38990995 -0.03189421 -0.03590258
H  -1.10716148 -2.21381451 0.23571061
H  1.29738719 -2.17477173 -0.04097339
H  2.43085305 0.03220406 -0.00636942
H  1.32814737 2.17210110 0.07322172
H  -1.30058204 2.13378957 -0.00127620
H  -2.49468679 0.03052676 -0.06830752
12
MD Step 138 Units = [Angstroms]
C  -0.66756968 -1.22378081 0.05225019
C  0.69475128 -1.21151197 0.02215792
C  1.37063038 -0.00655494 -0.00079545
C  0.70799515 1.25950634 -0.01850968
C  -0.72487804 1.21334447 -0.03417247
C  -1.39408114 -0.02861285 -0.03582062
H  -1.10709013 -2.21451038 0.22672633
H  1.29391847 -2.18695460 -0.04553242
H  2.42968368 0.04195333 -0.00985898
H  1.32984203 2.16679023 0.07469070
H  -1.31096820 2.14140006 -0.00581594
H  -2.47866573 0.02283906 -0.06277868
12
MD Step 139 Units = [Angstroms]
C  -0.66681351 -1.22491123 0.05364947
C  0.69620305 -1.21191870 0.02242639
C  1.37032744 -0.00382075 -0.00138967
C  0.71014239 1.25662297 -0.01664962
C  -0.72504412 1.21219937 -0.03596426
C  -1.39804053 -0.02517623 -0.03567704
H  -1.10864685 -2.21504848 0.21708531
H  1.28863551 -2.19633317 -0.04937334
H  2.43232514 0.05121041 -0.01334784
H  1.33020393 2.16121942 0.07561126
H  -1.32115225 2.14902894 -0.01065400
H  -2.46377251 0.01422922 -0.05720698
12
MD Step 140 Units = [Angstroms]
C  -0.66641766 -1.22599279 0.05506870
C  0.69809899 -1.21253794 0.02261218
C  1.36984839 -0.00066073 -0.00201896
C  0.71191985 1.25330480 -0.01471325
C  -0.72486739 1.21103809 -0.03774958
C  -1.40161453 -0.02164475 -0.03546177
H  -1.11183955 -2.21548364 0.20686402
H  1.28152443 -2.20254432 -0.05245695
H  2.43849619 0.05986558 -0.01682841
H  1.32936132 2.15565721 0.07601077
H  -1.33049859 2.15586379 -0.01580289
H  -2.45174999 0.00485567 -0.05166407
12
MD Step 141 Units = [Angstroms]
C  -0.66636343 -1.22698492 0.05649421
C  0.70039581 -1.21336697 0.02271370
C  1.36926320 0.00286548 -0.00267927
C  0.71328562 1.24958412 -0.01271125
C  -0.72439700 1.20992448 -0.03952174
C  -1.40464771 -0.01807543 -0.03516638
H  -1.11664130 -2.21583518 0.19613507
H  1.27271216 -2.20545104 -0.05476356
H  2.44756965 0.06780758 -0.02028754
H  1.32746420 2.15038705 0.07592148
H  -1.33843911 2.16120141 -0.02126517
H  -2.44414992 -0.00513955 -0.04620441
12
MD Step 142 Units = [Angstroms]
C  -0.66662576 -1.22785239 0.05791243
C  0.70303382 -1.21438394 0.02273165
C  1.36866256 0.00668941 -0.00336678
C  0.71420384 1.24550155 -0.01065475
C  -0.72368249 1.20890995 -0.04127487
C  -1.40702355 -0.01452124 -0.03478429
H  -1.12298767 -2.21608072 0.18496700
H  1.26246068 -2.20514691 -0.05629492
H  2.45866586 0.07492784 -0.02370579
H  1.32466931 2.14568489 0.07537808
H  -1.34450563 2.16449380 -0.02703369
H  -2.44208350 -0.01563434 -0.04086382
12
MD Step 143 Units = [Angstroms]
C  -0.66717504 -1.22856555 0.05930997
C  0.70593897 -1.21554787 0.02266903
C  1.36814836 0.01073407 -0.00407791
C  0.71464587 1.24110710 -0.00855501
C  -0.72277169 1.20803133 -0.04300390
C  -1.40868174 -0.01103185 -0.03431052
H  -1.13077602 -2.21615463 0.17342507
H  1.25115836 -2.20195643 -0.05707534
H  2.47076872 0.08112748 -0.02705810
H  1.32112475 2.14179600 0.07441536
H  -1.34835042 2.16537518 -0.03309273
H  -2.44601316 -0.02651742 -0.03566328
12
MD Step 144 Units = [Angstroms]
C  -0.66797886 -1.22910035 0.06067358
C  0.70902522 -1.21679929 0.02253114
C  1.36782413 0.01491460 -0.00480926
C  0.71459130 1.23646087 -0.00642314
C  -0.72170912 1.20730990 -0.04470438
C  -1.40962625 -0.00765533 -0.03374114
H  -1.13986711 -2.21595143 0.16157272
H  1.23930697 -2.19642801 -0.05715172
H  2.48284017 0.08632509 -0.03031556
H  1.31695588 2.13891338 0.07306618
H  -1.34975791 2.16367571 -0.03942009
H  -2.45565637 -0.03766885 -0.03061674
12
MD Step 145 Units = [Angstroms]
C  -0.66900346 -1.22943792 0.06199015
C  0.71219741 -1.21806192 0.02232532
C  1.36778710 0.01913952 -0.00555741
C  0.71402865 1.23163301 -0.00426990
C  -0.72053448 1.20675119 -0.04637235
C  -1.40992113 -0.00444006 -0.03307256
H  -1.15008889 -2.21533398 0.14947352
H  1.22750139 -2.18931373 -0.05659186
H  2.49391598 0.09046275 -0.03344785
H  1.31225435 2.13716056 0.07136018
H  -1.34865089 2.15942677 -0.04598942
H  -2.47003833 -0.04893931 -0.02573984
12
MD Step 146 Units = [Angstroms]
C  -0.67021477 -1.22956408 0.06324667
C  0.71535494 -1.21924619 0.02206066
C  1.36812216 0.02331261 -0.00631886
C  0.71295582 1.22670271 -0.00210553
C  -0.71928134 1.20634519 -0.04800419
C  -1.40967576 -0.00143575 -0.03230114
H  -1.16124237 -2.21414549 0.13719307
H  1.21639845 -2.18152773 -0.05548052
H  2.50317606 0.09350965 -0.03642568
H  1.30707191 2.13658082 0.06932341
H  -1.34509293 2.15286059 -0.05277295
H  -2.48767366 -0.06013818 -0.02105609
12
MD Step 147 Units = [Angstroms]
C  -0.67157903 -1.22946874 0.06443021
C  0.71839635 -1.22025522 0.02174735
C  1.36889770 0.02733544 -0.00708992
C  0.71138024 1.22175629 0.00006031
C  -0.71797601 1.20606693 -0.04959638
C  -1.40902472 0.00130694 -0.03142305
H  -1.17310901 -2.21222406 0.12480048
H  1.20667254 -2.17407602 -0.05391268
H  2.50999023 0.09546296 -0.03922293
H  1.30141976 2.13713458 0.06697873
H  -1.33928718 2.14440467 -0.05974442
H  -2.50681287 -0.07103580 -0.01659855
12
MD Step 148 Units = [Angstroms]
C  -0.67306299 -1.22914528 0.06552796
C  0.72122496 -1.22099340 0.02139588
C  1.37016280 0.03111042 -0.00786659
C  0.70931866 1.21688424 0.00221848
C  -0.71663688 1.20587748 -0.05114539
C  -1.40810842 0.00373805 -0.03043448
H  -1.18545925 -2.20941821 0.11236930
H  1.19895823 -2.16795528 -0.05198403
H  2.51394487 0.09634657 -0.04181853
H  1.29527337 2.13870533 0.06434711
H  -1.33157017 2.13466863 -0.06688211
H  -2.52568117 -0.08137764 -0.01240774
12
MD Step 149 Units = [Angstroms]
C  -0.67463392 -1.22859001 0.06652736
C  0.72375486 -1.22137694 0.02101611
C  1.37194524 0.03454396 -0.00864451
C  0.70679679 1.21217754 0.00436032
C  -0.71527463 1.20572571 -0.05264743
C  -1.40705825 0.00581058 -0.02933203
H  -1.19806139 -2.20560191 0.09997762
H  1.19378510 -2.16402851 -0.04978014
H  2.51485662 0.09620862 -0.04419793
H  1.28858199 2.14111303 0.06144919
H  -1.32239723 2.12441895 -0.07417173
H  -2.54266171 -0.09090400 -0.00852743
12
MD Step 150 Units = [Angstroms]
C  -0.67625937 -1.22780164 0.06741615
C  0.72591678 -1.22134472 0.02061638
C  1.37425005 0.03754972 -0.00941885
C  0.70384872 1.20772361 0.00647748
C  -0.71389356 1.20555135 -0.05409836
C  -1.40598744 0.00748303 -0.02811306
H  -1.21069042 -2.20068790 0.08770739
H  1.19151524 -2.16289806 -0.04736630
H  2.51277804 0.09511820 -0.04635431
H  1.28128114 2.14413322 0.05830705
H  -1.31231592 2.11453636 -0.08160872
H  -2.55640901 -0.09936889 -0.00500018
12
MD Step 151 Units = [Angstroms]
C  -0.67790696 -1.22678086 0.06818268
C  0.72766249 -1.22086689 0.02020290
C  1.37705839 0.04005161 -0.01018427
C  0.70051639 1.20360223 0.00856185
C  -0.71249435 1.20528971 -0.05549362
C  -1.40498671 0.00872149 -0.02677603
H  -1.22313611 -2.19463828 0.07564305
H  1.19229674 -2.16480548 -0.04478103
H  2.50799719 0.09316184 -0.04828945
H  1.27330628 2.14751908 0.05494565
H  -1.30192438 2.10595118 -0.08919913
H  -2.56590375 -0.10655475 -0.00186378
12
MD Step 152 Units = [Angstroms]
C  -0.67954431 -1.22553010 0.06881601
C  0.72896701 -1.21994894 0.01977964
C  1.38032704 0.04198629 -0.01093474
C  0.69684888 1.19988181 0.01060538
C  -0.71107817 1.20487820 -0.05682838
C  -1.40412294 0.00950143 -0.02532067
H  -1.23521010 -2.18747190 0.06386963
H  1.19604509 -2.16958639 -0.04203531
H  2.50103035 0.09043977 -0.05001440
H  1.26460606 2.15102407 0.05139381
H  -1.29181474 2.09955644 -0.09695822
H  -2.57046971 -0.11228218 0.00085136
12
MD Step 153 Units = [Angstroms]
C  -0.68113910 -1.22405336 0.06930625
C  0.72982807 -1.21862996 0.01934867
C  1.38398883 0.04330516 -0.01166356
C  0.69290179 1.19661641 0.01260003
C  -0.70965165 1.20426422 -0.05809783
C  -1.40343916 0.00980899 -0.02374819
H  -1.24675134 -2.17926795 0.05247060
H  1.20245712 -2.17669438 -0.03911759
H  2.49260410 0.08706198 -0.05154952
H  1.25515364 2.15442275 0.04768460
H  -1.28250703 2.09610602 -0.10490602
H  -2.56977305 -0.11641612 0.00312384
12
MD Step 154 Units = [Angstroms]
C  -0.68265934 -1.22235628 0.06964475
C  0.73026324 -1.21697576 0.01891085
C  1.38795477 0.04397560 -0.01236327
C  0.68873647 1.19384365 0.01453769
C  -0.70823163 1.20341304 -0.05929781
C  -1.40295487 0.00964186 -0.02206134
H  -1.25762976 -2.17016576 0.04152559
H  1.21105373 -2.18528660 -0.03600297
H  2.48362057 0.08314408 -0.05292384
H  1.24495553 2.15752835 0.04385515
H  -1.27438505 2.09611353 -0.11305984
H  -2.56381796 -0.11886968 0.00494231
12
MD Step 155 Units = [Angstroms]
C  -0.68407385 -1.22044636 0.06982435
C  0.73030568 -1.21506886 0.01846660
C  1.39211835 0.04398158 -0.01302581
C  0.68441914 1.19158365 0.01641014
C  -0.70684846 1.20231410 -0.06042546
C  -1.40266594 0.00900979 -0.02026450
H  -1.26774786 -2.16036067 0.03110829
H  1.22123984 -2.19434643 -0.03266362
H  2.47509930 0.07880278 -0.05417333
H  1.23405741 2.16020604 0.03994595
H  -1.26764880 2.09977366 -0.12142487
H  -2.55294598 -0.11960713 0.00630614
12
MD Step 156 Units = [Angstroms]
C  -0.68535293 -1.21833334 0.06983951
C  0.72999940 -1.21299787 0.01801658
C  1.39636260 0.04332348 -0.01364266
C  0.68001982 1.18983897 0.01820908
C  -0.70554684 1.20098394 -0.06147992
C  -1.40254410 0.00793468 -0.01836373
H  -1.27703989 -2.15009606 0.02128472
H  1.23236836 -2.20281273 -0.02907760
H  2.46809172 0.07415140 -0.05533776
H  1.22254689 2.16238147 0.03599976
H  -1.26229644 2.10692638 -0.12998516
H  -2.53783963 -0.11864610 0.00722580
12
MD Step 157 Units = [Angstroms]
C  -0.68646914 -1.21602980 0.06968647
C  0.72939494 -1.21084838 0.01756213
C  1.40056953 0.04201736 -0.01420523
C  0.67561105 1.18859545 0.01992614
C  -0.70438353 1.19946504 -0.06246272
C  -1.40253655 0.00645015 -0.01636671
H  -1.28546869 -2.13965178 0.01211207
H  1.24379733 -2.20969151 -0.02523482
H  2.46357079 0.06929565 -0.05645631
H  1.21055347 2.16404440 0.03206028
H  -1.25814074 2.11707436 -0.13869751
H  -2.51952439 -0.11605862 0.00772270
12
MD Step 158 Units = [Angstroms]
C  -0.68739825 -1.21355184 0.06936324
C  0.72854589 -1.20869627 0.01710545
C  1.40463113 0.04009379 -0.01470535
C  0.67126643 1.18782379 0.02155296
C  -0.70342267 1.19782076 -0.06337782
C  -1.40256661 0.00460054 -0.01428269
H  -1.29302033 -2.12932965 0.00363813
H  1.25493457 -2.21413801 -0.02113966
H  2.46230845 0.06433033 -0.05756217
H  1.19824554 2.16524749 0.02817076
H  -1.25485479 2.12944901 -0.14749009
H  -2.49935617 -0.11196917 0.00782820
12
MD Step 159 Units = [Angstroms]
C  -0.68812020 -1.21091977 0.06886955
C  0.72750625 -1.20660356 0.01664959
C  1.40845980 0.03759633 -0.01513570
C  0.66705899 1.18748173 0.02308125
C  -0.70272962 1.19612785 -0.06423117
C  -1.40253706 0.00243918 -0.01212221
H  -1.29969683 -2.11943659 -0.00409847
H  1.26526906 -2.21550867 -0.01681109
H  2.46476336 0.05933725 -0.05867724
H  1.18582492 2.16610017 0.02437263
H  -1.25203404 2.14310805 -0.15626615
H  -2.47897497 -0.10654732 0.00758136
12
MD Step 160 Units = [Angstroms]
C  -0.68862020 -1.20815877 0.06820678
C  0.72632831 -1.20461636 0.01619833
C  1.41199602 0.03457985 -0.01549025
C  0.66305954 1.18751665 0.02450287
C  -0.70236484 1.19446817 -0.06503008
C  -1.40233792 0.00002586 -0.00989670
H  -1.30550762 -2.11026679 -0.01106740
H  1.27439140 -2.21338910 -0.01228097
H  2.47100546 0.05438446 -0.05980804
H  1.17351884 2.16675786 0.02070425
H  -1.24925969 2.15704225 -0.16491162
H  -2.46020254 -0.09999309 0.00702505
12
MD Step 161 Units = [Angstroms]
C  -0.68888960 -1.20529942 0.06737769
C  0.72506098 -1.20276420 0.01575598
C  1.41521153 0.03110893 -0.01576456
C  0.65933498 1.18786854 0.02580994
C  -0.70237859 1.19292129 -0.06578229
C  -1.40186000 -0.00257636 -0.00761800
H  -1.31046081 -2.10208424 -0.01724532
H  1.28200673 -2.20760607 -0.00759148
H  2.48069830 0.04952658 -0.06094396
H  1.16156973 2.16740672 0.01720010
H  -1.24615216 2.17027221 -0.17330467
H  -2.44486929 -0.09251499 0.00620107
12
MD Step 162 Units = [Angstroms]
C  -0.68892679 -1.20237786 0.06638630
C  0.72374812 -1.20106010 0.01532715
C  1.41810724 0.02725631 -0.01595570
C  0.65594685 1.18847304 0.02699481
C  -0.70280717 1.19155853 -0.06649516
C  -1.40101360 -0.00530444 -0.00529786
H  -1.31455517 -2.09510729 -0.02261422
H  1.28794321 -2.19823036 -0.00279212
H  2.49314421 0.04480568 -0.06205834
H  1.15022336 2.16824473 0.01389013
H  -1.24240916 2.18192450 -0.18132523
H  -2.43457772 -0.08430515 0.00514527
12
MD Step 163 Units = [Angstroms]
C  -0.68873754 -1.19943579 0.06523759
C  0.72242701 -1.19950113 0.01491660
C  1.42070705 0.02310142 -0.01606220
C  0.65294996 1.18926459 0.02805020
C  -0.70367068 1.19043890 -0.06717493
C  -1.39974893 -0.00809810 -0.00294758
H  -1.31777406 -2.08949686 -0.02715995
H  1.29215803 -2.18557433 0.00206357
H  2.50738037 0.04025243 -0.06311192
H  1.13971596 2.16946027 0.01079973
H  -1.23782857 2.19128447 -0.18886357
H  -2.43044444 -0.07551973 0.00388505
12
MD Step 164 Units = [Angstroms]
C  -0.68833508 -1.19651994 0.06393735
C  0.72112676 -1.19806919 0.01452892
C  1.42304937 0.01872906 -0.01608367
C  0.65039143 1.19017947 0.02896911
C  -0.70497189 1.18960629 -0.06782611
C  -1.39807242 -0.01090111 -0.00057802
H  -1.32008207 -2.08534955 -0.03087098
H  1.29474103 -2.17018443 0.00692129
H  2.52230086 0.03588731 -0.06405784
H  1.13026137 2.17121011 0.00794999
H  -1.23231906 2.19782932 -0.19582710
H  -2.43289253 -0.06627329 0.00244060
12
MD Step 165 Units = [Angstroms]
C  -0.68773945 -1.19368133 0.06249203
C  0.71986701 -1.19673229 0.01416839
C  1.42517839 0.01422800 -0.01602051
C  0.64830985 1.19115848 0.02974490
C  -0.70669614 1.18908792 -0.06845102
C  -1.39605283 -0.01366088 0.00180003
H  -1.32142504 -2.08269625 -0.03373786
H  1.29591431 -2.15282596 0.01172939
H  2.53677900 0.03172202 -0.06484686
H  1.12203959 2.17359911 0.00535834
H  -1.22590249 2.20124655 -0.20214588
H  -2.44156671 -0.05665030 0.00083015
12
MD Step 166 Units = [Angstroms]
C  -0.68697648 -1.19097402 0.06090859
C  0.71865734 -1.19544662 0.01383871
C  1.42713679 0.00968952 -0.01587363
C  0.64673478 1.19214910 0.03037120
C  -0.70881176 1.18889329 -0.06904948
C  -1.39381465 -0.01632698 0.00417546
H  -1.32173344 -2.08150638 -0.03575337
H  1.29602412 -2.13445442 0.01644223
H  2.54977075 0.02776111 -0.06543202
H  1.11518773 2.17666431 0.00303937
H  -1.21871124 2.20144324 -0.20777678
H  -2.45540452 -0.04672817 -0.00092315
12
MD Step 167 Units = [Angstroms]
C  -0.68607629 -1.18845356 0.05919454
C  0.71749766 -1.19416004 0.01354278
C  1.42896036 0.00520577 -0.01564418
C  0.64568639 1.19310708 0.03084199
C  -0.71127094 1.18901363 -0.06961854
C  -1.39152077 -0.01884968 0.00653642
H  -1.32092852 -2.08169675 -0.03691319
H  1.29552025 -2.11616652 0.02102306
H  2.56039084 0.02400389 -0.06577218
H  1.10979463 2.18036570 0.00100558
H  -1.21098234 2.19854902 -0.21270677
H  -2.47283657 -0.03660082 -0.00278571
12
MD Step 168 Units = [Angstroms]
C  -0.68507161 -1.18617506 0.05735785
C  0.71638021 -1.19281741 0.01328261
C  1.43067454 0.00086804 -0.01533344
C  0.64517533 1.19399719 0.03115159
C  -0.71401102 1.18942183 -0.07015233
C  -1.38935041 -0.02117930 0.00887026
H  -1.31893058 -2.08314387 -0.03721723
H  1.29491787 -2.09912536 0.02544598
H  2.56796225 0.02044658 -0.06583442
H  1.10589943 2.18458514 -0.00073201
H  -1.20304879 2.19291318 -0.21695517
H  -2.49204575 -0.02639292 -0.00471149
12
MD Step 169 Units = [Angstroms]
C  -0.68399608 -1.18419101 0.05540703
C  0.71529326 -1.19136783 0.01305925
C  1.43229249 -0.00323519 -0.01494269
C  0.64520274 1.19479330 0.03129472
C  -0.71695621 1.19007298 -0.07064210
C  -1.38747846 -0.02326697 0.01116378
H  -1.31566814 -2.08569805 -0.03667099
H  1.29474007 -2.08445943 0.02969609
H  2.57204448 0.01708447 -0.06559546
H  1.10349431 2.18913372 -0.00216365
H  -1.19532690 2.18509355 -0.22057450
H  -2.51121090 -0.01626144 -0.00664357
12
MD Step 170 Units = [Angstroms]
C  -0.68288271 -1.18254892 0.05335114
C  0.71422632 -1.18977325 0.01287299
C  1.43381406 -0.00702014 -0.01447312
C  0.64576035 1.19547783 0.03126662
C  -0.72001997 1.19090609 -0.07107633
C  -1.38605998 -0.02506634 0.01340357
H  -1.31108704 -2.08919786 -0.03528701
H  1.29544497 -2.07314405 0.03376736
H  2.57244754 0.01391400 -0.06504245
H  1.10253052 2.19376671 -0.00328098
H  -1.18829784 2.17583188 -0.22364896
H  -2.52868880 -0.00638760 -0.00851813
12
MD Step 171 Units = [Angstroms]
C  -0.68176271 -1.18128912 0.05119985
C  0.71317580 -1.18801677 0.01272368
C  1.43522530 -0.01040961 -0.01392581
C  0.64683076 1.19604068 0.03106314
C  -0.72310821 1.19184746 -0.07144128
C  -1.38522083 -0.02653581 0.01557647
H  -1.30515853 -2.09348355 -0.03308591
H  1.29734949 -2.06588432 0.03765814
H  2.56923670 0.01093457 -0.06417320
H  1.10292695 2.19820385 -0.00407760
H  -1.18248091 2.16600966 -0.22628947
H  -2.54312349 0.00303581 -0.01026904
12
MD Step 172 Units = [Angstroms]
C  -0.68066447 -1.18044269 0.04896345
C  0.71214961 -1.18610888 0.01261120
C  1.43649834 -0.01333476 -0.01330162
C  0.64838779 1.19647799 0.03068094
C  -0.72612330 1.19281612 -0.07172180
C  -1.38505318 -0.02764080 0.01766990
H  -1.29788570 -2.09840850 -0.03009711
H  1.30056758 -2.06302539 0.04136523
H  2.56273054 0.00814989 -0.06299617
H  1.10457998 2.20215267 -0.00454982
H  -1.17839691 2.15657919 -0.22862397
H  -2.55349672 0.01181726 -0.01183206
12
MD Step 173 Units = [Angstroms]
C  -0.67961304 -1.18002991 0.04665287
C  0.71116930 -1.18408956 0.01253585
C  1.43759178 -0.01573648 -0.01260123
C  0.65039701 1.19679071 0.03011757
C  -0.72896902 1.19373155 -0.07190267
C  -1.38561415 -0.02835565 0.01967211
H  -1.28930777 -2.10384813 -0.02635888
H  1.30498076 -2.06451292 0.04487821
H  2.55349127 0.00556874 -0.06152991
H  1.10737350 2.20533214 -0.00469746
H  -1.17652185 2.14846962 -0.23078258
H  -2.55914189 0.01977713 -0.01314813
12
MD Step 174 Units = [Angstroms]
C  -0.67862973 -1.18005917 0.04427967
C  0.71026895 -1.18202561 0.01249863
C  1.43845194 -0.01756650 -0.01182513
C  0.65281639 1.19698332 0.02937160
C  -0.73155599 1.19452277 -0.07197025
C  -1.38692587 -0.02866507 0.02157237
H  -1.27950202 -2.10970573 -0.02191801
H  1.31025037 -2.06991441 0.04817585
H  2.54230336 0.00320494 -0.05980199
H  1.11118828 2.20749448 -0.00452464
H  -1.17723494 2.14247634 -0.23287877
H  -2.55974162 0.02675595 -0.01416606
12
MD Step 175 Units = [Angstroms]
C  -0.67773196 -1.18052657 0.04185605
C  0.70949097 -1.18000375 0.01250126
C  1.43901543 -0.01878805 -0.01097373
C  0.65559709 1.19706260 0.02844275
C  -0.73380700 1.19513745 -0.07191417
C  -1.38897587 -0.02856505 0.02336107
H  -1.26858332 -2.11591507 -0.01682884
H  1.31586790 -2.07849417 0.05122560
H  2.53013394 0.00107643 -0.05784704
H  1.11591020 2.20844357 -0.00404037
H  -1.18076836 2.13915195 -0.23498927
H  -2.55532296 0.03262072 -0.01484462
12
MD Step 176 Units = [Angstroms]
C  -0.67693323 -1.18141616 0.03939473
C  0.70888025 -1.17812139 0.01254588
C  1.43921380 -0.01937611 -0.01004752
C  0.65868449 1.19703665 0.02733194
C  -0.73566140 1.19554894 -0.07172884
C  -1.39171723 -0.02806308 0.02502981
H  -1.25670133 -2.12243977 -0.01115202
H  1.32122866 -2.08932058 0.05398614
H  2.51806854 -0.00079671 -0.05570372
H  1.12143686 2.20804912 -0.00325878
H  -1.18716893 2.13872324 -0.23713757
H  -2.54625684 0.03727000 -0.01515460
12
MD Step 177 Units = [Angstroms]
C  -0.67624314 -1.18270090 0.03690889
C  0.70847807 -1.17647692 0.01263474
C  1.43898035 -0.01931745 -0.00904741
C  0.66201934 1.19691413 0.02604135
C  -0.73707790 1.19575932 -0.07141426
C  -1.39506850 -0.02717803 0.02657156
H  -1.24403549 -2.12926934 -0.00495290
H  1.32570997 -2.10138025 0.05641188
H  2.50721867 -0.00239489 -0.05341047
H  1.12768242 2.20625597 -0.00219919
H  -1.19628107 2.14105652 -0.23928531
H  -2.53326165 0.04063846 -0.01508078
12
MD Step 178 Units = [Angstroms]
C  -0.67566760 -1.18434417 0.03441208
C  0.70831713 -1.17516141 0.01276971
C  1.43825890 -0.01861038 -0.00797505
C  0.66553910 1.19670381 0.02457444
C  -0.73803511 1.19579760 -0.07097592
C  -1.39891397 -0.02593936 0.02798071
H  -1.23078828 -2.13641232 0.00170010
H  1.32873887 -2.11367875 0.05845802
H  2.49860535 -0.00370201 -0.05100053
H  1.13458071 2.20308830 -0.00088568
H  -1.20775614 2.14568130 -0.24133445
H  -2.51740412 0.04270032 -0.01462375
12
MD Step 179 Units = [Angstroms]
C  -0.67520902 -1.18630181 0.03191806
C  0.70841836 -1.17425230 0.01295196
C  1.43701342 -0.01726462 -0.00683321
C  0.66917941 1.19641438 0.02293595
C  -0.73853028 1.19571362 -0.07042392
C  -1.40310538 -0.02438587 0.02925322
H  -1.21717706 -2.14388679 0.00873701
H  1.32984142 -2.12531752 0.06008506
H  2.49303326 -0.00470790 -0.04849696
H  1.14208624 2.19864880 0.00065344
H  -1.22108618 2.15186563 -0.24313954
H  -2.50008330 0.04347087 -0.01380086
12
MD Step 180 Units = [Angstroms]
C  -0.67486678 -1.18852451 0.02944067
C  0.70878932 -1.17380916 0.01318165
C  1.43523638 -0.01530116 -0.00562607
C  0.67287554 1.19605467 0.02113187
C  -0.73857651 1.19556946 -0.06977145
C  -1.40746682 -0.02256386 0.03038653
H  -1.20342526 -2.15170917 0.01608767
H  1.32867330 -2.13554605 0.06126225
H  2.49097966 -0.00540921 -0.04590878
H  1.15017322 2.19311250 0.00238650
H  -1.23565457 2.15872244 -0.24452681
H  -2.48297680 0.04300412 -0.01264552
12
MD Step 181 Units = [Angstroms]
C  -0.67463766 -1.19096018 0.02699375
C  0.70942411 -1.17387124 0.01345780
C  1.43295384 -0.01275242 -0.00435926
C  0.67656389 1.19563433 0.01916939
C  -0.73819939 1.19543019 -0.06903317
C  -1.41180463 -0.02052476 0.03137938
H  -1.18975366 -2.15988238 0.02368255
H  1.32503525 -2.14379376 0.06196990
H  2.49252493 -0.00580844 -0.04322952
H  1.15883231 2.18671547 0.00427939
H  -1.25079281 2.16532186 -0.24531508
H  -2.46792644 0.04138481 -0.01120340
12
MD Step 182 Units = [Angstroms]
C  -0.67451658 -1.19355634 0.02459097
C  0.71030396 -1.17445603 0.01377817
C  1.43022559 -0.00966248 -0.00303973
C  0.68018326 1.19516480 0.01705679
C  -0.73743373 1.19535589 -0.06822370
C  -1.41592356 -0.01832236 0.03223122
H  -1.17637245 -2.16838471 0.03145314
H  1.31887842 -2.14968832 0.06220059
H  2.49734389 -0.00591107 -0.04043854
H  1.16806500 2.17973864 0.00629656
H  -1.26583402 2.17078924 -0.24533467
H  -2.45674948 0.03871460 -0.00952503
12
MD Step 183 Units = [Angstroms]
C  -0.67449729 -1.19626204 0.02224580
C  0.71139836 -1.17555856 0.01413926
C  1.42714029 -0.00608726 -0.00167538
C  0.68367620 1.19466065 0.01480333
C  -0.73632065 1.19539572 -0.06735646
C  -1.41964799 -0.01600992 0.03294146
H  -1.16347499 -2.17716084 0.03933185
H  1.31030383 -2.15306568 0.06195984
H  2.50476002 -0.00572180 -0.03750494
H  1.17787599 2.17248741 0.00840188
H  -1.28015722 2.17437865 -0.24444170
H  -2.45098736 0.03509487 -0.00765530
12
MD Step 184 Units = [Angstroms]
C  -0.67457306 -1.19902934 0.01997146
C  0.71266620 -1.17715113 0.01453636
C  1.42380671 -0.00209455 -0.00027455
C  0.68699005 1.19414102 0.01241914
C  -0.73490521 1.19558425 -0.06644290
C  -1.42284458 -0.01363791 0.03350865
H  -1.15123355 -2.18611649 0.04725160
H  1.29955821 -2.15397544 0.06126607
H  2.51384740 -0.00524114 -0.03439296
H  1.18826366 2.16526854 0.01055926
H  -1.29322036 2.17552035 -0.24252733
H  -2.45164064 0.03061235 -0.00562265
12
MD Step 185 Units = [Angstroms]
C  -0.67473727 -1.20181421 0.01778084
C  0.71405704 -1.17918349 0.01496361
C  1.42034345 0.00223657 0.00115449
C  0.69007796 1.19363099 0.00991507
C  -0.73323433 1.19593958 -0.06549210
C  -1.42543953 -0.01125294 0.03393000
H  -1.13979742 -2.19511746 0.05514513
H  1.28702672 -2.15268173 0.06015011
H  2.52355429 -0.00446348 -0.03106743
H  1.19920978 2.15836631 0.01273297
H  -1.30458326 2.17384707 -0.23952272
H  -2.45896788 0.02533407 -0.00343214
12
MD Step 186 Units = [Angstroms]
C  -0.67498381 -1.20457695 0.01568650
C  0.71551240 -1.18158363 0.01541416
C  1.41686897 0.00681680 0.00260394
C  0.69289975 1.19316248 0.00730253
C  -0.73135485 1.19646291 -0.06451053
C  -1.42742481 -0.00889803 0.03420145
H  -1.12929314 -2.20399352 0.06294457
H  1.27322085 -2.14965719 0.05865408
H  2.53282278 -0.00337688 -0.02749820
H  1.21066934 2.15202055 0.01488758
H  -1.31392287 2.16920557 -0.23540072
H  -2.47242103 0.01931475 -0.00106557
12
MD Step 187 Units = [Angstroms]
C  -0.67530714 -1.20728217 0.01370060
C  0.71696755 -1.18425984 0.01588038
C  1.41349342 0.01154847 0.00406680
C  0.69542255 1.19277458 0.00459345
C  -0.72931143 1.19713896 -0.06350208
C  -1.42885089 -0.00661397 0.03431837
H  -1.11982636 -2.21254675 0.07058118
H  1.25875862 -2.14556438 0.05682936
H  2.54068700 -0.00196465 -0.02366312
H  1.22256215 2.14640918 0.01698751
H  -1.32104370 2.16165904 -0.23017550
H  -2.49074348 0.01261281 0.00151095
12
MD Step 188 Units = [Angstroms]
C  -0.67570220 -1.20989848 0.01183480
C  0.71835391 -1.18710443 0.01635415
C  1.41031285 0.01632788 0.00553702
C  0.69762129 1.19251294 0.00180009
C  -0.72714454 1.19793685 -0.06246808
C  -1.42980929 -0.00444073 0.03427659
H  -1.11148484 -2.22056332 0.07798565
H  1.24433344 -2.14121760 0.05473361
H  2.54634366 -0.00020806 -0.01954935
H  1.23476748 2.14163780 0.01899650
H  -1.32588477 2.15148386 -0.22390065
H  -2.51219387 0.00530692 0.00433532
12
MD Step 189 Units = [Angstroms]
C  -0.67616409 -1.21239806 0.01010020
C  0.71960250 -1.18999991 0.01682726
C  1.40740527 0.02104830 0.00700955
C  0.69947888 1.19242829 -0.00106500
C  -0.72488838 1.19881129 -0.06140750
C  -1.43041106 -0.00241841 0.03407331
H  -1.10434181 -2.22782731 0.08508881
H  1.23066935 -2.13751820 0.05242665
H  2.54919648 0.00191046 -0.01515337
H  1.24712291 2.13773738 0.02087688
H  -1.32852364 2.13916118 -0.21666601
H  -2.53481857 -0.00249419 0.00743813
12
MD Step 190 Units = [Angstroms]
C  -0.67668762 -1.21475608 0.00850713
C  0.72064837 -1.19282757 0.01729188
C  1.40482839 0.02560314 0.00848027
C  0.70098620 1.19257408 -0.00398908
C  -0.72256934 1.19970429 -0.06031722
C  -1.43076750 -0.00058722 0.03370779
H  -1.09845923 -2.23413505 0.09182289
H  1.21846288 -2.13536138 0.04996563
H  2.54888090 0.00440391 -0.01048020
H  1.25942779 2.13467040 0.02258922
H  -1.32917586 2.12536132 -0.20859274
H  -2.55669760 -0.01065136 0.01083514
12
MD Step 191 Units = [Angstroms]
C  -0.67726692 -1.21695023 0.00706495
C  0.72143571 -1.19547795 0.01774096
C  1.40261819 0.02988937 0.00994590
C  0.70214176 1.19300340 -0.00695936
C  -0.72020514 1.20054745 -0.05919247
C  -1.43097651 0.00101323 0.03318150
H  -1.09389044 -2.23930864 0.09812307
H  1.20831727 -2.13552102 0.04740030
H  2.54527558 0.00727760 -0.00554194
H  1.27145113 2.13234407 0.02409224
H  -1.32818659 2.11091666 -0.19982631
H  -2.57612131 -0.01900208 0.01452436
12
MD Step 192 Units = [Angstroms]
C  -0.67789511 -1.21896020 0.00578193
C  0.72192274 -1.19786171 0.01816860
C  1.40078802 0.03381087 0.01140384
C  0.70295120 1.19376563 -0.00996302
C  -0.71780525 1.20126550 -0.05802752
C  -1.43111504 0.00234517 0.03249803
H  -1.09068207 -2.24320746 0.10392912
H  1.20067947 -2.13853106 0.04476953
H  2.53850568 0.01052660 -0.00035598
H  1.28294305 2.13062838 0.02534317
H  -1.32601006 2.09677768 -0.19052656
H  -2.59169177 -0.02737097 0.01848683
12
MD Step 193 Units = [Angstroms]
C  -0.67856410 -1.22076739 0.00466496
C  0.72208545 -1.19991849 0.01857020
C  1.39932813 0.03728147 0.01285192
C  0.70342664 1.19490303 -0.01298742
C  -0.71537290 1.20178133 -0.05681659
C  -1.43123620 0.00337402 0.03166276
H  -1.08887517 -2.24573689 0.10918713
H  1.19579335 -2.14459000 0.04210008
H  2.52893970 0.01413374 0.00505708
H  1.29364835 2.12937654 0.02629861
H  -1.32317268 2.08394789 -0.18085504
H  -2.60236569 -0.03558048 0.02268963
12
MD Step 194 Units = [Angstroms]
C  -0.67926457 -1.22235476 0.00371946
C  0.72191916 -1.20162159 0.01894241
C  1.39820583 0.04022759 0.01428813
C  0.70358586 1.19644762 -0.01602012
C  -0.71290886 1.20202270 -0.05555497
C  -1.43136901 0.00406974 0.03068253
H  -1.08850544 -2.24685387 0.11385088
H  1.19368054 -2.15351486 0.03940808
H  2.51717861 0.01806877 0.01067571
H  1.30332086 2.12844502 0.02691575
H  -1.32021829 2.07339721 -0.17096040
H  -2.60746296 -0.04345993 0.02708968
12
MD Step 195 Units = [Angstroms]
C  -0.67998618 -1.22370681 0.00294914
C  0.72143773 -1.20297732 0.01928283
C  1.39736668 0.04259018 0.01571037
C  0.70345149 1.19841869 -0.01904905
C  -0.71041647 1.20193004 -0.05424007
C  -1.43151920 0.00440810 0.02956524
H  -1.08960284 -2.24656892 0.11788297
H  1.19415305 -2.16475856 0.03670266
H  2.50403280 0.02228866 0.01647996
H  1.31173712 2.12771141 0.02715371
H  -1.31763945 2.06596074 -0.16096402
H  -2.60666120 -0.05085274 0.03163769
12
MD Step 196 Units = [Angstroms]
C  -0.68071787 -1.22480985 0.00235597
C  0.72067058 -1.20401932 0.01958972
C  1.39673731 0.04432603 0.01711616
C  0.70305012 1.20082101 -0.02206254
C  -0.70790713 1.20146430 -0.05287229
C  -1.43166986 0.00437175 0.02831948
H  -1.09219051 -2.24494473 0.12125543
H  1.19685329 -2.17748575 0.03399055
H  2.49048035 0.02673942 0.02245386
H  1.31870846 2.12708868 0.02697503
H  -1.31580548 2.06223779 -0.15094924
H  -2.59999015 -0.05762228 0.03628215
12
MD Step 197 Units = [Angstroms]
C  -0.68144835 -1.22565241 0.00194012
C  0.71965854 -1.20479977 0.01986164
C  1.39623053 0.04540828 0.01850234
C  0.70241137 1.20364397 -0.02504945
C  -0.70540472 1.20061312 -0.05145536
C  -1.43178161 0.00395117 0.02695426
H  -1.09628293 -2.24209115 0.12394978
H  1.20131022 -2.19068552 0.03128013
H  2.47760019 0.03135937 0.02858741
H  1.32409067 2.12653516 0.02634701
H  -1.31490337 2.06251197 -0.14095687
H  -2.58783211 -0.06365705 0.04097334
12
MD Step 198 Units = [Angstroms]
C  -0.68216662 -1.22622592 0.00169995
C  0.71844949 -1.20537965 0.02009732
C  1.39575305 0.04582617 0.01986496
C  0.70156698 1.20686137 -0.02799912
C  -0.70294762 1.19939383 -0.04999603
C  -1.43179224 0.00314535 0.02547864
H  -1.10188353 -2.23815698 0.12595656
H  1.20699872 -2.20329319 0.02858409
H  2.46647726 0.03608340 0.03487748
H  1.32779103 2.12605997 0.02524277
H  -1.31490754 2.06671202 -0.13098881
H  -2.57092794 -0.06887557 0.04566782
12
MD Step 199 Units = [Angstroms]
C  -0.68286263 -1.22652555 0.00163209
C  0.71709439 -1.20582016 0.02029553
C  1.39521527 0.04558436 0.02119932
C  0.70054993 1.21043219 -0.03090151
C  -0.70058753 1.19785235 -0.04850327
C  -1.43161647 0.00196221 0.02390136
H  -1.10898143 -2.23331879 0.12727431
H  1.21339229 -2.21429807 0.02592052
H  2.45808473 0.04084710 0.04132681
H  1.32977217 2.12572414 0.02364213
H  -1.31558738 2.07442389 -0.12101867
H  -2.55038124 -0.07323103 0.05033346
12
MD Step 200 Units = [Angstroms]
C  -0.68352784 -1.22655116 0.00173158
C  0.71564429 -1.20617621 0.02045514
C  1.39454203 0.04470190 0.02250012
C  0.69939354 1.21430184 -0.03374709
C  -0.69838539 1.19605838 -0.04698713
C  -1.43114699 0.00041859 0.02223052
H  -1.11754766 -2.22776761 0.12790807
H  1.22000394 -2.22282493 0.02331253
H  2.45315889 0.04558950 0.04794076
H  1.33005285 2.12563723 0.02153196
H  -1.31655019 2.08495064 -0.11100628
H  -2.52764582 -0.07671436 0.05495495
12
MD Step 201 Units = [Angstroms]
C  -0.68415588 -1.22630826 0.00199208
C  0.71414798 -1.20649233 0.02057523
C  1.39368218 0.04321118 0.02376198
C  0.69813065 1.21840409 -0.03652691
C  -0.69640527 1.19409804 -0.04545754
C  -1.43025864 -0.00146023 0.02047314
H  -1.12753082 -2.22169436 0.12786768
H  1.22641481 -2.22818733 0.02078702
H  2.45209189 0.05025317 0.05472187
H  1.32870536 2.12595005 0.01890625
H  -1.31730706 2.09740416 -0.10091200
H  -2.50447454 -0.07935409 0.05953856
12
MD Step 202 Units = [Angstroms]
C  -0.68474320 -1.22580897 0.00240600
C  0.71265035 -1.20680038 0.02065518
C  1.39261463 0.04115695 0.02497991
C  0.69679297 1.22266346 -0.03923252
C  -0.69470799 1.19206568 -0.04392352
C  -1.42881758 -0.00364173 0.01863508
H  -1.13885278 -2.21527547 0.12716597
H  1.23229268 -2.22991793 0.01837310
H  2.45486897 0.05478149 0.06166328
H  1.32584949 2.12684326 0.01576567
H  -1.31734481 2.11080764 -0.09070796
H  -2.48280522 -0.08121023 0.06411440
12
MD Step 203 Units = [Angstroms]
C  -0.68528962 -1.22507258 0.00296478
C  0.71119099 -1.20711868 0.02069483
C  1.39134943 0.03859543 0.02614984
C  0.69541048 1.22699791 -0.04185593
C  -0.69334546 1.19005633 -0.04239258
C  -1.42669674 -0.00608797 0.01672124
H  -1.15140476 -2.20866026 0.12581727
H  1.23740359 -2.22778303 0.01610035
H  2.46106815 0.05911426 0.06874292
H  1.32164315 2.12851251 0.01211678
H  -1.31618990 2.12419031 -0.08038448
H  -2.46456901 -0.08236062 0.06873316
12
MD Step 204 Units = [Angstroms]
C  -0.68579868 -1.22412598 0.00365907
C  0.70980292 -1.20745186 0.02069456
C  1.38992382 0.03559339 0.02726893
C  0.69401118 1.23132201 -0.04438958
C  -0.69235663 1.18815959 -0.04087058
C  -1.42379665 -0.00875794 0.01473640
H  -1.16504467 -2.20196145 0.12383632
H  1.24161934 -2.22178763 0.01399720
H  2.46992272 0.06318343 0.07592006
H  1.31626991 2.13115044 0.00797090
H  -1.31345618 2.13666331 -0.06995205
H  -2.45143249 -0.08288091 0.07345479
12
MD Step 205 Units = [Angstroms]
C  -0.68627779 -1.22300357 0.00447888
C  0.70851141 -1.20779115 0.02065540
C  1.38839446 0.03222695 0.02833563
C  0.69262094 1.23555006 -0.04682624
C  -0.69176505 1.18645508 -0.03936179
C  -1.42006745 -0.01160984 0.01268672
H  -1.17959620 -2.19525025 0.12123789
H  1.24492258 -2.21217493 0.01208947
H  2.48042919 0.06691111 0.08313528
H  1.30992444 2.13492662 0.00334286
H  -1.30887523 2.14747389 -0.05943996
H  -2.44452373 -0.08282364 0.07832917
12
MD Step 206 Units = [Angstroms]
C  -0.68673789 -1.22174690 0.00541374
C  0.70733274 -1.20811487 0.02057906
C  1.38682819 0.02858012 0.02934951
C  0.69126360 1.23959944 -0.04915903
C  -0.69157790 1.18500943 -0.03786908
C  -1.41552560 -0.01460250 0.01058145
H  -1.19485036 -2.18855663 0.11803715
H  1.24740973 -2.19942064 0.01039908
H  2.49147410 0.07021053 0.09031372
H  1.30279697 2.13996698 -0.00175033
H  -1.30231192 2.15604044 -0.04889273
H  -2.44422291 -0.08220470 0.08337307
12
MD Step 207 Units = [Angstroms]
C  -0.68719268 -1.22040389 0.00645272
C  0.70627335 -1.20838945 0.02046799
C  1.38529311 0.02474294 0.03031092
C  0.68996118 1.24339361 -0.05138139
C  -0.69178599 1.18387416 -0.03639422
C  -1.41025887 -0.01769540 0.00843429
H  -1.21056959 -2.18187476 0.11425068
H  1.24929029 -2.18421966 0.00894300
H  2.50195395 0.07298983 0.09737067
H  1.29505867 2.14633481 -0.00729052
H  -1.29376960 2.16197354 -0.03836554
H  -2.45009246 -0.08100370 0.08855147
12
MD Step 208 Units = [Angstroms]
C  -0.68765737 -1.21902785 0.00758449
C  0.70532947 -1.20857118 0.02032536
C  1.38385156 0.02080937 0.03122052
C  0.68873406 1.24686478 -0.05348715
C  -0.69236441 1.18308426 -0.03493820
C  -1.40441760 -0.02084738 0.00626374
H  -1.22649458 -2.17517290 0.10989788
H  1.25087956 -2.16745961 0.00773259
H  2.51087203 0.07515751 0.10421790
H  1.28684987 2.15401559 -0.01325897
H  -1.28338874 2.16508792 -0.02791921
H  -2.46097448 -0.07917840 0.09377067
12
MD Step 209 Units = [Angstroms]
C  -0.68814718 -1.21767607 0.00879732
C  0.70448767 -1.20860938 0.02015503
C  1.38255519 0.01687502 0.03207893
C  0.68760102 1.24995595 -0.05547059
C  -0.69327363 1.18265702 -0.03350159
C  -1.39819520 -0.02401467 0.00409228
H  -1.24235330 -2.16840642 0.10500266
H  1.25258034 -2.15017469 0.00677349
H  2.51740661 0.07662847 0.11077002
H  1.27827279 2.16290804 -0.01963638
H  -1.27144146 2.16540848 -0.01761504
H  -2.47521694 -0.07668634 0.09888600
12
MD Step 210 Units = [Angstroms]
C  -0.68867557 -1.21640832 0.01007903
C  0.70372686 -1.20845138 0.01996142
C  1.38144194 0.01303470 0.03288639
C  0.68657913 1.25262220 -0.05732667
C  -0.69446089 1.18259126 -0.03208485
C  -1.39180456 -0.02714920 0.00194469
H  -1.25787155 -2.16153214 0.09959484
H  1.25484942 -2.13347426 0.00606625
H  2.52095339 0.07732966 0.11694995
H  1.26939000 2.17282311 -0.02640231
H  -1.25832272 2.16317143 -0.00750969
H  -2.49094940 -0.07350464 0.10372023
12
MD Step 211 Units = [Angstroms]
C  -0.68925268 -1.21528485 0.01141699
C  0.70302181 -1.20804943 0.01974938
C  1.38053440 0.00938007 0.03364245
C  0.68568332 1.25483114 -0.05905115
C  -0.69586202 1.18286703 -0.03068879
C  -1.38545679 -0.03019785 -0.00015390
H  -1.27278420 -2.15452245 0.09371123
H  1.25814671 -2.11844564 0.00560777
H  2.52114866 0.07720503 0.12269351
H  1.26022856 2.18349133 -0.03353413
H  -1.24453709 2.15881836 0.00234976
H  -2.50633103 -0.06964191 0.10808570
12
MD Step 212 Units = [Angstroms]
C  -0.68988393 -1.21436437 0.01279813
C  0.70234804 -1.20736890 0.01952394
C  1.37983905 0.00599725 0.03434580
C  0.68492579 1.25656262 -0.06064084
C  -0.69740374 1.18344622 -0.02931484
C  -1.37934567 -0.03310285 -0.00217967
H  -1.28684627 -2.14737767 0.08739612
H  1.26286982 -2.10603964 0.00539344
H  2.51788006 0.07621959 0.12795328
H  1.25078914 2.19457823 -0.04100575
H  -1.23067913 2.15297915 0.01193021
H  -2.51972785 -0.06514083 0.11180386
12
MD Step 213 Units = [Angstroms]
C  -0.69056913 -1.21370176 0.01420897
C  0.70168730 -1.20639638 0.01929008
C  1.37934583 0.00296466 0.03499405
C  0.68431531 1.25780778 -0.06209374
C  -0.69900676 1.18427468 -0.02796534
C  -1.37363853 -0.03580318 -0.00411124
H  -1.29984282 -2.14013556 0.08070105
H  1.26928390 -2.09695701 0.00541945
H  2.51128978 0.07436245 0.13270173
H  1.24105837 2.20570578 -0.04878647
H  -1.21740470 2.14643746 0.02121573
H  -2.52981359 -0.06007418 0.11471904
12
MD Step 214 Units = [Angstroms]
C  -0.69130206 -1.21334581 0.01563567
C  0.70103238 -1.20514565 0.01905257
C  1.37902812 0.00035110 0.03558360
C  0.68385645 1.25856766 -0.06340918
C  -0.70058955 1.18528639 -0.02664368
C  -1.36847183 -0.03823665 -0.00593032
H  -1.31159716 -2.13287728 0.07368400
H  1.27746248 -2.09156105 0.00568458
H  2.50177162 0.07164894 0.13693380
H  1.23102241 2.21647759 -0.05684021
H  -1.20539119 2.14007311 0.03020839
H  -2.53561177 -0.05453732 0.11670661
12
MD Step 215 Units = [Angstroms]
C  -0.69207051 -1.21333714 0.01706413
C  0.70038973 -1.20365967 0.01881589
C  1.37884321 -0.00178580 0.03610954
C  0.68354900 1.25885165 -0.06458787
C  -0.70207307 1.18640999 -0.02535413
C  -1.36394963 -0.04034245 -0.00762192
H  -1.32197658 -2.12572948 0.06640795
H  1.28725556 -2.08983881 0.00619085
H  2.48996040 0.06812121 0.14066866
H  1.22067997 2.22650504 -0.06512530
H  -1.19528687 2.13477896 0.03892579
H  -2.53650339 -0.04864002 0.11767691
12
MD Step 216 Units = [Angstroms]
C  -0.69285690 -1.21370624 0.01848011
C  0.69977931 -1.20200791 0.01858423
C  1.37873369 -0.00340059 0.03656565
C  0.68338763 1.25867573 -0.06563184
C  -0.70338593 1.18757723 -0.02410132
C  -1.36014320 -0.04206382 -0.00917441
H  -1.33089543 -2.11886238 0.05893909
H  1.29829541 -2.09142124 0.00694284
H  2.47670859 0.06384703 0.14395005
H  1.21005324 2.23543202 -0.07359492
H  -1.18765315 2.13135732 0.04739441
H  -2.53222087 -0.04249885 0.11757693
12
MD Step 217 Units = [Angstroms]
C  -0.69363920 -1.21447203 0.01986936
C  0.69923142 -1.20027958 0.01836166
C  1.37863039 -0.00446051 0.03694457
C  0.68336184 1.25806095 -0.06654432
C  -0.70446938 1.18873209 -0.02288951
C  -1.35709069 -0.04335071 -0.01057948
H  -1.33831503 -2.11248372 0.05134474
H  1.31003863 -2.09565528 0.00794578
H  2.46304287 0.05891608 0.14684434
H  1.19919585 2.24295632 -0.08219810
H  -1.18290759 2.13041041 0.05563914
H  -2.52284152 -0.03623062 0.11639119
12
MD Step 218 Units = [Angstroms]
C  -0.69439225 -1.21564095 0.02121777
C  0.69878174 -1.19857441 0.01815229
C  1.37845747 -0.00494532 0.03723821
C  0.68345623 1.25703189 -0.06732959
C  -0.70528149 1.18983884 -0.02172154
C  -1.35479638 -0.04416227 -0.01183217
H  -1.34424052 -2.10682904 0.04369128
H  1.32183300 -2.10170725 0.00920328
H  2.45009402 0.05343354 0.14943522
H  1.18819761 2.24884678 -0.09088132
H  -1.18127842 2.13224761 0.06367090
H  -2.50878665 -0.02994658 0.11414267
12
MD Step 219 Units = [Angstroms]
C  -0.69508924 -1.21720671 0.02251151
C  0.69846585 -1.19699315 0.01796045
C  1.37813992 -0.00484680 0.03743852
C  0.68365124 1.25561547 -0.06799271
C  -0.70579962 1.19088679 -0.02059801
C  -1.35322970 -0.04446897 -0.01293085
H  -1.34871446 -2.10214829 0.03604221
H  1.33299221 -2.10867269 0.01071535
H  2.43899665 0.04751150 0.15181425
H  1.17718603 2.25295537 -0.09959039
H  -1.18278057 2.13683296 0.07147529
H  -2.49082577 -0.02374705 0.11089371
12
MD Step 220 Units = [Angstroms]
C  -0.69570336 -1.21915069 0.02373721
C  0.69831444 -1.19562929 0.01779077
C  1.37761316 -0.00416792 0.03753855
C  0.68392415 1.25383992 -0.06853930
C  -0.70602075 1.19189059 -0.01951666
C  -1.35232439 -0.04425427 -0.01387729
H  -1.35180775 -2.09868973 0.02845658
H  1.34286374 -2.11567277 0.01247710
H  2.43076492 0.04125977 0.15406754
H  1.16632492 2.25522408 -0.10827245
H  -1.18721897 2.14378781 0.07900583
H  -2.47007858 -0.01771636 0.10674609
12
MD Step 221 Units = [Angstroms]
C  -0.69620947 -1.22144316 0.02488205
C  0.69834987 -1.19456290 0.01764828
C  1.37683314 -0.00292202 0.03753366
C  0.68425030 1.25173414 -0.06897534
C  -0.70595988 1.19288607 -0.01847237
C  -1.35197921 -0.04351565 -0.01467652
H  -1.35360832 -2.09668179 0.02098799
H  1.35088138 -2.12192725 0.01447831
H  2.42616135 0.03477846 0.15626019
H  1.15581041 2.25568657 -0.11687808
H  -1.19421779 2.15244784 0.08618351
H  -2.44800039 -0.01191828 0.10183875
12
MD Step 222 Units = [Angstroms]
C  -0.69658568 -1.22404493 0.02593391
C  0.69858424 -1.19385647 0.01753834
C  1.37578497 -0.00113248 0.03742272
C  0.68460449 1.24932741 -0.06930695
C  -0.70564705 1.19392278 -0.01745756
C  -1.35206191 -0.04226487 -0.01533637
H  -1.35420872 -2.09631440 0.01368429
H  1.35660046 -2.12680307 0.01670374
H  2.42558591 0.02815495 0.15842173
H  1.14586460 2.25446435 -0.12536305
H  -1.20326824 2.16195854 0.09290297
H  -2.42632987 -0.00639317 0.09634064
12
MD Step 223 Units = [Angstroms]
C  -0.69681489 -1.22690954 0.02688146
C  0.69901865 -1.19355260 0.01746665
C  1.37448764 0.00116731 0.03720880
C  0.68496229 1.24664953 -0.06954028
C  -0.70512370 1.19505537 -0.01646298
C  -1.35241836 -0.04052737 -0.01586646
H  -1.35369401 -2.09772151 0.00658789
H  1.35971850 -2.12984299 0.01913399
H  2.42901393 0.02146641 0.16053651
H  1.13672724 2.25175758 -0.13368974
H  -1.21378417 2.17138526 0.09904287
H  -2.40697572 -0.00115844 0.09043658
12
MD Step 224 Units = [Angstroms]
C  -0.69688591 -1.22998544 0.02771420
C  0.69964322 -1.19367279 0.01743908
C  1.37299340 0.00393351 0.03689936
C  0.68530124 1.24373143 -0.06968147
C  -0.70443915 1.19633540 -0.01547865
C  -1.35288813 -0.03834068 -0.01627660
H  -1.35213139 -2.10096662 -0.00026328
H  1.36008546 -2.13078080 0.02174667
H  2.43600070 0.01478681 0.16254199
H  1.12864560 2.24783022 -0.14182792
H  -1.22515598 2.17981595 0.10447813
H  -2.39182770 0.00378592 0.08430562
12
MD Step 225 Units = [Angstroms]
C  -0.69679424 -1.23321822 0.02842253
C  0.70043752 -1.19421701 0.01746158
C  1.37138190 0.00711143 0.03650560
C  0.68560186 1.24060617 -0.06973665
C  -0.70364745 1.19780493 -0.01449470
C  -1.35332567 -0.03575201 -0.01657477
H  -1.34956307 -2.10603317 -0.00683444
H  1.35770759 -2.12954832 0.02451782
H  2.44575149 0.00819546 0.16433554
H  1.12186279 2.24299000 -0.14975465
H  -1.23679616 2.18644291 0.10909125
H  -2.38250282 0.00844614 0.07809477
12
MD Step 226 Units = [Angstroms]
C  -0.69654232 -1.23655237 0.02899769
C  0.70137108 -1.19516382 0.01754003
C  1.36975070 0.01063541 0.03604141
C  0.68584845 1.23731031 -0.06971203
C  -0.70280487 1.19949221 -0.01350212
C  -1.35362310 -0.03281541 -0.01676526
H  -1.34600354 -2.11282125 -0.01309259
H  1.35274725 -2.12627745 0.02742348
H  2.45723718 0.00178373 0.16578768
H  1.11660523 2.23756401 -0.15745329
H  -1.24817424 2.19061936 0.11278146
H  -2.38007530 0.01282025 0.07189548
12
MD Step 227 Units = [Angstroms]
C  -0.69613922 -1.23993270 0.02943181
C  0.70240407 -1.19647092 0.01767997
C  1.36820464 0.01442938 0.03552201
C  0.68602952 1.23388521 -0.06961407
C  -0.70196752 1.20140924 -0.01249331
C  -1.35372812 -0.02958899 -0.01684776
H  -1.34144145 -2.12115119 -0.01900534
H  1.34551882 -2.12129760 0.03044134
H  2.46932650 -0.00434230 0.16675815
H  1.11306970 2.23187156 -0.16491155
H  -1.25884182 2.19189354 0.11547127
H  -2.38486879 0.01688536 0.06573168
12
MD Step 228 Units = [Angstroms]
C  -0.69559969 -1.24330529 0.02971791
C  0.70348809 -1.19807641 0.01788647
C  1.36684594 0.01840814 0.03496270
C  0.68613810 1.23037833 -0.06944964
C  -0.70118926 1.20355096 -0.01146247
C  -1.35365074 -0.02613291 -0.01681781
H  -1.33584597 -2.13077381 -0.02454027
H  1.33647913 -2.11512601 0.03355255
H  2.48090822 -0.01006376 0.16711126
H  1.11141114 2.22619686 -0.17211872
H  -1.26844975 2.19002610 0.11711070
H  -2.39638555 0.02059235 0.05956534
12
MD Step 229 Units = [Angstroms]
C  -0.69494285 -1.24661802 0.02984991
C  0.70456766 -1.19990110 0.01816389
C  1.36576653 0.02247942 0.03437781
C  0.68617171 1.22684389 -0.06922620
C  -0.70051931 1.20589535 -0.01040597
C  -1.35345657 -0.02250829 -0.01666854
H  -1.32917656 -2.14138620 -0.02966497
H  1.32620876 -2.10844585 0.03674326
H  2.49098765 -0.01525420 0.16672803
H  1.11173211 2.22076456 -0.17906240
H  -1.27676007 2.18499670 0.11767969
H  -2.41340072 0.02387048 0.05331759
12
MD Step 230 Units = [Angstroms]
C  -0.69419047 -1.24982092 0.02982274
C  0.70558251 -1.20185242 0.01851571
C  1.36504280 0.02654630 0.03377995
C  0.68613215 1.22334296 -0.06895190
C  -0.69999990 1.20840428 -0.00932251
C  -1.35324964 -0.01877701 -0.01639291
H  -1.32139453 -2.15265119 -0.03434767
H  1.31538003 -2.10206593 0.04000578
H  2.49875271 -0.01978674 0.16551449
H  1.11407494 2.21572138 -0.18572532
H  -1.28365452 2.17700360 0.11718901
H  -2.43418564 0.02663966 0.04689705
12
MD Step 231 Units = [Angstroms]
C  -0.69336518 -1.25286616 0.02963244
C  0.70647131 -1.20383036 0.01894443
C  1.36473224 0.03051018 0.03317958
C  0.68602511 1.21994248 -0.06863560
C  -0.69966380 1.21102463 -0.00821331
C  -1.35315090 -0.01500172 -0.01598582
H  -1.31247510 -2.16421848 -0.03855848
H  1.30470855 -2.09685636 0.04333876
H  2.50361381 -0.02354151 0.16340633
H  1.11841759 2.21112651 -0.19208272
H  -1.28914005 2.16645779 0.11568001
H  -2.45678238 0.02882510 0.04022527
12
MD Step 232 Units = [Angstroms]
C  -0.69248882 -1.25570811 0.02927631
C  0.70717663 -1.20573548 0.01945166
C  1.36487161 0.03427374 0.03258471
C  0.68585951 1.21671351 -0.06828682
C  -0.69953217 1.21368994 -0.00708211
C  -1.35327899 -0.01124577 -0.01544530
H  -1.30241831 -2.17574550 -0.04227089
H  1.29488867 -2.09365938 0.04674590
H  2.50522493 -0.02641275 0.16037092
H  1.12467365 2.20695199 -0.19810084
H  -1.29335034 2.15396995 0.11322275
H  -2.47925304 0.03036891 0.03325298
12
MD Step 233 Units = [Angstroms]
C  -0.69158100 -1.25830322 0.02875304
C  0.70765084 -1.20747830 0.02003830
C  1.36547570 0.03774402 0.03200074
C  0.68564688 1.21372848 -0.06791543
C  -0.69961320 1.21632262 -0.00593497
C  -1.35373656 -0.00757265 -0.01477302
H  -1.29125778 -2.18691636 -0.04546338
H  1.28651918 -2.09318269 0.05023300
H  2.50349301 -0.02831507 0.15640745
H  1.13269646 2.20309297 -0.20373685
H  -1.29654068 2.14032677 0.10991226
H  -2.49985969 0.03123630 0.02596610
12
MD Step 234 Units = [Angstroms]
C  -0.69065810 -1.26061000 0.02806292
C  0.70786183 -1.20898875 0.02070486
C  1.36653663 0.04083535 0.03143038
C  0.68540055 1.21105794 -0.06753137
C  -0.69990181 1.21883723 -0.00477989
C  -1.35460271 -0.00404503 -0.01397405
H  -1.27906676 -2.19745763 -0.04812094
H  1.28003194 -2.09589296 0.05380344
H  2.49858071 -0.02918880 0.15154598
H  1.14228709 2.19938605 -0.20894026
H  -1.29907212 2.12645122 0.10586218
H  -2.51716843 0.03141657 0.01838409
12
MD Step 235 Units = [Angstroms]
C  -0.68973269 -1.26258900 0.02720790
C  0.70779733 -1.21022351 0.02145190
C  1.36802326 0.04347198 0.03087370
C  0.68513490 1.20876708 -0.06714413
C  -0.70038104 1.22114527 -0.00362614
C  -1.35593018 -0.00072353 -0.01305631
H  -1.26596104 -2.20715034 -0.05023627
H  1.27563980 -2.10193352 0.05745313
H  2.49090403 -0.02900422 0.14584544
H  1.15320520 2.19563284 -0.21365561
H  -1.30138063 2.11334242 0.10119567
H  -2.53009421 0.03092057 0.01055418
12
MD Step 236 Units = [Angstroms]
C  -0.68881337 -1.26420291 0.02619172
C  0.70746656 -1.21116939 0.02228032
C  1.36988135 0.04559035 0.03032816
C  0.68486464 1.20691222 -0.06676234
C  -0.70102527 1.22316147 -0.00248336
C  -1.35774515 0.00233459 -0.01202999
H  -1.25209878 -2.21583764 -0.05181054
H  1.27331722 -2.11108904 0.06116635
H  2.48112243 -0.02776429 0.13939033
H  1.16518174 2.19162553 -0.21782605
H  -1.30392897 2.10199353 0.09603392
H  -2.53791020 0.02977640 0.00254408
12
MD Step 237 Units = [Angstroms]
C  -0.68790508 -1.26541676 0.02501991
C  0.70689892 -1.21184192 0.02319157
C  1.37203465 0.04714073 0.02978895
C  0.68460411 1.20553781 -0.06639323
C  -0.70180513 1.22481148 -0.00136053
C  -1.36004805 0.00507678 -0.01090687
H  -1.23767739 -2.22342803 -0.05285367
H  1.27281881 -2.12280787 0.06491375
H  2.47011608 -0.02550520 0.13228580
H  1.17793251 2.18717154 -0.22139732
H  -1.30714317 2.09329304 0.09048377
H  -2.54024273 0.02802488 -0.00556529
12
MD Step 238 Units = [Angstroms]
C  -0.68700969 -1.26619833 0.02369976
C  0.70614013 -1.21227957 0.02418760
C  1.37438796 0.04808816 0.02924945
C  0.68436675 1.20467407 -0.06604228
C  -0.70269328 1.22603966 -0.00026508
C  -1.36281423 0.00745638 -0.00969975
H  -1.22292783 -2.22989405 -0.05338404
H  1.27372947 -2.13627604 0.06865325
H  2.45894205 -0.02229392 0.12465043
H  1.19117151 2.18211496 -0.22432158
H  -1.31134215 2.08792273 0.08462708
H  -2.53706536 0.02571529 -0.01368666
12
MD Step 239 Units = [Angstroms]
C  -0.68612682 -1.26651866 0.02224025
C  0.70524690 -1.21253536 0.02527056
C  1.37683274 0.04841258 0.02870194
C  0.68416450 1.20433534 -0.06571283
C  -0.70366982 1.22681573 0.00079768
C  -1.36599402 0.00943361 -0.00842189
H  -1.20810652 -2.23526652 -0.05342777
H  1.27553206 -2.15052262 0.07233347
H  2.44876122 -0.01822200 0.11660647
H  1.20462327 2.17635337 -0.22656086
H  -1.31667520 2.08627196 0.07851471
H  -2.52869895 0.02290170 -0.02173308
12
MD Step 240 Units = [Angstroms]
C  -0.68525482 -1.26635287 0.02065187
C  0.70428154 -1.21266782 0.02644249
C  1.37925567 0.04810821 0.02813856
C  0.68400742 1.20451932 -0.06540597
C  -0.70472597 1.22713835 0.00182462
C  -1.36951216 0.01097639 -0.00708646
H  -1.19348552 -2.23962454 -0.05301750
H  1.27767669 -2.16453163 0.07589863
H  2.44073214 -0.01339609 0.10826840
H  1.21803376 2.16984933 -0.22808974
H  -1.32308334 2.08838862 0.07216701
H  -2.51581777 0.01963965 -0.02962481
12
MD Step 241 Units = [Angstroms]
C  -0.68439183 -1.26568110 0.01894646
C  0.70330718 -1.21273319 0.02770487
C  1.38154974 0.04718225 0.02755224
C  0.68390322 1.20520700 -0.06512040
C  -0.70586480 1.22703489 0.00281428
C  -1.37326720 0.01206079 -0.00570590
H  -1.17934135 -2.24308182 -0.05219079
H  1.27963978 -2.17734029 0.07929371
H  2.43587771 -0.00792656 0.09973146
H  1.23117921 2.16263631 -0.22889703
H  -1.33029640 2.09397911 0.06558077
H  -2.49945503 0.01598298 -0.03729689
12
MD Step 242 Units = [Angstroms]
C  -0.68353671 -1.26448957 0.01713693
C  0.70238424 -1.21277959 0.02905831
C  1.38362638 0.04565352 0.02693752
C  0.68385694 1.20636336 -0.06485250
C  -0.70709908 1.22655739 0.00376607
C  -1.37713202 0.01267135 -0.00429129
H  -1.16594343 -2.24577020 -0.05098849
H  1.28096740 -2.18811325 0.08246908
H  2.43494356 -0.00191744 0.09106303
H  1.24387276 2.15481933 -0.22898659
H  -1.33786669 2.10245698 0.05874060
H  -2.48099417 0.01198068 -0.04470706
12
MD Step 243 Units = [Angstroms]
C  -0.68269002 -1.26277169 0.01523709
C  0.70156782 -1.21284339 0.03050226
C  1.38542591 0.04355116 0.02629090
C  0.68387063 1.20793872 -0.06459651
C  -0.70844693 1.22577562 0.00467933
C  -1.38095711 0.01280101 -0.00285173
H  -1.15354265 -2.24782173 -0.04945296
H  1.28130310 -2.19619154 0.08538391
H  2.43827894 0.00453901 0.08229965
H  1.25596836 2.14657040 -0.22837701
H  -1.34522999 2.11302641 0.05163112
H  -2.46212471 0.00767378 -0.05184304
12
MD Step 244 Units = [Angstroms]
C  -0.68185472 -1.26052903 0.01326135
C  0.70090602 -1.21294727 0.03203483
C  1.38692382 0.04091388 0.02561060
C  0.68394319 1.20987059 -0.06434482
C  -0.70992653 1.22476915 0.00555258
C  -1.38457888 0.01245085 -0.00139397
H  -1.14236130 -2.24935103 -0.04762665
H  1.28040347 -2.20112101 0.08800870
H  2.44577196 0.01136091 0.07345113
H  1.26736190 2.13811928 -0.22710031
H  -1.35177778 2.12478063 0.04424706
H  -2.44473836 0.00309303 -0.05872644
12
MD Step 245 Units = [Angstroms]
C  -0.68103679 -1.25777206 0.01122453
C  0.70043849 -1.21309965 0.03365265
C  1.38813106 0.03778967 0.02489594
C  0.68407029 1.21208604 -0.06408829
C  -0.71155131 1.22361970 0.00638303
C  -1.38783411 0.01162962 0.00007744
H  -1.13258485 -2.25044000 -0.04555102
H  1.27814541 -2.20266667 0.09032683
H  2.45685927 0.01846932 0.06451050
H  1.27798905 2.12973978 -0.22519975
H  -1.35692546 2.13679603 0.03659942
H  -2.43074855 -0.00174136 -0.06540977
12
MD Step 246 Units = [Angstroms]
C  -0.68024549 -1.25452048 0.00914168
C  0.70019531 -1.21329473 0.03535082
C  1.38908851 0.03423568 0.02414645
C  0.68424447 1.21450449 -0.06381674
C  -0.71332630 1.22240479 0.00716643
C  -1.39058027 0.01035280 0.00155914
H  -1.12435639 -2.25112660 -0.04326593
H  1.27452864 -2.20081861 0.09233552
H  2.47060793 0.02577806 0.05546678
H  1.28781986 2.12173232 -0.22272667
H  -1.36016664 2.14820980 0.02871765
H  -2.42184025 -0.00681666 -0.07196316
12
MD Step 247 Units = [Angstroms]
C  -0.67949328 -1.25080321 0.00702791
C  0.70019593 -1.21351292 0.03712285
C  1.38985749 0.03031790 0.02336098
C  0.68445548 1.21704085 -0.06351942
C  -0.71524596 1.22119307 0.00789713
C  -1.39271793 0.00864168 0.00304720
H  -1.11777398 -2.25139935 -0.04080960
H  1.26967510 -2.19579256 0.09404634
H  2.48584602 0.03318520 0.04631661
H  1.29685015 2.11440364 -0.21973688
H  -1.36110996 2.15827673 0.02064845
H  -2.41919526 -0.01212069 -0.07845067
12
MD Step 248 Units = [Angstroms]
C  -0.67879535 -1.24665797 0.00489827
C  0.70044826 -1.21372161 0.03896069
C  1.39050903 0.02611038 0.02253728
C  0.68469083 1.21960875 -0.06318554
C  -0.71729331 1.22004113 0.00856836
C  -1.39420887 0.00652223 0.00453488
H  -1.11289079 -2.25119815 -0.03821890
H  1.26382540 -2.18802548 0.09548523
H  2.50130873 0.04056909 0.03707197
H  1.30509024 2.10804487 -0.21628657
H  -1.35950025 2.16640689 0.01245254
H  -2.42327060 -0.01763261 -0.08490160
12
MD Step 249 Units = [Angstroms]
C  -0.67816871 -1.24213063 0.00276769
C  0.70094823 -1.21387625 0.04085479
C  1.39111413 0.02169383 0.02167179
C  0.68493653 1.22212385 -0.06280477
C  -0.71943993 1.21899140 0.00917249
C  -1.39508337 0.00402447 0.00601083
H  -1.10971780 -2.25042129 -0.03553004
H  1.25733076 -2.17816315 0.09669191
H  2.51577060 0.04778983 0.02776316
H  1.31255218 2.10290982 -0.21242841
H  -1.35522782 2.17218867 0.00420025
H  -2.43370829 -0.02331477 -0.09128680
12
MD Step 250 Units = [Angstroms]
C  -0.67763087 -1.23727439 0.00065087
C  0.70167994 -1.21392235 0.04279430
C  1.39173648 0.01715369 0.02075986
C  0.68517794 1.22450686 -0.06236768
C  -0.72164651 1.21807090 0.00970153
C  -1.39543403 0.00118236 0.00745856
H  -1.10822836 -2.24893767 -0.03277918
H  1.25063738 -2.16703445 0.09771830
H  2.52814690 0.05469497 0.01843769
H  1.31923683 2.09919548 -0.20820816
H  -1.34833015 2.17540222 -0.00403330
H  -2.44941145 -0.02910935 -0.09750956
12
MD Step 251 Units = [Angstroms]
C  -0.67719826 -1.23214876 -0.00143771
C  0.70261697 -1.21379887 0.04476730
C  1.39242780 0.01257788 0.01979610
C  0.68540064 1.22668618 -0.06186606
C  -0.72386372 1.21729035 0.01014748
C  -1.39539832 -0.00196561 0.00885727
H  -1.10836410 -2.24660247 -0.03000306
H  1.24425959 -2.15560563 0.09862566
H  2.53756092 0.06112746 0.00915649
H  1.32512274 2.09702673 -0.20366218
H  -1.33898863 2.17602660 -0.01217323
H  -2.46875650 -0.03494105 -0.10341458
12
MD Step 252 Units = [Angstroms]
C  -0.67688455 -1.22681860 -0.00348386
C  0.70372495 -1.21344344 0.04676123
C  1.39322528 0.00805445 0.01877483
C  0.68559112 1.22859996 -0.06129319
C  -0.72603330 1.21664371 0.01050283
C  -1.39513636 -0.00537541 0.01018380
H  -1.11004141 -2.24327458 -0.02723926
H  1.23873898 -2.14490918 0.09948006
H  2.54338243 0.06693428 -0.00001118
H  1.33015855 2.09644716 -0.19881635
H  -1.32752170 2.17424205 -0.02014984
H  -2.48986524 -0.04072452 -0.10881020
12
MD Step 253 Units = [Angstroms]
C  -0.67669893 -1.22135289 -0.00547372
C  0.70496556 -1.21279959 0.04876343
C  1.39415047 0.00366914 0.01769058
C  0.68573734 1.23019742 -0.06064390
C  -0.72808951 1.21610820 0.01076102
C  -1.39481032 -0.00899648 0.01141492
H  -1.11315813 -2.23883371 -0.02452629
H  1.23458945 -2.13594692 0.10034646
H  2.54524648 0.07197464 -0.00899312
H  1.33426023 2.09741683 -0.19368623
H  -1.31437362 2.17042600 -0.02790341
H  -2.51085794 -0.04637323 -0.11349506
12
MD Step 254 Units = [Angstroms]
C  -0.67664474 -1.21582352 -0.00739379
C  0.70630142 -1.21182534 0.05076175
C  1.39520875 -0.00049687 0.01653851
C  0.68582884 1.23143951 -0.05991448
C  -0.72996099 1.21564503 0.01091692
C  -1.39456940 -0.01277109 0.01252922
H  -1.11759988 -2.23319578 -0.02190324
H  1.23223330 -2.12957604 0.10128190
H  2.54306084 0.07612754 -0.01771958
H  1.33731374 2.09981740 -0.18827867
H  -1.30009685 2.16513908 -0.03538842
H  -2.53003956 -0.05180692 -0.11728143
12
MD Step 255 Units = [Angstroms]
C  -0.67671843 -1.21030387 -0.00923099
C  0.70770109 -1.21050154 0.05274511
C  1.39638920 -0.00436905 0.01531485
C  0.68585667 1.23229882 -0.05910262
C  -0.73157350 1.21520153 0.01096713
C  -1.39454095 -0.01663433 0.01350844
H  -1.12324590 -2.22632542 -0.01940919
H  1.23193928 -2.12639677 0.10232900
H  2.53700769 0.07929844 -0.02612843
H  1.33918273 2.10346347 -0.18259427
H  -1.28532538 2.15909573 -0.04257665
H  -2.54600946 -0.05695628 -0.12001114
12
MD Step 256 Units = [Angstroms]
C  -0.67690901 -1.20486738 -0.01097271
C  0.70914291 -1.20883823 0.05470392
C  1.39766449 -0.00788125 0.01401725
C  0.68581303 1.23275904 -0.05820711
C  -0.73285348 1.21471504 0.01091018
C  -1.39482651 -0.02051471 0.01433810
H  -1.12997405 -2.21824471 -0.01708243
H  1.23377695 -2.12666701 0.10351147
H  2.52754120 0.08142512 -0.03416999
H  1.33972023 2.10811883 -0.17663054
H  -1.27073646 2.15311374 -0.04945808
H  -2.55771002 -0.06176488 -0.12156437
12
MD Step 257 Units = [Angstroms]
C  -0.67719801 -1.19958598 -0.01260689
C  0.71061667 -1.20687675 0.05663027
C  1.39899110 -0.01097717 0.01264518
C  0.68569076 1.23281390 -0.05722767
C  -0.73373255 1.21411884 0.01074647
C  -1.39550066 -0.02433543 0.01500776
H  -1.13766482 -2.20903772 -0.01495950
H  1.23760001 -2.13026659 0.10483252
H  2.51537889 0.08248239 -0.04181159
H  1.33878251 2.11351556 -0.17038499
H  -1.25700086 2.14803970 -0.05603878
H  -2.56443835 -0.06618904 -0.12186327
12
MD Step 258 Units = [Angstroms]
C  -0.67756005 -1.19452858 -0.01412210
C  0.71212267 -1.20468728 0.05851779
C  1.40031043 -0.01361118 0.01120016
C  0.68548286 1.23246593 -0.05616470
C  -0.73415265 1.21335004 0.01047777
C  -1.39661084 -0.02801612 0.01551099
H  -1.14620429 -2.19885069 -0.01307423
H  1.24306407 -2.13672111 0.10627672
H  2.50148052 0.08248479 -0.04904130
H  1.33624348 2.11937390 -0.16385803
H  -1.24472477 2.14465360 -0.06233500
H  -2.56584215 -0.07019666 -0.12087263
12
MD Step 259 Units = [Angstroms]
C  -0.67796387 -1.18975958 -0.01550757
C  0.71366857 -1.20236191 0.06036135
C  1.40155141 -0.01574873 0.00968593
C  0.68518220 1.23172504 -0.05501913
C  -0.73407118 1.21235824 0.01010660
C  -1.39817713 -0.03147495 0.01584530
H  -1.15548560 -2.18788752 -0.01145685
H  1.24967405 -2.14527821 0.10781452
H  2.48700559 0.08148599 -0.05586998
H  1.33200797 2.12542136 -0.15705520
H  -1.23439155 2.14356474 -0.06836380
H  -2.56191416 -0.07376578 -0.11859958
12
MD Step 260 Units = [Angstroms]
C  -0.67837393 -1.18533749 -0.01675331
C  0.71526498 -1.20000538 0.06215657
C  1.40263561 -0.01736607 0.00810836
C  0.68478144 1.23060707 -0.05379226
C  -0.73346524 1.21111340 0.00963527
C  -1.40019128 -0.03463112 0.01601200
H  -1.16540892 -2.17640085 -0.01013317
H  1.25684857 -2.15501510 0.10940810
H  2.47323996 0.07957373 -0.06233055
H  1.32602275 2.13140958 -0.14998863
H  -1.22631403 2.14511885 -0.07413209
H  -2.55299226 -0.07688333 -0.11509315
12
MD Step 261 Units = [Angstroms]
C  -0.67875231 -1.18131383 -0.01785015
C  0.71692122 -1.19772526 0.06389940
C  1.40348513 -0.01844931 0.00647503
C  0.68427328 1.22913236 -0.05248576
C  -0.73233410 1.20961101 0.00906511
C  -1.40261504 -0.03740730 0.01601616
H  -1.17587976 -2.16467893 -0.00912397
H  1.26398671 -2.16495214 0.11101719
H  2.46148615 0.07685933 -0.06847317
H  1.31828459 2.13712827 -0.14267779
H  -1.22060812 2.14933911 -0.07962676
H  -2.53976541 -0.07954450 -0.11044369
12
MD Step 262 Units = [Angstroms]
C  -0.67906099 -1.17773234 -0.01878979
C  0.71864189 -1.19562336 0.06558569
C  1.40403315 -0.01899309 0.00479447
C  0.68365113 1.22732450 -0.05110165
C  -0.73069956 1.20787313 0.00839600
C  -1.40537844 -0.03973216 0.01586648
H  -1.18680556 -2.15302907 -0.00844464
H  1.27052537 -2.17415246 0.11260394
H  2.45292189 0.07346277 -0.07435575
H  1.30884493 2.14241563 -0.13514941
H  -1.21719368 2.15591721 -0.08480886
H  -2.52327898 -0.08175255 -0.10478138
12
MD Step 263 Units = [Angstroms]
C  -0.67926424 -1.17462843 -0.01956488
C  0.72042478 -1.19378906 0.06721093
C  1.40423550 -0.01899914 0.00307513
C  0.68290991 1.22520924 -0.04964234
C  -0.72860418 1.20594511 0.00762628
C  -1.40837927 -0.04154265 0.01557494
H  -1.19809088 -2.14175865 -0.00810497
H  1.27598184 -2.18179748 0.11413635
H  2.44844627 0.06949635 -0.08003057
H  1.29781129 2.14716521 -0.12743686
H  -1.21582156 2.16425710 -0.08961377
H  -2.50492573 -0.08351906 -0.09827208
12
MD Step 264 Units = [Angstroms]
C  -0.67933108 -1.17202908 -0.02016908
C  0.72226016 -1.19229475 0.06877002
C  1.40408065 -0.01847513 0.00132415
C  0.68204717 1.22281364 -0.04811070
C  -0.72610795 1.20388888 0.00675323
C  -1.41148539 -0.04278598 0.01515615
H  -1.20963164 -2.13115545 -0.00810920
H  1.27998118 -2.18723730 0.11559046
H  2.44854588 0.06505154 -0.08552989
H  1.28534530 2.15132882 -0.11957901
H  -1.21611910 2.17355914 -0.09395689
H  -2.48640109 -0.08486391 -0.09110840
12
MD Step 265 Units = [Angstroms]
C  -0.67923753 -1.16995295 -0.02059714
C  0.72413081 -1.19119283 0.07025716
C  1.40359527 -0.01743432 -0.00045344
C  0.68106414 1.22016562 -0.04651016
C  -0.72328448 1.20177464 0.00577370
C  -1.41454237 -0.04342131 0.01462608
H  -1.22130927 -2.12146898 -0.00845620
H  1.28227144 -2.19002085 0.11695149
H  2.45321681 0.06019356 -0.09085435
H  1.27165773 2.15491570 -0.11161866
H  -1.21764320 2.18292335 -0.09774319
H  -2.46959825 -0.08581399 -0.08349406
12
MD Step 266 Units = [Angstroms]
C  -0.67896858 -1.16841068 -0.02084493
C  0.72601269 -1.19051398 0.07166580
C  1.40284345 -0.01589616 -0.00225511
C  0.67996668 1.21729385 -0.04484476
C  -0.72021706 1.19967273 0.00468493
C  -1.41738768 -0.04342108 0.01400034
H  -1.23298587 -2.11289504 -0.00913975
H  1.28273077 -2.18991177 0.11821443
H  2.46196619 0.05496542 -0.09596808
H  1.25700056 2.15798754 -0.10360085
H  -1.21993106 2.19145028 -0.10087784
H  -2.45642545 -0.08639978 -0.07562171
12
MD Step 267 Units = [Angstroms]
C  -0.67851950 -1.16740515 -0.02090955
C  0.72787567 -1.19026607 0.07298859
C  1.40191955 -0.01388737 -0.00408049
C  0.67876608 1.21422799 -0.04311921
C  -0.71699533 1.19764685 0.00348522
C  -1.41987118 -0.04277209 0.01329207
H  -1.24450124 -2.10556510 -0.01014869
H  1.28136962 -2.18689589 0.11938426
H  2.47389287 0.04939937 -0.10080180
H  1.24165675 2.16064970 -0.09557098
H  -1.22254229 2.19832475 -0.10327581
H  -2.44855225 -0.08664889 -0.06764795
12
MD Step 268 Units = [Angstroms]
C  -0.67789658 -1.16693182 -0.02078937
C  0.72968421 -1.19043377 0.07421738
C  1.40093680 -0.01144330 -0.00593054
C  0.67747951 1.21099924 -0.04133890
C  -0.71371235 1.19574928 0.00217441
C  -1.42187826 -0.04147635 0.01251032
H  -1.25567284 -2.09954191 -0.01146717
H  1.27832977 -2.18118279 0.12047598
H  2.48782324 0.04353094 -0.10526278
H  1.22592791 2.16303853 -0.08757302
H  -1.22509022 2.20287640 -0.10486917
H  -2.44713014 -0.08657757 -0.05967316
12
MD Step 269 Units = [Angstroms]
C  -0.67711694 -1.16697880 -0.02048402
C  0.73139785 -1.19097866 0.07534328
C  1.40001458 -0.00860870 -0.00780647
C  0.67613018 1.20764107 -0.03950984
C  -0.71046198 1.19401797 0.00075422
C  -1.42334892 -0.03955153 0.01165938
H  -1.26629908 -2.09482167 -0.01307471
H  1.27388042 -2.17320160 0.12151447
H  2.50246614 0.03741081 -0.10924814
H  1.21012104 2.16530575 -0.07964799
H  -1.22726307 2.20461831 -0.10561187
H  -2.45256710 -0.08618225 -0.05173454
12
MD Step 270 Units = [Angstroms]
C  -0.67620746 -1.16752699 -0.01999443
C  0.73297184 -1.19184044 0.07635674
C  1.39926695 -0.00543783 -0.00970869
C  0.67474712 1.20419000 -0.03763859
C  -0.70733636 1.19247526 -0.00077167
C  -1.42428623 -0.03703086 0.01073962
H  -1.27616591 -2.09134227 -0.01494618
H  1.26840937 -2.16358767 0.12253398
H  2.51655435 0.03111139 -0.11265814
H  1.19453503 2.16760085 -0.07183271
H  -1.22883756 2.20326853 -0.10548226
H  -2.46443646 -0.08543475 -0.04381650
12
MD Step 271 Units = [Angstroms]
C  -0.67520301 -1.16855015 -0.01932277
C  0.73435795 -1.19293946 0.07724773
C  1.39879404 -0.00199361 -0.01163604
C  0.67336456 1.20068616 -0.03573213
C  -0.70442315 1.19112764 -0.00239752
C  -1.42475112 -0.03396224 0.00974931
H  -1.28505603 -2.08899642 -0.01705191
H  1.26240613 -2.15315425 0.12357702
H  2.52895387 0.02472782 -0.11540671
H  1.17944828 2.17005332 -0.06415905
H  -1.22968722 2.19875992 -0.10448388
H  -2.48155668 -0.08428345 -0.03587466
12
MD Step 272 Units = [Angstroms]
C  -0.67414391 -1.17001511 -0.01847245
C  0.73550612 -1.19418135 0.07800596
C  1.39867650 0.00165395 -0.01358535
C  0.67202092 1.19717374 -0.03379770
C  -0.70180259 1.18996627 -0.00411566
C  -1.42484584 -0.03040671 0.00868691
H  -1.29276004 -2.08764775 -0.01935774
H  1.25643319 -2.14284235 0.12469224
H  2.53873660 0.01837459 -0.11742862
H  1.16510832 2.17275663 -0.05665371
H  -1.22978717 2.19124231 -0.10264504
H  -2.50221103 -0.08266057 -0.02786349
12
MD Step 273 Units = [Angstroms]
C  -0.67307316 -1.17188211 -0.01744805
C  0.73636709 -1.19546408 0.07862129
C  1.39897250 0.00542985 -0.01555123
C  0.67075747 1.19370084 -0.03184264
C  -0.69954453 1.18896791 -0.00591662
C  -1.42469260 -0.02643633 0.00755274
H  -1.29908803 -2.08714794 -0.02182535
H  1.25108258 -2.13364357 0.12593094
H  2.54522224 0.01217962 -0.11868338
H  1.15172458 2.17575608 -0.04933839
H  -1.22921602 2.18107849 -0.10001720
H  -2.52442866 -0.08049297 -0.01975805
12
MD Step 274 Units = [Angstroms]
C  -0.67203354 -1.17410540 -0.01625526
C  0.73689618 -1.19668726 0.07908420
C  1.39971634 0.00925653 -0.01752613
C  0.66961661 1.19031898 -0.02987421
C  -0.69770561 1.18809641 -0.00778935
C  -1.42441394 -0.02213178 0.00634989
H  -1.30388076 -2.08735311 -0.02441272
H  1.24691822 -2.12649688 0.12734213
H  2.54799907 0.00627713 -0.11915686
H  1.13946455 2.17904210 -0.04223047
H  -1.22815412 2.16883284 -0.09667229
H  -2.54624541 -0.07771288 -0.01156476
12
MD Step 275 Units = [Angstroms]
C  -0.67106490 -1.17663399 -0.01490084
C  0.73705794 -1.19776284 0.07938642
C  1.40091796 0.01305631 -0.01950047
C  0.66863995 1.18708206 -0.02789949
C  -0.69632695 1.18730470 -0.00972158
C  -1.42411874 -0.01758008 0.00508427
H  -1.30701938 -2.08813808 -0.02707490
H  1.24440972 -2.12217002 0.12896624
H  2.54693269 0.00080047 -0.11886131
H  1.12845338 2.18255001 -0.03534378
H  -1.22687600 2.15524929 -0.09269847
H  -2.56589530 -0.07426629 -0.00332219
12
MD Step 276 Units = [Angstroms]
C  -0.67020191 -1.17941270 -0.01339255
C  0.73683058 -1.19862525 0.07952149
C  1.40256282 0.01675386 -0.02146275
C  0.66786634 1.18404493 -0.02592523
C  -0.69543289 1.18653796 -0.01170028
C  -1.42389464 -0.01287229 0.00376412
H  -1.30843288 -2.08940743 -0.02976484
H  1.24386936 -2.12114730 0.13082852
H  2.54216877 -0.00412513 -0.11783466
H  1.11877657 2.18616603 -0.02868945
H  -1.22573413 2.14121349 -0.08819445
H  -2.58192260 -0.07011791 0.00490471
12
MD Step 277 Units = [Angstroms]
C  -0.66947242 -1.18238324 -0.01173909
C  0.73620935 -1.19923875 0.07948535
C  1.40461192 0.02027843 -0.02339988
C  0.66732988 1.18126160 -0.02395788
C  -0.69503111 1.18573818 -0.01371222
C  -1.42380532 -0.00810140 0.00239939
H  -1.30810292 -2.09110301 -0.03243443
H  1.24540666 -2.12355048 0.13293335
H  2.53413185 -0.00838939 -0.11613893
H  1.11048488 2.18973870 -0.02227667
H  -1.22513088 2.12769462 -0.08326215
H  -2.59323114 -0.06525356 0.01303289
12
MD Step 278 Units = [Angstroms]
C  -0.66889642 -1.18548550 -0.00995000
C  0.73520764 -1.19960008 0.07927665
C  1.40700220 0.02356585 -0.02529732
C  0.66705819 1.17878332 -0.02200355
C  -0.69511429 1.18485028 -0.01574466
C  -1.42389055 -0.00336032 0.00100106
H  -1.30606561 -2.09320747 -0.03503561
H  1.24891275 -2.12911535 0.13526093
H  2.52351790 -0.01190336 -0.11385792
H  1.10360051 2.19309409 -0.01611325
H  -1.22547720 2.11566562 -0.07799851
H  -2.59909545 -0.05968101 0.02096980
12
MD Step 279 Units = [Angstroms]
C  -0.66848585 -1.18865888 -0.00803563
C  0.73385562 -1.19973571 0.07889671
C  1.40964797 0.02656016 -0.02713947
C  0.66707105 1.17665673 -0.02006810
C  -0.69566330 1.18382955 -0.01778595
C  -1.42416731 0.00126008 -0.00041946
H  -1.30241008 -2.09574376 -0.03752139
H  1.25407890 -2.13723103 0.13776733
H  2.51127422 -0.01460487 -0.11109344
H  1.09812390 2.19605282 -0.01020583
H  -1.22713992 2.10600630 -0.07248769
H  -2.59915614 -0.05343022 0.02862119
12
MD Step 280 Units = [Angstroms]
C  -0.66824487 -1.19184366 -0.00600701
C  0.73219673 -1.19969477 0.07834936
C  1.41244402 0.02921475 -0.02891015
C  0.66737935 1.17492204 -0.01815721
C  -0.69665129 1.18264936 -0.01982597
C  -1.42463057 0.00567269 -0.00185086
H  -1.29727378 -2.09877049 -0.03984672
H  1.26044354 -2.14703066 0.14038798
H  2.49855702 -0.01646209 -0.10795957
H  1.09404021 2.19844706 -0.00455997
H  -1.23038465 2.09940229 -0.06679559
H  -2.59341409 -0.04655378 0.03589812
12
MD Step 281 Units = [Angstroms]
C  -0.66817087 -1.19498248 -0.00387580
C  0.73028307 -1.19953957 0.07764032
C  1.41527149 0.03149294 -0.03059321
C  0.66798475 1.17361153 -0.01627649
C  -0.69804782 1.18130764 -0.02185631
C  -1.42525334 0.00979579 -0.00328249
H  -1.29083459 -2.10237346 -0.04196918
H  1.26745499 -2.15750878 0.14304368
H  2.48665633 -0.01747386 -0.10457465
H  1.09132528 2.20013596 0.00082006
H  -1.23532557 2.09625883 -0.06096829
H  -2.58223077 -0.03912729 0.04272372
12
MD Step 282 Units = [Angstroms]
C  -0.66825582 -1.19802187 -0.00165421
C  0.72817081 -1.19933595 0.07677669
C  1.41800698 0.03336794 -0.03217338
C  0.66887962 1.17274833 -0.01443164
C  -0.69982195 1.17983046 -0.02386999
C  -1.42598596 0.01355439 -0.00470488
H  -1.28330006 -2.10665332 -0.04384927
H  1.27453561 -2.16763885 0.14564789
H  2.47688199 -0.01766602 -0.10105107
H  1.08995050 2.20101834 0.00593152
H  -1.24189476 2.09664974 -0.05503508
H  -2.56633457 -0.03124962 0.04904003
12
MD Step 283 Units = [Angstroms]
C  -0.66848788 -1.20091376 0.00064507
C  0.72591630 -1.19914525 0.07576632
C  1.42053449 0.03482216 -0.03363717
C  0.67004763 1.17234559 -0.01262847
C  -0.70194342 1.17827175 -0.02586095
C  -1.42675516 0.01688123 -0.00611029
H  -1.27489457 -2.11171041 -0.04545034
H  1.28113690 -2.17647137 0.14811370
H  2.47041529 -0.01708328 -0.09748429
H  1.08988676 2.20104188 0.01077359
H  -1.24984009 2.10031435 -0.04901530
H  -2.54682615 -0.02304195 0.05481519
12
MD Step 284 Units = [Angstroms]
C  -0.66885333 -1.20361697 0.00300897
C  0.72357331 -1.19901838 0.07461728
C  1.42275875 0.03584609 -0.03497363
C  0.67146468 1.17240591 -0.01087303
C  -0.70438200 1.17670897 -0.02782345
C  -1.42746417 0.01971734 -0.00749334
H  -1.26584536 -2.11762768 -0.04673808
H  1.28678053 -2.18320450 0.15035993
H  2.46814680 -0.01577842 -0.09394332
H  1.09110712 2.20020835 0.01534761
H  -1.25875270 2.10670297 -0.04292674
H  -2.52516774 -0.01464468 0.06005009
12
MD Step 285 Units = [Angstroms]
C  -0.66933829 -1.20609851 0.00542401
C  0.72119119 -1.19899223 0.07333748
C  1.42461680 0.03643724 -0.03617482
C  0.67310014 1.17292129 -0.00917165
C  -0.70710537 1.17523585 -0.02975140
C  -1.42799569 0.02201213 -0.00885140
H  -1.25636893 -2.12445351 -0.04767977
H  1.29108552 -2.18722809 0.15231574
H  2.47053534 -0.01380194 -0.09046531
H  1.09358833 2.19857461 0.01965732
H  -1.26811688 2.11505803 -0.03679313
H  -2.50313398 -0.00621108 0.06478286
12
MD Step 286 Units = [Angstroms]
C  -0.66993044 -1.20833455 0.00787643
C  0.71881373 -1.19908775 0.07193439
C  1.42608485 0.03659935 -0.03723581
C  0.67491835 1.17387339 -0.00753089
C  -0.71007669 1.17395378 -0.03163803
C  -1.42821986 0.02372307 -0.01018457
H  -1.24665939 -2.13218650 -0.04824330
H  1.29378452 -2.18814734 0.15392410
H  2.47752687 -0.01119585 -0.08705609
H  1.09731096 2.19624927 0.02370892
H  -1.27737005 2.12451141 -0.03064894
H  -2.48269900 0.00210260 0.06908791
12
MD Step 287 Units = [Angstroms]
C  -0.67062034 -1.21031090 0.01035228
C  0.71647829 -1.19930920 0.07041482
C  1.42717830 0.03634216 -0.03815427
C  0.67688016 1.17523426 -0.00595758
C  -0.71325263 1.17296327 -0.03347570
C  -1.42800869 0.02481513 -0.01149505
H  -1.23688016 -2.14076447 -0.04839631
H  1.29473279 -2.18579308 0.15514431
H  2.48855846 -0.00799390 -0.08369651
H  1.10225822 2.19338497 0.02751091
H  -1.28596057 2.13417857 -0.02454085
H  -2.46584303 0.01014901 0.07306617
12
MD Step 288 Units = [Angstroms]
C  -0.67140225 -1.21202292 0.01283745
C  0.71421508 -1.19964424 0.06878482
C  1.42794484 0.03568173 -0.03892964
C  0.67894453 1.17696757 -0.00445870
C  -0.71658248 1.17235662 -0.03525601
C  -1.42725612 0.02526042 -0.01278552
H  -1.22715998 -2.15005955 -0.04810568
H  1.29391287 -2.18022441 0.15595392
H  2.50264642 -0.00422743 -0.08035244
H  1.10841328 2.19016663 0.03107382
H  -1.29339493 2.14323680 -0.01852646
H  -2.45428859 0.01780025 0.07682449
12
MD Step 289 Units = [Angstroms]
C  -0.67227444 -1.21347491 0.01531791
C  0.71204643 -1.20006435 0.06704954
C  1.42845316 0.03464099 -0.03956242
C  0.68107002 1.17903011 -0.00304131
C  -0.72000844 1.17221211 -0.03696994
C  -1.42589985 0.02503849 -0.01405698
H  -1.21759359 -2.15988034 -0.04733743
H  1.29143642 -2.17172631 0.15635021
H  2.51853168 0.00006588 -0.07698539
H  1.11575516 2.18679613 0.03440960
H  -1.29927126 2.15098275 -0.01267103
H  -2.44921661 0.02495269 0.08044671
12
MD Step 290 Units = [Angstroms]
C  -0.67323883 -1.21467896 0.01777983
C  0.70998613 -1.20052567 0.06521315
C  1.42878010 0.03325004 -0.04005347
C  0.68321613 1.18137384 -0.00171239
C  -0.72346684 1.17258960 -0.03860813
C  -1.42393800 0.02413759 -0.01530651
H  -1.20824638 -2.16998142 -0.04605734
H  1.28754282 -2.16080193 0.15635118
H  2.53484361 0.00483417 -0.07356121
H  1.12425346 2.18347459 0.03753091
H  -1.30329979 2.15687040 -0.00704340
H  -2.45104551 0.03152332 0.08396464
12
MD Step 291 Units = [Angstroms]
C  -0.67430003 -1.21565365 0.02020985
C  0.70803914 -1.20097053 0.06327880
C  1.42899937 0.03154611 -0.04040365
C  0.68534445 1.18394801 -0.00047871
C  -0.72688977 1.17352741 -0.04016111
C  -1.42143432 0.02255662 -0.01652591
H  -1.19916217 -2.18007894 -0.04423202
H  1.28259261 -2.14815621 0.15599565
H  2.55024751 0.01000684 -0.07005558
H  1.13386224 2.18038367 0.04045016
H  -1.30531355 2.16053400 -0.00171165
H  -2.45935287 0.03743930 0.08733985
12
MD Step 292 Units = [Angstroms]
C  -0.67546404 -1.21642250 0.02259527
C  0.70620199 -1.20132995 0.06124874
C  1.42917325 0.02957282 -0.04061369
C  0.68741958 1.18670144 0.00065331
C  -0.73020671 1.17503999 -0.04161963
C  -1.41850935 0.02030751 -0.01770190
H  -1.19037240 -2.18987038 -0.04183047
H  1.27705185 -2.13466496 0.15534185
H  2.56355658 0.01549385 -0.06645625
H  1.14451369 2.17766795 0.04317857
H  -1.30527227 2.16180076 0.00326106
H  -2.47297024 0.04262617 0.09046384
12
MD Step 293 Units = [Angstroms]
C  -0.67673660 -1.21701252 0.02492433
C  0.70446430 -1.20152772 0.05912448
C  1.42934749 0.02737908 -0.04068417
C  0.68940971 1.18958465 0.00167781
C  -0.73334590 1.17711647 -0.04297499
C  -1.41532090 0.01741687 -0.01881770
H  -1.18190544 -2.19905621 -0.03882575
H  1.27146338 -2.12132313 0.15446356
H  2.57380456 0.02118820 -0.06276298
H  1.15611253 2.17542050 0.04572522
H  -1.30326231 2.16069678 0.00782038
H  -2.49021315 0.04700050 0.09317610
12
MD Step 294 Units = [Angstroms]
C  -0.67812160 -1.21745285 0.02718638
C  0.70281173 -1.20148646 0.05690729
C  1.42954894 0.02501744 -0.04061565
C  0.69128700 1.19255167 0.00258958
C  -0.73623527 1.17971991 -0.04421931
C  -1.41204072 0.01392689 -0.01985540
H  -1.17379484 -2.20736117 -0.03519663
H  1.26640170 -2.10916774 0.15344321
H  2.58028611 0.02697038 -0.05898604
H  1.16853200 2.17367360 0.04809628
H  -1.29949330 2.15744746 0.01192433
H  -2.50916367 0.05046971 0.09529205
12
MD Step 295 Units = [Angstroms]
C  -0.67961958 -1.21777350 0.02937212
C  0.70123026 -1.20113551 0.05459893
C  1.42978478 0.02254231 -0.04040880
C  0.69302753 1.19556147 0.00338421
C  -0.73880306 1.18278765 -0.04534590
C  -1.40883384 0.00989505 -0.02079825
H  -1.16608569 -2.21455313 -0.03092886
H  1.26241180 -2.09917704 0.15236162
H  2.58257525 0.03271369 -0.05514406
H  1.18161225 2.17239610 0.05029457
H  -1.29429122 2.15247119 0.01554616
H  -2.52792531 0.05293758 0.09663077
12
MD Step 296 Units = [Angstroms]
C  -0.68122666 -1.21800423 0.03147364
C  0.69971141 -1.20041991 0.05220256
C  1.43004279 0.02000805 -0.04006456
C  0.69461108 1.19857873 0.00405818
C  -0.74097847 1.18623301 -0.04634956
C  -1.40584451 0.00539298 -0.02163233
H  -1.15883880 -2.22045849 -0.02601613
H  1.25993862 -2.09215694 0.15128539
H  2.58053180 0.03828989 -0.05126170
H  1.19516185 2.17149774 0.05231937
H  -1.28808580 2.14636247 0.01867650
H  -2.54480473 0.05431220 0.09703586
12
MD Step 297 Units = [Angstroms]
C  -0.68293373 -1.21817350 0.03348456
C  0.69825724 -1.19930875 0.04972364
C  1.43029190 0.01746713 -0.03958427
C  0.69602056 1.20157417 0.00460889
C  -0.74269256 1.18994890 -0.04722673
C  -1.40318880 0.00050456 -0.02234744
H  -1.15213250 -2.22497308 -0.02046042
H  1.25925999 -2.08863507 0.15025419
H  2.57430217 0.04357487 -0.04736734
H  1.20896242 2.17083995 0.05416674
H  -1.28138927 2.13985936 0.02132368
H  -2.55841449 0.05451336 0.09638739
12
MD Step 298 Units = [Angstroms]
C  -0.68472620 -1.21830770 0.03540001
C  0.69688369 -1.19780097 0.04717065
C  1.43048294 0.01496842 -0.03896980
C  0.69724133 1.20452433 0.00503471
C  -0.74387997 1.19381363 -0.04797553
C  -1.40095229 -0.00467658 -0.02293735
H  -1.14606242 -2.22806832 -0.01427190
H  1.26043945 -2.08878730 0.14927112
H  2.56431632 0.04845441 -0.04349082
H  1.22277626 2.17025153 0.05583007
H  -1.27476387 2.13378980 0.02351198
H  -2.56771531 0.05347831 0.09460649
12
MD Step 299 Units = [Angstroms]
C  -0.68658401 -1.21843037 0.03721657
C  0.69562127 -1.19592703 0.04455534
C  1.43054981 0.01255594 -0.03822368
C  0.69826039 1.20741102 0.00533500
C  -0.74448164 1.19769914 -0.04859549
C  -1.39919066 -0.01004991 -0.02339967
H  -1.14073909 -2.22979235 -0.00746832
H  1.26331260 -2.09241664 0.14829885
H  2.55127889 0.05282981 -0.03966125
H  1.23635614 2.16954727 0.05730096
H  -1.26877655 2.12899463 0.02527685
H  -2.57202297 0.05116575 0.09165531
12
MD Step 300 Units = [Angstroms]
C  -0.68848210 -1.21856178 0.03893218
C  0.69451257 -1.19374590 0.04189235
C  1.43041146 0.01026782 -0.03734926
C  0.69906574 1.21022042 0.00551002
C  -0.74444851 1.20148096 -0.04908707
C  -1.39793113 -0.01551114 -0.02373557
H  -1.13628401 -2.23026611 -0.00007397
H  1.26751131 -2.09899010 0.14726306
H  2.53614784 0.05662307 -0.03590486
H  1.24945635 2.16854716 0.05857015
H  -1.26394354 2.12623114 0.02665730
H  -2.57100144 0.04755900 0.08753486
12
MD Step 301 Units = [Angstroms]
C  -0.69039111 -1.21871868 0.04054596
C  0.69360733 -1.19133837 0.03919848
C  1.42997555 0.00813594 -0.03635085
C  0.69964585 1.21294215 0.00556100
C  -0.74374573 1.20504889 -0.04945099
C  -1.39717366 -0.02095556 -0.02394945
H  -1.13282392 -2.22967421 0.00788157
H  1.27251884 -2.10772258 0.14606189
H  2.52009111 0.05978083 -0.03224308
H  1.26184405 2.16709436 0.05962861
H  -1.26067138 2.12606994 0.02768640
H  -2.56465611 0.04266884 0.08228214
12
MD Step 302 Units = [Angstroms]
C  -0.69227843 -1.21891435 0.04205806
C  0.69295624 -1.18879847 0.03649155
C  1.42914459 0.00618601 -0.03523376
C  0.69998956 1.21556816 0.00549001
C  -0.74235669 1.20831638 -0.04968756
C  -1.39689122 -0.02628119 -0.02404864
H  -1.13048386 -2.22825085 0.01636488
H  1.27774102 -2.11768502 0.14457900
H  2.50441142 0.06227578 -0.02869111
H  1.27330999 2.16507034 0.06046838
H  -1.25920572 2.12880547 0.02838215
H  -2.55333379 0.03653641 0.07596742
12
MD Step 303 Units = [Angstroms]
C  -0.69410936 -1.21915903 0.04346946
C  0.69260493 -1.18622495 0.03378938
C  1.42782498 0.00443828 -0.03400437
C  0.70008626 1.21809174 0.00530000
C  -0.74028570 1.21122678 -0.04979620
C  -1.39702917 -0.03139184 -0.02404312
H  -1.12937895 -2.22626110 0.02534003
H  1.28257720 -2.12791301 0.14269692
H  2.49043339 0.06410433 -0.02525746
H  1.28367785 2.16240632 0.06108342
H  -1.25959948 2.13440208 0.02874109
H  -2.53772916 0.02923602 0.06869117
12
MD Step 304 Units = [Angstroms]
C  -0.69584850 -1.21946056 0.04478181
C  0.69258908 -1.18371409 0.03110885
C  1.42593857 0.00290888 -0.03266998
C  0.69992662 1.22050654 0.00499468
C  -0.73755883 1.21375500 -0.04977533
C  -1.39750440 -0.03619965 -0.02394520
H  -1.12960547 -2.22397864 0.03476966
H  1.28647931 -2.13749839 0.14030830
H  2.47935808 0.06527998 -0.02194476
H  1.29281164 2.15909057 0.06147017
H  -1.26170887 2.14249110 0.02873696
H  -2.51889110 0.02087694 0.06058003
12
MD Step 305 Units = [Angstroms]
C  -0.69746133 -1.21982541 0.04599735
C  0.69293123 -1.18135455 0.02846533
C  1.42343520 0.00161134 -0.03123861
C  0.69950355 1.22280578 0.00457857
C  -0.73422273 1.21590460 -0.04962275
C  -1.39820534 -0.04062709 -0.02376898
H  -1.13123169 -2.22166149 0.04461546
H  1.28899396 -2.14565637 0.13732398
H  2.47210513 0.06582335 -0.01875200
H  1.30062087 2.15517139 0.06162792
H  -1.26521791 2.15241987 0.02832456
H  -2.49821457 0.01160265 0.05178031
12
MD Step 306 Units = [Angstroms]
C  -0.69891577 -1.22025960 0.04711880
C  0.69363906 -1.17922396 0.02587227
C  1.42030329 0.00055819 -0.02971865
C  0.69881345 1.22498169 0.00405691
C  -0.73034183 1.21770113 -0.04933620
C  -1.39899477 -0.04460807 -0.02352956
H  -1.13428934 -2.21952808 0.05483806
H  1.28978829 -2.15176919 0.13367786
H  2.46917660 0.06575179 -0.01567760
H  1.30706311 2.15075598 0.06155894
H  -1.26968490 2.16333952 0.02744787
H  -2.47739633 0.00158598 0.04244786
12
MD Step 307 Units = [Angstroms]
C  -0.70018384 -1.22076964 0.04814944
C  0.69470496 -1.17738681 0.02334102
C  1.41657561 -0.00023787 -0.02811856
C  0.69785757 1.22702524 0.00343564
C  -0.72599474 1.21918388 -0.04891420
C  -1.39971769 -0.04808821 -0.02324191
H  -1.13876645 -2.21773647 0.06539614
H  1.28866320 -2.15541148 0.12932912
H  2.47057907 0.06507209 -0.01272259
H  1.31214375 2.14600528 0.06126832
H  -1.27459940 2.17430989 0.02604958
H  -2.45832965 -0.00898132 0.03273370
12
MD Step 308 Units = [Angstroms]
C  -0.70124320 -1.22136307 0.04909317
C  0.69610642 -1.17589309 0.02088080
C  1.41232820 -0.00076375 -0.02644657
C  0.69664323 1.22892621 0.00272139
C  -0.72127068 1.22039753 -0.04835668
C  -1.40021564 -0.05102420 -0.02291941
H  -1.14460276 -2.21636937 0.07624493
H  1.28555837 -2.15636364 0.12426270
H  2.47582773 0.06377928 -0.00989266
H  1.31591285 2.14112512 0.06076364
H  -1.27943839 2.18440007 0.02408007
H  -2.44291992 -0.01990357 0.02276724
12
MD Step 309 Units = [Angstroms]
C  -0.70207840 -1.22204852 0.04995459
C  0.69780699 -1.17477721 0.01849870
C  1.40767275 -0.00100640 -0.02471059
C  0.69518504 1.23067374 0.00192147
C  -0.71626638 1.22138518 -0.04766551
C  -1.40034709 -0.05338285 -0.02257263
H  -1.15168834 -2.21542726 0.08733433
H  1.28055234 -2.15461829 0.11848863
H  2.48403099 0.06186190 -0.00719855
H  1.31845897 2.13635390 0.06005432
H  -1.28371389 2.19277056 0.02150396
H  -2.43282871 -0.03099717 0.01264148
12
MD Step 310 Units = [Angstroms]
C  -0.70268179 -1.22283516 0.05073908
C  0.69975754 -1.17405699 0.01619973
C  1.40274434 -0.00095410 -0.02291822
C  0.69350573 1.23225708 0.00104382
C  -0.71108343 1.22218321 -0.04684480
C  -1.40001018 -0.05514021 -0.02220865
H  -1.15986589 -2.21483053 0.09860718
H  1.27385939 -2.15038213 0.11204047
H  2.49402965 0.05931117 -0.00465483
H  1.31990015 2.13194739 0.05915075
H  -1.28700869 2.19873174 0.01830389
H  -2.42919300 -0.04210145 0.00240687
12
MD Step 311 Units = [Angstroms]
C  -0.70305392 -1.22373157 0.05145282
C  0.70189770 -1.17373278 0.01398690
C  1.39768786 -0.00059793 -0.02107680
C  0.69163682 1.23366670 0.00009700
C  -0.70582608 1.22281795 -0.04590095
C  -1.39916098 -0.05628160 -0.02183153
H  -1.16893688 -2.21443051 0.10999791
H  1.26582314 -2.14407268 0.10497287
H  2.50455378 0.05613098 -0.00227770
H  1.32037254 2.12816136 0.05806327
H  -1.28900078 2.20178028 0.01448185
H  -2.43240083 -0.05307893 -0.00792172
12
MD Step 312 Units = [Angstroms]
C  -0.70320331 -1.22474430 0.05210275
C  0.70415776 -1.17378707 0.01186141
C  1.39264574 0.00006671 -0.01919351
C  0.68961887 1.23489552 -0.00090981
C  -0.70059908 1.22330392 -0.04484259
C  -1.39782070 -0.05680246 -0.02144364
H  -1.17867084 -2.21402762 0.12143219
H  1.25690490 -2.13630659 0.09735802
H  2.51436436 0.05234527 -0.00008260
H  1.32001746 2.12523332 0.05680106
H  -1.28947891 2.20161898 0.01005842
H  -2.44200476 -0.06380477 -0.01834565
12
MD Step 313 Units = [Angstroms]
C  -0.70314561 -1.22587629 0.05269639
C  0.70646093 -1.17418520 0.00982297
C  1.38774847 0.00103881 -0.01727547
C  0.68750127 1.23594002 -0.00196688
C  -0.69550523 1.22364314 -0.04368039
C  -1.39606886 -0.05670959 -0.02104750
H  -1.18881708 -2.21339428 0.13282756
H  1.24766375 -2.12787349 0.08928054
H  2.52236149 0.04800191 0.00191783
H  1.31896808 2.12336460 0.05537104
H  -1.28835206 2.19816545 0.00507083
H  -2.45680822 -0.07415132 -0.02885851
12
MD Step 314 Units = [Angstroms]
C  -0.70290221 -1.22712533 0.05324163
C  0.70872639 -1.17487782 0.00787027
C  1.38310839 0.00231088 -0.01532980
C  0.68534157 1.23680133 -0.00306399
C  -0.69064276 1.22382509 -0.04242679
C  -1.39402524 -0.05602208 -0.02064716
H  -1.19911766 -2.21229949 0.14409518
H  1.23872471 -2.11968830 0.08083054
H  2.52765537 0.04317290 0.00371506
H  1.31733731 2.12270494 0.05377699
H  -1.28565494 2.19155386 -0.00042992
H  -2.47509126 -0.08397620 -0.03942700
12
MD Step 315 Units = [Angstroms]
C  -0.70249832 -1.22848297 0.05374651
C  0.71087329 -1.17580576 0.00600156
C  1.37881599 0.00386838 -0.01336358
C  0.68320416 1.23748589 -0.00419050
C  -0.68610239 1.22382723 -0.04109562
C  -1.39182734 -0.05477123 -0.02024877
H  -1.20932066 -2.21053262 0.15514259
H  1.23073297 -2.11271680 0.07209531
H  2.52960652 0.03795193 0.00530543
H  1.31520827 2.12334087 0.05201889
H  -1.28155006 2.18213127 -0.00638275
H  -2.49489436 -0.09311915 -0.04998297
12
MD Step 316 Units = [Angstroms]
C  -0.70196090 -1.22993376 0.05421892
C  0.71282553 -1.17690737 0.00421546
C  1.37493817 0.00568956 -0.01138390
C  0.68115831 1.23800578 -0.00533544
C  -0.68196448 1.22361591 -0.03970164
C  -1.38960997 -0.05299959 -0.01986023
H  -1.21919258 -2.20792410 0.16587699
H  1.22429507 -2.10787478 0.06315045
H  2.52784502 0.03245036 0.00669040
H  1.31262876 2.12528962 0.05009287
H  -1.27632543 2.17044743 -0.01272073
H  -2.51427814 -0.10140757 -0.06042649
12
MD Step 317 Units = [Angstroms]
C  -0.70131642 -1.23145509 0.05466632
C  0.71451701 -1.17812755 0.00251149
C  1.37151746 0.00774565 -0.00939789
C  0.67927565 1.23837856 -0.00648772
C  -0.67829656 1.22314798 -0.03826008
C  -1.38749106 -0.05075923 -0.01949042
H  -1.22852935 -2.20436172 0.17620891
H  1.21991353 -2.10591110 0.05405258
H  2.52227792 0.02679226 0.00787657
H  1.30961028 2.12849900 0.04799146
H  -1.27038547 2.15723441 -0.01937598
H  -2.53151056 -0.10866667 -0.07063592
12
MD Step 318 Units = [Angstroms]
C  -0.70058884 -1.23301756 0.05509552
C  0.71589634 -1.17942675 0.00089049
C  1.36857185 0.01000147 -0.00741267
C  0.67762706 1.23862669 -0.00763624
C  -0.67515173 1.22237343 -0.03678601
C  -1.38556401 -0.04810964 -0.01914823
H  -1.23716522 -2.19980191 0.18605580
H  1.21792616 -2.10729551 0.04483584
H  2.51309053 0.02110892 0.00887536
H  1.30613181 2.13285347 0.04570436
H  -1.26423123 2.14337073 -0.02628488
H  -2.54517379 -0.11473006 -0.08048006
12
MD Step 319 Units = [Angstroms]
C  -0.69979788 -1.23458575 0.05551247
C  0.71693018 -1.18078777 -0.00064544
C  1.36609493 0.01241632 -0.00543546
C  0.67627935 1.23877655 -0.00877008
C  -0.67256846 1.22123966 -0.03529387
C  -1.38389523 -0.04511550 -0.01884182
H  -1.24497929 -2.19427552 0.19534530
H  1.21846389 -2.11213822 0.03551373
H  2.50074347 0.01553280 0.00970272
H  1.30214751 2.13818524 0.04321965
H  -1.25842632 2.12982485 -0.03339298
H  -2.55420839 -0.11944837 -0.08982938
12
MD Step 320 Units = [Angstroms]
C  -0.69895771 -1.23611949 0.05592207
C  0.71760422 -1.18221833 -0.00209342
C  1.36405655 0.01494533 -0.00347353
C  0.67529182 1.23885718 -0.00987873
C  -0.67057193 1.21969736 -0.03379702
C  -1.38252462 -0.04184456 -0.01857794
H  -1.25189931 -2.18788845 0.20401788
H  1.22143786 -2.12016386 0.02608614
H  2.48596304 0.01019110 0.01037845
H  1.29759715 2.14428916 0.04052506
H  -1.25354661 2.11757592 -0.04065865
H  -2.55792060 -0.12269564 -0.09856509
12
MD Step 321 Units = [Angstroms]
C  -0.69807631 -1.23757549 0.05632814
C  0.71792171 -1.18374870 -0.00345050
C  1.36240450 0.01754092 -0.00153424
C  0.67471308 1.23889883 -0.01095220
C  -0.66917681 1.21770806 -0.03230756
C  -1.38146709 -0.03836540 -0.01836161
H  -1.25790257 -2.18081687 0.21202854
H  1.22655895 -2.13074795 0.01654954
H  2.46971845 0.00519894 0.01092534
H  1.29241786 2.15093956 0.03760947
H  -1.25011628 2.10751581 -0.04805393
H  -2.55597478 -0.12437407 -0.10658633
12
MD Step 322 Units = [Angstroms]
C  -0.69715527 -1.23890926 0.05673338
C  0.71790011 -1.18542518 -0.00471446
C  1.36106792 0.02015451 0.00037503
C  0.67457836 1.23893145 -0.01198122
C  -0.66839104 1.21525207 -0.03083643
C  -1.38071396 -0.03474551 -0.01819570
H  -1.26301354 -2.17329743 0.21934755
H  1.23338367 -2.14300545 0.00690729
H  2.45317707 0.00065302 0.01136799
H  1.28655570 2.15790735 0.03446412
H  -1.24853847 2.10034521 -0.05556171
H  -2.54838594 -0.12441835 -0.11381636
12
MD Step 323 Units = [Angstroms]
C  -0.69619039 -1.24007719 0.05713950
C  0.71756670 -1.18730129 -0.00588429
C  1.35996314 0.02273813 0.00224693
C  0.67490757 1.23898313 -0.01295733
C  -0.66821926 1.21233557 -0.02939383
C  -1.38023375 -0.03104946 -0.01808065
H  -1.26729815 -2.16561261 0.22595977
H  1.24137417 -2.15590749 -0.00282289
H  2.43762802 -0.00337339 0.01173120
H  1.27997588 2.16497593 0.03108378
H  -1.24903457 2.09648361 -0.06316912
H  -2.53551905 -0.12280026 -0.12020854
12
MD Step 324 Units = [Angstroms]
C  -0.69517267 -1.24103891 0.05754741
C  0.71695437 -1.18942892 -0.00696054
C  1.35900257 0.02524581 0.00407426
C  0.67570419 1.23907869 -0.01387301
C  -0.66866491 1.20899488 -0.02798988
C  -1.37997210 -0.02733734 -0.01801407
H  -1.27085470 -2.15807164 0.23186270
H  1.24995923 -2.16839947 -0.01260545
H  2.42436957 -0.00683246 0.01203827
H  1.27267083 2.17195481 0.02746747
H  -1.25160744 2.09601473 -0.07085837
H  -2.51809569 -0.11953373 -0.12575262
12
MD Step 325 Units = [Angstroms]
C  -0.69408993 -1.24175954 0.05795751
C  0.71609817 -1.19185085 -0.00794518
C  1.35810596 0.02763456 0.00585012
C  0.67695512 1.23923832 -0.01472167
C  -0.66973008 1.20529681 -0.02663519
C  -1.37985155 -0.02366369 -0.01799039
H  -1.27380173 -2.15098800 0.23706311
H  1.25858671 -2.17950089 -0.02238760
H  2.41456585 -0.00969978 0.01230943
H  1.26466562 2.17869022 0.02361896
H  -1.25603894 2.09868167 -0.07859780
H  -2.49720110 -0.11467974 -0.13048105
12
MD Step 326 Units = [Angstroms]
C  -0.69292878 -1.24221195 0.05837006
C  0.71503291 -1.19459556 -0.00884140
C  1.35721265 0.02986490 0.00756795
C  0.67863143 1.23947650 -0.01549768
C  -0.67141305 1.20133507 -0.02534134
C  -1.37977221 -0.02007700 -0.01800043
H  -1.27626375 -2.14465509 0.24157270
H  1.26676292 -2.18837802 -0.03210267
H  2.40909339 -0.01196818 0.01256089
H  1.25602056 2.18507236 0.01954681
H  -1.26192288 2.10393285 -0.08633591
H  -2.47427764 -0.10834920 -0.13447410
12
MD Step 327 Units = [Angstroms]
C  -0.69167683 -1.24237855 0.05878554
C  0.71379171 -1.19767414 -0.00965325
C  1.35629195 0.03190109 0.00922164
C  0.68068993 1.23980109 -0.01619634
C  -0.67370445 1.19722353 -0.02412084
C  -1.37961507 -0.01661997 -0.01803137
H  -1.27835612 -2.13932208 0.24540302
H  1.27407941 -2.19438986 -0.04167516
H  2.40841055 -0.01363899 0.01280477
H  1.24683098 2.19103895 0.01526420
H  -1.26872392 2.11100575 -0.09399993
H  -2.45108267 -0.10070141 -0.13786102
12
MD Step 328 Units = [Angstroms]
C  -0.69032498 -1.24225267 0.05920503
C  0.71240522 -1.20107888 -0.01038521
C  1.35534885 0.03371124 0.01080542
C  0.68307537 1.24021288 -0.01681385
C  -0.67658306 1.19308820 -0.02298686
C  -1.37925003 -0.01333067 -0.01806722
H  -1.28017096 -2.13517279 0.24856060
H  1.28022977 -2.19711315 -0.05102634
H  2.41248495 -0.01471369 0.01304991
H  1.23722442 2.19657511 0.01078840
H  -1.27584743 2.11902751 -0.10149926
H  -2.42958490 -0.09193506 -0.14081350
12
MD Step 329 Units = [Angstroms]
C  -0.68886951 -1.24183906 0.05963041
C  0.71090116 -1.20478306 -0.01104182
C  1.35442329 0.03526764 0.01231386
C  0.68572311 1.24070551 -0.01734717
C  -0.68001277 1.18905917 -0.02195269
C  -1.37855030 -0.01024455 -0.01809025
H  -1.28176602 -2.13231007 0.25104290
H  1.28501990 -2.19635363 -0.06007991
H  2.42080081 -0.01518901 0.01330332
H  1.22735536 2.20170931 0.00614010
H  -1.28270588 2.12711211 -0.10873216
H  -2.41178040 -0.08227076 -0.14352740
12
MD Step 330 Units = [Angstroms]
C  -0.68731373 -1.24115368 0.06006445
C  0.70930382 -1.20874134 -0.01162731
C  1.35358322 0.03654735 0.01374182
C  0.68856205 1.24126583 -0.01779402
C  -0.68394097 1.18526382 -0.02103108
C  -1.37741261 -0.00739690 -0.01808341
H  -1.28315818 -2.13074797 0.25283594
H  1.28837454 -2.19214880 -0.06876743
H  2.43244357 -0.01505708 0.01357145
H  1.21739805 2.20650583 0.00134253
H  -1.28877190 2.13444069 -0.11559383
H  -2.39943379 -0.07192773 -0.14619159
12
MD Step 331 Units = [Angstroms]
C  -0.68566899 -1.24022252 0.06051074
C  0.70763366 -1.21289065 -0.01214524
C  1.35291351 0.03753311 0.01508443
C  0.69151759 1.24187468 -0.01815273
C  -0.68829887 1.18182132 -0.02023367
C  -1.37577963 -0.00482490 -0.01803344
H  -1.28432257 -2.13041288 0.25391399
H  1.29034132 -2.18476533 -0.07703345
H  2.44623648 -0.01430985 0.01386115
H  1.20753778 2.21105374 -0.00357932
H  -1.29361505 2.14031992 -0.12198444
H  -2.39379067 -0.06110174 -0.14894866
12
MD Step 332 Units = [Angstroms]
C  -0.68395485 -1.23907992 0.06097343
C  0.70590673 -1.21715145 -0.01259816
C  1.35250368 0.03821418 0.01633714
C  0.69451455 1.24250817 -0.01842224
C  -0.69300313 1.17883849 -0.01957057
C  -1.37365774 -0.00256832 -0.01793371
H  -1.28519733 -2.13115348 0.25424153
H  1.29109215 -2.17469074 -0.08484031
H  2.46089345 -0.01294556 0.01417988
H  1.19796140 2.21545324 -0.00859950
H  -1.29692336 2.14421997 -0.12781598
H  -2.39534314 -0.04995345 -0.15185859
12
MD Step 333 Units = [Angstroms]
C  -0.68219840 -1.23776637 0.06145686
C  0.70413441 -1.22142962 -0.01298729
C  1.35243698 0.03858697 0.01749582
C  0.69747966 1.24313914 -0.01860203
C  -0.69795861 1.17640635 -0.01904990
C  -1.37112339 -0.00066827 -0.01778577
H  -1.28569321 -2.13275805 0.25377697
H  1.29091989 -2.16261614 -0.09217209
H  2.47515678 -0.01097483 0.01453542
H  1.18884773 2.21980040 -0.01369167
H  -1.29851363 2.14579700 -0.13301784
H  -2.40373282 -0.03861226 -0.15487900
12
MD Step 334 Units = [Angstroms]
C  -0.68043285 -1.23632618 0.06196513
C  0.70232360 -1.22561945 -0.01331237
C  1.35278230 0.03865526 0.01855687
C  0.70034380 1.24373884 -0.01869213
C  -0.70306138 1.17459714 -0.01867763
C  -1.36831476 0.00083574 -0.01759883
H  -1.28570633 -2.13497674 0.25247774
H  1.29022622 -2.14940477 -0.09903699
H  2.48790261 -0.00842473 0.01493534
H  1.18035878 2.22417170 -0.01882934
H  -1.29833441 2.14490536 -0.13754107
H  -2.41782972 -0.02719272 -0.15787027
12
MD Step 335 Units = [Angstroms]
C  -0.67869553 -1.23480528 0.06250167
C  0.70047788 -1.22960809 -0.01357162
C  1.35358898 0.03842994 0.01951726
C  0.70304361 1.24427857 -0.01869309
C  -0.70820198 1.17346147 -0.01845726
C  -1.36541158 0.00190968 -0.01738748
H  -1.28513233 -2.13754598 0.25030567
H  1.28949642 -2.13604006 -0.10546705
H  2.49821035 -0.00534043 0.01538633
H  1.17263256 2.22861024 -0.02398593
H  -1.29646456 2.14160328 -0.14136189
H  -2.43595581 -0.01581433 -0.16062292
12
MD Step 336 Units = [Angstroms]
C  -0.67702565 -1.23324908 0.06306882
C  0.69859995 -1.23328185 -0.01376205
C  1.35488418 0.03792838 0.02037466
C  0.70552270 1.24473125 -0.01860610
C  -0.71326832 1.17302556 -0.01838965
C  -1.36260992 0.00252865 -0.01716852
H  -1.28388009 -2.14021229 0.24723216
H  1.28925683 -2.12354961 -0.11151396
H  2.50540251 -0.00178473 0.01589370
H  1.16577816 2.23311519 -0.02913449
H  -1.29310871 2.13615354 -0.14448414
H  -2.45617144 -0.00461530 -0.16289621
12
MD Step 337 Units = [Angstroms]
C  -0.67546198 -1.23170070 0.06366753
C  0.69669564 -1.23653427 -0.01388011
C  1.35667186 0.03717329 0.02112739
C  0.70773221 1.24507265 -0.01843295
C  -0.71814843 1.17328906 -0.01847288
C  -1.36009916 0.00267977 -0.01695805
H  -1.28188363 -2.14275351 0.24324228
H  1.29001457 -2.11290698 -0.11723990
H  2.50906402 0.00216376 0.01646100
H  1.15987333 2.23763617 -0.03424724
H  -1.28858933 2.12901785 -0.14694083
H  -2.47654005 0.00624360 -0.16445469
12
MD Step 338 Units = [Angstroms]
C  -0.67404079 -1.23019933 0.06429709
C  0.69477881 -1.23927490 -0.01392267
C  1.35893270 0.03619149 0.02177450
C  0.70963096 1.24528222 -0.01817616
C  -0.72273299 1.17422385 -0.01870219
C  -1.35804528 0.00236404 -0.01676940
H  -1.27911136 -2.14499586 0.23833774
H  1.29218505 -2.10492241 -0.12270408
H  2.50904997 0.00641341 0.01708980
H  1.15496482 2.24207316 -0.03929511
H  -1.28333348 2.12084108 -0.14879401
H  -2.49532042 0.01658376 -0.16509478
12
MD Step 339 Units = [Angstroms]
C  -0.67279412 -1.22877902 0.06495505
C  0.69287626 -1.24143742 -0.01388827
C  1.36162447 0.03501240 0.02231573
C  0.71118521 1.24534354 -0.01783901
C  -0.72691788 1.17577476 -0.01907013
C  -1.35658141 0.00159718 -0.01661210
H  -1.27557209 -2.14682618 0.23253827
H  1.29602021 -2.10014215 -0.12794688
H  2.50548722 0.01086293 0.01777957
H  1.15107092 2.24628219 -0.04424735
H  -1.27785098 2.11241967 -0.15013201
H  -2.51107702 0.02621756 -0.16465921
12
MD Step 340 Units = [Angstroms]
C  -0.67174852 -1.22746766 0.06563709
C  0.69103118 -1.24298509 -0.01377809
C  1.36468272 0.03366656 0.02275148
C  0.71236799 1.24524443 -0.01742555
C  -0.73060709 1.17786278 -0.01956696
C  -1.35580414 0.00040959 -0.01649158
H  -1.27131764 -2.14819896 0.22588162
H  1.30155462 -2.09877994 -0.13297553
H  2.49877175 0.01540524 0.01852776
H  1.14818584 2.25008601 -0.04907138
H  -1.27270115 2.10464807 -0.15106314
H  -2.52272591 0.03495793 -0.16304205
12
MD Step 341 Units = [Angstroms]
C  -0.67092420 -1.22628632 0.06633714
C  0.68930381 -1.24391212 -0.01359666
C  1.36802192 0.03218422 0.02308275
C  0.71315844 1.24497664 -0.01694065
C  -0.73371616 1.18039133 -0.02018148
C  -1.35577327 -0.00115454 -0.01640937
H  -1.26644203 -2.14913806 0.21842231
H  1.30858521 -2.10069846 -0.13775540
H  2.48955936 0.01993199 0.01932992
H  1.14628517 2.25328824 -0.05373297
H  -1.26844629 2.09844023 -0.15170508
H  -2.52954224 0.04262673 -0.16018778
12
MD Step 342 Units = [Angstroms]
C  -0.67033460 -1.22524891 0.06704743
C  0.68776878 -1.24424073 -0.01335167
C  1.37153771 0.03059406 0.02331119
C  0.71354094 1.24453539 -0.01638996
C  -0.73617620 1.18325521 -0.02090214
C  -1.35651320 -0.00303906 -0.01636347
H  -1.26107733 -2.14973313 0.21022915
H  1.31669121 -2.10544513 -0.14220974
H  2.47874383 0.02433862 0.02018003
H  1.14533165 2.25568951 -0.05819670
H  -1.26559379 2.09462906 -0.15217041
H  -2.53115178 0.04906171 -0.15608811
12
MD Step 343 Units = [Angstroms]
C  -0.66998635 -1.22436222 0.06775876
C  0.68650943 -1.24401468 -0.01305333
C  1.37511073 0.02892222 0.02343895
C  0.71350448 1.24391870 -0.01577986
C  -0.73793801 1.18635125 -0.02171836
C  -1.35801444 -0.00517835 -0.01634866
H  -1.25538629 -2.15013072 0.20138199
H  1.32528888 -2.11233102 -0.14622767
H  2.46741351 0.02852978 0.02107101
H  1.14528086 2.25710350 -0.06242674
H  -1.26453397 2.09385677 -0.15255014
H  -2.52752188 0.05412268 -0.15077816
12
MD Step 344 Units = [Angstroms]
C  -0.66987958 -1.22362636 0.06846073
C  0.68561066 -1.24329130 -0.01271314
C  1.37861302 0.02719149 0.02346874
C  0.71304221 1.24312674 -0.01511740
C  -0.73897564 1.18958848 -0.02262179
C  -1.36023461 -0.00750054 -0.01635677
H  -1.24955203 -2.15052040 0.19196778
H  1.33370620 -2.12053152 -0.14967797
H  2.45677761 0.03242450 0.02199523
H  1.14608624 2.25737177 -0.06638783
H  -1.26548507 2.09647727 -0.15289890
H  -2.51895910 0.05769773 -0.14433336
12
MD Step 345 Units = [Angstroms]
C  -0.67000849 -1.22303561 0.06914202
C  0.68515150 -1.24213355 -0.01234263
C  1.38191724 0.02542104 0.02340375
C  0.71215123 1.24216117 -0.01441016
C  -0.73928846 1.19289589 -0.02360707
C  -1.36309878 -0.00993108 -0.01637684
H  -1.24376528 -2.15111614 0.18207648
H  1.34126012 -2.12918647 -0.15242480
H  2.44805733 0.03595999 0.02294515
H  1.14770329 2.25637575 -0.07004632
H  -1.26845856 2.10249501 -0.15322563
H  -2.50611462 0.05970990 -0.13686647
12
MD Step 346 Units = [Angstroms]
C  -0.67036219 -1.22257961 0.06979072
C  0.68519885 -1.24060360 -0.01195212
C  1.38490830 0.02362640 0.02324760
C  0.71083276 1.24102450 -0.01366615
C  -0.73890100 1.19622579 -0.02467201
C  -1.36649945 -0.01239651 -0.01639534
H  -1.23821005 -2.15213436 0.17179714
H  1.34732282 -2.13748418 -0.15434206
H  2.44234746 0.03909309 0.02391365
H  1.15009272 2.25404555 -0.07337129
H  -1.27325410 2.11155736 -0.15349273
H  -2.48999147 0.06012422 -0.12852415
12
MD Step 347 Units = [Angstroms]
C  -0.67092578 -1.22224483 0.07039462
C  0.68580286 -1.23875827 -0.01154996
C  1.38749583 0.02181996 0.02300440
C  0.70909261 1.23971970 -0.01289364
C  -0.73786046 1.19955260 -0.02581707
C  -1.37029734 -0.01482792 -0.01639650
H  -1.23304896 -2.15377008 0.16121467
H  1.35137050 -2.14472277 -0.15532453
H  2.44046803 0.04179857 0.02489387
H  1.15322249 2.25036483 -0.07633543
H  -1.27948607 2.12300332 -0.15362397
H  -2.47194084 0.05895364 -0.11948133
12
MD Step 348 Units = [Angstroms]
C  -0.67168156 -1.22201616 0.07094139
C  0.68699399 -1.23664640 -0.01114191
C  1.38962481 0.02001179 0.02267877
C  0.70694171 1.23824990 -0.01210104
C  -0.73623260 1.20286783 -0.02704429
C  -1.37432464 -0.01716393 -0.01636297
H  -1.22840974 -2.15617367 0.15040763
H  1.35301437 -2.15034991 -0.15529518
H  2.44283793 0.04406477 0.02587854
H  1.15706874 2.24537182 -0.07891580
H  -1.28663427 2.13595464 -0.15351856
H  -2.45362668 0.05626185 -0.10993141
12
MD Step 349 Units = [Angstroms]
C  -0.67261030 -1.22187832 0.07141877
C  0.68878167 -1.23430746 -0.01073097
C  1.39128168 0.01821056 0.02227591
C  0.70439687 1.23661837 -0.01129674
C  -0.73409675 1.20617318 -0.02835606
C  -1.37839289 -0.01935250 -0.01627706
H  -1.22437462 -2.15943109 0.13944742
H  1.35201726 -2.15398577 -0.15420926
H  2.44940437 0.04588809 0.02685875
H  1.16161540 2.23915646 -0.08109428
H  -1.29410653 2.14942621 -0.15306770
H  -2.43693304 0.05215967 -0.10007105
12
MD Step 350 Units = [Angstroms]
C  -0.67369242 -1.22181698 0.07181457
C  0.69115397 -1.23177124 -0.01031728
C  1.39249404 0.01642449 0.02180167
C  0.70148135 1.23482867 -0.01048899
C  -0.73154099 1.20947362 -0.02975402
C  -1.38230735 -0.02135152 -0.01612235
H  -1.22097411 -2.16355018 0.12839881
H  1.34830007 -2.15543507 -0.15205596
H  2.45964948 0.04726823 0.02782271
H  1.16685257 2.23185389 -0.08285766
H  -1.30130048 2.16243251 -0.15216964
H  -2.42379309 0.04679281 -0.09007977
12
MD Step 351 Units = [Angstroms]
C  -0.67490898 -1.22181931 0.07211676
C  0.69407812 -1.22905782 -0.00989832
C  1.39332419 0.01466203 0.02126258
C  0.69822538 1.23288515 -0.00968578
C  -0.72865813 1.21277150 -0.03123822
C  -1.38588777 -0.02312814 -0.01588549
H  -1.21818598 -2.16845523 0.11732155
H  1.34194160 -2.15469227 -0.14885833
H  2.47267188 0.04820599 0.02875491
H  1.17277348 2.22363482 -0.08419741
H  -1.30765541 2.17407451 -0.15074112
H  -2.41594074 0.04032181 -0.08009842
12
MD Step 352 Units = [Angstroms]
C  -0.67624235 -1.22187394 0.07231340
C  0.69750164 -1.22617797 -0.00946901
C  1.39385856 0.01293235 0.02066576
C  0.69466654 1.23079351 -0.00889479
C  -0.72554249 1.21606256 -0.03280654
C  -1.38899247 -0.02465735 -0.01555766
H  -1.21593976 -2.17399067 0.10627269
H  1.33317331 -2.15194216 -0.14467183
H  2.48731919 0.04870367 0.02963611
H  1.17937035 2.21469343 -0.08510914
H  -1.31269078 2.18360135 -0.14872436
H  -2.41462420 0.03289946 -0.07021310
12
MD Step 353 Units = [Angstroms]
C  -0.67767657 -1.22197047 0.07239266
C  0.70135399 -1.22313370 -0.00902214
C  1.39419565 0.01124551 0.02001883
C  0.69084988 1.22856147 -0.00812333
C  -0.72228751 1.21933346 -0.03445451
C  -1.39153929 -0.02592079 -0.01513497
H  -1.21412590 -2.17993331 0.09530894
H  1.32236894 -2.14755492 -0.13958146
H  2.50233697 0.04876737 0.03044419
H  1.18662909 2.20523374 -0.08559173
H  -1.31603190 2.19044856 -0.14609033
H  -2.42035968 0.02465483 -0.06045208
12
MD Step 354 Units = [Angstroms]
C  -0.67919721 -1.22209844 0.07234287
C  0.70554896 -1.21991934 -0.00854871
C  1.39443519 0.00961270 0.01932967
C  0.68682788 1.22619934 -0.00737831
C  -0.71898359 1.22256063 -0.03617523
C  -1.39351604 -0.02690638 -0.01461761
H  -1.21260826 -2.18601159 0.08448855
H  1.31002681 -2.14207251 -0.13369714
H  2.51650366 0.04840991 0.03115551
H  1.19452345 2.19545577 -0.08564631
H  -1.31742575 2.19425886 -0.14283921
H  -2.43281246 0.01569142 -0.05079821
12
MD Step 355 Units = [Angstroms]
C  -0.68079088 -1.22224632 0.07215262
C  0.70998773 -1.21652354 -0.00803857
C  1.39466970 0.00804626 0.01860620
C  0.68266013 1.22372053 -0.00666626
C  -0.71571614 1.22571001 -0.03795946
C  -1.39497667 -0.02760898 -0.01400811
H  -1.21123839 -2.19192901 0.07387243
H  1.29674227 -2.13618106 -0.12714677
H  2.52873439 0.04765321 0.03174665
H  1.20300919 2.18554271 -0.08527530
H  -1.31675025 2.19489153 -0.13899903
H  -2.45085338 0.00609963 -0.04121258
12
MD Step 356 Units = [Angstroms]
C  -0.68244447 -1.22240045 0.07181099
C  0.71456303 -1.21293255 -0.00748116
C  1.39497889 0.00655979 0.01785619
C  0.67841272 1.22114170 -0.00599328
C  -0.71256349 1.22873717 -0.03979584
C  -1.39602472 -0.02803154 -0.01330942
H  -1.20986969 -2.19738910 0.06352415
H  1.28316780 -2.13066375 -0.12006686
H  2.53815009 0.04652977 0.03219594
H  1.21201889 2.17565065 -0.08448148
H  -1.31401955 2.19242517 -0.13462327
H  -2.47276945 -0.00402377 -0.03165965
12
MD Step 357 Units = [Angstroms]
C  -0.68414418 -1.22254421 0.07130770
C  0.71916414 -1.20913531 -0.00686649
C  1.39542634 0.00516812 0.01708704
C  0.67415726 1.21848275 -0.00536512
C  -0.70959473 1.23158775 -0.04167110
C  -1.39679038 -0.02818578 -0.01252352
H  -1.20837036 -2.20211931 0.05350905
H  1.26996069 -2.12633059 -0.11259081
H  2.54411750 0.04508326 0.03248487
H  1.22145840 2.16590197 -0.08326748
H  -1.30938609 2.18715577 -0.12978759
H  -2.49655123 -0.01455936 -0.02212536
12
MD Step 358 Units = [Angstroms]
C  -0.68587445 -1.22265751 0.07063339
C  0.72368260 -1.20512994 -0.00618609
C  1.39605766 0.00388715 0.01630559
C  0.66996953 1.21576641 -0.00478713
C  -0.70686776 1.23419803 -0.04357044
C  -1.39740860 -0.02809190 -0.01165093
H  -1.20663401 -2.20589183 0.04389251
H  1.25772250 -2.12392771 -0.10483658
H  2.54626925 0.04336839 0.03259918
H  1.23120539 2.15638303 -0.08163555
H  -1.30313893 2.17958907 -0.12458576
H  -2.52016904 -0.02535815 -0.01262451
12
MD Step 359 Units = [Angstroms]
C  -0.68761703 -1.22271651 0.06977983
C  0.72801777 -1.20093107 -0.00543386
C  1.39689953 0.00273358 0.01551805
C  0.66592758 1.21301771 -0.00426425
C  -0.70442776 1.23649620 -0.04547796
C  -1.39800273 -0.02777744 -0.01069087
H  -1.20458765 -2.20854021 0.03473786
H  1.24693908 -2.12403662 -0.09689585
H  2.54451242 0.04145039 0.03252961
H  1.24111068 2.14714648 -0.07958786
H  -1.29569534 2.17042365 -0.11912452
H  -2.54178044 -0.03624418 -0.00319899
12
MD Step 360 Units = [Angstroms]
C  -0.68935023 -1.22269386 0.06874019
C  0.73208138 -1.19657611 -0.00460663
C  1.39795912 0.00172437 0.01472982
C  0.66210958 1.21026319 -0.00380101
C  -0.70230664 1.23840439 -0.04737716
C  -1.39867498 -0.02727536 -0.00964177
H  -1.20219674 -2.20997089 0.02610400
H  1.23793313 -2.12698275 -0.08882737
H  2.53903089 0.03940418 0.03227259
H  1.25100234 2.13821741 -0.07712713
H  -1.28758196 2.16051867 -0.11351719
H  -2.55985385 -0.04702311 0.00608901
12
MD Step 361 Units = [Angstroms]
C  -0.69104838 -1.22255908 0.06750918
C  0.73580023 -1.19212903 -0.00370415
C  1.39922377 0.00087616 0.01394549
C  0.65859128 1.20753014 -0.00340153
C  -0.70052380 1.23984246 -0.04925162
C  -1.39950236 -0.02662197 -0.00850199
H  -1.19946731 -2.21016941 0.01804316
H  1.23084044 -2.13277524 -0.08065665
H  2.53028310 0.03731313 0.03183057
H  1.26069225 2.12960254 -0.07425754
H  -1.27940104 2.15084001 -0.10787605
H  -2.57322297 -0.05749250 0.01516553
12
MD Step 362 Units = [Angstroms]
C  -0.69268174 -1.22227945 0.06608329
C  0.73911672 -1.18767994 -0.00272863
C  1.40066110 0.00020446 0.01316874
C  0.65544333 1.20484571 -0.00306947
C  -0.69908867 1.24073355 -0.05108563
C  -1.40053609 -0.02585473 -0.00727033
H  -1.19644543 -2.20920125 0.01059902
H  1.22561506 -2.14109479 -0.07238192
H  2.51899238 0.03526727 0.03121219
H  1.26998468 2.12130102 -0.07098577
H  -1.27177932 2.14238103 -0.10230417
H  -2.58109832 -0.06745137 0.02395267
12
MD Step 363 Units = [Angstroms]
C  -0.69421671 -1.22182118 0.06446087
C  0.74198734 -1.18334026 -0.00168384
C  1.40222006 -0.00027714 0.01240242
C  0.65272861 1.20223620 -0.00280803
C  -0.69800457 1.24101156 -0.05286484
C  -1.40180227 -0.02501025 -0.00594656
H  -1.19321383 -2.20720693 0.00380536
H  1.22206058 -2.15133356 -0.06398454
H  2.50612358 0.03336073 0.03043205
H  1.27868592 2.11331545 -0.06732195
H  -1.26530138 2.13606030 -0.09688791
H  -2.58305985 -0.07670828 0.03237545
12
MD Step 364 Units = [Angstroms]
C  -0.69561646 -1.22115093 0.06264224
C  0.74438019 -1.17923454 -0.00057428
C  1.40383379 -0.00055785 0.01164855
C  0.65049981 1.19972638 -0.00261997
C  -0.69727360 1.24062953 -0.05457667
C  -1.40330271 -0.02412247 -0.00453180
H  -1.18988596 -2.20439157 -0.00231457
H  1.21987790 -2.16267615 -0.05544080
H  2.49283668 0.03168806 0.02950992
H  1.28661404 2.10566190 -0.06328045
H  -1.26043586 2.13260847 -0.09169181
H  -2.57904738 -0.08508816 0.04036752
12
MD Step 365 Units = [Angstroms]
C  -0.69684198 -1.22023772 0.06062967
C  0.74627225 -1.17549039 0.00059573
C  1.40542485 -0.00063040 0.01090845
C  0.64879736 1.19733897 -0.00250760
C  -0.69690099 1.23956731 -0.05621045
C  -1.40501509 -0.02322100 -0.00302884
H  -1.18659754 -2.20100881 -0.00774789
H  1.21871732 -2.17420122 -0.04673209
H  2.48040835 0.03033943 0.02846939
H  1.29360807 2.09837793 -0.05888032
H  -1.25746938 2.13246552 -0.08675722
H  -2.56935776 -0.09243901 0.04787663
12
MD Step 366 Units = [Angstroms]
C  -0.69785341 -1.21905511 0.05842734
C  0.74764737 -1.17222858 0.00182247
C  1.40691342 -0.00049169 0.01018297
C  0.64764796 1.19509408 -0.00247283
C  -0.69689783 1.23783654 -0.05775716
C  -1.40689243 -0.02232974 -0.00144250
H  -1.18349598 -2.19733978 -0.01249108
H  1.21822496 -2.18498251 -0.03785170
H  2.47011701 0.02939493 0.02733566
H  1.29953565 2.09152795 -0.05414548
H  -1.25646473 2.13571327 -0.08210525
H  -2.55465035 -0.09863903 0.05486999
12
MD Step 367 Units = [Angstroms]
C  -0.69861164 -1.21758353 0.05604117
C  0.74849502 -1.16955462 0.00310307
C  1.40822801 -0.00014321 0.00947266
C  0.64706371 1.19300890 -0.00251719
C  -0.69728097 1.23548145 -0.05920903
C  -1.40886223 -0.02146575 0.00021998
H  -1.18072825 -2.19366809 -0.01654829
H  1.21807837 -2.19417406 -0.02880785
H  2.46309813 0.02891830 0.02613294
H  1.30429863 2.08520562 -0.04910444
H  -1.25725545 2.14206182 -0.07774303
H  -2.53595550 -0.10360450 0.06133990
12
MD Step 368 Units = [Angstroms]
C  -0.69908013 -1.21581267 0.05347861
C  0.74881001 -1.16755240 0.00443549
C  1.40931688 0.00040881 0.00877805
C  0.64704200 1.19109733 -0.00264188
C  -0.69807023 1.23257511 -0.06055898
C  -1.41082630 -0.02063855 0.00194866
H  -1.17842815 -2.19025311 -0.01992911
H  1.21801017 -2.20107307 -0.01962358
H  2.46019111 0.02895136 0.02488184
H  1.30783625 2.07953300 -0.04378979
H  -1.25947834 2.15089384 -0.07367104
H  -2.51467342 -0.10729768 0.06730913
12
MD Step 369 Units = [Angstroms]
C  -0.69922677 -1.21374346 0.05074846
C  0.74859255 -1.16627994 0.00581824
C  1.41015764 0.00115335 0.00809984
C  0.64756605 1.18936982 -0.00284783
C  -0.69928361 1.22921218 -0.06180011
C  -1.41266303 -0.01984987 0.00373063
H  -1.17670439 -2.18730401 -0.02264629
H  1.21782204 -2.20516107 -0.01033451
H  2.46181142 0.02950982 0.02359749
H  1.31012550 2.07465662 -0.03823741
H  -1.26263412 2.16135410 -0.06988953
H  -2.49254233 -0.10973250 0.07283449
12
MD Step 370 Units = [Angstroms]
C  -0.69902568 -1.21138963 0.04786056
C  0.74784861 -1.16576708 0.00725014
C  1.41076221 0.00207484 0.00743897
C  0.64860622 1.18783333 -0.00313574
C  -0.70093205 1.22549996 -0.06292556
C  -1.41423423 -0.01909424 0.00555021
H  -1.17563074 -2.18495815 -0.02471370
H  1.21739200 -2.20612783 -0.00098529
H  2.46788286 0.03058172 0.02228895
H  1.31117866 2.07074053 -0.03248548
H  -1.26616006 2.17246070 -0.06640248
H  -2.47154937 -0.11097465 0.07800626
12
MD Step 371 Units = [Angstroms]
C  -0.69845882 -1.20877827 0.04482571
C  0.74658998 -1.16601449 0.00872997
C  1.41117539 0.00315350 0.00679659
C  0.65012176 1.18649147 -0.00350612
C  -0.70301497 1.22154971 -0.06392840
C  -1.41539844 -0.01836050 0.00738963
H  -1.17523973 -2.18326664 -0.02614502
H  1.21667780 -2.20388310 0.00837436
H  2.47785045 0.03212864 0.02096009
H  1.31103809 2.06795660 -0.02657351
H  -1.26949864 2.18321452 -0.06321887
H  -2.45376117 -0.11113205 0.08294043
12
MD Step 372 Units = [Angstroms]
C  -0.69751728 -1.20594952 0.04165546
C  0.74483405 -1.16699401 0.01025611
C  1.41146759 0.00436593 0.00617396
C  0.65206317 1.18534490 -0.00395932
C  -0.70551743 1.21746933 -0.06480183
C  -1.41603093 -0.01763450 0.00923048
H  -1.17552070 -2.18218950 -0.02695337
H  1.21571812 -2.19855978 0.01769396
H  2.49076987 0.03408947 0.01961164
H  1.30976861 2.06647258 -0.02054142
H  -1.27215208 2.19269014 -0.06035198
H  -2.44107232 -0.11033424 0.08776167
12
MD Step 373 Units = [Angstroms]
C  -0.69620208 -1.20295511 0.03836214
C  0.74260335 -1.16864985 0.01182624
C  1.41172368 0.00568585 0.00557228
C  0.65437478 1.18439186 -0.00449551
C  -0.70840917 1.21335808 -0.06553935
C  -1.41604731 -0.01690229 0.01105582
H  -1.17642244 -2.18160130 -0.02715199
H  1.21463224 -2.19050973 0.02692654
H  2.50544687 0.03638588 0.01824361
H  1.30744813 2.06643847 -0.01442881
H  -1.27371920 2.20010191 -0.05781747
H  -2.43490867 -0.10870405 0.09257836
12
MD Step 374 Units = [Angstroms]
C  -0.69452451 -1.19985616 0.03495889
C  0.73992484 -1.17090094 0.01343706
C  1.41203115 0.00708503 0.00499255
C  0.65699746 1.18362895 -0.00511462
C  -0.71164501 1.20930310 -0.06613505
C  -1.41542443 -0.01615323 0.01285242
H  -1.17785996 -2.18130630 -0.02675569
H  1.21361709 -2.18029045 0.03603274
H  2.52059060 0.03892837 0.01685744
H  1.30415747 2.06797228 -0.00827463
H  -1.27391654 2.20484658 -0.05563114
H  -2.43596418 -0.10633079 0.09745582
12
MD Step 375 Units = [Angstroms]
C  -0.69250587 -1.19672032 0.03145964
C  0.73682935 -1.17364465 0.01508400
C  1.41246970 0.00853449 0.00443550
C  0.65987125 1.18305184 -0.00581630
C  -0.71516632 1.20537724 -0.06658379
C  -1.41421094 -0.01538182 0.01461230
H  -1.17972427 -2.18106097 -0.02578274
H  1.21293985 -2.16863874 0.04498445
H  2.53495045 0.04162196 0.01545742
H  1.29997066 2.07114634 -0.00211712
H  -1.27258772 2.20652812 -0.05380690
H  -2.44406251 -0.10325628 0.10239703
12
MD Step 376 Units = [Angstroms]
C  -0.69017670 -1.19361869 0.02787924
C  0.73335149 -1.17676198 0.01676116
C  1.41310389 0.01000563 0.00390154
C  0.66293760 1.18265607 -0.00659977
C  -0.71890293 1.20163778 -0.06688145
C  -1.41252315 -0.01458779 0.01633314
H  -1.18189385 -2.18060068 -0.02425685
H  1.21292292 -2.15642606 0.05376733
H  2.54741957 0.04437103 0.01405124
H  1.29494693 2.07597565 0.00400574
H  -1.26970533 2.20497088 -0.05235498
H  -2.45819792 -0.09947958 0.10733849
12
MD Step 377 Units = [Angstroms]
C  -0.68757573 -1.19062270 0.02423341
C  0.72953038 -1.18012469 0.01846127
C  1.41397859 0.01147139 0.00339082
C  0.66614120 1.18243766 -0.00746369
C  -0.72277505 1.19812551 -0.06702504
C  -1.41052736 -0.01377476 0.01801721
H  -1.18424642 -2.17966727 -0.02220872
H  1.21391828 -2.14459189 0.06238150
H  2.55710287 0.04708283 0.01264997
H  1.28912561 2.08240979 0.01005556
H  -1.26536865 2.20022588 -0.05128068
H  -2.47673879 -0.09497735 0.11216255
12
MD Step 378 Units = [Angstroms]
C  -0.68474849 -1.18780113 0.02053865
C  0.72541138 -1.18360407 0.02017596
C  1.41511700 0.01290715 0.00290324
C  0.66943116 1.18239353 -0.00840602
C  -0.72669532 1.19486407 -0.06701285
C  -1.40841539 -0.01294825 0.01966952
H  -1.18666996 -2.17803455 -0.01967703
H  1.21626979 -2.13405545 0.07083931
H  2.56335560 0.04967011 0.01126751
H  1.28252475 2.09032959 0.01599268
H  -1.25979830 2.19257204 -0.05058351
H  -2.49771709 -0.08972925 0.11672030
12
MD Step 379 Units = [Angstroms]
C  -0.68174602 -1.18521736 0.01681218
C  0.72104880 -1.18708067 0.02189629
C  1.41652000 0.01429141 0.00243855
C  0.67276154 1.18252167 -0.00942391
C  -0.73057063 1.19185958 -0.06684452
C  -1.40638044 -0.01211409 0.02129577
H  -1.18907209 -2.17552966 -0.01670858
H  1.22026491 -2.12561382 0.07916004
H  2.56580228 0.05205273 0.00991992
H  1.27514365 2.09954936 0.02177539
H  -1.25332780 2.18251115 -0.05025673
H  -2.51911242 -0.08373857 0.12085653
12
MD Step 380 Units = [Angstroms]
C  -0.67862358 -1.18292699 0.01307170
C  0.71650900 -1.19045357 0.02361350
C  1.41816643 0.01560611 0.00199641
C  0.67609134 1.18282103 -0.01051362
C  -0.73430424 1.18910096 -0.06652100
C  -1.40459871 -0.01127756 0.02290070
H  -1.19138743 -2.17204910 -0.01335776
H  1.22608260 -2.11984297 0.08736153
H  2.56434428 0.05415890 0.00862468
H  1.26696902 2.10982479 0.02735936
H  -1.24638988 2.17075248 -0.05028750
H  -2.53906909 -0.07704285 0.12442987
12
MD Step 381 Units = [Angstroms]
C  -0.67543953 -1.18097585 0.00933518
C  0.71187299 -1.19364747 0.02531984
C  1.42001362 0.01683661 0.00157645
C  0.67938391 1.18329111 -0.01167049
C  -0.73779820 1.18656146 -0.06604453
C  -1.40321804 -0.01044325 0.02448708
H  -1.19358263 -2.16756880 -0.00968532
H  1.23374797 -2.11702304 0.09545055
H  2.55916139 0.05592604 0.00739992
H  1.25798369 2.12086575 0.03269755
H  -1.23949488 2.15818038 -0.05065763
H  -2.55602805 -0.06971535 0.12732536
12
MD Step 382 Units = [Angstroms]
C  -0.67225433 -1.17939858 0.00562068
C  0.70723736 -1.19661601 0.02700935
C  1.42199824 0.01797150 0.00117831
C  0.68260616 1.18393144 -0.01288897
C  -0.74095641 1.18420220 -0.06541843
C  -1.40235258 -0.00961532 0.02605522
H  -1.19565905 -2.16214813 -0.00575667
H  1.24310593 -2.11710679 0.10341430
H  2.55070852 0.05730163 0.00626384
H  1.24817657 2.13235300 0.03774062
H  -1.23319802 2.14579787 -0.05134504
H  -2.56878770 -0.06186060 0.12946043
12
MD Step 383 Units = [Angstroms]
C  -0.66912954 -1.17821770 0.00194606
C  0.70271291 -1.19934063 0.02867828
C  1.42403760 0.01900225 0.00080174
C  0.68572745 1.18474087 -0.01416274
C  -0.74368854 1.18197801 -0.06464693
C  -1.40208123 -0.00879787 0.02760282
H  -1.19765277 -2.15592808 -0.00163986
H  1.25382201 -2.11973942 0.11121555
H  2.53970456 0.05824388 0.00523402
H  1.23755277 2.14395689 0.04243779
H  -1.22805420 2.13464195 -0.05232573
H  -2.57651955 -0.05360762 0.13078636
12
MD Step 384 Units = [Angstroms]
C  -0.66612681 -1.17744351 -0.00167114
C  0.69842066 -1.20182574 0.03032515
C  1.42603212 0.01992276 0.00044659
C  0.68871864 1.18571687 -0.01548480
C  -0.74591460 1.17984553 -0.06373489
C  -1.40244779 -0.00799523 0.02912502
H  -1.19963195 -2.14912344 0.00259652
H  1.26541158 -2.12432368 0.11879270
H  2.52710664 0.05872225 0.00432696
H  1.22614232 2.15535672 0.04673816
H  -1.22456215 2.12567369 -0.05357592
H  -2.57876369 -0.04510302 0.13128761
12
MD Step 385 Units = [Angstroms]
C  -0.66330677 -1.17707455 -0.00521397
C  0.69448580 -1.20409143 0.03195033
C  1.42786960 0.02072907 0.00011288
C  0.69155121 1.18685486 -0.01684770
C  -0.74756973 1.17777249 -0.06268762
C  -1.40346153 -0.00721208 0.03061440
H  -1.20169132 -2.14200959 0.00688526
H  1.27729035 -2.13011211 0.12606478
H  2.51406042 0.05871719 0.00355753
H  1.21400701 2.16625886 0.05059232
H  -1.22310470 2.11965660 -0.05507369
H  -2.57542108 -0.03650490 0.13098060
12
MD Step 386 Units = [Angstroms]
C  -0.66072768 -1.17709887 -0.00866609
C  0.69103065 -1.20616574 0.03355542
C  1.42943219 0.02141915 -0.00019923
C  0.69419674 1.18814759 -0.01824371
C  -0.74860840 1.17574609 -0.06151072
C  -1.40509730 -0.00645340 0.03206105
H  -1.20394372 -2.13490392 0.01116224
H  1.28883452 -2.13630523 0.13293948
H  2.50181751 0.05821901 0.00293864
H  1.20124469 2.17641270 0.05395403
H  -1.22389631 2.11704718 -0.05679922
H  -2.56675200 -0.02797739 0.12991276
12
MD Step 387 Units = [Angstroms]
C  -0.65844417 -1.17749585 -0.01201192
C  0.68816760 -1.20807777 0.03514245
C  1.43060614 0.02199278 -0.00048940
C  0.69662675 1.18958467 -0.01966504
C  -0.74900710 1.17377840 -0.06021016
C  -1.40729509 -0.00572444 0.03345256
H  -1.20650890 -2.12814307 0.01536748
H  1.29943903 -2.14213805 0.13932248
H  2.49161696 0.05722556 0.00248086
H  1.18799092 2.18562342 0.05678184
H  -1.22695026 2.11792500 -0.05873345
H  -2.55338236 -0.01968526 0.12816194
12
MD Step 388 Units = [Angstroms]
C  -0.65650579 -1.17823856 -0.01523654
C  0.68599281 -1.20985255 0.03671314
C  1.43129390 0.02245161 -0.00075714
C  0.69881301 1.19115224 -0.02110399
C  -0.74876484 1.17190700 -0.05879234
C  -1.40995933 -0.00503061 0.03477404
H  -1.20950014 -2.12205714 0.01944555
H  1.30856609 -2.14694594 0.14512611
H  2.48453892 0.05573921 0.00219229
H  1.17441816 2.19376091 0.05904048
H  -1.23207441 2.12198227 -0.06085527
H  -2.53631267 -0.01178791 0.12583572
12
MD Step 389 Units = [Angstroms]
C  -0.65495581 -1.17929631 -0.01832567
C  0.68458118 -1.21150751 0.03826826
C  1.43142650 0.02279918 -0.00100179
C  0.70072809 1.19283285 -0.02255312
C  -0.74790138 1.17019061 -0.05726433
C  -1.41295918 -0.00437768 0.03600821
H  -1.21300979 -2.11694317 0.02334533
H  1.31578089 -2.15020865 0.15027640
H  2.48135394 0.05376412 0.00207836
H  1.16073259 2.20076455 0.06070196
H  -1.23889690 2.12857585 -0.06313839
H  -2.51691650 -0.00443230 0.12306931
12
MD Step 390 Units = [Angstroms]
C  -0.65383019 -1.18063714 -0.02126550
C  0.68398267 -1.21305052 0.03980714
C  1.43097339 0.02304080 -0.00122255
C  0.70234634 1.19460552 -0.02400538
C  -0.74645382 1.16870103 -0.05563393
C  -1.41613131 -0.00377191 0.03713592
H  -1.21709539 -2.11304056 0.02701899
H  1.32077520 -2.15157615 0.15471839
H  2.48240231 0.05130517 0.00214165
H  1.14716894 2.20664362 0.06174618
H  -1.24691464 2.13682652 -0.06554887
H  -2.49690686 0.00225495 0.12002051
12
MD Step 391 Units = [Angstroms]
C  -0.65315689 -1.18222996 -0.02404251
C  0.68421988 -1.21447889 0.04132726
C  1.42994704 0.02318321 -0.00141849
C  0.70364487 1.19644620 -0.02545417
C  -0.74447238 1.16751347 -0.05390963
C  -1.41928775 -0.00322047 0.03813687
H  -1.22176812 -2.11051136 0.03042068
H  1.32338121 -2.15088159 0.15841975
H  2.48753724 0.04836945 0.00238168
H  1.13398354 2.21147293 0.06216098
H  -1.25555289 2.14573908 -0.06804425
H  -2.47824307 0.00817499 0.11685973
12
MD Step 392 Units = [Angstroms]
C  -0.65295541 -1.18404610 -0.02664333
C  0.68528691 -1.21577905 0.04282402
C  1.42840088 0.02323411 -0.00158851
C  0.70460461 1.19832852 -0.02689339
C  -0.74201633 1.16669754 -0.05210053
C  -1.42223048 -0.00273165 0.03899105
H  -1.22698553 -2.10942792 0.03350515
H  1.32357832 -2.14814608 0.16137319
H  2.49614927 0.04497019 0.00279467
H  1.12144584 2.21538389 0.06194170
H  -1.26422351 2.15431738 -0.07057443
H  -2.46295501 0.01326160 0.11375427
12
MD Step 393 Units = [Angstroms]
C  -0.65323676 -1.18605994 -0.02905463
C  0.68714940 -1.21692665 0.04429054
C  1.42642108 0.02320143 -0.00173133
C  0.70521130 1.20022487 -0.02831741
C  -0.73915055 1.16631013 -0.05021602
C  -1.42477313 -0.00231486 0.03968048
H  -1.23264976 -2.10976959 0.03622666
H  1.32149423 -2.14357776 0.16359772
H  2.50726438 0.04113174 0.00337337
H  1.10982898 2.21855093 0.06109013
H  -1.27237378 2.16165707 -0.07308389
H  -2.45288401 0.01748083 0.11084782
12
MD Step 394 Units = [Angstroms]
C  -0.65400347 -1.18824887 -0.03126309
C  0.68974563 -1.21788704 0.04571767
C  1.42411473 0.02309279 -0.00184556
C  0.70545629 1.20210782 -0.02972103
C  -0.73594299 1.16639082 -0.04826554
C  -1.42676630 -0.00198021 0.04019108
H  -1.23861190 -2.11142874 0.03853865
H  1.31740039 -2.13756515 0.16513884
H  2.51968712 0.03689384 0.00410715
H  1.09939940 2.22117397 0.05961297
H  -1.27952240 2.16701015 -0.07551456
H  -2.44938059 0.02082465 0.10823976
12
MD Step 395 Units = [Angstroms]
C  -0.65524993 -1.19059251 -0.03325555
C  0.69298905 -1.21861641 0.04709410
C  1.42159722 0.02291506 -0.00192966
C  0.70533718 1.20395173 -0.03109942
C  -0.73246264 1.16695950 -0.04625835
C  -1.42811992 -0.00173790 0.04051399
H  -1.24468177 -2.11422490 0.04039412
H  1.31169987 -2.13066207 0.16606714
H  2.53215249 0.03231365 0.00498238
H  1.09040648 2.22345789 0.05751997
H  -1.28528346 2.16982367 -0.07780903
H  -2.45304161 0.02330050 0.10597039
12
MD Step 396 Units = [Angstroms]
C  -0.65696265 -1.19307151 -0.03501920
C  0.69677199 -1.21906381 0.04840667
C  1.41898132 0.02267411 -0.00198203
C  0.70485835 1.20573444 -0.03244800
C  -0.72877784 1.16801567 -0.04420322
C  -1.42881479 -0.00159769 0.04064603
H  -1.25064190 -2.11792503 0.04174697
H  1.30490490 -2.12355981 0.16647488
H  2.54345784 0.02746533 0.00598309
H  1.08307239 2.22559072 0.05482186
H  -1.28938123 2.16975928 -0.07991346
H  -2.46357987 0.02492147 0.10401810
12
MD Step 397 Units = [Angstroms]
C  -0.65912057 -1.19566625 -0.03654190
C  0.70097098 -1.21917467 0.04964102
C  1.41636908 0.02237480 -0.00200107
C  0.70403113 1.20743879 -0.03376236
C  -0.72495464 1.16953891 -0.04210839
C  -1.42889911 -0.00156881 0.04058907
H  -1.25626386 -2.12226696 0.04255385
H  1.29760094 -2.11704100 0.16646966
H  2.55256021 0.02243758 0.00709172
H  1.07758294 2.22772267 0.05152858
H  -1.29165911 2.16670064 -0.08178035
H  -2.47987853 0.02570153 0.10230944
12
MD Step 398 Units = [Angstroms]
C  -0.66169540 -1.19835558 -0.03781259
C  0.70545324 -1.21889598 0.05078243
C  1.41384667 0.02202105 -0.00198520
C  0.70287400 1.20905385 -0.03503822
C  -0.72105495 1.17148984 -0.03998134
C  -1.42847159 -0.00166038 0.04034863
H  -1.26132495 -2.12698332 0.04277637
H  1.29039617 -2.11191219 0.16616502
H  2.55863827 0.01732993 0.00829007
H  1.07408011 2.22994848 0.04764792
H  -1.29208504 2.16075370 -0.08337093
H  -2.50020846 0.02565709 0.10073810
12
MD Step 399 Units = [Angstroms]
C  -0.66465193 -1.20111587 -0.03882163
C  0.71008430 -1.21818311 0.05181700
C  1.41148138 0.02161601 -0.00193299
C  0.70141232 1.21057570 -0.03627142
C  -0.71713470 1.17381157 -0.03782876
C  -1.42765809 -0.00188202 0.03993235
H  -1.26562367 -2.13182381 0.04238332
H  1.28385912 -2.10891656 0.16566829
H  2.56112634 0.01224872 0.00956008
H  1.07265648 2.23229527 0.04318480
H  -1.29075469 2.15224211 -0.08465736
H  -2.52252663 0.02481240 0.09918608
12
MD Step 400 Units = [Angstroms]
C  -0.66794840 -1.20392030 -0.03956118
C  0.71473559 -1.21700758 0.05273279
C  1.40932028 0.02116233 -0.00184315
C  0.69967809 1.21200759 -0.03745793
C  -0.71324210 1.17643132 -0.03565641
C  -1.42658914 -0.00224435 0.03934864
H  -1.26899269 -2.13657397 0.04135255
H  1.27845276 -2.10863633 0.16506746
H  2.55972983 0.00730324 0.01088471
H  1.07335218 2.23471762 0.03814153
H  -1.28789150 2.14169697 -0.08562454
H  -2.54476275 0.02320479 0.09754110
12
MD Step 401 Units = [Angstroms]
C  -0.67153704 -1.20673853 -0.04002551
C  0.71929111 -1.21536427 0.05352100
C  1.40738953 0.02066249 -0.00171467
C  0.69770935 1.21335946 -0.03859401
C  -0.70941637 1.17926262 -0.03346909
C  -1.42538346 -0.00275906 0.03860594
H  -1.27130870 -2.14106973 0.03967239
H  1.27447765 -2.11140244 0.16441958
H  2.55443066 0.00260210 0.01224868
H  1.07615436 2.23710050 0.03251883
H  -1.28384148 2.12983753 -0.08627127
H  -2.56503397 0.02088727 0.09570772
12
MD Step 402 Units = [Angstroms]
C  -0.67536460 -1.20953677 -0.04021115
C  0.72365189 -1.21327638 0.05417662
C  1.40569421 0.02011926 -0.00154685
C  0.69554941 1.21464690 -0.03967631
C  -0.70568740 1.18220854 -0.03127065
C  -1.42413851 -0.00343856 0.03771228
H  -1.27249871 -2.14520709 0.03734238
H  1.27203793 -2.11723257 0.16374366
H  2.54548703 -0.00175006 0.01363934
H  1.08099913 2.23926966 0.02631754
H  -1.27905875 2.11753718 -0.08661036
H  -2.58177193 0.01792806 0.09361226
12
MD Step 403 Units = [Angstroms]
C  -0.67937312 -1.21227811 -0.04011709
C  0.72773763 -1.21079666 0.05469861
C  1.40421846 0.01953613 -0.00133938
C  0.69324595 1.21588966 -0.04070210
C  -0.70207675 1.18516619 -0.02906407
C  -1.42292678 -0.00429528 0.03667530
H  -1.27254278 -2.14894703 0.03437332
H  1.27103879 -2.12581480 0.16302015
H  2.53342842 -0.00565569 0.01504737
H  1.08777584 2.24100796 0.01954067
H  -1.27407770 2.10576919 -0.08666710
H  -2.59377851 0.01440796 0.09120366
12
MD Step 404 Units = [Angstroms]
C  -0.68350076 -1.21492330 -0.03974476
C  0.73148556 -1.20800448 0.05508948
C  1.40292618 0.01891789 -0.00109248
C  0.69084987 1.21710988 -0.04166937
C  -0.69860018 1.18803314 -0.02685171
C  -1.42179552 -0.00534063 0.03550224
H  -1.27147313 -2.15231523 0.03078668
H  1.27121557 -2.13654217 0.16219704
H  2.51904231 -0.00902726 0.01646758
H  1.09633322 2.24207562 0.01219555
H  -1.26946847 2.09552873 -0.08647543
H  -2.60023727 0.01041709 0.08845197
12
MD Step 405 Units = [Angstroms]
C  -0.68768280 -1.21743195 -0.03909804
C  0.73484728 -1.20499926 0.05535450
C  1.40176293 0.01827098 -0.00080690
C  0.68841413 1.21833022 -0.04257703
C  -0.69527182 1.19071531 -0.02463583
C  -1.42076778 -0.00658401 0.03420014
H  -1.26936989 -2.15539693 0.02661326
H  1.27218540 -2.14858932 0.16120073
H  2.50334562 -0.01178979 0.01789939
H  1.10648703 2.24223193 0.00429564
H  -1.26577659 2.08773402 -0.08607187
H  -2.60070598 0.00605180 0.08534615
12
MD Step 406 Units = [Angstroms]
C  -0.69185277 -1.21976401 -0.03818313
C  0.73778493 -1.20189192 0.05550066
C  1.40065960 0.01760379 -0.00048399
C  0.68599245 1.21957205 -0.04342498
C  -0.69210915 1.19313557 -0.02241913
C  -1.41984356 -0.00803156 0.03277582
H  -1.26635338 -2.15832667 0.02189148
H  1.27350790 -2.16101204 0.15994888
H  2.48753154 -0.01388246 0.01934696
H  1.11802865 2.24125635 -0.00413808
H  -1.26345315 2.08311810 -0.08548752
H  -2.59510704 0.00141215 0.08189191
12
MD Step 407 Units = [Angstroms]
C  -0.69594369 -1.22188178 -0.03700840
C  0.74026767 -1.19879604 0.05553575
C  1.39953881 0.01692654 -0.00012563
C  0.68363800 1.22085381 -0.04421412
C  -0.68913786 1.19524151 -0.02020536
C  -1.41900017 -0.00968524 0.03123602
H  -1.26257360 -2.16127316 0.01666523
H  1.27474207 -2.17284853 0.15836225
H  2.47288381 -0.01525896 0.02081847
H  1.13073425 2.23896731 -0.01307645
H  -1.26278884 2.08213110 -0.08473991
H  -2.58372491 -0.00340011 0.07811002
12
MD Step 408 Units = [Angstroms]
C  -0.69988939 -1.22375211 -0.03558420
C  0.74226910 -1.19581991 0.05546760
C  1.39832393 0.01625089 0.00026591
C  0.68140212 1.22218966 -0.04494639
C  -0.68639506 1.19701049 -0.01799984
C  -1.41819181 -0.01154180 0.02958731
H  -1.25819732 -2.16442000 0.01098174
H  1.27549131 -2.18320663 0.15637381
H  2.46065601 -0.01588604 0.02232446
H  1.14437395 2.23523742 -0.02248209
H  -1.26386763 2.08487599 -0.08382668
H  -2.56721191 -0.00828333 0.07403490
12
MD Step 409 Units = [Angstroms]
C  -0.70362593 -1.22534877 -0.03392267
C  0.74376588 -1.19306030 0.05530357
C  1.39695023 0.01558932 0.00068821
C  0.67933303 1.22358835 -0.04562460
C  -0.68392975 1.19845062 -0.01580960
C  -1.41734884 -0.01359219 0.02783613
H  -1.25339395 -2.16794335 0.00488970
H  1.27543412 -2.19132937 0.15393470
H  2.45192550 -0.01574085 0.02387499
H  1.15872058 2.23000455 -0.03231009
H  -1.26655320 2.09109512 -0.08272317
H  -2.54659685 -0.01313794 0.06971327
12
MD Step 410 Units = [Angstroms]
C  -0.70709301 -1.22665487 -0.03203748
C  0.74473732 -1.19059794 0.05505030
C  1.39537616 0.01495427 0.00113903
C  0.67747461 1.22505250 -0.04625229
C  -0.68180022 1.19959738 -0.01364323
C  -1.41637774 -0.01582107 0.02598879
H  -1.24832153 -2.17198863 -0.00156214
H  1.27434206 -2.19663887 0.15101713
H  2.44744604 -0.01480796 0.02547612
H  1.17355765 2.22327842 -0.04250915
H  -1.27051220 2.10021100 -0.08138455
H  -2.52328314 -0.01786882 0.06520216
12
MD Step 411 Units = [Angstroms]
C  -0.71023536 -1.22766479 -0.02994374
C  0.74516551 -1.18849435 0.05471356
C  1.39359199 0.01435744 0.00161663
C  0.67586520 1.22657814 -0.04683359
C  -0.68006900 1.20050685 -0.01151036
C  -1.41516352 -0.01820666 0.02405164
H  -1.24311457 -2.17664894 -0.00832540
H  1.27208850 -2.19876273 0.14761515
H  2.44753300 -0.01307794 0.02712630
H  1.18868602 2.21514255 -0.05302320
H  -1.27526732 2.11140985 -0.07975209
H  -2.49901472 -0.02238810 0.06056562
12
MD Step 412 Units = [Angstroms]
C  -0.71300393 -1.22838561 -0.02765781
C  0.74503569 -1.18678991 0.05429827
C  1.39162335 0.01380938 0.00212002
C  0.67453650 1.22815471 -0.04737289
C  -0.67879652 1.20124720 -0.00942100
C  -1.41357684 -0.02072085 0.02203132
H  -1.23787524 -2.18194815 -0.01535170
H  1.26865170 -2.19754821 0.14374410
H  2.45201324 -0.01054866 0.02881392
H  1.20392890 2.20575181 -0.06379332
H  -1.28026586 2.12374633 -0.07776146
H  -2.47578307 -0.02661794 0.05586941
12
MD Step 413 Units = [Angstroms]
C  -0.71535698 -1.22883764 -0.02519722
C  0.74433662 -1.18550259 0.05380850
C  1.38952828 0.01331931 0.00264900
C  0.67351266 1.22976536 -0.04787467
C  -0.67803502 1.20189032 -0.00738491
C  -1.41148761 -0.02332959 0.01993525
H  -1.23266919 -2.18783123 -0.02259142
H  1.26411478 -2.19306830 0.13943905
H  2.46025486 -0.00722943 0.03051667
H  1.21913480 2.19532548 -0.07475961
H  -1.28494811 2.13624732 -0.07535110
H  -2.45565277 -0.03049263 0.05117359
12
MD Step 414 Units = [Angstroms]
C  -0.71726080 -1.22905391 -0.02258061
C  0.74306081 -1.18462759 0.05324760
C  1.38738885 0.01289532 0.00320413
C  0.67280955 1.23138775 -0.04834325
C  -0.67782353 1.20250470 -0.00541109
C  -1.40878516 -0.02599356 0.01777216
H  -1.22752648 -2.19416376 -0.02999206
H  1.25866359 -2.18562149 0.13475270
H  2.47126755 -0.00314644 0.03220304
H  1.23417799 2.18413630 -0.08586302
H  -1.28880469 2.14799923 -0.07246908
H  -2.44050566 -0.03395915 0.04652385
12
MD Step 415 Units = [Angstroms]
C  -0.71869016 -1.22907873 -0.01982763
C  0.74120468 -1.18413759 0.05261831
C  1.38529946 0.01254452 0.00378644
C  0.67243443 1.23299507 -0.04878259
C  -0.67818456 1.20315009 -0.00350746
C  -1.40540179 -0.02866902 0.01555257
H  -1.22244713 -2.20074081 -0.03749649
H  1.25258222 -2.17572395 0.12975264
H  2.48384477 0.00165241 0.03383531
H  1.24895625 2.17249591 -0.09704681
H  -1.29141762 2.15821214 -0.06907770
H  -2.43174357 -0.03697632 0.04194394
12
MD Step 416 Units = [Angstroms]
C  -0.71962844 -1.22896530 -0.01695885
C  0.73876887 -1.18398436 0.05192299
C  1.38335500 0.01227326 0.00439718
C  0.67238606 1.23455748 -0.04919615
C  -0.67912223 1.20387390 -0.00168068
C  -1.40133294 -0.03130873 0.01328892
H  -1.21741019 -2.20730417 -0.04504175
H  1.24624385 -2.16409042 0.12451762
H  2.49671275 0.00709513 0.03537341
H  1.26338607 2.16073738 -0.10825739
H  -1.29248603 2.16626196 -0.06515589
H  -2.43003015 -0.03951356 0.03743191
12
MD Step 417 Units = [Angstroms]
C  -0.72006747 -1.22877285 -0.01399556
C  0.73575893 -1.18410172 0.05116390
C  1.38164076 0.01208715 0.00503754
C  0.67265525 1.23604366 -0.04958686
C  -0.68062177 1.20470903 0.00006383
C  -1.39664679 -0.03386290 0.01099536
H  -1.21238482 -2.21356557 -0.05255867
H  1.24009423 -2.15159774 0.11913278
H  2.50865888 0.01308627 0.03677851
H  1.27739533 2.14919620 -0.11944455
H  -1.29183954 2.17171544 -0.06069992
H  -2.43516228 -0.04155059 0.03296228
12
MD Step 418 Units = [Angstroms]
C  -0.72000713 -1.22856342 -0.01095958
C  0.73218679 -1.18441074 0.05034358
C  1.38022547 0.01199097 0.00570839
C  0.67322582 1.23742249 -0.04995709
C  -0.68264980 1.20567249 0.00172184
C  -1.39147882 -0.03627993 0.00868692
H  -1.20734160 -2.21923284 -0.05997248
H  1.23462420 -2.13922547 0.11368356
H  2.51862646 0.01951001 0.03801590
H  1.29091456 2.13819094 -0.13056089
H  -1.28944358 2.17434379 -0.05572281
H  -2.44612165 -0.04307893 0.02849358
12
MD Step 419 Units = [Angstroms]
C  -0.71945484 -1.22839858 -0.00787295
C  0.72807319 -1.18482705 0.04946538
C  1.37915715 0.01198857 0.00641013
C  0.67407594 1.23866462 -0.05030880
C  -0.68515530 1.20676471 0.00329022
C  -1.38601340 -0.03850736 0.00637866
H  -1.20226284 -2.22403601 -0.06720447
H  1.23032920 -2.12797087 0.10824876
H  2.52577525 0.02623492 0.03905709
H  1.30386759 2.12800548 -0.14156052
H  -1.28539935 2.17412930 -0.05025297
H  -2.46128525 -0.04410429 0.02397863
12
MD Step 420 Units = [Angstroms]
C  -0.71842505 -1.22833628 -0.00475762
C  0.72345103 -1.18526992 0.04853395
C  1.37846125 0.01208265 0.00714257
C  0.67517963 1.23974389 -0.05064366
C  -0.68807102 1.20796920 0.00476678
C  -1.38045891 -0.04049290 0.00408480
H  -1.19715098 -2.22775077 -0.07417440
H  1.22765687 -2.11874314 0.10289345
H  2.52951528 0.03311924 0.03988097
H  1.31616312 2.11887455 -0.15239738
H  -1.27994015 2.17126696 -0.04433215
H  -2.47871538 -0.04464812 0.01937419
12
MD Step 421 Units = [Angstroms]
C  -0.71693887 -1.22842789 -0.00163513
C  0.71836921 -1.18567212 0.04755560
C  1.37814023 0.01227466 0.00790486
C  0.67650828 1.24063840 -0.05096329
C  -0.69131541 1.20925273 0.00615012
C  -1.37502383 -0.04218584 0.00181815
H  -1.19203453 -2.23021755 -0.08080343
H  1.22694857 -2.11225097 0.09766320
H  2.52952303 0.04001623 0.04047452
H  1.32768859 2.11097373 -0.16302330
H  -1.27342341 2.16616012 -0.03801276
H  -2.49643909 -0.04474710 0.01464743
12
MD Step 422 Units = [Angstroms]
C  -0.71502377 -1.22871564 0.00147373
C  0.71289614 -1.18598826 0.04653857
C  1.37817392 0.01256464 0.00869545
C  0.67803200 1.24133125 -0.05126939
C  -0.69479510 1.21056622 0.00743947
C  -1.36989872 -0.04353878 -0.00041016
H  -1.18697163 -2.23135502 -0.08701718
H  1.22838582 -2.10890623 0.09258116
H  2.52574787 0.04677919 0.04083311
H  1.33830755 2.10441507 -0.17338634
H  -1.26631660 2.15940657 -0.03135449
H  -2.51265802 -0.04445052 0.00977874
12
MD Step 423 Units = [Angstroms]
C  -0.71271359 -1.22923051 0.00454921
C  0.70712170 -1.18620002 0.04549280
C  1.37852018 0.01295112 0.00951199
C  0.67972072 1.24181086 -0.05156394
C  -0.69840821 1.21184696 0.00863438
C  -1.36524535 -0.04450940 -0.00259062
H  -1.18205101 -2.23116747 -0.09274869
H  1.23195466 -2.10876783 0.08764885
H  2.51841315 0.05326630 0.04096046
H  1.34786108 2.09924810 -0.18342971
H  -1.25917381 2.15176917 -0.02442009
H  -2.52587357 -0.04381628 0.00476171
12
MD Step 424 Units = [Angstroms]
C  -0.71004851 -1.22999076 0.00757275
C  0.70115690 -1.18631672 0.04442963
C  1.37911599 0.01343107 0.01035139
C  0.68154477 1.24207093 -0.05184925
C  -0.70204863 1.21302266 0.00973452
C  -1.36119169 -0.04506226 -0.00471518
H  -1.17739075 -2.22974588 -0.09794084
H  1.23743826 -2.11154123 0.08285047
H  2.50801246 0.05934519 0.04086847
H  1.35617329 2.09546583 -0.19309155
H  -1.25259988 2.14412466 -0.01727067
H  -2.53494248 -0.04290675 -0.00039868
12
MD Step 425 Units = [Angstroms]
C  -0.70707524 -1.23100121 0.01052721
C  0.69513077 -1.18637134 0.04336109
C  1.37987898 0.01399986 0.01120977
C  0.68347526 1.24211014 -0.05212797
C  -0.70561121 1.21401779 0.01073932
C  -1.35783059 -0.04517030 -0.00677700
H  -1.17313454 -2.22726257 -0.10254809
H  1.24444068 -2.11663342 0.07815964
H  2.49529755 0.06489737 0.04057652
H  1.36306020 2.09301447 -0.20230561
H  -1.24720058 2.13738668 -0.00996097
H  -2.53908941 -0.04178501 -0.00568853
12
MD Step 426 Units = [Angstroms]
C  -0.70384688 -1.23225335 0.01339687
C  0.68918508 -1.18641333 0.04229929
C  1.38071033 0.01465136 0.01208252
C  0.68548396 1.24193166 -0.05240303
C  -0.70899781 1.21476193 0.01164780
C  -1.35522009 -0.04481606 -0.00877017
H  -1.16944572 -2.22395944 -0.10653715
H  1.25243574 -2.12324748 0.07354669
H  2.48125089 0.06982197 0.04011029
H  1.36834084 2.09180526 -0.21100284
H  -1.24352133 2.13240570 -0.00253580
H  -2.53790074 -0.04051219 -0.01108776
12
MD Step 427 Units = [Angstroms]
C  -0.70042277 -1.23372644 0.01616749
C  0.68346759 -1.18650018 0.04125581
C  1.38149944 0.01537808 0.01296449
C  0.68754306 1.24154248 -0.05267743
C  -0.71212334 1.21519918 0.01245852
C  -1.35338415 -0.04399243 -0.01068945
H  -1.16649891 -2.22012993 -0.10988660
H  1.26082911 -2.13049235 0.06898476
H  2.46703347 0.07403810 0.03949977
H  1.37184927 2.09172715 -0.21911367
H  -1.24198181 2.12985763 0.00497121
H  -2.53131609 -0.03914550 -0.01657272
12
MD Step 428 Units = [Angstroms]
C  -0.69686793 -1.23538927 0.01882613
C  0.67812514 -1.18668955 0.04024124
C  1.38213133 0.01617161 0.01385016
C  0.68962479 1.24095279 -0.05295409
C  -0.71492096 1.21529690 0.01316982
C  -1.35231291 -0.04270306 -0.01253001
H  -1.16446926 -2.21609557 -0.11258517
H  1.26902059 -2.13748549 0.06445403
H  2.45389987 0.07748484 0.03877639
H  1.37344614 2.09265891 -0.22657060
H  -1.24281888 2.13014297 0.01253548
H  -2.51962616 -0.03773722 -0.02211897
12
MD Step 429 Units = [Angstroms]
C  -0.69325219 -1.23720285 0.02136106
C  0.67329710 -1.18703318 0.03926495
C  1.38249679 0.01702313 0.01473392
C  0.69170112 1.24017529 -0.05323555
C  -0.71734531 1.21505163 0.01378029
C  -1.35196248 -0.04096234 -0.01428717
H  -1.16351998 -2.21217834 -0.11462885
H  1.27645739 -2.14343436 0.05994370
H  2.44307817 0.08011809 0.03796949
H  1.37302870 2.09447986 -0.23331100
H  -1.24605143 2.13332096 0.02013626
H  -2.50347836 -0.03633419 -0.02770430
12
MD Step 430 Units = [Angstroms]
C  -0.68964902 -1.23912337 0.02376150
C  0.66910982 -1.18757279 0.03833493
C  1.38250458 0.01792415 0.01561043
C  0.69374354 1.23922463 -0.05352383
C  -0.71937308 1.21449052 0.01428935
C  -1.35225451 -0.03879504 -0.01595614
H  -1.16378860 -2.20867123 -0.11601711
H  1.28267401 -2.14769244 0.05545234
H  2.43562447 0.08190441 0.03710270
H  1.37053865 2.09707858 -0.23927957
H  -1.25147639 2.13909771 0.02774959
H  -2.48388486 -0.03497792 -0.03331212
12
MD Step 431 Units = [Angstroms]
C  -0.68613396 -1.24110536 0.02601741
C  0.66567192 -1.18833767 0.03745779
C  1.38209360 0.01886718 0.01647480
C  0.69572309 1.23811692 -0.05382020
C  -0.72100088 1.21366798 0.01469786
C  -1.35307676 -0.03623561 -0.01753174
H  -1.16537347 -2.20581013 -0.11674875
H  1.28731917 -2.14979284 0.05098701
H  2.43227602 0.08281363 0.03619107
H  1.36596715 2.10035942 -0.24443051
H  -1.25869734 2.14687158 0.03534171
H  -2.46222001 -0.03370523 -0.03893533
12
MD Step 432 Units = [Angstroms]
C  -0.68278285 -1.24310457 0.02811924
C  0.66307059 -1.18934355 0.03663876
C  1.38124236 0.01984610 0.01732281
C  0.69761051 1.23686932 -0.05412506
C  -0.72224121 1.21265857 0.01500844
C  -1.35428609 -0.03332710 -0.01900816
H  -1.16832194 -2.20375051 -0.11681811
H  1.29017225 -2.14946556 0.04656171
H  2.43333703 0.08281307 0.03523985
H  1.35935703 2.10424672 -0.24872903
H  -1.26717767 2.15582292 0.04286491
H  -2.44018640 -0.03254954 -0.04458013
12
MD Step 433 Units = [Angstroms]
C  -0.67966970 -1.24508017 0.03005784
C  0.66136844 -1.19059217 0.03588186
C  1.37997293 0.02085606 0.01815080
C  0.69937652 1.23549993 -0.05443788
C  -0.72311749 1.21154793 0.01522555
C  -1.35571626 -0.03011995 -0.02037880
H  -1.17262201 -2.20255233 -0.11621230
H  1.29115260 -2.14664442 0.04219565
H  2.43862906 0.08186627 0.03424539
H  1.35080202 2.10868657 -0.25215224
H  -1.27630535 2.16502445 0.05025688
H  -2.41972315 -0.03154266 -0.05026856
12
MD Step 434 Units = [Angstroms]
C  -0.67686444 -1.24699608 0.03182438
C  0.66060109 -1.19207114 0.03518995
C  1.37834836 0.02189275 0.01895556
C  0.70099230 1.23402768 -0.05475724
C  -0.72365947 1.21042377 0.01535528
C  -1.35719212 -0.02667047 -0.02163638
H  -1.17819891 -2.20217543 -0.11491021
H  1.29032387 -2.14146804 0.03791124
H  2.44752106 0.07993758 0.03319783
H  1.34044335 2.11364638 -0.25468920
H  -1.28545598 2.17354870 0.05744328
H  -2.40283450 -0.03071640 -0.05603800
12
MD Step 435 Units = [Angstroms]
C  -0.67443054 -1.24882124 0.03341051
C  0.66077547 -1.19375407 0.03456498
C  1.37646410 0.02295127 0.01973402
C  0.70242996 1.23247251 -0.05508091
C  -0.72389940 1.20936827 0.01540490
C  -1.35855059 -0.02303950 -0.02277343
H  -1.18491731 -2.20248599 -0.11288343
H  1.28789415 -2.13427614 0.03373210
H  2.45902979 0.07700105 0.03208484
H  1.32846374 2.11911196 -0.25634032
H  -1.29404527 2.18055606 0.06434242
H  -2.39133831 -0.03010287 -0.06193528
12
MD Step 436 Units = [Angstroms]
C  -0.67242266 -1.25052906 0.03480852
C  0.66186910 -1.19560103 0.03400809
C  1.37443605 0.02402486 0.02048304
C  0.70366311 1.23085561 -0.05540600
C  -0.72386947 1.20845242 0.01538242
C  -1.35966487 -0.01929123 -0.02378333
H  -1.19258916 -2.20327299 -0.11009899
H  1.28421095 -2.12559995 0.02968106
H  2.47196173 0.07305071 0.03089512
H  1.31507948 2.12508242 -0.25711589
H  -1.30156744 2.18535728 0.07087084
H  -2.38657326 -0.02973177 -0.06800440
12
MD Step 437 Units = [Angstroms]
C  -0.67088448 -1.25209620 0.03601166
C  0.66383059 -1.19755953 0.03351992
C  1.37238793 0.02510388 0.02119923
C  0.70466753 1.22919968 -0.05572914
C  -0.72360004 1.20773232 0.01529599
C  -1.36046577 -0.01549239 -0.02466167
H  -1.20098619 -2.20427198 -0.10652348
H  1.27974788 -2.11614244 0.02577818
H  2.48506143 0.06810871 0.02962111
H  1.30053101 2.13156297 -0.25703413
H  -1.30762028 2.18745230 0.07694889
H  -2.38914400 -0.02962406 -0.07426967
12
MD Step 438 Units = [Angstroms]
C  -0.66984678 -1.25350111 0.03701443
C  0.66658189 -1.19956683 0.03310071
C  1.37044030 0.02617527 0.02187885
C  0.70542176 1.22752919 -0.05604673
C  -0.72311858 1.20724694 0.01515347
C  -1.36095239 -0.01171174 -0.02540756
H  -1.20985542 -2.20519281 -0.10212780
H  1.27507935 -2.10674265 0.02203913
H  2.49713925 0.06222949 0.02826035
H  1.28507281 2.13855618 -0.25611870
H  -1.31192009 2.18655094 0.08250571
H  -2.39879366 -0.02978329 -0.08071937
12
MD Step 439 Units = [Angstroms]
C  -0.66932603 -1.25472268 0.03781296
C  0.67002244 -1.20155381 0.03275054
C  1.36870238 0.02722239 0.02251779
C  0.70590776 1.22587057 -0.05635510
C  -0.72244879 1.20701700 0.01496200
C  -1.36118834 -0.00801943 -0.02602439
H  -1.21893604 -2.20574784 -0.09689168
H  1.27083914 -2.09831796 0.01847414
H  2.50716524 0.05549971 0.02681584
H  1.26896351 2.14605258 -0.25439619
H  -1.31431007 2.18258181 0.08748353
H  -2.41445442 -0.03018823 -0.08729621
12
MD Step 440 Units = [Angstroms]
C  -0.66932346 -1.25573918 0.03840520
C  0.67403549 -1.20345088 0.03246930
C  1.36726655 0.02822541 0.02311163
C  0.70611142 1.22425213 -0.05665073
C  -0.72160975 1.20704440 0.01472757
C  -1.36128479 -0.00448601 -0.02651968
H  -1.22797578 -2.20567786 -0.09080754
H  1.26766166 -2.09178183 0.01508820
H  2.51432897 0.04803493 0.02529554
H  1.25245701 2.15402165 -0.25189370
H  -1.31476463 2.17569395 0.09184144
H  -2.43445611 -0.03079010 -0.09389862
12
MD Step 441 Units = [Angstroms]
C  -0.66982483 -1.25652762 0.03879123
C  0.67849600 -1.20519561 0.03225670
C  1.36620502 0.02916189 0.02365564
C  0.70602306 1.22270382 -0.05693030
C  -0.72061521 1.20731222 0.01445474
C  -1.36137722 -0.00118081 -0.02690417
H  -1.23674563 -2.20477370 -0.08388314
H  1.26610968 -2.08794135 0.01188269
H  2.51807239 0.03997423 0.02371143
H  1.23579546 2.16240444 -0.24863703
H  -1.31339091 2.16625295 0.09555833
H  -2.45681456 -0.03151600 -0.10039185
12
MD Step 442 Units = [Angstroms]
C  -0.67080081 -1.25706348 0.03897325
C  0.68327929 -1.20674101 0.03211201
C  1.36556795 0.03000763 0.02414491
C  0.70563766 1.22125669 -0.05719077
C  -0.71947297 1.20778505 0.01414636
C  -1.36160284 0.00183002 -0.02719048
H  -1.24505182 -2.20289257 -0.07614287
H  1.26659903 -2.08738869 0.00885865
H  2.51810520 0.03147409 0.02207837
H  1.21920450 2.17110914 -0.24464956
H  -1.31042670 2.15483055 0.09863517
H  -2.47951049 -0.03227693 -0.10662429
12
MD Step 443 Units = [Angstroms]
C  -0.67220811 -1.25732078 0.03895572
C  0.68826888 -1.20806265 0.03203377
C  1.36538230 0.03073770 0.02457438
C  0.70495503 1.21994208 -0.05742933
C  -0.71818475 1.20841027 0.01380348
C  -1.36208387 0.00448565 -0.02739178
H  -1.25274470 -2.19996856 -0.06762769
H  1.26933624 -2.09040878 0.00602098
H  2.51441039 0.02270195 0.02041285
H  1.20289106 2.18001029 -0.23995210
H  -1.30623223 2.14218381 0.10109588
H  -2.50069978 -0.03297773 -0.11244362
12
MD Step 444 Units = [Angstroms]
C  -0.67399115 -1.25727245 0.03874523
C  0.69336211 -1.20916272 0.03201948
C  1.36565118 0.03132750 0.02493892
C  0.70397981 1.21879052 -0.05764323
C  -0.71674700 1.20912055 0.01342532
C  -1.36291769 0.00673256 -0.02752081
H  -1.25972404 -2.19601738 -0.05839385
H  1.27428510 -2.09692729 0.00338250
H  2.50724427 0.01382975 0.01873170
H  1.18704322 2.18895217 -0.23456363
H  -1.30127216 2.12921827 0.10298627
H  -2.51883945 -0.03352608 -0.11770951
12
MD Step 445 Units = [Angstroms]
C  -0.67608428 -1.25689089 0.03835035
C  0.69847264 -1.21006963 0.03206543
C  1.36635359 0.03175393 0.02523343
C  0.70272129 1.21783046 -0.05782965
C  -0.71515283 1.20983813 0.01300955
C  -1.36417276 0.00852622 -0.02758917
H  -1.26594068 -2.19113528 -0.04851046
H  1.28117181 -2.10651398 0.00096654
H  2.49713162 0.00502752 0.01705074
H  1.17183193 2.19775601 -0.22850266
H  -1.29608335 2.11692958 0.10437001
H  -2.53274396 -0.03383954 -0.12230203
12
MD Step 446 Units = [Angstroms]
C  -0.67841436 -1.25614895 0.03778143
C  0.70352988 -1.21083331 0.03216666
C  1.36744479 0.03199653 0.02545295
C  0.70119323 1.21708693 -0.05798547
C  -0.71339543 1.21048128 0.01255283
C  -1.36588804 0.00983238 -0.02760693
H  -1.27139430 -2.18549225 -0.03805639
H  1.28952683 -2.11844129 -0.00119289
H  2.48485235 -0.00354308 0.01538356
H  1.15741356 2.20623023 -0.22178904
H  -1.29122624 2.10632101 0.10532124
H  -2.54159805 -0.03385010 -0.12612644
12
MD Step 447 Units = [Angstroms]
C  -0.68090366 -1.25502107 0.03705031
C  0.70847627 -1.21151730 0.03231718
C  1.36885810 0.03203848 0.02559275
C  0.69941357 1.21658017 -0.05810708
C  -0.71147281 1.21097250 0.01205164
C  -1.36807391 0.01062796 -0.02758247
H  -1.27612732 -2.17931962 -0.02711657
H  1.29875129 -2.13178177 -0.00305335
H  2.47141285 -0.01173477 0.01374027
H  1.14393280 2.21418251 -0.21444583
H  -1.28722144 2.09830086 0.10591377
H  -2.54495042 -0.03350695 -0.12911584
12
MD Step 448 Units = [Angstroms]
C  -0.68347280 -1.25348493 0.03617003
C  0.71326374 -1.21218971 0.03251024
C  1.37050854 0.03186729 0.02564848
C  0.69740424 1.21632451 -0.05819025
C  -0.70939307 1.21124757 0.01150325
C  -1.37071335 0.01090161 -0.02752224
H  -1.28021491 -2.17289224 -0.01577826
H  1.30819138 -2.14552039 -0.00456791
H  2.45799304 -0.01941928 0.01212676
H  1.13152520 2.22143235 -0.20650085
H  -1.28447990 2.09357316 0.10620854
H  -2.54270476 -0.03277799 -0.13123310
12
MD Step 449 Units = [Angstroms]
C  -0.68604372 -1.25152329 0.03515455
C  0.71785052 -1.21291478 0.03273875
C  1.37229932 0.03147514 0.02561623
C  0.69519088 1.21632741 -0.05823003
C  -0.70717917 1.21126361 0.01090665
C  -1.37376245 0.01065387 -0.02743062
H  -1.28375167 -2.16650605 -0.00412759
H  1.31720587 -2.15865931 -0.00568967
H  2.44586115 -0.02648949 0.01054452
H  1.12031898 2.22782275 -0.19798783
H  -1.28324039 2.09254274 0.10624187
H  -2.53511724 -0.03165049 -0.13247271
12
MD Step 450 Units = [Angstroms]
C  -0.68854246 -1.24912618 0.03401848
C  0.72219887 -1.21374625 0.03299554
C  1.37413120 0.03085861 0.02549253
C  0.69280270 1.21658875 -0.05822073
C  -0.70487172 1.21100424 0.01026314
C  -1.37715037 0.00989702 -0.02730970
H  -1.28683583 -2.16045241 0.00775300
H  1.32521831 -2.17030122 -0.00637584
H  2.43625443 -0.03285755 0.00899158
H  1.11043597 2.23322997 -0.18894691
H  -1.28353050 2.09525772 0.10601779
H  -2.52280182 -0.03013114 -0.13286308
12
MD Step 451 Units = [Angstroms]
C  -0.69090163 -1.24629304 0.03277695
C  0.72627378 -1.21472273 0.03327366
C  1.37591398 0.03001800 0.02527432
C  0.69027230 1.21710060 -0.05815601
C  -0.70252891 1.21048073 0.00957648
C  -1.38077894 0.00865451 -0.02715908
H  -1.28955267 -2.15499148 0.01978611
H  1.33175211 -2.17970735 -0.00659096
H  2.43023509 -0.03844869 0.00746441
H  1.10199155 2.23757057 -0.17942453
H  -1.28516222 2.10140506 0.10550674
H  -2.50673837 -0.02824522 -0.13246879
12
MD Step 452 Units = [Angstroms]
C  -0.69306243 -1.24303466 0.03144551
C  0.73004255 -1.21586505 0.03356653
C  1.37757835 0.02895624 0.02495875
C  0.68763546 1.21784713 -0.05802896
C  -0.70022341 1.20972863 0.00885242
C  -1.38452311 0.00695998 -0.02697573
H  -1.29195912 -2.15032757 0.03189928
H  1.33645086 -2.18633301 -0.00630896
H  2.42854526 -0.04319200 0.00596091
H  1.09509367 2.24080519 -0.16947273
H  -1.28776371 2.11036025 0.10465113
H  -2.48827076 -0.02603444 -0.13139161
12
MD Step 453 Units = [Angstroms]
C  -0.69497611 -1.23937465 0.03004014
C  0.73347456 -1.21717501 0.03386806
C  1.37908518 0.02767790 0.02454310
C  0.68493085 1.21880494 -0.05783231
C  -0.69803701 1.20880145 0.00809784
C  -1.38823374 0.00485589 -0.02675414
H  -1.29407188 -2.14658960 0.04402344
H  1.33908843 -2.18984682 -0.00551435
H  2.43149385 -0.04701139 0.00448335
H  1.08984113 2.24293892 -0.15914797
H  -1.29083794 2.12127691 0.10337586
H  -2.46907420 -0.02355270 -0.12976823
12
MD Step 454 Units = [Angstroms]
C  -0.69660478 -1.23535002 0.02857733
C  0.73654116 -1.21863511 0.03417269
C  1.38042996 0.02618862 0.02402461
C  0.68219952 1.21994374 -0.05755862
C  -0.69605420 1.20776263 0.00731977
C  -1.39174509 0.00239187 -0.02648693
H  -1.29586102 -2.14381961 0.05609040
H  1.33957286 -2.19013974 -0.00420258
H  2.43890661 -0.04982078 0.00304070
H  1.08632101 2.24401807 -0.14850974
H  -1.29383288 2.13319407 0.10160087
H  -2.45106563 -0.02085949 -0.12776203
12
MD Step 455 Units = [Angstroms]
C  -0.69792144 -1.23101092 0.02707411
C  0.73921534 -1.22020896 0.03447540
C  1.38164090 0.02449532 0.02340050
C  0.67948434 1.22122723 -0.05720046
C  -0.69435605 1.20667800 0.00652443
C  -1.39488867 -0.00037724 -0.02616614
H  -1.29725014 -2.14197091 0.06802996
H  1.33794685 -2.18732794 -0.00237989
H  2.45015416 -0.05152614 0.00164919
H  1.08460552 2.24412372 -0.13761883
H  -1.29620817 2.14513902 0.09925266
H  -2.43623504 -0.01801156 -0.12554654
12
MD Step 456 Units = [Angstroms]
C  -0.69890951 -1.22641934 0.02554814
C  0.74147117 -1.22184226 0.03477178
C  1.38277152 0.02260704 0.02266816
C  0.67682916 1.22261428 -0.05675065
C  -0.69301518 1.20560947 0.00571653
C  -1.39751362 -0.00339306 -0.02578517
H  -1.29812321 -2.14091619 0.07976736
H  1.33438571 -2.18175068 -0.00006257
H  2.46424916 -0.05203436 0.00033115
H  1.08474830 2.24336231 -0.12653577
H  -1.29748865 2.15621163 0.09627311
H  -2.42639693 -0.01505534 -0.12328069
12
MD Step 457 Units = [Angstroms]
C  -0.69956166 -1.22164711 0.02401755
C  0.74328329 -1.22346440 0.03505790
C  1.38389012 0.02053615 0.02182533
C  0.67427784 1.22406036 -0.05620238
C  -0.69209197 1.20461049 0.00489882
C  -1.39951057 -0.00659497 -0.02534108
H  -1.29833682 -2.14046418 0.09122192
H  1.32919166 -2.17396151 0.00272431
H  2.47998489 -0.05126588 -0.00088756
H  1.08678017 2.24185410 -0.11531940
H  -1.29730108 2.16564493 0.09262477
H  -2.42289960 -0.01202363 -0.12108034
12
MD Step 458 Units = [Angstroms]
C  -0.69987830 -1.21677321 0.02250085
C  0.74462675 -1.22499098 0.03533029
C  1.38506861 0.01829962 0.02087038
C  0.67187329 1.22551903 -0.05554936
C  -0.69163210 1.20372314 0.00407193
C  -1.40083248 -0.00992052 -0.02483642
H  -1.29773590 -2.14038242 0.10230708
H  1.32278173 -2.16470803 0.00594897
H  2.49608118 -0.04916715 -0.00198067
H  1.09070470 2.23972027 -0.10402578
H  -1.29539588 2.17284403 0.08829330
H  -2.42637037 -0.00893954 -0.11899454
12
MD Step 459 Units = [Angstroms]
C  -0.69986580 -1.21188101 0.02101663
C  0.74547762 -1.22632775 0.03558580
C  1.38637309 0.01591982 0.01980256
C  0.66965635 1.22694350 -0.05478592
C  -0.69166491 1.20297637 0.00323435
C  -1.40150511 -0.01330523 -0.02428001
H  -1.29617072 -2.14042297 0.11293194
H  1.31566505 -2.15489360 0.00957580
H  2.51131112 -0.04571976 -0.00292439
H  1.09649383 2.23707014 -0.09270762
H  -1.29165754 2.17740865 0.08328753
H  -2.43658541 -0.00582730 -0.11699592
12
MD Step 460 Units = [Angstroms]
C  -0.69953466 -1.20705528 0.01958316
C  0.74581477 -1.22737636 0.03582136
C  1.38785712 0.01342476 0.01862210
C  0.66766490 1.22828804 -0.05390706
C  -0.69220239 1.20238506 0.00238262
C  -1.40162298 -0.01668214 -0.02368614
H  -1.29351293 -2.14034820 0.12300426
H  1.30840588 -2.14551485 0.01356887
H  2.52459523 -0.04094471 -0.00369958
H  1.10408393 2.23398978 -0.08141416
H  -1.28610757 2.17914506 0.07763809
H  -2.45251579 -0.00272511 -0.11498946
12
MD Step 461 Units = [Angstroms]
C  -0.69889780 -1.20237943 0.01821807
C  0.74562306 -1.22804217 0.03603379
C  1.38955758 0.01084783 0.01733039
C  0.66593283 1.22950929 -0.05290844
C  -0.69323852 1.20194950 0.00151152
C  -1.40133221 -0.01998188 -0.02307255
H  -1.28966929 -2.13995406 0.13243416
H  1.30157063 -2.13757226 0.01789580
H  2.53506245 -0.03490227 -0.00429310
H  1.11337290 2.23053337 -0.07019156
H  -1.27890287 2.17807167 0.07139513
H  -2.47253110 0.00030593 -0.11283622
12
MD Step 462 Units = [Angstroms]
C  -0.69796923 -1.19793271 0.01693786
C  0.74489768 -1.22824362 0.03621959
C  1.39149276 0.00822700 0.01592991
C  0.66448939 1.23056721 -0.05178636
C  -0.69474913 1.20165524 0.00061444
C  -1.40080659 -0.02313358 -0.02245802
H  -1.28459205 -2.13908939 0.14113839
H  1.29566226 -2.13195949 0.02253081
H  2.54208483 -0.02768860 -0.00469837
H  1.12421872 2.22671858 -0.05908375
H  -1.27033045 2.17441973 0.06462511
H  -2.49468433 0.00318077 -0.11038274
12
MD Step 463 Units = [Angstroms]
C  -0.69676311 -1.19378767 0.01575755
C  0.74364889 -1.22792184 0.03637492
C  1.39366169 0.00560374 0.01442428
C  0.66335844 1.23142576 -0.05053778
C  -0.69669229 1.20147329 -0.00031624
C  -1.40022424 -0.02606680 -0.02186014
H  -1.27828568 -2.13767012 0.14904436
H  1.29105208 -2.12934716 0.02745607
H  2.54529465 -0.01943032 -0.00491542
H  1.13644017 2.22252661 -0.04813328
H  -1.26079781 2.16862785 0.05740702
H  -2.51698905 0.00579660 -0.10748684
12
MD Step 464 Units = [Angstroms]
C  -0.69529346 -1.19000761 0.01469033
C  0.74190588 -1.22704864 0.03649572
C  1.39604410 0.00302178 0.01281819
C  0.66255798 1.23205331 -0.04916028
C  -0.69900950 1.20136110 -0.00128871
C  -1.39974972 -0.02871396 -0.02129391
H  -1.27080996 -2.13568808 0.15609379
H  1.28792359 -2.13008555 0.03266027
H  2.54459193 -0.01027805 -0.00495058
H  1.14981969 2.21790694 -0.03738229
H  -1.25081687 2.16132649 0.04982760
H  -2.53762982 0.00804286 -0.10403460
12
MD Step 465 Units = [Angstroms]
C  -0.69357435 -1.18664442 0.01374725
C  0.73971856 -1.22563073 0.03657809
C  1.39860081 0.00052571 0.01111739
C  0.66209970 1.23242267 -0.04765205
C  -0.70162800 1.20126471 -0.00231116
C  -1.39952290 -0.03101305 -0.02077108
H  -1.26227957 -2.13321409 0.16224544
H  1.28624383 -2.13415125 0.03813455
H  2.54014662 -0.00039925 -0.00481585
H  1.16410886 2.21278623 -0.02687316
H  -1.24097825 2.15330620 0.04197569
H  -2.55508920 0.00981151 -0.09994820
12
MD Step 466 Units = [Angstroms]
C  -0.69162062 -1.18373680 0.01293709
C  0.73715637 -1.22370899 0.03661874
C  1.40127431 -0.00184026 0.00932856
C  0.66198866 1.23251104 -0.04601196
C  -0.70446450 1.20112276 -0.00339120
C  -1.39965345 -0.03291016 -0.02029994
H  -1.25286028 -2.13039536 0.16747682
H  1.28577081 -2.14115293 0.04386674
H  2.53239624 0.01002934 -0.00452800
H  1.17903592 2.20708037 -0.01664868
H  -1.23191332 2.14546329 0.03393599
H  -2.56820556 0.01100523 -0.09518684
12
MD Step 467 Units = [Angstroms]
C  -0.68944893 -1.18130910 0.01226620
C  0.73430449 -1.22135302 0.03661550
C  1.40398984 -0.00403368 0.00745923
C  0.66222306 1.23229969 -0.04423961
C  -0.70743005 1.20087260 -0.00453529
C  -1.40021894 -0.03436162 -0.01988559
H  -1.24276189 -2.12744706 0.17178447
H  1.28609525 -2.15039423 0.04983590
H  2.52203578 0.02082982 -0.00410744
H  1.19431517 2.20070806 -0.00675180
H  -1.22424322 2.13871969 0.02578292
H  -2.57618752 0.01154312 -0.08974393
12
MD Step 468 Units = [Angstroms]
C  -0.68707896 -1.17937098 0.01173863
C  0.73125801 -1.21865253 0.03656755
C  1.40665759 -0.00601496 0.00551763
C  0.66279408 1.23177372 -0.04233547
C  -0.71043611 1.20045825 -0.00574828
C  -1.40126443 -0.03533571 -0.01953015
H  -1.23222804 -2.12463782 0.17518286
H  1.28670471 -2.16097570 0.05600867
H  2.50999330 0.03183136 -0.00357668
H  1.20965739 2.19360461 0.00277517
H  -1.21851806 2.13392018 0.01757577
H  -2.57860924 0.01136410 -0.08364276
12
MD Step 469 Units = [Angstroms]
C  -0.68453467 -1.17791800 0.01135620
C  0.72811569 -1.21570759 0.03647553
C  1.40917664 -0.00774840 0.00351252
C  0.66368597 1.23092170 -0.04030100
C  -0.71340071 1.19983929 -0.00703316
C  -1.40280256 -0.03581379 -0.01923313
H  -1.22152309 -2.12226956 0.17770166
H  1.28705408 -2.17191027 0.06233835
H  2.49738212 0.04287767 -0.00295850
H  1.22478061 2.18573447 0.01189167
H  -1.21515462 2.13172043 0.00935676
H  -2.57540318 0.01042896 -0.07693189
12
MD Step 470 Units = [Angstroms]
C  -0.68184532 -1.17693323 0.01111891
C  0.72497419 -1.21261971 0.03634137
C  1.41144145 -0.00920284 0.00145297
C  0.66487629 1.22973537 -0.03813879
C  -0.71625398 1.19899873 -0.00839114
C  -1.40481320 -0.03579077 -0.01899173
H  -1.21091668 -2.12065220 0.17938161
H  1.28662862 -2.18222929 0.06876664
H  2.48542174 0.05383199 -0.00227411
H  1.23942052 2.17710144 0.02056039
H  -1.21438448 2.13248801 0.00115261
H  -2.56685900 0.00872132 -0.06968081
12
MD Step 471 Units = [Angstroms]
C  -0.67904624 -1.17638969 0.01102523
C  0.72192348 -1.20948487 0.03616802
C  1.41335101 -0.01035184 -0.00065187
C  0.66633640 1.22820945 -0.03585275
C  -0.71894175 1.19794782 -0.00982201
C  -1.40724276 -0.03527506 -0.01880111
H  -1.20066693 -2.12007483 0.18026927
H  1.28499180 -2.19106580 0.07522713
H  2.47532477 0.06457746 -0.00154155
H  1.25333970 2.16775577 0.02874866
H  -1.21622495 2.13624113 -0.00702028
H  -2.55363010 0.00624790 -0.06197540
12
MD Step 472 Units = [Angstroms]
C  -0.67617920 -1.17625344 0.01107261
C  0.71904358 -1.20638866 0.03595912
C  1.41482008 -0.01117330 -0.00279283
C  0.66803224 1.22634145 -0.03344816
C  -0.72142680 1.19672642 -0.01132471
C  -1.41000355 -0.03428782 -0.01865484
H  -1.19100380 -2.12077600 0.18041128
H  1.28181640 -2.19771168 0.08164973
H  2.46815817 0.07501119 -0.00077504
H  1.26633519 2.15779776 0.03642992
H  -1.22048028 2.14264253 -0.01514866
H  -2.53674170 0.00303755 -0.05391279
12
MD Step 473 Units = [Angstroms]
C  -0.67329227 -1.17648692 0.01125793
C  0.71640233 -1.20340333 0.03571860
C  1.41579067 -0.01164854 -0.00496084
C  0.66992537 1.22413179 -0.03093182
C  -0.72368770 1.19539870 -0.01289783
C  -1.41297432 -0.03286161 -0.01854541
H  -1.18211444 -2.12291643 0.17984891
H  1.27690169 -2.20165222 0.08796517
H  2.46470099 0.08503232 0.00001430
H  1.27824392 2.14737766 0.04358481
H  -1.22677247 2.15105033 -0.02321546
H  -2.51758682 -0.00086158 -0.04559469
12
MD Step 474 Units = [Angstroms]
C  -0.67043918 -1.17705210 0.01157778
C  0.71405400 -1.20058607 0.03545039
C  1.41624122 -0.01176129 -0.00714678
C  0.67197409 1.22158397 -0.02831203
C  -0.72571586 1.19404528 -0.01454008
C  -1.41600372 -0.03103845 -0.01846492
H  -1.17413237 -2.12655799 0.17861389
H  1.27018073 -2.20258459 0.09410940
H  2.46533044 0.09452728 0.00081628
H  1.28894548 2.13669177 0.05020186
H  -1.23459330 2.16061134 -0.03119498
H  -2.49788789 -0.00538756 -0.03711884
12
MD Step 475 Units = [Angstroms]
C  -0.66767812 -1.17791303 0.01202875
C  0.71203830 -1.19797798 0.03515806
C  1.41619084 -0.01149699 -0.00934132
C  0.67413463 1.21870513 -0.02559852
C  -0.72751201 1.19275386 -0.01625035
C  -1.41891891 -0.02886738 -0.01840590
H  -1.16713213 -2.13165213 0.17672618
H  1.26172165 -2.20042633 0.10002755
H  2.46996701 0.10335758 0.00161861
H  1.29836218 2.12597518 0.05627782
H  -1.24336480 2.17037278 -0.03905118
H  -2.47959690 -0.01047320 -0.02856922
12
MD Step 476 Units = [Angstroms]
C  -0.66507013 -1.17903739 0.01260739
C  0.71037984 -1.19560347 0.03484459
C  1.41569746 -0.01084306 -0.01153481
C  0.67636235 1.21550690 -0.02280241
C  -0.72908268 1.19161026 -0.01802775
C  -1.42154096 -0.02640182 -0.01836214
H  -1.16112996 -2.13803990 0.17419412
H  1.25172514 -2.19531774 0.10567775
H  2.47809454 0.11135570 0.00240403
H  1.30645621 2.11549130 0.06181727
H  -1.25249690 2.17938920 -0.04673891
H  -2.46471262 -0.01605606 -0.02000702
12
MD Step 477 Units = [Angstroms]
C  -0.66267708 -1.18039702 0.01331017
C  0.70908784 -1.19346988 0.03451201
C  1.41485034 -0.00979012 -0.01371714
C  0.67861277 1.21200649 -0.01993595
C  -0.73043745 1.19069101 -0.01987131
C  -1.42370695 -0.02369725 -0.01832912
H  -1.15609039 -2.14546356 0.17101685
H  1.24051872 -2.18761927 0.11103449
H  2.48884810 0.11833133 0.00314853
H  1.31322406 2.10551869 0.06683187
H  -1.26143453 2.18680921 -0.05420715
H  -2.45501785 -0.02208629 -0.01146642
12
MD Step 478 Units = [Angstroms]
C  -0.66055936 -1.18196744 0.01413316
C  0.70815624 -1.19156747 0.03416119
C  1.41375914 -0.00833421 -0.01587782
C  0.68084248 1.20822794 -0.01701227
C  -0.73158698 1.19005817 -0.02177970
C  -1.42529498 -0.02080957 -0.01830379
H  -1.15193741 -2.15358817 0.16718851
H  1.22854665 -2.17790171 0.11609152
H  2.50114409 0.12408628 0.00382137
H  1.31868852 2.09633610 0.07133897
H  -1.26969187 2.19193671 -0.06140309
H  -2.45178143 -0.02852713 -0.00295893
12
MD Step 479 Units = [Angstroms]
C  -0.65877349 -1.18372668 0.01507177
C  0.70756452 -1.18987029 0.03379166
C  1.41254225 -0.00647929 -0.01800615
C  0.68300993 1.20420345 -0.01404515
C  -0.73254157 1.18975610 -0.02375092
C  -1.42624510 -0.01779479 -0.01828354
H  -1.14856850 -2.16202996 0.16270331
H  1.21635290 -2.16692434 0.12086360
H  2.51381979 0.12843348 0.00438667
H  1.32288900 2.08820641 0.07536003
H  -1.27687483 2.19426888 -0.06827637
H  -2.45550956 -0.03534493 0.00551274
12
MD Step 480 Units = [Angstroms]
C  -0.65736973 -1.18565366 0.01612047
C  0.70727936 -1.18833846 0.03340149
C  1.41131649 -0.00423964 -0.02009146
C  0.68507597 1.19997457 -0.01104860
C  -0.73331006 1.18980978 -0.02578203
C  -1.42656876 -0.01470960 -0.01826477
H  -1.14586950 -2.17038768 0.15756066
H  1.20455419 -2.15559443 0.12538622
H  2.52575612 0.13121476 0.00480591
H  1.32587113 2.08136078 0.07891872
H  -1.28269476 2.19351661 -0.07478296
H  -2.46583643 -0.04249099 0.01393521
12
MD Step 481 Units = [Angstroms]
C  -0.65638976 -1.18772672 0.01727255
C  0.70725741 -1.18692247 0.03298757
C  1.41018932 -0.00164159 -0.02212337
C  0.68700433 1.19559301 -0.00803662
C  -0.73389877 1.19022415 -0.02786888
C  -1.42634305 -0.01161212 -0.01824163
H  -1.14372864 -2.17827355 0.15176953
H  1.19380049 -2.14490189 0.12971222
H  2.53596997 0.13231423 0.00504070
H  1.32767685 2.07598430 0.08203917
H  -1.28697656 2.18961366 -0.08088856
H  -2.48159866 -0.04988305 0.02226753
12
MD Step 482 Units = [Angstroms]
C  -0.65586457 -1.18992225 0.01852001
C  0.70744925 -1.18556980 0.03254605
C  1.40925361 0.00127561 -0.02409195
C  0.68876185 1.19112101 -0.00502287
C  -0.73431042 1.19098407 -0.03000593
C  -1.42569237 -0.00856215 -0.01820553
H  -1.14204860 -2.18534086 0.14535163
H  1.18472291 -2.13582713 0.13390423
H  2.54367476 0.13166599 0.00505531
H  1.32833613 2.07220445 0.08474443
H  -1.28966330 2.18271856 -0.08657149
H  -2.50106370 -0.05739544 0.03043361
12
MD Step 483 Units = [Angstroms]
C  -0.65581282 -1.19221380 0.01985354
C  0.70780407 -1.18423340 0.03207326
C  1.40858454 0.00445974 -0.02598797
C  0.69031860 1.18663098 -0.00202044
C  -0.73454310 1.19205474 -0.03218611
C  -1.42476420 -0.00562026 -0.01814551
H  -1.14075582 -2.19130668 0.13834309
H  1.17787323 -2.12922842 0.13802295
H  2.54831511 0.12925671 0.00481867
H  1.32786167 2.07008360 0.08705541
H  -1.29081841 2.17321098 -0.09182514
H  -2.52222724 -0.06486183 0.03832590
12
MD Step 484 Units = [Angstroms]
C  -0.65623956 -1.19457151 0.02126261
C  0.70827457 -1.18288066 0.03156677
C  1.40823766 0.00784658 -0.02780295
C  0.69164788 1.18220443 0.00095828
C  -0.73458946 1.19338253 -0.03440074
C  -1.42370682 -0.00284604 -0.01804923
H  -1.13980699 -2.19596860 0.13079479
H  1.17366378 -2.12572569 0.14211250
H  2.54958411 0.12512452 0.00430590
H  1.32624707 2.06961636 0.08899036
H  -1.29062450 2.16168094 -0.09665967
H  -2.54309005 -0.07208827 0.04581696
12
MD Step 485 Units = [Angstroms]
C  -0.65713574 -1.19696198 0.02273555
C  0.70882109 -1.18150098 0.03102655
C  1.40824778 0.01136155 -0.02952927
C  0.69272618 1.17793014 0.00390174
C  -0.73443649 1.19489666 -0.03663956
C  -1.42265305 -0.00029592 -0.01790417
H  -1.13919268 -2.19921541 0.12277140
H  1.17232006 -2.12560595 0.14618599
H  2.54743031 0.11935535 0.00349928
H  1.32346892 2.07073211 0.09056501
H  -1.28937647 2.14890678 -0.10110276
H  -2.56185939 -0.07887052 0.05277347
12
MD Step 486 Units = [Angstroms]
C  -0.65847830 -1.19934836 0.02425987
C  0.70941393 -1.18010968 0.03045572
C  1.40862813 0.01492213 -0.03116020
C  0.69353310 1.17390149 0.00679913
C  -0.73406618 1.19651223 -0.03889083
C  -1.42171113 0.00197892 -0.01769863
H  -1.13893830 -2.20103162 0.11434929
H  1.17385717 -2.12877527 0.15021515
H  2.54205866 0.11207765 0.00238900
H  1.31949229 2.07330244 0.09179319
H  -1.28746501 2.13581605 -0.10519878
H  -2.57706445 -0.08501039 0.05906852
12
MD Step 487 Units = [Angstroms]
C  -0.66023101 -1.20169082 0.02582244
C  0.71003367 -1.17874714 0.02986083
C  1.40936971 0.01844088 -0.03268993
C  0.69405144 1.17021329 0.00964038
C  -0.73345753 1.19813508 -0.04114166
C  -1.42096108 0.00393431 -0.01742244
H  -1.13910236 -2.20149590 0.10561379
H  1.17808586 -2.13477152 0.15412719
H  2.53392585 0.10345560 0.00097348
H  1.31427877 2.07715262 0.09268782
H  -1.28534672 2.12342380 -0.10900574
H  -2.58760422 -0.09032813 0.06459064
12
MD Step 488 Units = [Angstroms]
C  -0.66234603 -1.20394740 0.02740981
C  0.71066951 -1.17747341 0.02925144
C  1.41044122 0.02182885 -0.03411351
C  0.69426746 1.16695812 0.01241599
C  -0.73258995 1.19966870 -0.04337852
C  -1.42045426 0.00553438 -0.01706745
H  -1.13977214 -2.20077327 0.09665571
H  1.18464577 -2.14283438 0.15781008
H  2.52372701 0.09368097 -0.00074072
H  1.30779602 2.08207598 0.09326209
H  -1.28349835 2.11274609 -0.11258957
H  -2.59275491 -0.09467089 0.06924948
12
MD Step 489 Units = [Angstroms]
C  -0.66476598 -1.20607518 0.02900851
C  0.71131644 -1.17635985 0.02863918
C  1.41179008 0.02499935 -0.03542677
C  0.69417129 1.16422250 0.01511685
C  -0.73144801 1.20102295 -0.04558794
C  -1.42021425 0.00675254 -0.01662783
H  -1.14105668 -2.19910096 0.08756783
H  1.19305647 -2.15201291 0.16112441
H  2.51236764 0.08296331 -0.00273963
H  1.30002740 2.08784967 0.09353062
H  -1.28235704 2.10469396 -0.11601589
H  -2.59216135 -0.09791802 0.07297953
12
MD Step 490 Units = [Angstroms]
C  -0.66742655 -1.20803200 0.03060536
C  0.71197218 -1.17547982 0.02803654
C  1.41334518 0.02787163 -0.03662616
C  0.69375765 1.16208324 0.01773408
C  -0.73002672 1.20212332 -0.04775731
C  -1.42023772 0.00757204 -0.01610032
H  -1.14307704 -2.19676798 0.07844123
H  1.20277434 -2.16128457 0.16391877
H  2.50091256 0.07151892 -0.00500340
H  1.29098082 2.09425051 0.09351038
H  -1.28225471 2.09996220 -0.11934034
H  -2.58582793 -0.09998488 0.07574273
12
MD Step 491 Units = [Angstroms]
C  -0.67025929 -1.20977849 0.03218770
C  0.71263458 -1.17490038 0.02745571
C  1.41502218 0.03037432 -0.03770846
C  0.69302662 1.16060399 0.02025887
C  -0.72833621 1.20291902 -0.04987576
C  -1.42049465 0.00798635 -0.01548445
H  -1.14595422 -2.19408913 0.06936230
H  1.21324497 -2.16966256 0.16604480
H  2.49050566 0.05955964 -0.00750888
H  1.28069577 2.10106973 0.09322146
H  -1.28336001 2.09893529 -0.12259940
H  -2.57411705 -0.10082605 0.07753103
12
MD Step 492 Units = [Angstroms]
C  -0.67319467 -1.21128051 0.03374363
C  0.71330001 -1.17467594 0.02690765
C  1.41673137 0.03244825 -0.03867045
C  0.69198457 1.15983259 0.02268233
C  -0.72640457 1.20338785 -0.05193460
C  -1.42092787 0.00799916 -0.01478283
H  -1.14979528 -2.19137493 0.06041041
H  1.22394542 -2.17627890 0.16736975
H  2.48225912 0.04728352 -0.01023291
H  1.26924825 2.10812565 0.09268729
H  -1.28564323 2.10163359 -0.12580407
H  -2.55775536 -0.10043836 0.07836879
12
MD Step 493 Units = [Angstroms]
C  -0.67616497 -1.21251161 0.03526215
C  0.71396249 -1.17484413 0.02640139
C  1.41838768 0.03404823 -0.03950859
C  0.69064491 1.15979893 0.02499542
C  -0.72427781 1.20353684 -0.05392763
C  -1.42145252 0.00762409 -0.01400128
H  -1.15467896 -2.18890037 0.05165685
H  1.23441464 -2.18044016 0.16778548
H  2.47712193 0.03486994 -0.01315587
H  1.25675318 2.11527353 0.09193470
H  -1.28887473 2.10771441 -0.12893821
H  -2.53784107 -0.09886328 0.07831491
12
MD Step 494 Units = [Angstroms]
C  -0.67910707 -1.21345533 0.03673317
C  0.71461356 -1.17542351 0.02594360
C  1.41992092 0.03514381 -0.04021870
C  0.68902868 1.16051389 0.02718892
C  -0.72201697 1.20339851 -0.05585084
C  -1.42195651 0.00688390 -0.01314900
H  -1.16064231 -2.18687597 0.04316501
H  1.24427383 -2.18166005 0.16721393
H  2.47574899 0.02248074 -0.01626444
H  1.24336436 2.12241239 0.09099353
H  -1.29265789 2.11652733 -0.13196189
H  -2.51583756 -0.09618701 0.07746308
12
MD Step 495 Units = [Angstroms]
C  -0.68196482 -1.21410677 0.03814753
C  0.71524242 -1.17641267 0.02553846
C  1.42128405 0.03571885 -0.04079590
C  0.68716476 1.16196902 0.02925347
C  -0.71969307 1.20302396 -0.05770193
C  -1.42230398 0.00580904 -0.01223823
H  -1.16767026 -2.18542536 0.03499168
H  1.25323952 -2.17967563 0.16561007
H  2.47840085 0.01026716 -0.01955252
H  1.22927205 2.12948811 0.08989605
H  -1.29648706 2.12720805 -0.13481863
H  -2.49353013 -0.09253577 0.07593825
12
MD Step 496 Units = [Angstroms]
C  -0.68469078 -1.21447344 0.03949686
C  0.71583610 -1.17779024 0.02518746
C  1.42245722 0.03577049 -0.04123471
C  0.68508970 1.16413717 0.03117966
C  -0.71738116 1.20247477 -0.05947959
C  -1.42234386 0.00443556 -0.01128349
H  -1.17568992 -2.18457283 0.02718920
H  1.26113207 -2.17445294 0.16296282
H  2.48490074 -0.00162046 -0.02301976
H  1.21469827 2.13649289 0.08867608
H  -1.29981574 2.13878756 -0.13744436
H  -2.47291886 -0.08806373 0.07388692
12
MD Step 497 Units = [Angstroms]
C  -0.68724745 -1.21457490 0.04077352
C  0.71637947 -1.17951548 0.02488953
C  1.42344643 0.03530775 -0.04152939
C  0.68284704 1.16697398 0.03295816
C  -0.71515468 1.20181529 -0.06118286
C  -1.42192530 0.00280221 -0.01030015
H  -1.18457049 -2.18424290 0.01980778
H  1.26788135 -2.16618631 0.15929465
H  2.49466171 -0.01302463 -0.02666801
H  1.19989007 2.14346073 0.08736803
H  -1.30212064 2.15029497 -0.13977620
H  -2.45602705 -0.08293252 0.07145967
12
MD Step 498 Units = [Angstroms]
C  -0.68960766 -1.21444138 0.04197051
C  0.71685496 -1.18152939 0.02464105
C  1.42427760 0.03435036 -0.04167440
C  0.68048638 1.17042002 0.03457988
C  -0.71308087 1.20110632 -0.06281058
C  -1.42091964 0.00094732 -0.00930250
H  -1.19412921 -2.18427191 0.01289735
H  1.27353012 -2.15529194 0.15466001
H  2.50677546 -0.02377787 -0.03049686
H  1.18511114 2.15045912 0.08600575
H  -1.30295235 2.16084050 -0.14175954
H  -2.44463151 -0.07728555 0.06878795
12
MD Step 499 Units = [Angstroms]
C  -0.69175421 -1.21411170 0.04308145
C  0.71724233 -1.18375658 0.02443613
C  1.42498787 0.03292790 -0.04166482
C  0.67806201 1.17440355 0.03603617
C  -0.71121749 1.20040063 -0.06436095
C  -1.41924464 -0.00109380 -0.00830171
H  -1.20414253 -2.18442972 0.00650865
H  1.27823375 -2.14239378 0.14914208
H  2.52013815 -0.03370636 -0.03449961
H  1.17063193 2.15757715 0.08462143
H  -1.30196997 2.16967433 -0.14335301
H  -2.43996336 -0.07122518 0.06596058
12
MD Step 500 Units = [Angstroms]
C  -0.69367887 -1.21363061 0.04410059
C  0.71751857 -1.18610809 0.02426695
C  1.42561651 0.03107907 -0.04149670
C  0.67563146 1.17884375 0.03731899
C  -0.70961066 1.19974008 -0.06583131
C  -1.41688414 -0.00329011 -0.00730462
H  -1.21436088 -2.18444795 0.00069315
H  1.28225353 -2.12829730 0.14284759
H  2.53358337 -0.04263836 -0.03866071
H  1.15671915 2.16491072 0.08324449
H  -1.29896113 2.17622372 -0.14453150
H  -2.44246649 -0.06480295 0.06300895
12
MD Step 501 Units = [Angstroms]
C  -0.69538076 -1.21304611 0.04502299
C  0.71765847 -1.18848555 0.02412437
C  1.42619732 0.02885107 -0.04116724
C  0.67325380 1.18365400 0.03842110
C  -0.70829347 1.19915383 -0.06721801
C  -1.41389559 -0.00561410 -0.00631363
H  -1.22452522 -2.18405078 -0.00449804
H  1.28593950 -2.11394534 0.13589901
H  2.54599828 -0.05041466 -0.04295512
H  1.14362511 2.17254621 0.08190059
H  -1.29385141 2.18011421 -0.14528763
H  -2.45170229 -0.05802843 0.05990742
12
MD Step 502 Units = [Angstroms]
C  -0.69686440 -1.21240707 0.04584459
C  0.71763631 -1.19078719 0.02399872
C  1.42675342 0.02629866 -0.04067487
C  0.67098805 1.18874535 0.03933626
C  -0.70728504 1.19865737 -0.06851630
C  -1.41040234 -0.00803958 -0.00532798
H  -1.23438368 -2.18298482 -0.00901606
H  1.28969867 -2.10035146 0.12842406
H  2.55641086 -0.05689810 -0.04734925
H  1.13157778 2.18054396 0.08061086
H  -1.28670651 2.18118028 -0.14563232
H  -2.46643974 -0.05089326 0.05658930
12
MD Step 503 Units = [Angstroms]
C  -0.69813751 -1.21176105 0.04656238
C  0.71742877 -1.19291551 0.02388082
C  1.42729421 0.02348303 -0.04001920
C  0.66889149 1.19402956 0.04005930
C  -0.70658998 1.19825199 -0.06972035
C  -1.40657367 -0.01053897 -0.00434568
H  -1.24370662 -2.18104508 -0.01281658
H  1.29394669 -2.08851063 0.12054335
H  2.56404719 -0.06198078 -0.05180300
H  1.12077242 2.18892368 0.07939137
H  -1.27773010 2.17946967 -0.14559460
H  -2.48489513 -0.04339925 0.05297136
12
MD Step 504 Units = [Angstroms]
C  -0.69920898 -1.21115256 0.04717457
C  0.71701913 -1.19478601 0.02376291
C  1.42781436 0.02047023 -0.03920096
C  0.66701810 1.19942178 0.04058628
C  -0.70619809 1.19792457 -0.07082326
C  -1.40259967 -0.01308127 -0.00336535
H  -1.25229945 -2.17809552 -0.01586213
H  1.29904555 -2.07929470 0.11235805
H  2.56836412 -0.06558824 -0.05627246
H  1.11136546 2.19765357 0.07825284
H  -1.26725768 2.17524232 -0.14522092
H  -2.50503343 -0.03557927 0.04897765
12
MD Step 505 Units = [Angstroms]
C  -0.70008712 -1.21062152 0.04768065
C  0.71640189 -1.19633578 0.02363947
C  1.42829370 0.01732961 -0.03822183
C  0.66541708 1.20484261 0.04091451
C  -0.70608446 1.19764793 -0.07181714
C  -1.39866852 -0.01563126 -0.00238752
H  -1.26001245 -2.17408336 -0.01812418
H  1.30523656 -2.07334876 0.10394066
H  2.56906520 -0.06768128 -0.06071278
H  1.10347108 2.20664474 0.07720068
H  -1.25574582 2.16896252 -0.14457374
H  -2.52484265 -0.02750554 0.04455565
12
MD Step 506 Units = [Angstroms]
C  -0.70077833 -1.21020201 0.04808144
C  0.71558670 -1.19753005 0.02350748
C  1.42869782 0.01413213 -0.03708436
C  0.66413155 1.21021951 0.04104261
C  -0.70621044 1.19738197 -0.07269327
C  -1.39495020 -0.01814988 -0.00141506
H  -1.26674758 -2.16904699 -0.01958471
H  1.31258344 -2.07101043 0.09533138
H  2.56610633 -0.06825579 -0.06508118
H  1.09716068 2.21575182 0.07623520
H  -1.24375438 2.16127990 -0.14372922
H  -2.54252974 -0.01928672 0.03968329
12
MD Step 507 Units = [Angstroms]
C  -0.70128629 -1.20992121 0.04837911
C  0.71460028 -1.19836521 0.02336619
C  1.42897888 0.01094877 -0.03579174
C  0.66319729 1.21548744 0.04097048
C  -0.70652542 1.19707615 -0.07344236
C  -1.39158727 -0.02059552 -0.00045314
H  -1.27246185 -2.16311754 -0.02023724
H  1.32094112 -2.07227178 0.08654165
H  2.55969485 -0.06734126 -0.06933993
H  1.09246502 2.22477977 0.07535209
H  -1.23191878 2.15299335 -0.14277352
H  -2.55663053 -0.01105849 0.03436874
12
MD Step 508 Units = [Angstroms]
C  -0.70161179 -1.20979864 0.04857707
C  0.71348552 -1.19886737 0.02321638
C  1.42907672 0.00784920 -0.03434771
C  0.66264176 1.22058904 0.04069930
C  -0.70696989 1.19667394 -0.07405494
C  -1.38869102 -0.02292564 0.00049123
H  -1.27716742 -2.15651421 -0.02008697
H  1.32996010 -2.07679378 0.07756368
H  2.55028260 -0.06499812 -0.07345931
H  1.08937866 2.23349592 0.07454292
H  -1.22090998 2.14499224 -0.14179752
H  -2.56605354 -0.00297229 0.02864603
12
MD Step 509 Units = [Angstroms]
C  -0.70175290 -1.20984582 0.04867986
C  0.71229773 -1.19908722 0.02305936
C  1.42892045 0.00490053 -0.03275636
C  0.66248328 1.22547424 0.04023144
C  -0.70747970 1.19611923 -0.07452194
C  -1.38634082 -0.02509861 0.00140972
H  -1.28092783 -2.14953327 -0.01915025
H  1.33912596 -2.08396787 0.06838303
H  2.53854964 -0.06131378 -0.07742030
H  1.08786586 2.24164593 0.07379580
H  -1.21138227 2.13817253 -0.14088988
H  -2.57008537 0.00481525 0.02256916
12
MD Step 510 Units = [Angstroms]
C  -0.70170577 -1.21006635 0.04869300
C  0.71109907 -1.19909228 0.02289608
C  1.42843107 0.00216636 -0.03102197
C  0.66273046 1.23009960 0.03957043
C  -0.70799109 1.19536460 -0.07483535
C  -1.38458451 -0.02707550 0.00229314
H  -1.28385031 -2.14253070 -0.01745333
H  1.34782293 -2.09300740 0.05899058
H  2.52537319 -0.05639735 -0.08121664
H  1.08786744 2.24897166 0.07309604
H  -1.20391265 2.13333319 -0.14012906
H  -2.56838145 0.01215103 0.01620617
12
MD Step 511 Units = [Angstroms]
C  -0.70146569 -1.21045676 0.04862278
C  0.70995228 -1.19895863 0.02272642
C  1.42752573 -0.00029419 -0.02914899
C  0.66338196 1.23442744 0.03872093
C  -0.70844599 1.19437997 -0.07498885
C  -1.38343881 -0.02882177 0.00313195
H  -1.28607390 -2.13589878 -0.01503026
H  1.35540595 -2.10304712 0.04939116
H  2.51177459 -0.05037283 -0.08485553
H  1.08930791 2.25522915 0.07242674
H  -1.19894049 2.13106742 -0.13957543
H  -2.56095729 0.01889296 0.00963348
12
MD Step 512 Units = [Angstroms]
C  -0.70102852 -1.21100774 0.04847600
C  0.70891510 -1.19876344 0.02254892
C  1.42612398 -0.00242724 -0.02714213
C  0.66442662 1.23842491 0.03768862
C  -0.70879651 1.19315998 -0.07497841
C  -1.38288904 -0.03030885 0.00391670
H  -1.28775385 -2.13003729 -0.01192053
H  1.36126669 -2.11323285 0.03960769
H  2.49883919 -0.04337151 -0.08835606
H  1.09210229 2.26020528 0.07176946
H  -1.19671919 2.13167124 -0.13926492
H  -2.54818769 0.02491665 0.00293062
12
MD Step 513 Units = [Angstroms]
C  -0.70039224 -1.21170612 0.04825975
C  0.70803598 -1.19857908 0.02236074
C  1.42415603 -0.00418482 -0.02500663
C  0.66584394 1.24206306 0.03648014
C  -0.70900778 1.19172805 -0.07480259
C  -1.38288817 -0.03151555 0.00463841
H  -1.28904308 -2.12532134 -0.00816637
H  1.36488508 -2.12279132 0.02968131
H  2.48760991 -0.03552463 -0.09174466
H  1.09616247 2.26373177 0.07110476
H  -1.19729079 2.13509283 -0.13920571
H  -2.53081414 0.03012213 -0.00382545
12
MD Step 514 Units = [Angstroms]
C  -0.69955861 -1.21253702 0.04798121
C  0.70735135 -1.19846896 0.02215792
C  1.42157228 -0.00552537 -0.02274880
C  0.66760496 1.24531613 0.03510310
C  -0.70905871 1.19013585 -0.07446255
C  -1.38335573 -0.03242918 0.00528913
H  -1.29007261 -2.12206856 -0.00381047
H  1.36586405 -2.13107844 0.01966864
H  2.47896487 -0.02695818 -0.09504722
H  1.10140252 2.26569585 0.07041282
H  -1.20048959 2.14093707 -0.13937877
H  -2.50995345 0.03444059 -0.01056657
12
MD Step 515 Units = [Angstroms]
C  -0.69853468 -1.21348612 0.04764754
C  0.70688420 -1.19848484 0.02193567
C  1.41835226 -0.00641393 -0.02037675
C  0.66967354 1.24816091 0.03356599
C  -0.70894081 1.18845828 -0.07396184
C  -1.38417782 -0.03304638 0.00586244
H  -1.29093342 -2.12050940 0.00110575
H  1.36394959 -2.13760944 0.00963729
H  2.47349997 -0.01779165 -0.09827899
H  1.10774296 2.26604709 0.06967388
H  -1.20597308 2.14852403 -0.13974200
H  -2.48709289 0.03784048 -0.01724030
12
MD Step 516 Units = [Angstroms]
C  -0.69733395 -1.21454156 0.04726574
C  0.70664365 -1.19866504 0.02168878
C  1.41451094 -0.00682213 -0.01790105
C  0.67200771 1.25057651 0.03187812
C  -0.70865574 1.18678532 -0.07330584
C  -1.38521010 -0.03337320 0.00635405
H  -1.29166258 -2.12076472 0.00654273
H  1.35904025 -2.14207609 -0.00033924
H  2.47144347 -0.00814101 -0.10143427
H  1.11511374 2.26480018 0.06886874
H  -1.21327151 2.15698517 -0.14023672
H  -2.46404875 0.04033078 -0.02381695
12
MD Step 517 Units = [Angstroms]
C  -0.69597696 -1.21569518 0.04684276
C  0.70662518 -1.19903320 0.02141201
C  1.41010055 -0.00672814 -0.01533520
C  0.67456134 1.25254445 0.03004966
C  -0.70821247 1.18521254 -0.07250132
C  -1.38628607 -0.03342449 0.00676220
H  -1.29223612 -2.12283398 0.01246226
H  1.35118977 -2.14435600 -0.01018701
H  2.47262519 0.00187523 -0.10447888
H  1.12345561 2.26203340 0.06797901
H  -1.22184468 2.16537337 -0.14079526
H  -2.44286043 0.04195856 -0.03029456
12
MD Step 518 Units = [Angstroms]
C  -0.69449134 -1.21694296 0.04638554
C  0.70681132 -1.19959743 0.02110045
C  1.40520716 -0.00611680 -0.01269565
C  0.67728562 1.25404922 0.02809153
C  -0.70762477 1.18383220 -0.07155584
C  -1.38723247 -0.03322209 0.00708766
H  -1.29257007 -2.12659594 0.01882596
H  1.34060521 -2.14451677 -0.01983696
H  2.47650936 0.01212973 -0.10734772
H  1.13271985 2.25788297 0.06698741
H  -1.23113542 2.17276523 -0.14134799
H  -2.42559883 0.04279786 -0.03669874
12
MD Step 519 Units = [Angstroms]
C  -0.69291099 -1.21828444 0.04590115
C  0.70717261 -1.20034961 0.02074997
C  1.39994285 -0.00498016 -0.01000139
C  0.68013060 1.25507927 0.02601537
C  -0.70690946 1.18272610 -0.07047738
C  -1.38789148 -0.03279214 0.00733312
H  -1.29252964 -2.13182173 0.02559328
H  1.32764096 -2.14281576 -0.02923023
H  2.48228132 0.02248264 -0.10994836
H  1.14286607 2.25253320 0.06587774
H  -1.24061365 2.17834211 -0.14182920
H  -2.41409369 0.04292942 -0.04307408
12
MD Step 520 Units = [Angstroms]
C  -0.69127482 -1.21972150 0.04539690
C  0.70766904 -1.20126521 0.02035751
C  1.39443548 -0.00331863 -0.00727308
C  0.68304644 1.25562838 0.02383353
C  -0.70608522 1.18196033 -0.06927401
C  -1.38814580 -0.03216181 0.00750170
H  -1.29194502 -2.13819809 0.03271932
H  1.31278754 -2.13969317 -0.03832293
H  2.48896491 0.03278212 -0.11216938
H  1.15385823 2.24620318 0.06463477
H  -1.24980882 2.18144617 -0.14218133
H  -2.40962811 0.04241595 -0.04946615
12
MD Step 521 Units = [Angstroms]
C  -0.68962485 -1.22125656 0.04488040
C  0.70825190 -1.20230398 0.01992152
C  1.38881827 -0.00114237 -0.00453206
C  0.68598461 1.25569729 0.02155892
C  -0.70517194 1.18158214 -0.06795373
C  -1.38793936 -0.03135661 0.00759519
H  -1.29063124 -2.14535740 0.04015335
H  1.29665217 -2.13575411 -0.04709016
H  2.49554379 0.04286887 -0.11389128
H  1.16565891 2.23913057 0.06324392
H  -1.25833212 2.18161421 -0.14235790
H  -2.41268833 0.04128198 -0.05589792
12
MD Step 522 Units = [Angstroms]
C  -0.68800404 -1.22289067 0.04435955
C  0.70886658 -1.20341198 0.01944206
C  1.38322073 0.00152704 -0.00179937
C  0.68889876 1.25529546 0.01920501
C  -0.70419001 1.18161828 -0.06652434
C  -1.38728617 -0.03039893 0.00761235
H  -1.28840923 -2.15291023 0.04783804
H  1.27992811 -2.13173375 -0.05552813
H  2.50106612 0.05258299 -0.11499746
H  1.17822229 2.23155398 0.06169083
H  -1.26589098 2.17859531 -0.14232540
H  -2.42285996 0.03950787 -0.06234887
12
MD Step 523 Units = [Angstroms]
C  -0.68645401 -1.22462178 0.04384247
C  0.70945610 -1.20452563 0.01892085
C  1.37776207 0.00465525 0.00090512
C  0.69174543 1.25444275 0.01678566
C  -0.70315943 1.18207441 -0.06499335
C  -1.38626380 -0.02930834 0.00754827
H  -1.28512551 -2.16047711 0.05570978
H  1.26335050 -2.12844008 -0.06365325
H  2.50472265 0.06177136 -0.11538343
H  1.19148662 2.22369551 0.05996086
H  -1.27229866 2.17235787 -0.14206453
H  -2.43891285 0.03704112 -0.06874563
12
MD Step 524 Units = [Angstroms]
C  -0.68501274 -1.22644329 0.04333735
C  0.70996561 -1.20557789 0.01836090
C  1.37254677 0.00819417 0.00356331
C  0.69448455 1.25317069 0.01431500
C  -0.70209855 1.18293540 -0.06336792
C  -1.38499430 -0.02810313 0.00739493
H  -1.28066866 -2.16771650 0.06369994
H  1.24763970 -2.12667280 -0.07149713
H  2.50589768 0.07029408 -0.11496367
H  1.20536692 2.21574546 0.05803858
H  -1.27748075 2.16308999 -0.14157103
H  -2.45904035 0.03381961 -0.07496751
12
MD Step 525 Units = [Angstroms]
C  -0.68371257 -1.22834312 0.04285223
C  0.71034725 -1.20650618 0.01776584
C  1.36766203 0.01208168 0.00615926
C  0.69707961 1.25152330 0.01180730
C  -0.70102264 1.18416604 -0.06165476
C  -1.38361986 -0.02680213 0.00714262
H  -1.27498167 -2.17434762 0.07173687
H  1.23343746 -2.12712386 -0.07909696
H  2.50419818 0.07802936 -0.11367604
H  1.21974925 2.20785108 0.05590750
H  -1.28147925 2.15119432 -0.14085622
H  -2.48116445 0.02979624 -0.08086361
12
MD Step 526 Units = [Angstroms]
C  -0.68257859 -1.23030315 0.04239481
C  0.71056466 -1.20726096 0.01713895
C  1.36317647 0.01624199 0.00867949
C  0.69949775 1.24955713 0.00927675
C  -0.69994245 1.18571252 -0.05986008
C  -1.38228069 -0.02542599 0.00678166
H  -1.26806971 -2.18016711 0.07974845
H  1.22124651 -2.13027464 -0.08648234
H  2.49946757 0.08487661 -0.11148422
H  1.23448733 2.20011073 0.05355000
H  -1.28445318 2.13727575 -0.13994706
H  -2.50321596 0.02495648 -0.08627393
12
MD Step 527 Units = [Angstroms]
C  -0.68162745 -1.23229910 0.04197218
C  0.71059624 -1.20781295 0.01648207
C  1.35913946 0.02058684 0.01111312
C  0.70170952 1.24734049 0.00673724
C  -0.69886319 1.18750464 -0.05798951
C  -1.38109941 -0.02399772 0.00630392
H  -1.26000348 -2.18505953 0.08766481
H  1.21138593 -2.13631177 -0.09366123
H  2.49178998 0.09075822 -0.10837883
H  1.24940243 2.19257419 0.05094759
H  -1.28667308 2.12211801 -0.13888539
H  -2.52333627 0.01932568 -0.09104791
12
MD Step 528 Units = [Angstroms]
C  -0.68086688 -1.23430074 0.04159058
C  0.71043625 -1.20815734 0.01579477
C  1.35558088 0.02501742 0.01345192
C  0.70368859 1.24495175 0.00420218
C  -0.69778438 1.18945936 -0.05604815
C  -1.38017262 -0.02254239 0.00570371
H  -1.25091830 -2.18900160 0.09542097
H  1.20397285 -2.14508367 -0.10060882
H  2.48148763 0.09562015 -0.10437722
H  1.26428685 2.18524884 0.04808147
H  -1.28850556 2.10664393 -0.13772580
H  -2.53999184 0.01296762 -0.09505710
12
MD Step 529 Units = [Angstroms]
C  -0.68029574 -1.23627257 0.04125519
C  0.71009366 -1.20831365 0.01507407
C  1.35251124 0.02942687 0.01569035
C  0.70541143 1.24247686 0.00168418
C  -0.69670106 1.19148600 -0.05404085
C  -1.37956793 -0.02108651 0.00497829
H  -1.24100910 -2.19206021 0.10295929
H  1.19893385 -2.15611061 -0.10726274
H  2.46911121 0.09943160 -0.09952217
H  1.27891065 2.17811057 0.04493346
H  -1.29038355 2.09185466 -0.13653148
H  -2.55202075 0.00597828 -0.09820204
12
MD Step 530 Units = [Angstroms]
C  -0.67990477 -1.23817479 0.04096996
C  0.70958915 -1.20832160 0.01431462
C  1.34992234 0.03370349 0.01782539
C  0.70685706 1.24000614 -0.00080506
C  -0.69560651 1.19349313 -0.05197255
C  -1.37932419 -0.01965704 0.00412795
H  -1.23052160 -2.19438400 0.11023122
H  1.19604142 -2.16864582 -0.11352595
H  2.45542004 0.10218370 -0.09387911
H  1.29303117 2.17111771 0.04148698
H  -1.29276001 2.07874699 -0.13536769
H  -2.55863952 -0.00152230 -0.10041512
12
MD Step 531 Units = [Angstroms]
C  -0.67967779 -1.23996480 0.04073754
C  0.70895109 -1.20823405 0.01350950
C  1.34778900 0.03773435 0.01985630
C  0.70800694 1.23763062 -0.00325505
C  -0.69449650 1.19539684 -0.04984896
C  -1.37945285 -0.01828052 0.00315599
H  -1.21973965 -2.19618829 0.11719828
H  1.19496474 -2.18177113 -0.11927628
H  2.44134658 0.10388713 -0.08753137
H  1.30640412 2.16422602 0.03772817
H  -1.29604660 2.06821442 -0.13429308
H  -2.55943398 -0.00939787 -0.10166124
12
MD Step 532 Units = [Angstroms]
C  -0.67959345 -1.24159908 0.04055926
C  0.70821163 -1.20810896 0.01265129
C  1.34607227 0.04140919 0.02178410
C  0.70884521 1.23543806 -0.00565654
C  -0.69337430 1.19712919 -0.04767722
C  -1.37993916 -0.01698211 0.00206865
H  -1.20896933 -2.19773360 0.12383192
H  1.19532278 -2.19450423 -0.12437982
H  2.42793910 0.10456844 -0.08057305
H  1.31879525 2.15740283 0.03364687
H  -1.30054564 2.06094599 -0.13334990
H  -2.55435032 -0.01750306 -0.10193782
12
MD Step 533 Units = [Angstroms]
C  -0.67962719 -1.24303557 0.04043528
C  0.70740334 -1.20800205 0.01173309
C  1.34472472 0.04462450 0.02361081
C  0.70935920 1.23350893 -0.00800164
C  -0.69225522 1.19864518 -0.04546660
C  -1.38074262 -0.01578481 0.00087504
H  -1.19852039 -2.19929822 0.13011229
H  1.19673078 -2.20589727 -0.12870470
H  2.41627877 0.10426519 -0.07309975
H  1.32999153 2.15063904 0.02923734
H  -1.30638920 2.05734302 -0.13255509
H  -2.54369400 -0.02568998 -0.10127498
12
MD Step 534 Units = [Angstroms]
C  -0.67975345 -1.24423634 0.04036477
C  0.70655697 -1.20796097 0.01074945
C  1.34369746 0.04728747 0.02533863
C  0.70954010 1.23191266 -0.01028374
C  -0.69116944 1.19992672 -0.04322887
C  -1.38179668 -0.01470866 -0.00041285
H  -1.18868669 -2.20114698 0.13602561
H  1.19883564 -2.21511450 -0.13213304
H  2.40737325 0.10302054 -0.06519801
H  1.33981084 2.14395781 0.02449883
H  -1.31350120 2.05747352 -0.13189456
H  -2.52813737 -0.03381485 -0.09973595
12
MD Step 535 Units = [Angstroms]
C  -0.67994768 -1.24517028 0.04034622
C  0.70570006 -1.20802149 0.00969699
C  1.34294842 0.04931961 0.02696901
C  0.70938389 1.23070427 -0.01249749
C  -0.69016199 1.20098261 -0.04097834
C  -1.38300804 -0.01377008 -0.00178015
H  -1.17972723 -2.20349897 0.14156085
H  1.20134000 -2.22148602 -0.13456975
H  2.40203801 0.10087820 -0.05693542
H  1.34810970 2.13741970 0.01943569
H  -1.32159406 2.06107590 -0.13132234
H  -2.50872975 -0.04174533 -0.09741699
12
MD Step 536 Units = [Angstroms]
C  -0.68018828 -1.24581551 0.04037774
C  0.70485619 -1.20820519 0.00857480
C  1.34245006 0.05065969 0.02850198
C  0.70889218 1.22992177 -0.01463857
C  -0.68928976 1.20184469 -0.03873144
C  -1.38425686 -0.01298132 -0.00320927
H  -1.17185013 -2.20649844 0.14670575
H  1.20401718 -2.22454041 -0.13594826
H  2.40078619 0.09787933 -0.04835410
H  1.35478845 2.13112394 0.01405728
H  -1.33020138 2.06760978 -0.13076499
H  -2.48689583 -0.04936873 -0.09444563
12
MD Step 537 Units = [Angstroms]
C  -0.68045798 -1.24616116 0.04045738
C  0.70404465 -1.20851854 0.00738465
C  1.34219476 0.05126594 0.02993591
C  0.70807283 1.22958435 -0.01670351
C  -0.68861631 1.20256139 -0.03650598
C  -1.38539959 -0.01235006 -0.00468030
H  -1.16520161 -2.21019309 0.15144328
H  1.20671969 -2.22402195 -0.13623364
H  2.40375181 0.09406203 -0.03946982
H  1.35979386 2.12520621 0.00837760
H  -1.33873780 2.07633944 -0.13013011
H  -2.46439990 -0.05660012 -0.09097519
12
MD Step 538 Units = [Angstroms]
C  -0.68074485 -1.24620815 0.04058328
C  0.70328023 -1.20895264 0.00613108
C  1.34219626 0.05111722 0.03126773
C  0.70694035 1.22969160 -0.01868942
C  -0.68820559 1.20319025 -0.03432025
C  -1.38627687 -0.01187938 -0.00617189
H  -1.15986125 -2.21452342 0.15574897
H  1.20938407 -2.21989777 -0.13542390
H  2.41066687 0.08946374 -0.03027723
H  1.36311872 2.11983295 0.00241461
H  -1.34657062 2.08642963 -0.12931675
H  -2.44324812 -0.06338786 -0.08717354
12
MD Step 539 Units = [Angstroms]
C  -0.68104268 -1.24596877 0.04075378
C  0.70257294 -1.20948371 0.00482134
C  1.34248669 0.05021341 0.03249358
C  0.70551580 1.23022383 -0.02059379
C  -0.68811607 1.20379090 -0.03219213
C  -1.38672815 -0.01156837 -0.00766271
H  -1.15584403 -2.21932495 0.15958993
H  1.21203319 -2.21235799 -0.13354967
H  2.42089870 0.08412534 -0.02076006
H  1.36479872 2.11519269 -0.00381041
H  -1.35308846 2.09703541 -0.12822552
H  -2.42550645 -0.06971300 -0.08320549
12
MD Step 540 Units = [Angstroms]
C  -0.68135086 -1.24546519 0.04096729
C  0.70192778 -1.21007394 0.00346528
C  1.34310998 0.04857488 0.03360961
C  0.70382639 1.23114341 -0.02241424
C  -0.68839586 1.20441935 -0.03013840
C  -1.38661315 -0.01141354 -0.00913328
H  -1.15310834 -2.22434302 0.16292558
H  1.21477630 -2.20180956 -0.13067259
H  2.43353760 0.07809541 -0.01090312
H  1.36490650 2.11148479 -0.01027370
H  -1.35775676 2.10737477 -0.12676702
H  -2.41303608 -0.07557890 -0.07921081
12
MD Step 541 Units = [Angstroms]
C  -0.68167381 -1.24472717 0.04122208
C  0.70134450 -1.21067311 0.00207512
C  1.34411360 0.04624144 0.03461278
C  0.70190478 1.23239708 -0.02414839
C  -0.68907935 1.20512388 -0.02817416
C  -1.38583644 -0.01141097 -0.01056768
H  -1.15156827 -2.22925770 0.16571009
H  1.21780564 -2.18886144 -0.12688195
H  2.44751227 0.07143326 -0.00070288
H  1.36354315 2.10890605 -0.01694968
H  -1.36015657 2.11678072 -0.12486774
H  -2.40719029 -0.08099114 -0.07528358
12
MD Step 542 Units = [Angstroms]
C  -0.68201991 -1.24378927 0.04151603
C  0.70081776 -1.21122112 0.00066498
C  1.34554033 0.04327062 0.03550130
C  0.69978807 1.23391904 -0.02579373
C  -0.69018511 1.20594226 -0.02631249
C  -1.38436821 -0.01155864 -0.01195463
H  -1.15110829 -2.23371478 0.16789598
H  1.22138705 -2.17429676 -0.12228925
H  2.46170844 0.06420991 0.00982551
H  1.36082786 2.10763584 -0.02381154
H  -1.36000792 2.12473505 -0.12247373
H  -2.40855789 -0.08593334 -0.07146062
12
MD Step 543 Units = [Angstroms]
C  -0.68240019 -1.24268807 0.04184630
C  0.70033786 -1.21165186 -0.00074974
C  1.34742179 0.03973550 0.03627489
C  0.69751682 1.23563461 -0.02734765
C  -0.69171484 1.20690010 -0.02456425
C  -1.38225362 -0.01185797 -0.01328735
H  -1.15159813 -2.23735881 0.16943838
H  1.22584142 -2.15902668 -0.11702010
H  2.47507158 0.05650715 0.02064557
H  1.35688623 2.10782092 -0.03083149
H  -1.35718136 2.13088836 -0.11955247
H  -2.41684491 -0.09034903 -0.06772415
12
MD Step 544 Units = [Angstroms]
C  -0.68282672 -1.24145984 0.04220904
C  0.69989244 -1.21189877 -0.00215320
C  1.34977406 0.03572208 0.03693471
C  0.69513388 1.23746412 -0.02880751
C  -0.69365306 1.20800967 -0.02293791
C  -1.37960687 -0.01231382 -0.01456238
H  -1.15290658 -2.23986447 0.17029911
H  1.23151377 -2.14402240 -0.11120368
H  2.48668469 0.04841549 0.03170064
H  1.35183880 2.10956088 -0.03798076
H  -1.35170136 2.13507117 -0.11609341
H  -2.43094184 -0.09413840 -0.06401789
12
MD Step 545 Units = [Angstroms]
C  -0.68331081 -1.24013864 0.04259923
C  0.69946922 -1.21190177 -0.00353015
C  1.35259546 0.03132630 0.03748314
C  0.69268333 1.23932677 -0.03017073
C  -0.69596733 1.20926931 -0.02143959
C  -1.37659224 -0.01293276 -0.01577785
H  -1.15491306 -2.24096355 0.17045041
H  1.23872908 -2.13022658 -0.10496060
H  2.49582055 0.04003141 0.04291762
H  1.34579075 2.11289591 -0.04522923
H  -1.34374433 2.13729916 -0.11210753
H  -2.44914860 -0.09717154 -0.06026976
12
MD Step 546 Units = [Angstroms]
C  -0.68386137 -1.23875492 0.04301055
C  0.69905975 -1.21161507 -0.00486686
C  1.35586593 0.02665086 0.03792345
C  0.69020932 1.24114426 -0.03143502
C  -0.69860900 1.21066287 -0.02007306
C  -1.37339925 -0.01372042 -0.01693193
H  -1.15751676 -2.24046612 0.16987759
H  1.24773765 -2.11845325 -0.09839129
H  2.50197310 0.03145495 0.05421228
H  1.33882437 2.11779810 -0.05254484
H  -1.33363179 2.13777326 -0.10762614
H  -2.46947260 -0.09931149 -0.05641262
12
MD Step 547 Units = [Angstroms]
C  -0.68448332 -1.23733469 0.04343532
C  0.69866336 -1.21101425 -0.00615189
C  1.35954739 0.02180189 0.03825946
C  0.68775502 1.24284370 -0.03259861
C  -0.70151467 1.21215979 -0.01883986
C  -1.37021933 -0.01467852 -0.01802181
H  -1.16064310 -2.23827529 0.16858091
H  1.25865851 -2.10929321 -0.09156761
H  2.50487418 0.02278748 0.06549528
H  1.33099524 2.12416761 -0.05989278
H  -1.32181808 2.13687308 -0.10269864
H  -2.48990883 -0.10043763 -0.05239790
12
MD Step 548 Units = [Angstroms]
C  -0.68517641 -1.23589891 0.04386462
C  0.69829041 -1.21010124 -0.00737628
C  1.36358452 0.01688587 0.03849516
C  0.68536147 1.24435998 -0.03366042
C  -0.70460839 1.21371571 -0.01773956
C  -1.36722864 -0.01580273 -0.01904339
H  -1.16424772 -2.23439540 0.16657618
H  1.27143337 -2.10304564 -0.08453022
H  2.50450059 0.01413007 0.07667841
H  1.32233275 2.13183426 -0.06723483
H  -1.30886988 2.13513981 -0.09738913
H  -2.50864551 -0.10046241 -0.04820092
12
MD Step 549 Units = [Angstroms]
C  -0.68593438 -1.23446325 0.04428835
C  0.69796379 -1.20890550 -0.00853338
C  1.36790590 0.01200672 0.03863432
C  0.68306654 1.24563726 -0.03462027
C  -0.70780496 1.21527457 -0.01677013
C  -1.36457810 -0.01708121 -0.01999137
H  -1.16831796 -2.22893364 0.16389448
H  1.28580410 -2.09969333 -0.07729246
H  2.50107429 0.00558211 0.08768091
H  1.31284471 2.14056481 -0.07452884
H  -1.29543509 2.13324318 -0.09177145
H  -2.52418324 -0.09933937 -0.04382027
12
MD Step 550 Units = [Angstroms]
C  -0.68674468 -1.23303812 0.04469545
C  0.69771800 -1.20748126 -0.00961809
C  1.37242536 0.00726342 0.03868012
C  0.68090377 1.24662967 -0.03547907
C  -0.71101427 1.21677230 -0.01592847
C  -1.36238903 -0.01849417 -0.02085963
H  -1.17287176 -2.22209507 0.16058075
H  1.30132134 -2.09892730 -0.06984970
H  2.49505536 -0.00276003 0.09843555
H  1.30252556 2.15007519 -0.08172858
H  -1.28219900 2.13192770 -0.08592274
H  -2.53538546 -0.09706406 -0.03927389
12
MD Step 551 Units = [Angstroms]
C  -0.68758861 -1.23162907 0.04507415
C  0.69759581 -1.20590140 -0.01062599
C  1.37704378 0.00274805 0.03863480
C  0.67890147 1.24730139 -0.03623880
C  -0.71414663 1.21814254 -0.01521101
C  -1.36075216 -0.02001405 -0.02164157
H  -1.17795364 -2.21417074 0.15669147
H  1.31738338 -2.10021282 -0.06219106
H  2.48712448 -0.01080433 0.10889416
H  1.29136673 2.16004648 -0.08878417
H  -1.26982867 2.13193669 -0.07991595
H  -2.54148745 -0.09367080 -0.03459422
12
MD Step 552 Units = [Angstroms]
C  -0.68844203 -1.23023762 0.04541222
C  0.69764345 -1.20424944 -0.01155249
C  1.38165209 -0.00145554 0.03849939
C  0.67708186 1.24762614 -0.03690261
C  -0.71711856 1.21932408 -0.01461432
C  -1.35972799 -0.02160621 -0.02233046
H  -1.18362769 -2.20551885 0.15229150
H  1.33329560 -2.10287857 -0.05431025
H  2.47814923 -0.01846455 0.11903185
H  1.27936781 2.17014324 -0.09564292
H  -1.25891096 2.13391902 -0.07381257
H  -2.54208814 -0.08922773 -0.02982336
12
MD Step 553 Units = [Angstroms]
C  -0.68927643 -1.22886252 0.04569738
C  0.69790528 -1.20261154 -0.01239229
C  1.38613571 -0.00527266 0.03827358
C  0.67546049 1.24758627 -0.03747468
C  -0.71985827 1.22026870 -0.01413563
C  -1.35934720 -0.02323010 -0.02291975
H  -1.18996717 -2.19653915 0.14745022
H  1.34833719 -2.10620851 -0.04621329
H  2.46912820 -0.02566159 0.12884858
H  1.26654719 2.18003246 -0.10225068
H  -1.24989361 2.13833203 -0.06765713
H  -2.53714086 -0.08383166 -0.02500881
12
MD Step 554 Units = [Angstroms]
C  -0.69006055 -1.22750144 0.04591754
C  0.69841905 -1.20106956 -0.01313907
C  1.39038103 -0.00863827 0.03795596
C  0.67404600 1.24717161 -0.03796012
C  -0.72230972 1.22094805 -0.01377300
C  -1.35961044 -0.02484060 -0.02340328
H  -1.19704110 -2.18764180 0.14223739
H  1.36182267 -2.10952109 -0.03792205
H  2.46110864 -0.03232434 0.13836673
H  1.25295099 2.18940166 -0.10855348
H  -1.24304175 2.14536089 -0.06147520
H  -2.52695102 -0.07760325 -0.02019949
12
MD Step 555 Units = [Angstroms]
C  -0.69076224 -1.22615294 0.04606121
C  0.69921235 -1.19969590 -0.01378554
C  1.39428372 -0.01149726 0.03754459
C  0.67284026 1.24637816 -0.03836476
C  -0.72443471 1.22135763 -0.01352519
C  -1.36048731 -0.02638979 -0.02377550
H  -1.20489861 -2.17921290 0.13671911
H  1.37315089 -2.11222810 -0.02947426
H  2.45507989 -0.03838948 0.14762333
H  1.23865956 2.19797496 -0.11449938
H  -1.23841951 2.15487466 -0.05527558
H  -2.51218198 -0.07068215 -0.01544183
12
MD Step 556 Units = [Angstroms]
C  -0.69135064 -1.22481838 0.04611774
C  0.70030042 -1.19855006 -0.01432362
C  1.39775809 -0.01380457 0.03703801
C  0.67183883 1.24520685 -0.03869497
C  -0.72621258 1.22151679 -0.01339126
C  -1.36191517 -0.02782883 -0.02403174
H  -1.21355268 -2.17158047 0.13095440
H  1.38183932 -2.11387319 -0.02092102
H  2.45185418 -0.04380014 0.15665684
H  1.22379127 2.20552628 -0.12004026
H  -1.23590089 2.16643189 -0.04905615
H  -2.49386313 -0.06322152 -0.01077558
12
MD Step 557 Units = [Angstroms]
C  -0.69179828 -1.22350349 0.04607751
C  0.70168510 -1.19767649 -0.01474475
C  1.40074565 -0.01552539 0.03643655
C  0.67103181 1.24366240 -0.03895741
C  -0.72763791 1.22146485 -0.01336995
C  -1.36379859 -0.02911002 -0.02416853
H  -1.22296542 -2.16498516 0.12499298
H  1.38754524 -2.11415378 -0.01232279
H  2.45195562 -0.04850330 0.16549032
H  1.20850334 2.21188901 -0.12513354
H  -1.23520550 2.17933437 -0.04281157
H  -2.47338713 -0.05538111 -0.00622929
12
MD Step 558 Units = [Angstroms]
C  -0.69208305 -1.22221932 0.04593204
C  0.70335474 -1.19710348 -0.01504022
C  1.40322101 -0.01663528 0.03574355
C  0.67040489 1.24175243 -0.03915885
C  -0.72871722 1.22125435 -0.01345916
C  -1.36601151 -0.03018898 -0.02418384
H  -1.23303750 -2.15956011 0.11887444
H  1.39007723 -2.11293173 -0.00374487
H  2.45554291 -0.05244687 0.17411462
H  1.19299004 2.21696196 -0.12974357
H  -1.23594949 2.19271487 -0.03654056
H  -2.45247506 -0.04731840 -0.00181600
12
MD Step 559 Units = [Angstroms]
C  -0.69218977 -1.22098215 0.04567396
C  0.70528463 -1.19684246 -0.01520158
C  1.40519340 -0.01712041 0.03496633
C  0.66994061 1.23948687 -0.03930603
C  -0.72946545 1.22094323 -0.01365551
C  -1.36840400 -0.03102660 -0.02407740
H  -1.24360389 -2.15532325 0.11262900
H  1.38939988 -2.11023700 0.00474734
H  2.46238606 -0.05557746 0.18247639
H  1.17747825 2.22071124 -0.13384260
H  -1.23769960 2.20563791 -0.03025118
H  -2.43308332 -0.03917853 0.00246975
12
MD Step 560 Units = [Angstroms]
C  -0.69211107 -1.21981247 0.04529689
C  0.70743787 -1.19688774 -0.01522097
C  1.40670335 -0.01697767 0.03411630
C  0.66961955 1.23687777 -0.03940550
C  -0.72990312 1.22058726 -0.01395417
C  -1.37081579 -0.03159072 -0.02385064
H  -1.25443724 -2.15218297 0.10627941
H  1.38563393 -2.10626670 0.01309297
H  2.47190339 -0.05783985 0.19047458
H  1.16222097 2.22316804 -0.13741127
H  -1.24002150 2.21719430 -0.02396337
H  -2.41723055 -0.03108514 0.00665160
12
MD Step 561 Units = [Angstroms]
C  -0.69184768 -1.21873307 0.04479535
C  0.70976643 -1.19721661 -0.01509154
C  1.40781536 -0.01621481 0.03320849
C  0.66942160 1.23393944 -0.03946362
C  -0.73005420 1.22023400 -0.01434889
C  -1.37309645 -0.03185700 -0.02350631
H  -1.26525864 -2.14995616 0.09984366
H  1.37905153 -2.10137953 0.02124005
H  2.48324830 -0.05917849 0.19796634
H  1.14748889 2.22442240 -0.14043856
H  -1.24251710 2.22657730 -0.01770878
H  -2.40674491 -0.02313596 0.01076589
12
MD Step 562 Units = [Angstroms]
C  -0.69140797 -1.21776656 0.04416454
C  0.71221274 -1.19778999 -0.01480780
C  1.40860858 -0.01485040 0.03226034
C  0.66932698 1.23068904 -0.03948655
C  -0.72994492 1.21991849 -0.01483214
C  -1.37512911 -0.03180883 -0.02304763
H  -1.27575459 -2.14839499 0.09333780
H  1.37006532 -2.09608347 0.02914952
H  2.49542311 -0.05954054 0.20478054
H  1.13356058 2.22461297 -0.14292110
H  -1.24485054 2.23313661 -0.01152887
H  -2.40297147 -0.01540627 0.01485055
12
MD Step 563 Units = [Angstroms]
C  -0.69080681 -1.21693283 0.04340030
C  0.71471181 -1.19855405 -0.01436593
C  1.40916734 -0.01291376 0.03129035
C  0.66931721 1.22714735 -0.03948030
C  -0.72960295 1.21966057 -0.01539539
C  -1.37685120 -0.03143632 -0.02247723
H  -1.28559766 -2.14721852 0.08677834
H  1.35920809 -2.09101243 0.03679818
H  2.50739504 -0.05887966 0.21073500
H  1.12071180 2.22391335 -0.14486195
H  -1.24676437 2.23641220 -0.00547186
H  -2.40651903 -0.00796036 0.01893068
12
MD Step 564 Units = [Angstroms]
C  -0.69006405 -1.21624659 0.04249904
C  0.71719413 -1.19944321 -0.01376397
C  1.40957320 -0.01044480 0.03031667
C  0.66937577 1.22333983 -0.03945083
C  -0.72905679 1.21946365 -0.01602937
C  -1.37826495 -0.03073491 -0.02179620
H  -1.29446824 -2.14614450 0.08018400
H  1.34709984 -2.08688706 0.04418004
H  2.51819583 -0.05715955 0.21565374
H  1.10920445 2.22251577 -0.14626893
H  -1.24808892 2.23615308 0.00041082
H  -2.41713502 -0.00086652 0.02300578
12
MD Step 565 Units = [Angstroms]
C  -0.68920258 -1.21571547 0.04145771
C  0.71958964 -1.20038493 -0.01300186
C  1.40989919 -0.00749369 0.02935599
C  0.66948857 1.21929767 -0.03940419
C  -0.72833499 1.21931456 -0.01672438
C  -1.37943350 -0.02970426 -0.02100367
H  -1.30207512 -2.14491834 0.07357653
H  1.33440036 -2.08445577 0.05130507
H  2.52699619 -0.05435676 0.21938143
H  1.09927593 2.22061332 -0.14715266
H  -1.24874735 2.23232569 0.00606813
H  -2.43375759 0.00579210 0.02704393
12
MD Step 566 Units = [Angstroms]
C  -0.68824629 -1.21533878 0.04027389
C  0.72183250 -1.20130625 -0.01208109
C  1.41020603 -0.00412040 0.02842271
C  0.66964418 1.21505881 -0.03934659
C  -0.72746504 1.21918410 -0.01747065
C  -1.38046441 -0.02834802 -0.02009722
H  -1.30817321 -2.14333685 0.06698082
H  1.32174923 -2.08441629 0.05819458
H  2.53315498 -0.05046254 0.22179419
H  1.09112941 2.21838238 -0.14752454
H  -1.24875777 2.22511525 0.01145306
H  -2.45472383 0.01191575 0.03098479
12
MD Step 567 Units = [Angstroms]
C  -0.68721807 -1.21510673 0.03894587
C  0.72386614 -1.20214162 -0.01100421
C  1.41054009 -0.00039387 0.02752850
C  0.66983375 1.21066865 -0.03928452
C  -0.72647219 1.21902832 -0.01825865
C  -1.38148695 -0.02667442 -0.01907371
H  -1.31257741 -2.14126587 0.06042424
H  1.30970026 -2.08732490 0.06487332
H  2.53624821 -0.04548404 0.22280666
H  1.08492584 2.21596697 -0.14739494
H  -1.24823296 2.21492067 0.01652596
H  -2.47805612 0.01739569 0.03474974
12
MD Step 568 Units = [Angstroms]
C  -0.68613806 -1.21500038 0.03747276
C  0.72564777 -1.20284070 -0.00977405
C  1.41093237 0.00360905 0.02668194
C  0.67005082 1.20618039 -0.03922477
C  -0.72537821 1.21879050 -0.01907940
C  -1.38263043 -0.02469735 -0.01793033
H  -1.31517230 -2.13865158 0.05393560
H  1.29866231 -2.09350800 0.07135925
H  2.53608403 -0.03944493 0.22237625
H  1.08077804 2.21346682 -0.14677189
H  -1.24737644 2.20234104 0.02125756
H  -2.50173846 0.02212648 0.03825439
12
MD Step 569 Units = [Angstroms]
C  -0.68502234 -1.21499193 0.03585463
C  0.72715124 -1.20337454 -0.00839296
C  1.41139810 0.00780506 0.02588844
C  0.67029084 1.20165488 -0.03917442
C  -0.72420052 1.21840400 -0.01992474
C  -1.38400821 -0.02243724 -0.01666554
H  -1.31591753 -2.13552562 0.04754382
H  1.28886039 -2.10299603 0.07765357
H  2.53270904 -0.03238572 0.22050508
H  1.07874727 2.21093060 -0.14566043
H  -1.24647270 2.18814976 0.02563118
H  -2.52392505 0.02601773 0.04141967
12
MD Step 570 Units = [Angstroms]
C  -0.68388200 -1.21504556 0.03409263
C  0.72836741 -1.20373854 -0.00686228
C  1.41193664 0.01210614 0.02515021
C  0.67055065 1.19715977 -0.03914073
C  -0.72295209 1.21779642 -0.02078752
C  -1.38570862 -0.01992160 -0.01527960
H  -1.31484887 -2.13200435 0.04127643
H  1.28032652 -2.11549740 0.08373359
H  2.52640815 -0.02436372 0.21724026
H  1.07884237 2.20835494 -0.14406277
H  -1.24586865 2.17325119 0.02964370
H  -2.54306576 0.02900201 0.04417940
12
MD Step 571 Units = [Angstroms]
C  -0.68272296 -1.21511864 0.03218909
C  0.72930226 -1.20395154 -0.00518219
C  1.41253179 0.01642149 0.02446631
C  0.67082790 1.19276820 -0.03913095
C  -0.72164245 1.21689530 -0.02166158
C  -1.38779139 -0.01718500 -0.01377486
H  -1.31207482 -2.12828213 0.03515824
H  1.27292235 -2.13042100 0.08955083
H  2.51769773 -0.01545243 0.21267220
H  1.08102139 2.20568931 -0.14197916
H  -1.24594351 2.15861620 0.03330449
H  -2.55796306 0.03103845 0.04648436
12
MD Step 572 Units = [Angstroms]
C  -0.68154627 -1.21516342 0.03014771
C  0.72997299 -1.20405119 -0.00335202
C  1.41315269 0.02065958 0.02383292
C  0.67112051 1.18855676 -0.03915214
C  -0.72027988 1.21563521 -0.02254158
C  -1.39028755 -0.01426858 -0.01215584
H  -1.30776852 -2.12461860 0.02921006
H  1.26638586 -2.14694233 0.09503478
H  2.50730822 -0.00574007 0.20693047
H  1.08519539 2.20284597 -0.13940947
H  -1.24706632 2.14519719 0.03663175
H  -2.56778624 0.03211275 0.04830389
12
MD Step 573 Units = [Angstroms]
C  -0.68034910 -1.21512916 0.02797356
C  0.73040360 -1.20408702 -0.00137083
C  1.41375587 0.02473013 0.02324378
C  0.67142630 1.18460319 -0.03921086
C  -0.71887463 1.21396585 -0.02342251
C  -1.39320063 -0.01121920 -0.01042914
H  -1.30215492 -2.12131971 0.02344781
H  1.26038907 -2.16409689 0.10010097
H  2.49615035 0.00467296 0.20017629
H  1.09123405 2.19971352 -0.13635500
H  -1.24954409 2.13382998 0.03964643
H  -2.57206650 0.03223538 0.04962607
12
MD Step 574 Units = [Angstroms]
C  -0.67912626 -1.21496478 0.02567316
C  0.73062073 -1.20411280 0.00076178
C  1.41428891 0.02854600 0.02269099
C  0.67174275 1.18098363 -0.03931288
C  -0.71744260 1.21185972 -0.02429919
C  -1.39650801 -0.00808835 -0.00860338
H  -1.29549326 -2.11871275 0.01788208
H  1.25459386 -2.18088054 0.10466112
H  2.48525823 0.01567780 0.19259085
H  1.09897261 2.19617247 -0.13282054
H  -1.25356830 2.12513816 0.04236424
H  -2.57068962 0.03143878 0.05045757
12
MD Step 575 Units = [Angstroms]
C  -0.67787206 -1.21462178 0.02325445
C  0.73065054 -1.20417960 0.00304505
C  1.41469621 0.03202489 0.02216614
C  0.67206703 1.17776987 -0.03946293
C  -0.71600832 1.20931779 -0.02516561
C  -1.40016154 -0.00493102 -0.00668913
H  -1.28805586 -2.11711633 0.01251807
H  1.24869701 -2.19633964 0.10863296
H  2.47570515 0.02716145 0.18435943
H  1.10821968 2.19211096 -0.12881621
H  -1.25917120 2.11945942 0.04478786
H  -2.56389465 0.02977436 0.05082341
12
MD Step 576 Units = [Angstroms]
C  -0.67658244 -1.21405747 0.02072669
C  0.73051683 -1.20433029 0.00547641
C  1.41492673 0.03509097 0.02166159
C  0.67239629 1.17502656 -0.03966441
C  -0.71460646 1.20637192 -0.02601454
C  -1.40408737 -0.00180443 -0.00469882
H  -1.28010493 -2.11680747 0.00735622
H  1.24246119 -2.20964156 0.11194823
H  2.46849408 0.03901042 0.17565277
H  1.11876545 2.18743930 -0.12435896
H  -1.26620356 2.11681202 0.04690138
H  -2.55228048 0.02730912 0.05076682
12
MD Step 577 Units = [Angstroms]
C  -0.67525702 -1.21323806 0.01810035
C  0.73024009 -1.20459573 0.00805121
C  1.41494277 0.03767654 0.02117190
C  0.67272802 1.17280861 -0.03991922
C  -0.71328109 1.20308311 -0.02683743
C  -1.40818550 0.00123324 -0.00264669
H  -1.27187010 -2.11798919 0.00239314
H  1.23573299 -2.22012342 0.11455824
H  2.46443506 0.05111234 0.16660887
H  1.13038978 2.18210197 -0.11947351
H  -1.27434093 2.11690936 0.04866862
H  -2.53681488 0.02412175 0.05034898
12
MD Step 578 Units = [Angstroms]
C  -0.67390083 -1.21214131 0.01538693
C  0.72983732 -1.20499244 0.01076248
C  1.41472803 0.03972372 0.02069473
C  0.67306065 1.17115898 -0.04022762
C  -0.71208279 1.19953624 -0.02762465
C  -1.41232991 0.00412413 -0.00054859
H  -1.26352989 -2.12076292 -0.00237714
H  1.22845115 -2.22732230 0.11643722
H  2.46403156 0.06335401 0.15731950
H  1.14286991 2.17608647 -0.11419277
H  -1.28311760 2.11921780 0.05003612
H  -2.51883310 0.02029750 0.04964764
12
MD Step 579 Units = [Angstroms]
C  -0.67252542 -1.21075830 0.01259870
C  0.72932213 -1.20552138 0.01360091
C  1.41429291 0.04118643 0.02023117
C  0.67339396 1.17010684 -0.04058822
C  -0.71106423 1.19583251 -0.02836604
C  -1.41637116 0.00681202 0.00157829
H  -1.25520019 -2.12511015 -0.00696182
H  1.22064858 -2.23099200 0.11758382
H  2.46740247 0.07561609 0.14782562
H  1.15598728 2.16942833 -0.10855761
H  -1.29197967 2.12304190 0.05093951
H  -2.50000516 0.01592157 0.04875405
12
MD Step 580 Units = [Angstroms]
C  -0.67114925 -1.20909409 0.00974858
C  0.72870482 -1.20616743 0.01655486
C  1.41367533 0.04203224 0.01978524
C  0.67372954 1.16966631 -0.04099793
C  -0.71027532 1.19208121 -0.02905157
C  -1.42014360 0.00924361 0.00371596
H  -1.24693161 -2.13088677 -0.01136828
H  1.21245058 -2.23111061 0.11802133
H  2.47426118 0.08776586 0.13812311
H  1.16953332 2.16221246 -0.10261615
H  -1.30034524 2.12761741 0.05131160
H  -2.48224529 0.01107152 0.04776691
12
MD Step 581 Units = [Angstroms]
C  -0.66979729 -1.20716712 0.00684992
C  0.72799250 -1.20689960 0.01961048
C  1.41293663 0.04224400 0.01936262
C  0.67407096 1.16983578 -0.04145216
C  -0.70975875 1.18839221 -0.02967196
C  -1.42347900 0.01136961 0.00584650
H  -1.23871602 -2.13783129 -0.01560336
H  1.20407068 -2.22788160 0.11779685
H  2.48395786 0.09965105 0.12817722
H  1.18331372 2.15457054 -0.09642259
H  -1.30766038 2.13219543 0.05109032
H  -2.46754157 0.00581059 0.04678317
12
MD Step 582 Units = [Angstroms]
C  -0.66849996 -1.20500736 0.00391636
C  0.72718914 -1.20767171 0.02275191
C  1.41215355 0.04182084 0.01896922
C  0.67442375 1.17059796 -0.04194488
C  -0.70954652 1.18486985 -0.03021921
C  -1.42622675 0.01314539 0.00795301
H  -1.23050078 -2.14558606 -0.01967319
H  1.19580402 -2.22172797 0.11697941
H  2.49557335 0.11109728 0.11794133
H  1.19715124 2.14667500 -0.09003567
H  -1.31344386 2.13610850 0.05022502
H  -2.45770523 0.00018497 0.04588661
12
MD Step 583 Units = [Angstroms]
C  -0.66729149 -1.20265368 0.00096176
C  0.72629564 -1.20842389 0.02596150
C  1.41140841 0.04077840 0.01860971
C  0.67479518 1.17192056 -0.04246891
C  -0.70965768 1.18160848 -0.03068691
C  -1.42827741 0.01453106 0.01002061
H  -1.22220771 -2.15372809 -0.02358341
H  1.18801680 -2.21327651 0.11565677
H  2.50804017 0.12191046 0.10737478
H  1.21088662 2.13872984 -0.08351706
H  -1.31731839 2.13881664 0.04868074
H  -2.45407861 -0.00577158 0.04513704
12
MD Step 584 Units = [Angstroms]
C  -0.66620798 -1.20015083 -0.00199991
C  0.72531035 -1.20908536 0.02922034
C  1.41077955 0.03914820 0.01828649
C  0.67519383 1.17375764 -0.04301607
C  -0.71009710 1.17868933 -0.03107046
C  -1.42958327 0.01549091 0.01203705
H  -1.21375354 -2.16180513 -0.02733976
H  1.18112994 -2.20332705 0.11393062
H  2.52026430 0.13188356 0.09645613
H  1.22437784 2.13095895 -0.07692964
H  -1.31902958 2.13993602 0.04644058
H  -2.45728056 -0.01202554 0.04456363
12
MD Step 585 Units = [Angstroms]
C  -0.66528529 -1.19754641 -0.00495459
C  0.72423009 -1.20957868 0.03250875
C  1.41033369 0.03697630 0.01799925
C  0.67562898 1.17605155 -0.04357747
C  -0.71085505 1.17617829 -0.03136709
C  -1.43016834 0.01599275 0.01399282
H  -1.20506894 -2.16937240 -0.03094881
H  1.17559417 -2.19280086 0.11191004
H  2.53122837 0.14080607 0.08519028
H  1.23749768 2.12359275 -0.07033599
H  -1.31845561 2.13925488 0.04350636
H  -2.46707840 -0.01852778 0.04416517
12
MD Step 586 Units = [Angstroms]
C  -0.66455692 -1.19488827 -0.00788818
C  0.72305195 -1.20982598 0.03580703
C  1.41012082 0.03432130 0.01774485
C  0.67610993 1.17873543 -0.04414368
C  -0.71190734 1.17412430 -0.03157585
C  -1.43012390 0.01600780 0.01588058
H  -1.19611399 -2.17602640 -0.03441872
H  1.17185525 -2.18266472 0.10970325
H  2.54006741 0.14847415 0.07361010
H  1.25013002 2.11685421 -0.06379709
H  -1.31561025 2.13674104 0.03989820
H  -2.48243684 -0.02520129 0.04391691
12
MD Step 587 Units = [Angstroms]
C  -0.66405187 -1.19222254 -0.01078660
C  0.72177593 -1.20975686 0.03909629
C  1.41017145 0.03125196 0.01751768
C  0.67664534 1.18173585 -0.04470494
C  -0.71321593 1.17255814 -0.03169748
C  -1.42959099 0.01551163 0.01769445
H  -1.18688918 -2.18143322 -0.03775989
H  1.17030979 -2.17383286 0.10740877
H  2.54611776 0.15470019 0.06177384
H  1.26216523 2.11094521 -0.05737138
H  -1.31064128 2.13254334 0.03565314
H  -2.50172402 -0.03193834 0.04378098
12
MD Step 588 Units = [Angstroms]
C  -0.66379291 -1.18959207 -0.01363582
C  0.72040797 -1.20931712 0.04235911
C  1.41049574 0.02784446 0.01731016
C  0.67724252 1.18497583 -0.04525133
C  -0.71472998 1.17149139 -0.03173421
C  -1.42873654 0.01448616 0.01942919
H  -1.17744184 -2.18535030 -0.04098542
H  1.17125592 -2.16705791 0.10510740
H  2.54894468 0.15932108 0.04976017
H  1.27349568 2.10603466 -0.05111430
H  -1.30382443 2.12698737 0.03082295
H  -2.52299733 -0.03860793 0.04371658
12
MD Step 589 Units = [Angstroms]
C  -0.66379503 -1.18703556 -0.01642195
C  0.71896297 -1.20847666 0.04558005
C  1.41108375 0.02417955 0.01711329
C  0.67790683 1.18837758 -0.04577292
C  -0.71638746 1.17091603 -0.03168952
C  -1.42773024 0.01292220 0.02107963
H  -1.16786835 -2.18764131 -0.04411144
H  1.17484687 -2.16283067 0.10285705
H  2.54835558 0.16220520 0.03766196
H  1.28401176 2.10224922 -0.04507803
H  -1.29555202 2.12056350 0.02547106
H  -2.54428020 -0.04506951 0.04368726
12
MD Step 590 Units = [Angstroms]
C  -0.66406449 -1.18458688 -0.01913128
C  0.71746672 -1.20723476 0.04874584
C  1.41190637 0.02033973 0.01691735
C  0.67864112 1.19186518 -0.04625982
C  -0.71811744 1.17080495 -0.03156774
C  -1.42672716 0.01082206 0.02264045
H  -1.15831272 -2.18828412 -0.04715719
H  1.18105769 -2.16131215 0.10069170
H  2.54440436 0.16325841 0.02557952
H  1.29359951 2.09966754 -0.03931166
H  -1.28631395 2.11390313 0.01966857
H  -2.56377149 -0.05118751 0.04366461
12
MD Step 591 Units = [Angstroms]
C  -0.66459823 -1.18227480 -0.02175043
C  0.71595632 -1.20562115 0.05184515
C  1.41291655 0.01640654 0.01671247
C  0.67944532 1.19536682 -0.04670232
C  -0.71984327 1.17111393 -0.03137364
C  -1.42585737 0.00820142 0.02410610
H  -1.14896192 -2.18737226 -0.05014495
H  1.18967417 -2.16231620 0.09862483
H  2.53738970 0.16242898 0.01361370
H  1.30214009 2.09831831 -0.03386144
H  -1.27666877 2.10773873 0.01348929
H  -2.57997145 -0.05684275 0.04362914
12
MD Step 592 Units = [Angstroms]
C  -0.66538396 -1.18012301 -0.02426634
C  0.71447842 -1.20369266 0.05486809
C  1.41405088 0.01245822 0.01648928
C  0.68031602 1.19881657 -0.04709093
C  -0.72148665 1.17178558 -0.03111193
C  -1.42522124 0.00509054 0.02547086
H  -1.14003851 -2.18510935 -0.05309976
H  1.20030783 -2.16534747 0.09665605
H  2.52784675 0.15971130 0.00185897
H  1.30951168 2.09818205 -0.02877106
H  -1.26720328 2.10284402 0.00700438
H  -2.59173875 -0.06193935 0.04356948
12
MD Step 593 Units = [Angstroms]
C  -0.66640071 -1.17815049 -0.02666646
C  0.71308576 -1.20152624 0.05780569
C  1.41523175 0.00856786 0.01623950
C  0.68124625 1.20215565 -0.04741650
C  -0.72297237 1.17275523 -0.03078681
C  -1.42488848 0.00153445 0.02672900
H  -1.13179031 -2.18179638 -0.05604893
H  1.21243407 -2.16968364 0.09477885
H  2.51652872 0.15514749 -0.00960324
H  1.31559332 2.09919621 -0.02408180
H  -1.25848198 2.09995489 0.00027724
H  -2.59830467 -0.06640786 0.04348107
12
MD Step 594 Units = [Angstroms]
C  -0.66761979 -1.17637235 -0.02893880
C  0.71183261 -1.19921027 0.06064936
C  1.41637051 0.00480223 0.01595645
C  0.68222534 1.20533320 -0.04767028
C  -0.72423340 1.17395845 -0.03040164
C  -1.42489872 -0.00240766 0.02787488
H  -1.12447765 -2.17781126 -0.05902131
H  1.22544461 -2.17448046 0.09298740
H  2.50437237 0.14882583 -0.02071033
H  1.32027056 2.10126277 -0.01983255
H  -1.25099148 2.09967812 -0.00663995
H  -2.59926803 -0.07020567 0.04336475
12
MD Step 595 Units = [Angstroms]
C  -0.66900628 -1.17480119 -0.03107201
C  0.71077005 -1.19683591 0.06339057
C  1.41737235 0.00122135 0.01563540
C  0.68323898 1.20830656 -0.04784405
C  -0.72521549 1.17533880 -0.02995887
C  -1.42526229 -0.00666379 0.02890305
H  -1.11835806 -2.17358042 -0.06204635
H  1.23870367 -2.17887648 0.09128126
H  2.49244032 0.14087452 -0.03142251
H  1.32344216 2.10425744 -0.01605957
H  -1.24508881 2.10240241 -0.01370704
H  -2.59458762 -0.07331616 0.04322567
12
MD Step 596 Units = [Angstroms]
C  -0.67052072 -1.17344890 -0.03305555
C  0.70994175 -1.19449003 0.06602070
C  1.41814319 -0.00212109 0.01527368
C  0.68426955 1.21104111 -0.04793025
C  -0.72588050 1.17685434 -0.02946023
C  -1.42596061 -0.01115108 0.02980838
H  -1.11366936 -2.16954359 -0.06515281
H  1.25159874 -2.18208096 0.08966754
H  2.48183584 0.13145048 -0.04172345
H  1.32502694 2.10803949 -0.01279603
H  -1.24096429 2.10823083 -0.02089330
H  -2.58458021 -0.07574713 0.04307242
12
MD Step 597 Units = [Angstroms]
C  -0.67212112 -1.17232878 -0.03487976
C  0.70938082 -1.19225007 0.06853100
C  1.41859849 -0.00517678 0.01487039
C  0.68529659 1.21350980 -0.04792213
C  -0.72620774 1.17848125 -0.02890717
C  -1.42694584 -0.01577830 0.03058606
H  -1.11061194 -2.16611394 -0.06836720
H  1.26358106 -2.18343777 0.08816113
H  2.47359150 0.12072381 -0.05161627
H  1.32497033 2.11246161 -0.01007149
H  -1.23862766 2.11695212 -0.02817208
H  -2.56992522 -0.07752899 0.04291652
12
MD Step 598 Units = [Angstroms]
C  -0.67376508 -1.17145775 -0.03653598
C  0.70910772 -1.19018076 0.07091272
C  1.41867313 -0.00790141 0.01442568
C  0.68629765 1.21569252 -0.04781392
C  -0.72619326 1.18021388 -0.02830143
C  -1.42814045 -0.02044867 0.03123171
H  -1.10933212 -2.16363763 -0.07171205
H  1.27419469 -2.18246583 0.08678361
H  2.46854383 0.10886116 -0.06111445
H  1.32324973 2.11737884 -0.00791124
H  -1.23792034 2.12805914 -0.03551415
H  -2.55166970 -0.07871241 0.04277192
12
MD Step 599 Units = [Angstroms]
C  -0.67541180 -1.17085806 -0.03801669
C  0.70912921 -1.18833232 0.07315718
C  1.41833053 -0.01025366 0.01393977
C  0.68724918 1.21757525 -0.04760096
C  -0.72584737 1.18206128 -0.02764551
C  -1.42943762 -0.02506284 0.03174142
H  -1.10990842 -2.16235816 -0.07520403
H  1.28309564 -2.17888127 0.08556153
H  2.46721620 0.09601256 -0.07022865
H  1.31987837 2.12265644 -0.00633566
H  -1.23854991 2.14081016 -0.04288193
H  -2.53121986 -0.07936486 0.04265449
12
MD Step 600 Units = [Angstroms]
C  -0.67702407 -1.17055823 -0.03931562
C  0.70943801 -1.18673946 0.07525590
C  1.41756873 -0.01219487 0.01341183
C  0.68812758 1.21914938 -0.04727986
C  -0.72519126 1.18404144 -0.02694301
C  -1.43070435 -0.02952212 0.03211184
H  -1.11234280 -2.16239087 -0.07885220
H  1.29006385 -2.17260697 0.08452453
H  2.46973751 0.08230616 -0.07895267
H  1.31490734 2.12817603 -0.00535973
H  -1.24013759 2.15431773 -0.05022603
H  -2.51029751 -0.07956514 0.04258124
12
MD Step 601 Units = [Angstroms]
C  -0.67856974 -1.17059287 -0.04042781
C  0.71001316 -1.18542092 0.07720074
C  1.41642170 -0.01368969 0.01283920
C  0.68891028 1.22041102 -0.04684857
C  -0.72425350 1.18617473 -0.02619867
C  -1.43178940 -0.03373157 0.03234026
H  -1.11655814 -2.16371215 -0.08265656
H  1.29501021 -2.16377442 0.08370351
H  2.47581905 0.06785289 -0.08725256
H  1.30842563 2.13383995 -0.00499268
H  -1.24226844 2.16764551 -0.05748485
H  -2.49083614 -0.07939553 0.04256914
12
MD Step 602 Units = [Angstroms]
C  -0.68002299 -1.17100113 -0.04134967
C  0.71082065 -1.18437917 0.07898401
C  1.41495527 -0.01470770 0.01221710
C  0.68957667 1.22136062 -0.04630647
C  -0.72306713 1.18847773 -0.02541820
C  -1.43253752 -0.03760304 0.03242471
H  -1.12240274 -2.16616499 -0.08660714
H  1.29797981 -2.15271978 0.08312898
H  2.48479682 0.05275912 -0.09506236
H  1.30055820 2.13957344 -0.00523785
H  -1.24453602 2.17989644 -0.06458681
H  -2.47479802 -0.07893164 0.04263333
12
MD Step 603 Units = [Angstroms]
C  -0.68136497 -1.17182406 -0.04207895
C  0.71181460 -1.18360052 0.08059855
C  1.41325869 -0.01522533 0.01153901
C  0.69010901 1.22200270 -0.04565436
C  -0.72166754 1.19095841 -0.02460801
C  -1.43280977 -0.04105773 0.03236418
H  -1.12966102 -2.16947985 -0.09068375
H  1.29915132 -2.13997394 0.08282971
H  2.49572760 0.03714233 -0.10228757
H  1.29146219 2.14532469 -0.00609273
H  -1.24657720 2.19028227 -0.07145440
H  -2.46391790 -0.07823204 0.04278476
12
MD Step 604 Units = [Angstroms]
C  -0.68258403 -1.17310115 -0.04261469
C  0.71293873 -1.18305574 0.08203783
C  1.41143392 -0.01522786 0.01079751
C  0.69049314 1.22234580 -0.04489445
C  -0.72009108 1.19361275 -0.02377477
C  -1.43250629 -0.04402815 0.03215875
H  -1.13806904 -2.17330702 -0.09485659
H  1.29883024 -2.12624332 0.08283148
H  2.50751378 0.02114441 -0.10881497
H  1.28132141 2.15106263 -0.00754931
H  -1.24809651 2.19817211 -0.07800889
H  -2.45941830 -0.07733068 0.04302743
12
MD Step 605 Units = [Angstroms]
C  -0.68367547 -1.17486654 -0.04295707
C  0.71412865 -1.18270184 0.08329608
C  1.40958486 -0.01471092 0.00998538
C  0.69071908 1.22240256 -0.04403028
C  -0.71837420 1.19642272 -0.02292508
C  -1.43158487 -0.04645927 0.03180973
H  -1.14733290 -2.17725514 -0.09908748
H  1.29743301 -2.11237667 0.08315636
H  2.51902945 0.00493877 -0.11452555
H  1.27033970 2.15677270 -0.00959448
H  -1.24888171 2.20312247 -0.08417518
H  -2.46177639 -0.07623525 0.04335573
12
MD Step 606 Units = [Angstroms]
C  -0.68464082 -1.17714542 -0.04310726
C  0.71531493 -1.18248534 0.08436829
C  1.40780839 -0.01368126 0.00909668
C  0.69078143 1.22218990 -0.04306661
C  -0.71655273 1.19935542 -0.02206503
C  -1.43006872 -0.04830879 0.03131982
H  -1.15714767 -2.18093058 -0.10333179
H  1.29545802 -2.09931252 0.08382217
H  2.52922726 -0.01126941 -0.11930741
H  1.25873332 2.16245090 -0.01221058
H  -1.24881289 2.20489343 -0.08988632
H  -2.47062546 -0.07493231 0.04375274
12
MD Step 607 Units = [Angstroms]
C  -0.68548678 -1.17995086 -0.04306723
C  0.71642721 -1.18234753 0.08525030
C  1.40618780 -0.01215700 0.00812756
C  0.69067975 1.22172916 -0.04200932
C  -0.71466111 1.20236308 -0.02119994
C  -1.42804014 -0.04954694 0.03069299
H  -1.16721547 -2.18397331 -0.10754066
H  1.29344117 -2.08800444 0.08484249
H  2.53721673 -0.02724864 -0.12306637
H  1.24672317 2.16809683 -0.01537598
H  -1.24786734 2.20345519 -0.09508752
H  -2.48482968 -0.07339690 0.04419006
12
MD Step 608 Units = [Angstroms]
C  -0.68622387 -1.18328154 -0.04283956
C  0.71739929 -1.18223152 0.08593876
C  1.40478863 -0.01016723 0.00707687
C  0.69041863 1.22104622 -0.04086529
C  -0.71273153 1.20538368 -0.02033402
C  -1.42562268 -0.05015615 0.02993439
H  -1.17726138 -2.18608660 -0.11166355
H  1.29189696 -2.07932670 0.08622682
H  2.54231448 -0.04274992 -0.12573349
H  1.23452726 2.17370640 -0.01906550
H  -1.24612135 2.19898775 -0.09973968
H  -2.50270271 -0.07160264 0.04462964
12
MD Step 609 Units = [Angstroms]
C  -0.68686491 -1.18712016 -0.04242724
C  0.71817457 -1.18209024 0.08643118
C  1.40365642 -0.00775121 0.00594643
C  0.69000768 1.22017147 -0.03964226
C  -0.71079295 1.20834231 -0.01947016
C  -1.42295821 -0.05013079 0.02905000
H  -1.18704655 -2.18705919 -0.11565066
H  1.29125189 -2.07397092 0.08798078
H  2.54407202 -0.05751718 -0.12726970
H  1.22235408 2.17926513 -0.02325083
H  -1.24374886 2.19187388 -0.10382216
H  -2.52229083 -0.06952895 0.04502713
12
MD Step 610 Units = [Angstroms]
C  -0.68742338 -1.19143280 -0.04183354
C  0.71871102 -1.18189401 0.08672594
C  1.40281576 -0.00495712 0.00474117
C  0.68946135 1.21913959 -0.03834875
C  -0.70887032 1.21115317 -0.01860977
C  -1.42018590 -0.04947710 0.02804637
H  -1.19637852 -2.18677978 -0.11945531
H  1.29178252 -2.07235254 0.09010579
H  2.54228870 -0.07129806 -0.12766802
H  1.21039716 2.18474295 -0.02790057
H  -1.24101575 2.18268325 -0.10733467
H  -2.54163747 -0.06716404 0.04533579
12
MD Step 611 Units = [Angstroms]
C  -0.68791199 -1.19616902 -0.04106187
C  0.71898436 -1.18163574 0.08682240
C  1.40226999 -0.00184047 0.00346907
C  0.68879849 1.21798912 -0.03699399
C  -0.70698421 1.21372260 -0.01775277
C  -1.41742719 -0.04821311 0.02693032
H  -1.20511840 -2.18524419 -0.12303601
H  1.29357280 -2.07454870 0.09259796
H  2.53701559 -0.08385450 -0.12695416
H  1.19883128 2.19009113 -0.03298028
H  -1.23826738 2.17214396 -0.11029745
H  -2.55897789 -0.06450466 0.04551016
12
MD Step 612 Units = [Angstroms]
C  -0.68834131 -1.20126287 -0.04011570
C  0.71898877 -1.18133253 0.08672105
C  1.40200152 0.00153786 0.00214104
C  0.68804180 1.21676178 -0.03558782
C  -0.70515130 1.21595345 -0.01689772
C  -1.41477758 -0.04636834 0.02570877
H  -1.21318514 -2.18255551 -0.12635814
H  1.29650249 -2.08028429 0.09544622
H  2.52855352 -0.09497317 -0.12518578
H  1.18781029 2.19524197 -0.03845232
H  -1.23590658 2.16109697 -0.11274928
H  -2.57285349 -0.06155400 0.04550884
12
MD Step 613 Units = [Angstroms]
C  -0.68871872 -1.20663458 -0.03899860
C  0.71873482 -1.18102312 0.08642371
C  1.40197242 0.00511379 0.00077066
C  0.68721703 1.21550158 -0.03414063
C  -0.70338576 1.21775089 -0.01604221
C  -1.41230378 -0.04398315 0.02438858
H  -1.22055633 -2.17891741 -0.12939512
H  1.30026956 -2.08897028 0.09863019
H  2.51744523 -0.10447528 -0.12245051
H  1.17746648 2.20011116 -0.04427557
H  -1.23436001 2.15043077 -0.11474243
H  -2.58216191 -0.05831923 0.04529632
12
MD Step 614 Units = [Angstroms]
C  -0.68904776 -1.21219310 -0.03771421
C  0.71824524 -1.18076198 0.08593363
C  1.40212578 0.00882228 -0.00062619
C  0.68635213 1.21425374 -0.03266328
C  -0.70170166 1.21902966 -0.01518351
C  -1.41004418 -0.04110771 0.02297659
H  -1.22726541 -2.17462062 -0.13212886
H  1.30443996 -2.09978422 0.10211855
H  2.50445844 -0.11222538 -0.11886225
H  1.16791121 2.20460266 -0.05040536
H  -1.23403291 2.14099795 -0.11633449
H  -2.58616802 -0.05480970 0.04484403
12
MD Step 615 Units = [Angstroms]
C  -0.68932798 -1.21783928 -0.03626644
C  0.71754981 -1.18061177 0.08525556
C  1.40238824 0.01259945 -0.00203188
C  0.68547630 1.21306341 -0.03116707
C  -0.70011614 1.21972198 -0.01431944
C  -1.40801057 -0.03780066 0.02147956
H  -1.23339441 -2.17002223 -0.13454937
H  1.30851114 -2.11177245 0.10586866
H  2.49055393 -0.11813776 -0.11455542
H  1.15923654 2.20861553 -0.05679339
H  -1.23525644 2.13352228 -0.11757772
H  -2.58449836 -0.05103598 0.04413089
12
MD Step 616 Units = [Angstroms]
C  -0.68955524 -1.22346984 -0.03465964
C  0.71668044 -1.18063563 0.08439562
C  1.40267423 0.01638432 -0.00342777
C  0.68461899 1.21197445 -0.02966358
C  -0.69865239 1.21978495 -0.01344928
C  -1.40619001 -0.03412755 0.01990416
H  -1.23906212 -2.16551824 -0.13665331
H  1.31197517 -2.12395292 0.10982757
H  2.47683157 -0.12217862 -0.10967656
H  1.15151739 2.21205190 -0.06338795
H  -1.23823591 2.12851144 -0.11850780
H  -2.57713401 -0.04700985 0.04314366
12
MD Step 617 Units = [Angstroms]
C  -0.68972269 -1.22898170 -0.03289888
C  0.71566732 -1.18089065 0.08336114
C  1.40289237 0.02011976 -0.00479516
C  0.68380902 1.21102808 -0.02816464
C  -0.69734182 1.21920597 -0.01257449
C  -1.40454612 -0.03015916 0.01825696
H  -1.24440759 -2.16151020 -0.13844150
H  1.31437137 -2.13540264 0.11393432
H  2.46444898 -0.12436195 -0.10437337
H  1.14481396 2.21482520 -0.07013435
H  -1.24301121 2.12619412 -0.11913471
H  -2.56440921 -0.04274523 0.04187726
12
MD Step 618 Units = [Angstroms]
C  -0.68982214 -1.23427656 -0.03099030
C  0.71453651 -1.18142313 0.08216040
C  1.40295421 0.02375275 -0.00611641
C  0.68307371 1.21026166 -0.02668213
C  -0.69622427 1.21800477 -0.01169907
C  -1.40301964 -0.02597002 0.01654440
H  -1.24957009 -2.15836850 -0.13991529
H  1.31532397 -2.14532285 0.11812315
H  2.45451292 -0.12473818 -0.09878223
H  1.13917417 2.21686802 -0.07697560
H  -1.24943976 2.12649668 -0.11943817
H  -2.54701622 -0.03825968 0.04033509
12
MD Step 619 Units = [Angstroms]
C  -0.68984590 -1.23926536 -0.02894144
C  0.71330866 -1.18226537 0.08080234
C  1.40278426 0.02723382 -0.00737598
C  0.68243815 1.20970758 -0.02522787
C  -0.69534612 1.21623188 -0.01082948
C  -1.40152893 -0.02163697 0.01477266
H  -1.25466734 -2.15639568 -0.14107243
H  1.31456561 -2.15308207 0.12232693
H  2.44795318 -0.12337641 -0.09301601
H  1.13463576 2.21813859 -0.08385328
H  -1.25720728 2.12906514 -0.11936918
H  -2.52600978 -0.03357634 0.03852926
12
MD Step 620 Units = [Angstroms]
C  -0.68978865 -1.24387205 -0.02676159
C  0.71199879 -1.18343386 0.07929632
C  1.40232995 0.03051611 -0.00856121
C  0.68192450 1.20939237 -0.02381343
C  -0.69475626 1.21396373 -0.00997403
C  -1.39997127 -0.01723811 0.01294771
H  -1.25977523 -2.15579472 -0.14190284
H  1.31194973 -2.15824153 0.12648081
H  2.44539944 -0.12034433 -0.08715536
H  1.13122812 2.21862560 -0.09070857
H  -1.26586391 2.13332590 -0.11885706
H  -2.50279725 -0.02872572 0.03648033
12
MD Step 621 Units = [Angstroms]
C  -0.68964930 -1.24803636 -0.02446202
C  0.71061642 -1.18492841 0.07765186
C  1.40156907 0.03355471 -0.00966270
C  0.68155152 1.20933587 -0.02244997
C  -0.69450099 1.21129590 -0.00914200
C  -1.39822680 -0.01285198 0.01107519
H  -1.26491216 -2.15664701 -0.14238513
H  1.30745564 -2.16056854 0.13052563
H  2.44708834 -0.11569175 -0.08124551
H  1.12897347 2.21835079 -0.09748330
H  -1.27487691 2.13856953 -0.11781998
H  -2.47909357 -0.02374697 0.03421621
12
MD Step 622 Units = [Angstroms]
C  -0.68943225 -1.25171505 -0.02205604
C  0.70916604 -1.18673176 0.07587845
C  1.40051286 0.03630663 -0.01067406
C  0.68133407 1.20955083 -0.02114809
C  -0.69461869 1.20833583 -0.00834274
C  -1.39616694 -0.00855711 0.00916058
H  -1.27003115 -2.15890351 -0.14248466
H  1.30118916 -2.16004216 0.13441128
H  2.45282498 -0.10944352 -0.07530010
H  1.12788753 2.21736910 -0.10412096
H  -1.28368843 2.14403926 -0.11617632
H  -2.45681674 -0.01868781 0.03176950
12
MD Step 623 Units = [Angstroms]
C  -0.68914820 -1.25488178 -0.01955891
C  0.70764749 -1.18880973 0.07398533
C  1.39920378 0.03873183 -0.01159129
C  0.68128286 1.21004259 -0.01991762
C  -0.69513530 1.20519618 -0.00758478
C  -1.39366881 -0.00443187 0.00720944
H  -1.27502124 -2.16239084 -0.14215361
H  1.29338011 -2.15685338 0.13809979
H  2.46201008 -0.10160454 -0.06931038
H  1.12797949 2.21576632 -0.11056759
H  -1.29176814 2.14900963 -0.11385462
H  -2.43790720 -0.01360286 0.02917317
12
MD Step 624 Units = [Angstroms]
C  -0.68881405 -1.25752548 -0.01698751
C  0.70605638 -1.19111186 0.07198131
C  1.39770857 0.04079509 -0.01241187
C  0.68140424 1.21080915 -0.01876755
C  -0.69606097 1.20198945 -0.00687526
C  -1.39063504 -0.00055441 0.00522770
H  -1.27971795 -2.16683086 -0.14133319
H  1.28437643 -2.15139938 0.14156831
H  2.47372518 -0.09217481 -0.06325722
H  1.12925125 2.21365429 -0.11677234
H  -1.29865501 2.15284751 -0.11080077
H  -2.42407841 -0.00855041 0.02645470
12
MD Step 625 Units = [Angstroms]
C  -0.68845221 -1.25964777 -0.01435988
C  0.70438478 -1.19357276 0.06987465
C  1.39610847 0.04246820 -0.01313395
C  0.68170022 1.21184142 -0.01770594
C  -0.69738833 1.19882377 -0.00621954
C  -1.38701524 0.00299743 0.00322207
H  -1.28392103 -2.17187061 -0.13995763
H  1.27463287 -2.14426874 0.14481129
H  2.48685338 -0.08116903 -0.05712247
H  1.13169613 2.21116388 -0.12268783
H  -1.30398638 2.15505407 -0.10698236
H  -2.41654315 -0.00358863 0.02363034
12
MD Step 626 Units = [Angstroms]
C  -0.68808928 -1.26125996 -0.01169468
C  0.70262228 -1.19611458 0.06767290
C  1.39448892 0.04373186 -0.01375572
C  0.68216863 1.21312380 -0.01673987
C  -0.69909197 1.19579982 -0.00562095
C  -1.38282301 0.00614661 0.00120020
H  -1.28741617 -2.17711776 -0.13795934
H  1.26469148 -2.13621245 0.14784153
H  2.50020820 -0.06863469 -0.05089718
H  1.13529686 2.20843622 -0.12827008
H  -1.30751574 2.15529079 -0.10239045
H  -2.41579267 0.00122736 0.02070140
12
MD Step 627 Units = [Angstroms]
C  -0.68775420 -1.26237996 -0.00901056
C  0.70075787 -1.19865104 0.06538303
C  1.39293042 0.04457696 -0.01427511
C  0.68280337 1.21463488 -0.01587549
C  -0.70112900 1.19300820 -0.00508085
C  -1.37814188 0.00881798 -0.00082934
H  -1.28999776 -2.18217704 -0.13527427
H  1.25515038 -2.12809521 0.15068906
H  2.51264812 -0.05466421 -0.04458602
H  1.14002326 2.20561279 -0.13347814
H  -1.30912197 2.15339373 -0.09703937
H  -2.42150603 0.00584628 0.01765433
12
MD Step 628 Units = [Angstroms]
C  -0.68747627 -1.26302972 -0.00632563
C  0.69878283 -1.20109327 0.06301158
C  1.39150170 0.04500492 -0.01468976
C  0.68359477 1.21634850 -0.01511806
C  -0.70344048 1.19052708 -0.00459864
C  -1.37311755 0.01094026 -0.00285756
H  -1.29148958 -2.18668373 -0.13184703
H  1.24661909 -2.12082316 0.15339681
H  2.52316469 -0.03939988 -0.03820805
H  1.14582971 2.20282523 -0.13827342
H  -1.30881245 2.14937978 -0.09096530
H  -2.43262479 0.01021934 0.01446490
12
MD Step 629 Units = [Angstroms]
C  -0.68728297 -1.26323324 -0.00365700
C  0.69669448 -1.20335739 0.06056527
C  1.39025523 0.04502720 -0.01499709
C  0.68453004 1.21823480 -0.01447205
C  -0.70595338 1.18841985 -0.00417197
C  -1.36793876 0.01244858 -0.00487555
H  -1.29176191 -2.19033190 -0.12763495
H  1.23966148 -2.11525040 0.15601266
H  2.53094245 -0.02303235 -0.03179508
H  1.15265271 2.20018574 -0.14261885
H  -1.30672173 2.14344705 -0.08422368
H  -2.44756320 0.01429772 0.01110491
12
MD Step 630 Units = [Angstroms]
C  -0.68719803 -1.26301519 -0.00102030
C  0.69450051 -1.20537286 0.05805171
C  1.38922474 0.04466424 -0.01519459
C  0.68559361 1.22026148 -0.01394121
C  -0.70858318 1.18673277 -0.00379695
C  -1.36281330 0.01328766 -0.00687510
H  -1.29074401 -2.19289599 -0.12261100
H  1.23473281 -2.11207438 0.15857796
H  2.53539500 -0.00579454 -0.02538851
H  1.16040899 2.19777909 -0.14647802
H  -1.30310587 2.13596934 -0.07688581
H  -2.46447864 0.01803034 0.00754893
12
MD Step 631 Units = [Angstroms]
C  -0.68723962 -1.26240007 0.00157054
C  0.69222287 -1.20709018 0.05548033
C  1.38842413 0.04394381 -0.01528002
C  0.68676747 1.22239495 -0.01352874
C  -0.71123681 1.18549301 -0.00346858
C  -1.35794556 0.01341512 -0.00884909
H  -1.28843183 -2.19424571 -0.11676540
H  1.23212165 -2.11173934 0.16111461
H  2.53618419 0.01204713 -0.01903564
H  1.16899446 2.19565710 -0.14981452
H  -1.29833129 2.12748222 -0.06903446
H  -2.48152383 0.02136279 0.00377925
12
MD Step 632 Units = [Angstroms]
C  -0.68741907 -1.26141181 0.00410350
C  0.68990021 -1.20848611 0.05286310
C  1.38784725 0.04289917 -0.01525165
C  0.68803141 1.22460151 -0.01323730
C  -0.71381625 1.18470755 -0.00318112
C  -1.35351999 0.01280469 -0.01079170
H  -1.28489091 -2.19435408 -0.11010590
H  1.23191002 -2.11437029 0.16361345
H  2.53322835 0.03020308 -0.01278576
H  1.17828436 2.19383623 -0.15259156
H  -1.29285612 2.11865708 -0.06075851
H  -2.49703268 0.02423759 -0.00021175
12
MD Step 633 Units = [Angstroms]
C  -0.68773997 -1.26007367 0.00656856
C  0.68758802 -1.20956490 0.05021496
C  1.38746833 0.04156715 -0.01510858
C  0.68936308 1.22684836 -0.01306906
C  -0.71622262 1.18436367 -0.00292870
C  -1.34969102 0.01144903 -0.01269834
H  -1.28025486 -2.19329902 -0.10265687
H  1.23396226 -2.11975508 0.16602760
H  2.52670345 0.04837174 -0.00668642
H  1.18813482 2.19229843 -0.15477211
H  -1.28720143 2.11025854 -0.05214678
H  -2.50962987 0.02659531 -0.00442144
12
MD Step 634 Units = [Angstroms]
C  -0.68819789 -1.25840854 0.00895767
C  0.68535619 -1.21035537 0.04755362
C  1.38724284 0.03998608 -0.01485091
C  0.69073806 1.22910439 -0.01302574
C  -0.71836092 1.18443155 -0.00270587
C  -1.34657856 0.00936178 -0.01456559
H  -1.27471918 -2.19125811 -0.09445725
H  1.23794591 -2.12737966 0.16827260
H  2.51703756 0.06625147 -0.00077986
H  1.19838592 2.19099531 -0.15631950
H  -1.28191100 2.10308251 -0.04328174
H  -2.51827938 0.02837617 -0.00883817
12
MD Step 635 Units = [Angstroms]
C  -0.68878056 -1.25643952 0.01126464
C  0.68328437 -1.21090447 0.04489887
C  1.38710911 0.03819393 -0.01448000
C  0.69212978 1.23134079 -0.01310846
C  -0.72014508 1.18486913 -0.00250814
C  -1.34426683 0.00657866 -0.01639093
H  -1.26853060 -2.18849629 -0.08555751
H  1.24337889 -2.13650620 0.17023371
H  2.50489623 0.08355287 0.00490028
H  1.20886609 2.18985494 -0.15719851
H  -1.27750085 2.09787619 -0.03423406
H  -2.52229559 0.02952203 -0.01344327
12
MD Step 636 Units = [Angstroms]
C  -0.68946868 -1.25419081 0.01348492
C  0.68145620 -1.21126919 0.04227148
C  1.38699098 0.03622661 -0.01399864
C  0.69350949 1.23353144 -0.01331771
C  -0.72150311 1.18562889 -0.00233231
C  -1.34280506 0.00315729 -0.01817256
H  -1.26197180 -2.18534607 -0.07601589
H  1.24969135 -2.14627359 0.17177807
H  2.49115363 0.10001089 0.01033155
H  1.21939766 2.18879049 -0.15737691
H  -1.27440350 2.09524812 -0.02505947
H  -2.52133829 0.02997869 -0.01821317
12
MD Step 637 Units = [Angstroms]
C  -0.69023713 -1.25168912 0.01561533
C  0.67995331 -1.21150857 0.03969203
C  1.38680212 0.03411662 -0.01341121
C  0.69484637 1.23565300 -0.01365320
C  -0.72238149 1.18666510 -0.00217660
C  -1.34220844 -0.00082415 -0.01990919
H  -1.25534196 -2.18218023 -0.06589409
H  1.25628902 -2.15579833 0.17276871
H  2.47684328 0.11539520 0.01550437
H  1.22980312 2.18770987 -0.15682706
H  -1.27291599 2.09558304 -0.01579918
H  -2.51540553 0.02969890 -0.02312171
12
MD Step 638 Units = [Angstroms]
C  -0.69105663 -1.24896527 0.01765376
C  0.67885014 -1.21167713 0.03717981
C  1.38645219 0.03189229 -0.01272364
C  0.69610787 1.23768491 -0.01411368
C  -0.72274818 1.18794025 -0.00204032
C  -1.34245896 -0.00526963 -0.02159982
H  -1.24893417 -2.17937807 -0.05525312
H  1.26260818 -2.16426007 0.17307761
H  2.46308325 0.12951676 0.02042207
H  1.23991160 2.18652512 -0.15552762
H  -1.27316236 2.09898036 -0.00648400
H  -2.50483162 0.02864608 -0.02814246
12
MD Step 639 Units = [Angstroms]
C  -0.69189570 -1.24605594 0.01959892
C  0.67820984 -1.21182022 0.03475196
C  1.38585517 0.02957782 -0.01194323
C  0.69726024 1.23960907 -0.01469681
C  -0.72259357 1.18942893 -0.00192343
C  -1.34350575 -0.01006891 -0.02324354
H  -1.24301166 -2.17728775 -0.04414984
H  1.26815746 -2.17096437 0.17259597
H  2.45097592 0.14222804 0.02509877
H  1.24956516 2.18516105 -0.15346504
H  -1.27507965 2.10523182 0.00285854
H  -2.49029039 0.02679893 -0.03325128
12
MD Step 640 Units = [Angstroms]
C  -0.69272270 -1.24300522 0.02145015
C  0.67808124 -1.21197131 0.03242299
C  1.38493890 0.02719418 -0.01107831
C  0.69826946 1.24140951 -0.01539905
C  -0.72192917 1.19111848 -0.00182590
C  -1.34526539 -0.01510204 -0.02483928
H  -1.23778539 -2.17618877 -0.03263482
H  1.27254633 -2.17538357 0.17124140
H  2.44149041 0.15341574 0.02955502
H  1.25862442 2.18356207 -0.15063471
H  -1.27843081 2.11384516 0.01219641
H  -2.47279782 0.02415649 -0.03842922
12
MD Step 641 Units = [Angstroms]
C  -0.69350770 -1.23986560 0.02320734
C  0.67849701 -1.21215062 0.03020440
C  1.38365455 0.02476080 -0.01013770
C  0.69910233 1.24307191 -0.01621554
C  -0.72078460 1.19300663 -0.00174720
C  -1.34762311 -0.02024426 -0.02638556
H  -1.23339637 -2.17625974 -0.02075204
H  1.27550256 -2.17718014 0.16896210
H  2.43534564 0.16298686 0.03381157
H  1.26697313 2.18169711 -0.14704165
H  -1.28284083 2.12410763 0.02148667
H  -2.45370142 0.02074288 -0.04366563
12
MD Step 642 Units = [Angstroms]
C  -0.69422412 -1.23669802 0.02487099
C  0.67947236 -1.21236484 0.02810463
C  1.38198403 0.02229758 -0.00913017
C  0.69972782 1.24458321 -0.01714008
C  -0.71920344 1.19509705 -0.00168605
C  -1.35043643 -0.02537077 -0.02788029
H  -1.22990512 -2.17755670 -0.00854056
H  1.27688186 -2.17621833 0.16573887
H  2.43291797 0.17085210 0.03788263
H  1.27452146 2.17956231 -0.14270074
H  -1.28784721 2.13517400 0.03067237
H  -2.43463678 0.01661016 -0.04896112
12
MD Step 643 Units = [Angstroms]
C  -0.69484985 -1.23357058 0.02644239
C  0.68100455 -1.21260733 0.02612899
C  1.37994355 0.01982676 -0.00806390
C  0.70011839 1.24593120 -0.01816512
C  -0.71723906 1.19739426 -0.00164037
C  -1.35354310 -0.03036109 -0.02932059
H  -1.22729034 -2.18000575 0.00396227
H  1.27667238 -2.17256836 0.16158552
H  2.43419582 0.17691245 0.04177033
H  1.28120775 2.17718131 -0.13763637
H  -1.29295382 2.14616005 0.03968290
H  -2.41742898 0.01183748 -0.05432936
12
MD Step 644 Units = [Angstroms]
C  -0.69536789 -1.23055620 0.02792376
C  0.68307272 -1.21285866 0.02427983
C  1.37758233 0.01737395 -0.00694626
C  0.70025129 1.24710438 -0.01928185
C  -0.71495091 1.19989896 -0.00160751
C  -1.35677478 -0.03510235 -0.03070280
H  -1.22545657 -2.18341145 0.01671684
H  1.27499523 -2.16650535 0.15654788
H  2.43879240 0.18105402 0.04546187
H  1.28699865 2.17460347 -0.13188178
H  -1.29767965 2.15622619 0.04843730
H  -2.40392274 0.00652491 -0.05979612
12
MD Step 645 Units = [Angstroms]
C  -0.69576649 -1.22772909 0.02931843
C  0.68563835 -1.21308758 0.02255665
C  1.37497701 0.01496818 -0.00578379
C  0.70010969 1.24809194 -0.02048027
C  -0.71240168 1.20260432 -0.00158462
C  -1.35997603 -0.03949164 -0.03202291
H  -1.22424931 -2.18747913 0.02967741
H  1.27210049 -2.15850196 0.15070150
H  2.44601215 0.18315343 0.04893010
H  1.29188763 2.17190012 -0.12547782
H  -1.30159751 2.16464251 0.05684941
H  -2.39574658 0.00078189 -0.06539399
12
MD Step 646 Units = [Angstroms]
C  -0.69603896 -1.22516067 0.03063087
C  0.68864642 -1.21325255 0.02095645
C  1.37222309 0.01264108 -0.00458240
C  0.69968364 1.24888395 -0.02174939
C  -0.70965531 1.20549355 -0.00156900
C  -1.36302551 -0.04343732 -0.03327726
H  -1.22347505 -2.19184738 0.04278934
H  1.26835687 -2.14921176 0.14414748
H  2.45495242 0.18309150 0.05213695
H  1.29589191 2.16915902 -0.11847170
H  -1.30436161 2.17083368 0.06483358
H  -2.39405081 -0.00528704 -0.07115227
12
MD Step 647 Units = [Angstroms]
C  -0.69618315 -1.22291532 0.03186664
C  0.69202738 -1.21330424 0.01947419
C  1.36942556 0.01042544 -0.00334773
C  0.69897073 1.24947168 -0.02307738
C  -0.70677547 1.20853852 -0.00155856
C  -1.36585354 -0.04686003 -0.03446355
H  -1.22292286 -2.19612542 0.05598790
H  1.26423170 -2.13943765 0.13700606
H  2.46461680 0.18077092 0.05503863
H  1.29904805 2.16647758 -0.11091542
H  -1.30572567 2.17440624 0.07231027
H  -2.39929058 -0.01159401 -0.07708346
12
MD Step 648 Units = [Angstroms]
C  -0.69620079 -1.22104652 0.03303214
C  0.69570041 -1.21318956 0.01810349
C  1.36669014 0.00835366 -0.00208548
C  0.69797657 1.24984800 -0.02445174
C  -0.70382441 1.21169922 -0.00155215
C  -1.36845001 -0.04969367 -0.03558177
H  -1.22238511 -2.19993039 0.06919885
H  1.26025787 -2.13007999 0.12940741
H  2.47401951 0.17613290 0.05759111
H  1.30140644 2.16395518 -0.10286435
H  -1.30555387 2.17516299 0.07921115
H  -2.41112838 -0.01807229 -0.08317076
12
MD Step 649 Units = [Angstroms]
C  -0.69609666 -1.21959359 0.03413429
C  0.69957778 -1.21285737 0.01683747
C  1.36411626 0.00645631 -0.00080169
C  0.69671494 1.25000790 -0.02585951
C  -0.70086173 1.21492382 -0.00154985
C  -1.37085947 -0.05188684 -0.03663464
H  -1.22167523 -2.20292076 0.08234054
H  1.25698619 -2.12206097 0.12148015
H  2.48226886 0.16916953 0.05975492
H  1.30302522 2.16168517 -0.09437599
H  -1.30382694 2.17310838 0.08548353
H  -2.42849373 -0.02467156 -0.08936098
12
MD Step 650 Units = [Angstroms]
C  -0.69587768 -1.21857924 0.03518015
C  0.70357035 -1.21226582 0.01566976
C  1.36179208 0.00476102 0.00049702
C  0.69520780 1.24994883 -0.02728740
C  -0.69794315 1.21814927 -0.00155323
C  -1.37316532 -0.05340432 -0.03762743
H  -1.22064175 -2.20482352 0.09532725
H  1.25492522 -2.11622801 0.11333870
H  2.48862664 0.15993064 0.06149877
H  1.30396406 2.15974733 -0.08550892
H  -1.30064443 2.16844736 0.09109403
H  -2.44977739 -0.03134707 -0.09556599
12
MD Step 651 Units = [Angstroms]
C  -0.69555192 -1.21800814 0.03617651
C  0.70759339 -1.21139032 0.01459538
C  1.35979108 0.00329169 0.00180341
C  0.69348487 1.24967109 -0.02872190
C  -0.69511929 1.22130230 -0.00156554
C  -1.37546897 -0.05422835 -0.03856717
H  -1.21917834 -2.20545419 0.10807312
H  1.25447623 -2.11324765 0.10507201
H  2.49254617 0.14852568 0.06280188
H  1.30427840 2.15820130 -0.07632226
H  -1.29622314 2.16157775 0.09603146
H  -2.47309179 -0.03804812 -0.10167150
12
MD Step 652 Units = [Angstroms]
C  -0.69512764 -1.21786629 0.03712945
C  0.71157182 -1.21023061 0.01361130
C  1.35816999 0.00206784 0.00310956
C  0.69158307 1.24917806 -0.03014940
C  -0.69243470 1.22430107 -0.00159173
C  -1.37786995 -0.05435907 -0.03946157
H  -1.21723009 -2.20472954 0.12049643
H  1.25587598 -2.11350986 0.09673662
H  2.49369451 0.13512162 0.06365535
H  1.30401484 2.15708183 -0.06687538
H  -1.29088992 2.15307403 0.10030839
H  -2.49652142 -0.04471011 -0.10755000
12
MD Step 653 Units = [Angstroms]
C  -0.69461230 -1.21812129 0.03804405
C  0.71544374 -1.20881509 0.01271652
C  1.35696748 0.00110430 0.00440686
C  0.68954558 1.24847627 -0.03155620
C  -0.68992747 1.22705759 -0.00163845
C  -1.38045129 -0.05381408 -0.04031798
H  -1.21479634 -2.20267323 0.13252366
H  1.25916091 -2.11706567 0.08835624
H  2.49196378 0.11993817 0.06406269
H  1.30320794 2.15639624 -0.05722802
H  -1.28506623 2.14365890 0.10396089
H  -2.51831388 -0.05125201 -0.11307362
12
MD Step 654 Units = [Angstroms]
C  -0.69401183 -1.21872358 0.03892402
C  0.71916148 -1.20720092 0.01191158
C  1.35620343 0.00041103 0.00568607
C  0.68742064 1.24757530 -0.03292859
C  -0.68762979 1.22948139 -0.00171375
C  -1.38327112 -0.05262709 -0.04114260
H  -1.21193022 -2.19941463 0.14409308
H  1.26416267 -2.12361537 0.07992815
H  2.48747509 0.10324073 0.06403982
H  1.30187896 2.15612444 -0.04744056
H  -1.27924142 2.13415816 0.10704560
H  -2.53699749 -0.05757790 -0.11812451
12
MD Step 655 Units = [Angstroms]
C  -0.69333004 -1.21960841 0.03977158
C  0.72269006 -1.20546967 0.01119767
C  1.35587863 -0.00000691 0.00693739
C  0.68526007 1.24648755 -0.03425280
C  -0.68556960 1.23148448 -0.00182659
C  -1.38635936 -0.05084585 -0.04193995
H  -1.20873494 -2.19518060 0.15515744
H  1.27053587 -2.13255099 0.07143457
H  2.48057534 0.08533154 0.06361447
H  1.30003637 2.15622149 -0.03757442
H  -1.27393247 2.12543678 0.10963341
H  -2.55143742 -0.06358111 -0.12260194
12
MD Step 656 Units = [Angstroms]
C  -0.69256834 -1.22069880 0.04058734
C  0.72600398 -1.20371943 0.01057569
C  1.35597512 -0.00014916 0.00815054
C  0.68311767 1.24522776 -0.03551505
C  -0.68377343 1.23298764 -0.00198603
C  -1.38971779 -0.04852954 -0.04271264
H  -1.20535654 -2.19028006 0.16568545
H  1.27780991 -2.14304140 0.06285540
H  2.47182496 0.06653878 0.06282503
H  1.29767818 2.15662245 -0.02769234
H  -1.26963131 2.11831757 0.11179968
H  -2.56085254 -0.06914918 -0.12642660
12
MD Step 657 Units = [Angstroms]
C  -0.69172587 -1.22190919 0.04137046
C  0.72908326 -1.20205526 0.01004545
C  1.35645754 -0.00001965 0.00931493
C  0.68104734 1.24381246 -0.03670156
C  -0.68226985 1.23392733 -0.00220026
C  -1.39332151 -0.04574591 -0.04346119
H  -1.20197282 -2.18508097 0.17566153
H  1.28545126 -2.15413839 0.05417921
H  2.46197218 0.04720376 0.06171850
H  1.29479563 2.15724891 -0.01785839
H  -1.26674470 2.11349094 0.11361188
H  -2.56481363 -0.07416910 -0.12954317
12
MD Step 658 Units = [Angstroms]
C  -0.69079998 -1.22314989 0.04211887
C  0.73190985 -1.20057967 0.00960514
C  1.35727600 0.00037386 0.01041990
C  0.67910126 1.24225932 -0.03779860
C  -0.68109275 1.23426217 -0.00247559
C  -1.39712077 -0.04256824 -0.04418405
H  -1.19877867 -2.17998019 0.18508371
H  1.29292334 -2.16488144 0.04541021
H  2.45190843 0.02766684 0.06034756
H  1.29137771 2.15801660 -0.00813777
H  -1.26553725 2.11143031 0.11511671
H  -2.56323785 -0.07853270 -0.13192217
12
MD Step 659 Units = [Angstroms]
C  -0.68978710 -1.22433195 0.04282973
C  0.73446516 -1.19938469 0.00925121
C  1.35837071 0.00102034 0.01145504
C  0.67732804 1.24058638 -0.03879253
C  -0.68028335 1.23397749 -0.00281565
C  -1.40104233 -0.03907240 -0.04487749
H  -1.19596813 -2.17536757 0.19395932
H  1.29973498 -2.17438543 0.03657104
H  2.44260079 0.00825365 0.05876666
H  1.28741609 2.15884331 0.00140381
H  -1.26608984 2.11233096 0.11632987
H  -2.55638710 -0.08214251 -0.13356158
12
MD Step 660 Units = [Angstroms]
C  -0.68868387 -1.22537221 0.04350008
C  0.73672879 -1.19854582 0.00897850
C  1.35967859 0.00190590 0.01241060
C  0.67577103 1.23881136 -0.03966997
C  -0.67989010 1.23308695 -0.00322098
C  -1.40499040 -0.03533409 -0.04553560
H  -1.19371481 -2.17158730 0.20229893
H  1.30547454 -2.18190473 0.02770189
H  2.43500176 -0.01073595 0.05702741
H  1.28290973 2.15965632 0.01070106
H  -1.26828470 2.11608713 0.11723108
H  -2.54487136 -0.08491843 -0.13448854
12
MD Step 661 Units = [Angstroms]
C  -0.68748846 -1.22619804 0.04412748
C  0.73867826 -1.19811815 0.00878051
C  1.36114121 0.00301381 0.01327787
C  0.67446680 1.23695094 -0.04041786
C  -0.67996607 1.23163065 -0.00368920
C  -1.40884737 -0.03142643 -0.04615022
H  -1.19215281 -2.16890097 0.21010912
H  1.30983096 -2.18687445 0.01885734
H  2.42994395 -0.02903364 0.05517396
H  1.27786893 2.16039887 0.01969015
H  -1.27182126 2.12231289 0.11776579
H  -2.52965163 -0.08680503 -0.13476074
12
MD Step 662 Units = [Angstroms]
C  -0.68620167 -1.22675122 0.04471070
C  0.74028942 -1.19813397 0.00864987
C  1.36271281 0.00432424 0.01404951
C  0.67344391 1.23502015 -0.04102372
C  -0.68056426 1.22967037 -0.00421565
C  -1.41247553 -0.02741795 -0.04671104
H  -1.19136099 -2.16745763 0.21738533
H  1.31260490 -2.18893390 0.01010192
H  2.42803577 -0.04640141 0.05323930
H  1.27231817 2.16103502 0.02831005
H  -1.27625872 2.13040073 0.11785314
H  -2.51203003 -0.08777894 -0.13446635
12
MD Step 663 Units = [Angstroms]
C  -0.68482794 -1.22699055 0.04525024
C  0.74153717 -1.19860172 0.00857865
C  1.36436665 0.00581349 0.01471976
C  0.67272198 1.23303190 -0.04147577
C  -0.68173189 1.22728300 -0.00479433
C  -1.41572113 -0.02337127 -0.04720589
H  -1.19135319 -2.16727579 0.22410607
H  1.31371372 -2.18793793 0.00150525
H  2.42957930 -0.06262421 0.05124337
H  1.26629783 2.16155266 0.03650371
H  -1.28107475 2.13960303 0.11739762
H  -2.49360807 -0.08785447 -0.13372120
12
MD Step 664 Units = [Angstroms]
C  -0.68337578 -1.22689290 0.04574864
C  0.74239613 -1.19950577 0.00855883
C  1.36609821 0.00745348 0.01528448
C  0.67231121 1.23099668 -0.04176313
C  -0.68350466 1.22455374 -0.00541886
C  -1.41842266 -0.01934260 -0.04762142
H  -1.19207631 -2.16824067 0.23022989
H  1.31319277 -2.18396032 -0.00686300
H  2.43453016 -0.07749956 0.04919357
H  1.25986430 2.16196438 0.04421918
H  -1.28572712 2.14911890 0.11630168
H  -2.47619092 -0.08708493 -0.13266085
12
MD Step 665 Units = [Angstroms]
C  -0.68185777 -1.22645246 0.04621042
C  0.74284116 -1.20080697 0.00858264
C  1.36792432 0.00921141 0.01574093
C  0.67221227 1.22892250 -0.04187603
C  -0.68590217 1.22157007 -0.00608337
C  -1.42042472 -0.01538218 -0.04794426
H  -1.19341667 -2.17011708 0.23569562
H  1.31119404 -2.17729117 -0.01493797
H  2.44250918 -0.09082898 0.04708737
H  1.25308869 2.16230615 0.05141045
H  -1.28970818 2.15817216 0.11447687
H  -2.46162148 -0.08555676 -0.13142662
12
MD Step 666 Units = [Angstroms]
C  -0.68029013 -1.22567877 0.04664178
C  0.74284781 -1.20244415 0.00864291
C  1.36987867 0.01105030 0.01608754
C  0.67241672 1.22681490 -0.04180593
C  -0.68892476 1.21841699 -0.00678306
C  -1.42159708 -0.01153576 -0.04816268
H  -1.19521342 -2.17257568 0.24042607
H  1.30798174 -2.16842719 -0.02266424
H  2.45286190 -0.10241485 0.04491625
H  1.24605426 2.16263380 0.05803800
H  -1.29258627 2.16607281 0.11185199
H  -2.45154885 -0.08337512 -0.13014596
12
MD Step 667 Units = [Angstroms]
C  -0.67869195 -1.22459361 0.04705007
C  0.74239284 -1.20433656 0.00873337
C  1.37200480 0.01293023 0.01632360
C  0.67290779 1.22467730 -0.04154565
C  -0.69255204 1.21517388 -0.00751459
C  -1.42185577 -0.00784683 -0.04826834
H  -1.19727667 -2.17522809 0.24433439
H  1.30392246 -2.15805133 -0.02999985
H  2.46474991 -0.11206416 0.04266992
H  1.23885259 2.16301752 0.06406893
H  -1.29403312 2.17226035 0.10837817
H  -2.44716978 -0.08064332 -0.12891095
12
MD Step 668 Units = [Angstroms]
C  -0.67708418 -1.22322762 0.04744310
C  0.74145530 -1.20638784 0.00884888
C  1.37434856 0.01481021 0.01644900
C  0.67366153 1.22251144 -0.04108949
C  -0.69674267 1.21191243 -0.00827619
C  -1.42118062 -0.00435883 -0.04825768
H  -1.19940763 -2.17766561 0.24733194
H  1.29946670 -2.14699655 -0.03691923
H  2.47725273 -0.11959777 0.04033987
H  1.23157901 2.16353480 0.06947670
H  -1.29383918 2.17633158 0.10403117
H  -2.44901215 -0.07744248 -0.12776129
12
MD Step 669 Units = [Angstroms]
C  -0.67548852 -1.22161683 0.04782846
C  0.74001835 -1.20849174 0.00898544
C  1.37695112 0.01665009 0.01646409
C  0.67464824 1.22031797 -0.04043322
C  -0.70143527 1.20869547 -0.00906761
C  -1.41962311 -0.00111661 -0.04813246
H  -1.20141798 -2.17949671 0.24933647
H  1.29511827 -2.13618857 -0.04341400
H  2.48946229 -0.12486209 0.03792170
H  1.22432762 2.16426214 0.07424057
H  -1.29191987 2.17805689 0.09881169
H  -2.45683407 -0.07381949 -0.12667804
12
MD Step 670 Units = [Angstroms]
C  -0.67392640 -1.21979983 0.04821294
C  0.73807229 -1.21053961 0.00914011
C  1.37984362 0.01841247 0.01636955
C  0.67583396 1.21809714 -0.03957410
C  -0.70654999 1.20557624 -0.00989001
C  -1.41730132 0.00183352 -0.04789917
H  -1.20314678 -2.18037990 0.25027954
H  1.29138965 -2.12656564 -0.04949094
H  2.50055887 -0.12774035 0.03541623
H  1.21718642 2.16526654 0.07834477
H  -1.28831572 2.17738862 0.09274419
H  -2.46967644 -0.06978806 -0.12559076
12
MD Step 671 Units = [Angstroms]
C  -0.67241801 -1.21781534 0.04860207
C  0.73561859 -1.21242937 0.00931048
C  1.38304356 0.02006402 0.01616639
C  0.67718196 1.21584953 -0.03851088
C  -0.71199064 1.20259782 -0.01074575
C  -1.41438386 0.00444495 -0.04756756
H  -1.20447372 -2.18005003 0.25011255
H  1.28874489 -2.11897978 -0.05516625
H  2.50986564 -0.12816150 0.03282957
H  1.21023297 2.16659726 0.08177762
H  -1.28318777 2.17446356 0.08587462
H  -2.48604886 -0.06534149 -0.12439509
12
MD Step 672 Units = [Angstroms]
C  -0.67098148 -1.21570044 0.04899977
C  0.73267454 -1.21407472 0.00949409
C  1.38655262 0.02157642 0.01585598
C  0.67865411 1.21357675 -0.03724373
C  -0.71764728 1.19979261 -0.01163813
C  -1.41106790 0.00667294 -0.04714885
H  -1.20532859 -2.17833724 0.24881096
H  1.28753721 -2.11409284 -0.06045681
H  2.51688406 -0.12610597 0.03017253
H  1.20353111 2.16827901 0.08453067
H  -1.27680889 2.16959951 0.07826717
H  -2.50418269 -0.06047079 -0.12297447
12
MD Step 673 Units = [Angstroms]
C  -0.66963240 -1.21348930 0.04940818
C  0.72927734 -1.21541292 0.00968755
C  1.39035564 0.02292673 0.01544010
C  0.68021196 1.21128207 -0.03577422
C  -0.72339933 1.19718203 -0.01257110
C  -1.40755787 0.00847689 -0.04665414
H  -1.20569685 -2.17517888 0.24637656
H  1.28795329 -2.11228781 -0.06536970
H  2.52131485 -0.12160836 0.02745957
H  1.19712904 2.17030704 0.08659808
H  -1.26955011 2.16328374 0.06999999
H  -2.52227672 -0.05518093 -0.12121935
12
MD Step 674 Units = [Angstroms]
C  -0.66838350 -1.21121232 0.04982766
C  0.72548662 -1.21640952 0.00988596
C  1.39442018 0.02409746 0.01492096
C  0.68181762 1.20897085 -0.03410528
C  -0.72911931 1.19477663 -0.01354885
C  -1.40404855 0.00982267 -0.04609322
H  -1.20562163 -2.17062447 0.24283805
H  1.28997792 -2.11361689 -0.06989313
H  2.52306894 -0.11475767 0.02470762
H  1.19105886 2.17264504 0.08797644
H  -1.26186033 2.15614949 0.06115972
H  -2.53868588 -0.04950117 -0.11904039
12
MD Step 675 Units = [Angstroms]
C  -0.66724471 -1.20889563 0.05025681
C  0.72138441 -1.21705870 0.01008246
C  1.39869679 0.02507629 0.01430130
C  0.68343420 1.20665085 -0.03224116
C  -0.73467709 1.19257729 -0.01457539
C  -1.40071410 0.01068447 -0.04547402
H  -1.20520209 -2.16483400 0.23824969
H  1.29338924 -2.11780034 -0.07399128
H  2.52227115 -0.10569516 0.02193480
H  1.18533776 2.17522588 0.08866483
H  -1.25423787 2.14893620 0.05183498
H  -2.55203841 -0.04348884 -0.11637502
12
MD Step 676 Units = [Angstroms]
C  -0.66622332 -1.20656102 0.05069268
C  0.71707228 -1.21737951 0.01026844
C  1.40311957 0.02585573 0.01358444
C  0.68502614 1.20433225 -0.03018745
C  -0.73994490 1.19057764 -0.01565404
C  -1.39770196 0.01104650 -0.04480241
H  -1.20458808 -2.15806931 0.23268830
H  1.29778632 -2.12427600 -0.07760485
H  2.51925654 -0.09460997 0.01915915
H  1.17997049 2.17795537 0.08866543
H  -1.24719323 2.14243036 0.04210926
H  -2.56129253 -0.03722846 -0.11318905
12
MD Step 677 Units = [Angstroms]
C  -0.66532454 -1.20422638 0.05113112
C  0.71266618 -1.21740912 0.01043405
C  1.40760767 0.02643246 0.01277434
C  0.68655914 1.20202752 -0.02795111
C  -0.74480254 1.18876810 -0.01678696
C  -1.39513008 0.01090435 -0.04408215
H  -1.20397079 -2.15067819 0.22624869
H  1.30264195 -2.13228540 -0.08065704
H  2.51455711 -0.08173221 0.01639735
H  1.17495284 2.18071848 0.08798442
H  -1.24120469 2.13738789 0.03205436
H  -2.56575415 -0.03082809 -0.10947523
12
MD Step 678 Units = [Angstroms]
C  -0.66455202 -1.20190666 0.05156711
C  0.70829007 -1.21719478 0.01056905
C  1.41206778 0.02680659 0.01187570
C  0.68800004 1.19975109 -0.02554046
C  -0.74914262 1.18714102 -0.01797482
C  -1.39308565 0.01026598 -0.04331513
H  -1.20356897 -2.14307076 0.21903758
H  1.30736751 -2.14097506 -0.08306298
H  2.50887430 -0.06732319 0.01366358
H  1.17027572 2.18338761 0.08663296
H  -1.23667127 2.13444541 0.02172573
H  -2.56507594 -0.02441465 -0.10525056
12
MD Step 679 Units = [Angstroms]
C  -0.66390871 -1.19961534 0.05199530
C  0.70406931 -1.21678629 0.01066369
C  1.41639826 0.02698079 0.01089400
C  0.68931664 1.19751884 -0.02296527
C  -0.75287513 1.18569587 -0.01921672
C  -1.39162443 0.00915233 -0.04250148
H  -1.20361107 -2.13568854 0.21116656
H  1.31137679 -2.14949250 -0.08474003
H  2.50303186 -0.05166304 0.01096854
H  1.16592943 2.18583184 0.08462828
H  -1.23387054 2.13403415 0.01116117
H  -2.55925225 -0.01812886 -0.10055329
12
MD Step 680 Units = [Angstroms]
C  -0.66339765 -1.19736645 0.05241049
C  0.70012466 -1.21623004 0.01070950
C  1.42049516 0.02695922 0.00983551
C  0.69047759 1.19534755 -0.02023674
C  -0.75593063 1.18444329 -0.02051038
C  -1.39076983 0.00759726 -0.04163978
H  -1.20431377 -2.12896762 0.20274466
H  1.31413929 -2.15706411 -0.08561698
H  2.49790576 -0.03503676 0.00831883
H  1.16190765 2.18792652 0.08199459
H  -1.23292925 2.13631482 0.00038379
H  -2.54861723 -0.01211974 -0.09544001
12
MD Step 681 Units = [Angstroms]
C  -0.66302290 -1.19517677 0.05280805
C  0.69656724 -1.21556482 0.01069987
C  1.42425993 0.02674675 0.00870731
C  0.69145250 1.19325421 -0.01736754
C  -0.75826181 1.18340666 -0.02185266
C  -1.39051185 0.00564693 -0.04072721
H  -1.20585880 -2.12329897 0.19387147
H  1.31521935 -2.16305033 -0.08564085
H  2.49433241 -0.01772081 0.00571685
H  1.15821085 2.18956221 0.07876366
H  -1.23381337 2.14114918 -0.01059150
H  -2.53384710 -0.00653846 -0.08998278
12
MD Step 682 Units = [Angstroms]
C  -0.66279033 -1.19306782 0.05318428
C  0.69349454 -1.21481928 0.01063042
C  1.42760822 0.02634834 0.00751719
C  0.69221225 1.19125539 -0.01437175
C  -0.75984311 1.18262053 -0.02324016
C  -1.39080617 0.00335829 -0.03975987
H  -1.20837063 -2.11899058 0.18463188
H  1.31430158 -2.16698038 -0.08478117
H  2.49300465 0.00002657 0.00316126
H  1.15484898 2.19065236 0.07497507
H  -1.23633926 2.14811618 -0.02174954
H  -2.51596068 -0.00153106 -0.08426591
12
MD Step 683 Units = [Angstroms]
C  -0.66270817 -1.19106734 0.05353647
C  0.69098725 -1.21401066 0.01049917
C  1.43047815 0.02576916 0.00627352
C  0.69272963 1.18936659 -0.01126486
C  -0.76066888 1.18212625 -0.02466984
C  -1.39157446 0.00079709 -0.03873300
H  -1.21189836 -2.11623685 0.17509342
H  1.31120550 -2.16857171 -0.08303211
H  2.49437296 0.01796887 0.00064808
H  1.15184307 2.19113906 0.07067595
H  -1.24020286 2.15656847 -0.03306700
H  -2.49630615 0.00276990 -0.07838181
12
MD Step 684 Units = [Angstroms]
C  -0.66278719 -1.18920979 0.05386282
C  0.68910687 -1.21314427 0.01030657
C  1.43283641 0.02501518 0.00498510
C  0.69298004 1.18760176 -0.00806356
C  -0.76075064 1.18196596 -0.02613939
C  -1.39270745 -0.00196482 -0.03764152
H  -1.21640490 -2.11510021 0.16530644
H  1.30589260 -2.16773926 -0.08041289
H  2.49857378 0.03588768 -0.00182788
H  1.14922593 2.19099656 0.06592038
H  -1.24501980 2.16571525 -0.04450689
H  -2.47651522 0.00625416 -0.07242538
12
MD Step 685 Units = [Angstroms]
C  -0.66304040 -1.18753556 0.05416208
C  0.68789399 -1.21221333 0.01005547
C  1.43468051 0.02409427 0.00366096
C  0.69294247 1.18597290 -0.00478568
C  -0.76011405 1.18217628 -0.02764734
C  -1.39407249 -0.00485225 -0.03648054
H  -1.22176558 -2.11550821 0.15530727
H  1.29846821 -2.16459852 -0.07696693
H  2.50540352 0.05357393 -0.00427153
H  1.14704161 2.19023230 0.06076836
H  -1.25036825 2.17471356 -0.05601657
H  -2.45840341 0.00884150 -0.06648691
12
MD Step 686 Units = [Angstroms]
C  -0.66348225 -1.18608909 0.05443310
C  0.68736722 -1.21119924 0.00975089
C  1.43603673 0.02301729 0.00231023
C  0.69260041 1.18448993 -0.00144991
C  -0.75879617 1.18278279 -0.02919299
C  -1.39552696 -0.00778949 -0.03524610
H  -1.22777672 -2.11726634 0.14512329
H  1.28917849 -2.15946315 -0.07275991
H  2.51434544 0.07081790 -0.00668641
H  1.14534392 2.18888532 0.05528451
H  -1.25582816 2.18275221 -0.06752909
H  -2.44380190 0.01048597 -0.06064419
12
MD Step 687 Units = [Angstroms]
C  -0.66412750 -1.18491594 0.05467428
C  0.68752303 -1.21007230 0.00939980
C  1.43695432 0.02179887 0.00094204
C  0.69194273 1.18316072 0.00192437
C  -0.75684311 1.18379618 -0.03077603
C  -1.39693699 -0.01070257 -0.03393573
H  -1.23417267 -2.12008408 0.13477885
H  1.27840184 -2.15283577 -0.06787659
H  2.52464218 0.08740235 -0.00907414
H  1.14419378 2.18702223 0.04953663
H  -1.26101307 2.18911901 -0.07896697
H  -2.43432675 0.01117479 -0.05495552
12
MD Step 688 Units = [Angstroms]
C  -0.66498983 -1.18405942 0.05488317
C  0.68833670 -1.20879320 0.00901077
C  1.43749738 0.02045752 -0.00043456
C  0.69096445 1.18199136 0.00531739
C  -0.75430811 1.18521004 -0.03239620
C  -1.39819846 -0.01352104 -0.03254882
H  -1.24064857 -2.12360932 0.12430079
H  1.26663189 -2.14538759 -0.06241624
H  2.53539528 0.10310146 -0.01143444
H  1.14365580 2.18473095 0.04359419
H  -1.26559365 2.19324842 -0.09024745
H  -2.43112486 0.01092140 -0.04945604
12
MD Step 689 Units = [Angstroms]
C  -0.66608042 -1.18355712 0.05505607
C  0.68976456 -1.20731575 0.00859339
C  1.43773646 0.01901516 -0.00181061
C  0.68966736 1.18098663 0.00870918
C  -0.75125004 1.18700019 -0.03405282
C  -1.39925457 -0.01617924 -0.03108655
H  -1.24688547 -2.12746615 0.11372266
H  1.25444892 -2.13792116 -0.05648655
H  2.54566994 0.11768568 -0.01376565
H  1.14379395 2.18211271 0.03752692
H  -1.26931398 2.19475139 -0.10128817
H  -2.43466465 0.00975545 -0.04415901
12
MD Step 690 Units = [Angstroms]
C  -0.66740658 -1.18343787 0.05518796
C  0.69174771 -1.20559145 0.00815772
C  1.43774101 0.01749622 -0.00317721
C  0.68806050 1.18015055 0.01207987
C  -0.74773175 1.18912519 -0.03574439
C  -1.40010414 -0.01861767 -0.02955150
H  -1.25257465 -2.13129090 0.10308709
H  1.24247754 -2.13131080 -0.05019609
H  2.55458768 0.13093058 -0.01606547
H  1.14466680 2.17927300 0.03140364
H  -1.27200235 2.19343133 -0.11201284
H  -2.44464233 0.00771418 -0.03906189
12
MD Step 691 Units = [Angstroms]
C  -0.66897059 -1.18371922 0.05527246
C  0.69421708 -1.20357586 0.00771353
C  1.43757372 0.01592645 -0.00452557
C  0.68616042 1.17948697 0.01540989
C  -0.74381860 1.19152767 -0.03746825
C  -1.40079774 -0.02078445 -0.02794693
H  -1.25743898 -2.13476348 0.09244642
H  1.23133103 -2.12641905 -0.04364632
H  2.56139748 0.14262743 -0.01833165
H  1.14632252 2.17631218 0.02529139
H  -1.27357798 2.18928990 -0.12235656
H  -2.46003895 0.00483927 -0.03415496
12
MD Step 692 Units = [Angstroms]
C  -0.67076869 -1.18440573 0.05530204
C  0.69709921 -1.20123664 0.00726978
C  1.43728659 0.01433190 -0.00584694
C  0.68399139 1.17900012 0.01868015
C  -0.73957682 1.19413626 -0.03922027
C  -1.40142334 -0.02263721 -0.02627621
H  -1.26124996 -2.13763211 0.08186161
H  1.22154800 -2.12399461 -0.03692455
H  2.56552433 0.15259343 -0.02056280
H  1.14879405 2.17331678 0.01925486
H  -1.27405482 2.18252496 -0.13227058
H  -2.47930680 0.00117952 -0.02942915
12
MD Step 693 Units = [Angstroms]
C  -0.67279034 -1.18548794 0.05526822
C  0.70032191 -1.19856187 0.00683415
C  1.43691864 0.01273797 -0.00713264
C  0.68158540 1.17869504 0.02187222
C  -0.73507198 1.19686797 -0.04099465
C  -1.40208677 -0.02414481 -0.02454239
H  -1.26384013 -2.13973101 0.07140006
H  1.21353185 -2.12456676 -0.03009964
H  2.56659874 0.16068051 -0.02275889
H  1.15209488 2.17035245 0.01335623
H  -1.27354202 2.17352110 -0.14172632
H  -2.50062014 -0.00320321 -0.02488105
12
MD Step 694 Units = [Angstroms]
C  -0.67501780 -1.18694198 0.05516197
C  0.70381854 -1.19556695 0.00641301
C  1.43649469 0.01116876 -0.00837406
C  0.67898193 1.17857778 0.02496849
C  -0.73036780 1.19963102 -0.04278384
C  -1.40289296 -0.02528871 -0.02274807
H  -1.26511089 -2.14099126 0.06113263
H  1.20750669 -2.12835856 -0.02322203
H  2.56447234 0.16678247 -0.02492182
H  1.15621577 2.16745924 0.00765514
H  -1.27224002 2.16283116 -0.15071819
H  -2.52211797 -0.00822880 -0.02051440
12
MD Step 695 Units = [Angstroms]
C  -0.67742591 -1.18872982 0.05497402
C  0.70753004 -1.19229822 0.00601171
C  1.43602486 0.00964669 -0.00956262
C  0.67622769 1.17865543 0.02795226
C  -0.72552547 1.20232828 -0.04457860
C  -1.40393185 -0.02606361 -0.02089548
H  -1.26503603 -2.14144521 0.05113033
H  1.20350087 -2.13524144 -0.01632790
H  2.55922425 0.17084047 -0.02705586
H  1.16112293 2.16464988 0.00220894
H  -1.27043006 2.15114597 -0.15926465
H  -2.54209125 -0.01379678 -0.01633907
12
MD Step 696 Units = [Angstroms]
C  -0.67998231 -1.19080012 0.05469535
C  0.71140448 -1.18883208 0.00563508
C  1.43550461 0.00819233 -0.01068979
C  0.67337600 1.17893578 0.03080784
C  -0.72060387 1.20486158 -0.04636823
C  -1.40526996 -0.02647721 -0.01898660
H  -1.26366101 -2.14122462 0.04146088
H  1.20136211 -2.14474452 -0.00944642
H  2.55116042 0.17284692 -0.02916800
H  1.16675776 2.16191125 -0.00292723
H  -1.26845466 2.13924944 -0.16740659
H  -2.55910042 -0.01978753 -0.01236886
12
MD Step 697 Units = [Angstroms]
C  -0.68264807 -1.19308973 0.05431747
C  0.71539453 -1.18526975 0.00528800
C  1.43491521 0.00682441 -0.01174715
C  0.67048597 1.17942693 0.03352067
C  -0.71566070 1.20713690 -0.04814114
C  -1.40694681 -0.02654932 -0.01702344
H  -1.26109806 -2.14055224 0.03218565
H  1.20079896 -2.15611661 -0.00260734
H  2.54080535 0.17284749 -0.03126835
H  1.17303828 2.15920875 -0.00770035
H  -1.26668746 2.12795787 -0.17520223
H  -2.57203366 -0.02606592 -0.00861899
12
MD Step 698 Units = [Angstroms]
C  -0.68537875 -1.19552590 0.05383290
C  0.71945403 -1.18172904 0.00497582
C  1.43422507 0.00555997 -0.01272633
C  0.66762148 1.18013651 0.03607737
C  -0.71075462 1.20907025 -0.04988559
C  -1.40897439 -0.02631029 -0.01500818
H  -1.25751668 -2.13972641 0.02335711
H  1.20143647 -2.16842417 0.00415313
H  2.52888323 0.17094043 -0.03337027
H  1.17986229 2.15649319 -0.01205979
H  -1.26549266 2.11804616 -0.18271831
H  -2.58012671 -0.03248596 -0.00510395
12
MD Step 699 Units = [Angstroms]
C  -0.68812587 -1.19802927 0.05323535
C  0.72353476 -1.17833491 0.00470451
C  1.43339201 0.00441472 -0.01361915
C  0.66484984 1.18107101 0.03846580
C  -0.70594788 1.21059379 -0.05159078
C  -1.41133803 -0.02579910 -0.01294343
H  -1.25312965 -2.13909812 0.01501729
H  1.20287267 -2.18066176 0.01078955
H  2.51628302 0.16727212 -0.03549027
H  1.18711190 2.15370925 -0.01595771
H  -1.26517781 2.11016849 -0.19001798
H  -2.58296379 -0.03889580 -0.00183582
12
MD Step 700 Units = [Angstroms]
C  -0.69083884 -1.20051757 0.05252002
C  0.72758420 -1.17521044 0.00448056
C  1.43236729 0.00340349 -0.01441768
C  0.66224016 1.18223484 0.04067511
C  -0.70130891 1.21166117 -0.05324787
C  -1.41399757 -0.02506105 -0.01083239
H  -1.24817446 -2.13904065 0.00719740
H  1.20472593 -2.19185396 0.01724755
H  2.50400207 0.16202791 -0.03764745
H  1.19465922 2.15080467 -0.01934987
H  -1.26594755 2.10478622 -0.19714739
H  -2.58047375 -0.04514263 0.00117710
12
MD Step 701 Units = [Angstroms]
C  -0.69346711 -1.20290997 0.05168359
C  0.73154466 -1.17246942 0.00431077
C  1.43110133 0.00254097 -0.01511439
C  0.65986161 1.18362961 0.04269577
C  -0.69691379 1.21225096 -0.05485094
C  -1.41688824 -0.02414543 -0.00867907
H  -1.24289156 -2.13991309 -0.00008120
H  1.20666888 -2.20113630 0.02346642
H  2.49306494 0.15541771 -0.03986214
H  1.20237259 2.14773928 -0.02219647
H  -1.26786777 2.10211702 -0.20412351
H  -2.57292900 -0.05107800 0.00393134
12
MD Step 702 Units = [Angstroms]
C  -0.69596250 -1.20513172 0.05072424
C  0.73535363 -1.17021061 0.00420184
C  1.42955117 0.00184237 -0.01570238
C  0.65778127 1.18525337 0.04451952
C  -0.69284600 1.21236751 -0.05639751
C  -1.41992109 -0.02310308 -0.00648844
H  -1.23750120 -2.14202067 -0.00680455
H  1.20844895 -2.20781167 0.02938281
H  2.48442033 0.14765779 -0.04215369
H  1.21012304 2.14449303 -0.02446319
H  -1.27084937 2.10211656 -0.21092644
H  -2.56094780 -0.05656353 0.00642907
12
MD Step 703 Units = [Angstroms]
C  -0.69828128 -1.20711869 0.04964143
C  0.73894498 -1.16851359 0.00416003
C  1.42768869 0.00132402 -0.01617567
C  0.65606202 1.18710002 0.04613934
C  -0.68919398 1.21203884 -0.05788845
C  -1.42298351 -0.02198412 -0.00426657
H  -1.23218206 -2.14557639 -0.01296277
H  1.20989879 -2.21138541 0.03493485
H  2.47882759 0.13895172 -0.04453739
H  1.21779042 2.14107235 -0.02612216
H  -1.27465579 2.10449641 -0.21749794
H  -2.54549448 -0.06147746 0.00867866
12
MD Step 704 Units = [Angstroms]
C  -0.70038591 -1.20882120 0.04843570
C  0.74225066 -1.16743571 0.00419079
C  1.42550794 0.00100345 -0.01652949
C  0.65476012 1.18915898 0.04754934
C  -0.68604665 1.21131211 -0.05932746
C  -1.42594090 -0.02083582 -0.00202071
H  -1.22705491 -2.15066989 -0.01854634
H  1.21094012 -2.21158487 0.04006601
H  2.47675311 0.12947488 -0.04702083
H  1.22526866 2.13751449 -0.02715278
H  -1.27893291 2.10877303 -0.22374660
H  -2.52786526 -0.06572149 0.01069483
12
MD Step 705 Units = [Angstroms]
C  -0.70224606 -1.21020675 0.04710849
C  0.74520244 -1.16700983 0.00429841
C  1.42302988 0.00089869 -0.01676058
C  0.65392294 1.19141498 0.04874465
C  -0.68348776 1.21024769 -0.06071996
C  -1.42864074 -0.01970095 0.00024075
H  -1.22217428 -2.15724883 -0.02354288
H  1.21158398 -2.20836875 0.04472860
H  2.47830031 0.11936674 -0.04960041
H  1.23246992 2.13388955 -0.02754231
H  -1.28325387 2.11433585 -0.22955820
H  -2.50964118 -0.06922663 0.01249804
12
MD Step 706 Units = [Angstroms]
C  -0.70383890 -1.21126110 0.04566195
C  0.74773359 -1.16724269 0.00448579
C  1.42030283 0.00102675 -0.01686743
C  0.65358682 1.19384820 0.04972128
C  -0.68158985 1.20891293 -0.06207189
C  -1.43092108 -0.01861666 0.00250839
H  -1.21752954 -2.16511658 -0.02793520
H  1.21192933 -2.20192978 0.04888683
H  2.48319182 0.10873278 -0.05225884
H  1.23932711 2.13029988 -0.02728625
H  -1.28716927 2.12052041 -0.23480850
H  -2.49258758 -0.07195602 0.01411297
12
MD Step 707 Units = [Angstroms]
C  -0.70514867 -1.21198774 0.04409892
C  0.74978017 -1.16811387 0.00475413
C  1.41739852 0.00140157 -0.01685027
C  0.65377525 1.19643453 0.05047599
C  -0.68040891 1.20737653 -0.06338849
C  -1.43262433 -0.01761411 0.00477209
H  -1.21305522 -2.17394702 -0.03170105
H  1.21216016 -2.19269088 0.05251926
H  2.49080921 0.09765468 -0.05496440
H  1.24579472 2.12687695 -0.02638824
H  -1.29025409 2.12667527 -0.23937613
H  -2.47848642 -0.07390225 0.01556596
12
MD Step 708 Units = [Angstroms]
C  -0.70616563 -1.21240593 0.04242301
C  0.75128216 -1.16957594 0.00510280
C  1.41440447 0.00203171 -0.01671101
C  0.65449767 1.19914625 0.05100613
C  -0.67998021 1.20570403 -0.06467330
C  -1.43361590 -0.01671890 0.00702131
H  -1.20864798 -2.18331397 -0.03481464
H  1.21254029 -2.18129204 0.05562056
H  2.50027964 0.08620464 -0.05767212
H  1.25184754 2.12377560 -0.02485966
H  -1.29214569 2.13221585 -0.24315368
H  -2.46890899 -0.07507789 0.01688186
12
MD Step 709 Units = [Angstroms]
C  -0.70688467 -1.21254759 0.04063874
C  0.75218455 -1.17155607 0.00552928
C  1.41141461 0.00291860 -0.01645299
C  0.65574892 1.20195274 0.05130958
C  -0.68031580 1.20395457 -0.06592742
C  -1.43380440 -0.01595209 0.00924549
H  -1.20418730 -2.19273043 -0.03724946
H  1.21340316 -2.16856244 0.05820205
H  2.51058795 0.07445910 -0.06032683
H  1.25747754 2.12116580 -0.02271895
H  -1.29257089 2.13666355 -0.24605600
H  -2.46496811 -0.07550104 0.01808106
12
MD Step 710 Units = [Angstroms]
C  -0.70730379 -1.21245392 0.03875176
C  0.75243863 -1.17395997 0.00602918
C  1.40852013 0.00405534 -0.01608060
C  0.65750958 1.20482148 0.05138467
C  -0.68140335 1.20217868 -0.06714905
C  -1.43315802 -0.01533133 0.01143431
H  -1.19955633 -2.20169190 -0.03898183
H  1.21513347 -2.15547080 0.06029054
H  2.52069032 0.06250836 -0.06286712
H  1.26268887 2.11922236 -0.01999053
H  -1.29136283 2.13967160 -0.24802590
H  -2.46711696 -0.07518115 0.01917798
12
MD Step 711 Units = [Angstroms]
C  -0.70742256 -1.21217179 0.03676904
C  0.75200397 -1.17667850 0.00659659
C  1.40580192 0.00542656 -0.01559900
C  0.65974705 1.20771911 0.05123016
C  -0.68320658 1.20041693 -0.06833335
C  -1.43171137 -0.01487139 0.01357776
H  -1.19466016 -2.20971831 -0.03999443
H  1.21813707 -2.14304882 0.06192483
H  2.52961188 0.05046071 -0.06522971
H  1.26749137 2.11811288 -0.01670364
H  -1.28846929 2.14104038 -0.24903743
H  -2.47506200 -0.07411150 0.02018145
12
MD Step 712 Units = [Angstroms]
C  -0.70724091 -1.21175075 0.03469898
C  0.75085125 -1.17959688 0.00722455
C  1.40332525 0.00700897 -0.01501372
C  0.66241736 1.21061257 0.05084526
C  -0.68566661 1.19869915 -0.06947242
C  -1.42956023 -0.01458377 0.01566614
H  -1.18944022 -2.21639076 -0.04027926
H  1.22279753 -2.13228801 0.06314980
H  2.53651969 0.03844176 -0.06735342
H  1.27189327 2.11798507 -0.01289112
H  -1.28395441 2.14072492 -0.24909720
H  -2.48782234 -0.07227211 0.02109675
12
MD Step 713 Units = [Angstroms]
C  -0.70675810 -1.21124031 0.03255146
C  0.74896596 -1.18260565 0.00790570
C  1.40113661 0.00877253 -0.01433045
C  0.66546759 1.21347025 0.05022977
C  -0.68870440 1.19704406 -0.07055557
C  -1.42684599 -0.01447562 0.01768995
H  -1.18388401 -2.22138098 -0.03983982
H  1.22942148 -2.12402043 0.06400862
H  2.54077098 0.02659029 -0.06918248
H  1.27589389 2.11895415 -0.00858836
H  -1.27799500 2.13883604 -0.24824408
H  -2.50391317 -0.06964144 0.02192846
12
MD Step 714 Units = [Angstroms]
C  -0.70597225 -1.21068789 0.03033784
C  0.74635254 -1.18561146 0.00863299
C  1.39926232 0.01068204 -0.01355477
C  0.66883846 1.21626302 0.04938415
C  -0.69222386 1.19545930 -0.07156967
C  -1.42373513 -0.01454834 0.01963980
H  -1.17803065 -2.22447265 -0.03869215
H  1.23818056 -2.11880442 0.06453469
H  2.54194120 0.01505215 -0.07066918
H  1.27947716 2.12109190 -0.00383249
H  -1.27087160 2.13563482 -0.24654727
H  -2.52158950 -0.06621126 0.02268274
12
MD Step 715 Units = [Angstroms]
C  -0.70488032 -1.21013705 0.02807082
C  0.74303789 -1.18854540 0.00940027
C  1.39770822 0.01269888 -0.01269200
C  0.67246704 1.21896512 0.04830974
C  -0.69611566 1.19394194 -0.07249968
C  -1.42039944 -0.01479648 0.02150640
H  -1.17197270 -2.22557481 -0.03686503
H  1.24906238 -2.11684279 0.06474547
H  2.53983791 0.00397340 -0.07177583
H  1.28260704 2.12441822 0.00133796
H  -1.26295383 2.13151894 -0.24410245
H  -2.53908082 -0.06199867 0.02336865
12
MD Step 716 Units = [Angstroms]
C  -0.70347865 -1.20962613 0.02576425
C  0.73907332 -1.19136674 0.01020246
C  1.39646004 0.01478282 -0.01174711
C  0.67628920 1.22155483 0.04700890
C  -0.70026161 1.19247977 -0.07332931
C  -1.41700061 -0.01520724 0.02328065
H  -1.16585478 -2.22472746 -0.03439915
H  1.26184439 -2.11795645 0.06464024
H  2.53450538 -0.00650689 -0.07247630
H  1.28522557 2.12889659 0.00688293
H  -1.25467886 2.12699816 -0.24102568
H  -2.55477100 -0.05705221 0.02399835
12
MD Step 717 Units = [Angstroms]
C  -0.70176409 -1.20918718 0.02343288
C  0.73453403 -1.19406143 0.01103549
C  1.39548423 0.01689378 -0.01072457
C  0.68024162 1.22401482 0.04548521
C  -0.70453953 1.19105364 -0.07404192
C  -1.41368046 -0.01576078 0.02495369
H  -1.15986924 -2.22209965 -0.03134553
H  1.27609953 -2.12162146 0.06420239
H  2.52622256 -0.01626361 -0.07275701
H  1.28725397 2.13443384 0.01276034
H  -1.24652231 2.12265623 -0.23744493
H  -2.56731061 -0.05145210 0.02458666
12
MD Step 718 Units = [Angstroms]
C  -0.69973557 -1.20884533 0.02109201
C  0.72951617 -1.19663635 0.01189588
C  1.39472927 0.01899350 -0.00962831
C  0.68426328 1.22633220 0.04374365
C  -0.70882834 1.18964103 -0.07462152
C  -1.41055582 -0.01643089 0.02651697
H  -1.15424897 -2.21797938 -0.02776327
H  1.29123352 -2.12705853 0.06340549
H  2.51549389 -0.02519227 -0.07261755
H  1.28859679 2.14088452 0.01892528
H  -1.23896194 2.11909838 -0.23348923
H  -2.57567220 -0.04530643 0.02515033
12
MD Step 719 Units = [Angstroms]
C  -0.69739594 -1.20861875 0.01875720
C  0.72413205 -1.19911106 0.01278015
C  1.39412766 0.02104691 -0.00846170
C  0.68829637 1.22849830 0.04179073
C  -0.71301319 1.18822069 -0.07505386
C  -1.40771635 -0.01718626 0.02796238
H  -1.14925699 -2.21275480 -0.02371673
H  1.30654473 -2.13334975 0.06222106
H  2.50303017 -0.03321478 -0.07207050
H  1.28914873 2.14805946 0.02532915
H  -1.23243677 2.11688655 -0.22927643
H  -2.57916877 -0.03874557 0.02570730
12
MD Step 720 Units = [Angstroms]
C  -0.69475414 -1.20851922 0.01644384
C  0.71850462 -1.20150959 0.01368436
C  1.39359905 0.02302335 -0.00722763
C  0.69228662 1.23050817 0.03963450
C  -0.71699006 1.18677798 -0.07532749
C  -1.40522386 -0.01799188 0.02928224
H  -1.14517255 -2.20688602 -0.01927248
H  1.32129266 -2.13955527 0.06062577
H  2.48971413 -0.04028368 -0.07114018
H  1.28880329 2.15573766 0.03191891
H  -1.22730617 2.11646968 -0.22490135
H  -2.57745443 -0.03191604 0.02627613
12
MD Step 721 Units = [Angstroms]
C  -0.69182733 -1.20855357 0.01416685
C  0.71276200 -1.20385369 0.01460376
C  1.39305499 0.02489721 -0.00592866
C  0.69618332 1.23235998 0.03728464
C  -0.72066949 1.18530982 -0.07543461
C  -1.40311201 -0.01881071 0.03046941
H  -1.14227376 -2.20086779 -0.01449635
H  1.33476212 -2.14480997 0.05860680
H  2.47654535 -0.04638360 -0.06985997
H  1.28746231 2.16368036 0.03863672
H  -1.22381564 2.11812014 -0.22042633
H  -2.57052088 -0.02497467 0.02687553
12
MD Step 722 Units = [Angstroms]
C  -0.68864295 -1.20872575 0.01194033
C  0.70703288 -1.20615818 0.01553263
C  1.39240559 0.02664815 -0.00456732
C  0.69993903 1.23405421 0.03475233
C  -0.72397885 1.18382831 -0.07537148
C  -1.40138579 -0.01960540 0.03151731
H  -1.14081716 -2.19518496 -0.00945095
H  1.34631527 -2.14839170 0.05616469
H  2.46456106 -0.05152880 -0.06826784
H  1.28504536 2.17164595 0.04541997
H  -1.22207551 2.12188955 -0.21587641
H  -2.55869654 -0.01808287 0.02752395
12
MD Step 723 Units = [Angstroms]
C  -0.68524045 -1.20903944 0.00977739
C  0.70144268 -1.20842843 0.01646434
C  1.39156791 0.02826067 -0.00314654
C  0.70350922 1.23559285 0.03205019
C  -0.72686296 1.18236205 -0.07513845
C  -1.40002070 -0.02034011 0.03241997
H  -1.14101567 -2.19026467 -0.00419417
H  1.35542932 -2.14976237 0.05331415
H  2.45473522 -0.05575629 -0.06640034
H  1.28149813 2.17940465 0.05220190
H  -1.22205680 2.12759429 -0.21124018
H  -2.54264888 -0.01140061 0.02823932
12
MD Step 724 Units = [Angstroms]
C  -0.68167257 -1.20950052 0.00769005
C  0.69611047 -1.21065923 0.01739146
C  1.39047514 0.02972320 -0.00167015
C  0.70685202 1.23697864 0.02919205
C  -0.72928332 1.18095476 -0.07473942
C  -1.39896220 -0.02098221 0.03317210
H  -1.14301716 -2.18643149 0.00122096
H  1.36172162 -2.14858854 0.05008320
H  2.44786650 -0.05911472 -0.06428577
H  1.27679927 2.18675177 0.05891263
H  -1.22360447 2.13483448 -0.20647614
H  -2.52338424 -0.00508007 0.02903876
12
MD Step 725 Units = [Angstroms]
C  -0.67800574 -1.21011906 0.00568927
C  0.69114616 -1.21283455 0.01830596
C  1.38908526 0.03102698 -0.00014327
C  0.70992801 1.23821432 0.02619281
C  -0.73121608 1.17966153 -0.07418106
C  -1.39812633 -0.02150391 0.03376912
H  -1.14688646 -2.18387237 0.00674518
H  1.36496590 -2.14474902 0.04651145
H  2.44447444 -0.06165128 -0.06193793
H  1.27096500 2.19351882 0.06548059
H  -1.22646457 2.14304212 -0.20152275
H  -2.50223299 0.00074139 0.02993848
12
MD Step 726 Units = [Angstroms]
C  -0.67431958 -1.21091028 0.00378508
C  0.68664776 -1.21492762 0.01919949
C  1.38738690 0.03216482 0.00142738
C  0.71270022 1.23930206 0.02306817
C  -0.73264958 1.17854355 -0.07347188
C  -1.39740298 -0.02188349 0.03420721
H  -1.15259405 -2.18261799 0.01233076
H  1.36510279 -2.13833574 0.04264775
H  2.44472668 -0.06339982 -0.05935214
H  1.26405161 2.19958195 0.07183430
H  -1.23031907 2.15154759 -0.19631007
H  -2.48080195 0.00594770 0.03095381
12
MD Step 727 Units = [Angstroms]
C  -0.67070518 -1.21189402 0.00198679
C  0.68269866 -1.21690121 0.02006360
C  1.38540127 0.03313045 0.00303356
C  0.71513434 1.24024304 0.01983443
C  -0.73358191 1.17766221 -0.07262131
C  -1.39666354 -0.02210611 0.03448329
H  -1.16001349 -2.18254403 0.01792893
H  1.36224677 -2.12965096 0.03854759
H  2.44841599 -0.06437361 -0.05650484
H  1.25615562 2.20486715 0.07790412
H  -1.23482206 2.15965152 -0.19077051
H  -2.46087408 0.01044882 0.03209963
12
MD Step 728 Units = [Angstroms]
C  -0.66726221 -1.21309302 0.00030314
C  0.67936475 -1.21870793 0.02088999
C  1.38317933 0.03391820 0.00466582
C  0.71719899 1.24103721 0.01650825
C  -0.73401877 1.17707362 -0.07163895
C  -1.39577414 -0.02216389 0.03459498
H  -1.16892857 -2.18339181 0.02348764
H  1.35668903 -2.11920108 0.03427006
H  2.45499319 -0.06456451 -0.05335698
H  1.24741162 2.20935214 0.08362403
H  -1.23963234 2.16669101 -0.18484734
H  -2.44424205 0.01418132 0.03339080
12
MD Step 729 Units = [Angstroms]
C  -0.66409502 -1.21453012 -0.00125758
C  0.67669202 -1.22029100 0.02167077
C  1.38079523 0.03452338 0.00631407
C  0.71886624 1.24168326 0.01310643
C  -0.73397200 1.17682408 -0.07053404
C  -1.39461382 -0.02205524 0.03454058
H  -1.17904914 -2.18480437 0.02895032
H  1.34889382 -2.10768396 0.02987453
H  2.46364716 -0.06394851 -0.04986031
H  1.23798812 2.21306459 0.08893312
H  -1.24443974 2.17209344 -0.17850037
H  -2.43248301 0.01710368 0.03484246
12
MD Step 730 Units = [Angstroms]
C  -0.66130794 -1.21622502 -0.00268745
C  0.67470491 -1.22158580 0.02239872
C  1.37833735 0.03494281 0.00796822
C  0.72011209 1.24217884 0.00964574
C  -0.73345844 1.17694667 -0.06931513
C  -1.39309462 -0.02178363 0.03431908
H  -1.19003339 -2.18637109 0.03425602
H  1.33948295 -2.09596398 0.02541714
H  2.47341173 -0.06249516 -0.04596488
H  1.22808147 2.21607682 0.09377668
H  -1.24898463 2.17541561 -0.17170878
H  -2.42671330 0.01918729 0.03646932
12
MD Step 731 Units = [Angstroms]
C  -0.65900024 -1.21819112 -0.00397903
C  0.67340626 -1.22252289 0.02306755
C  1.37589917 0.03517557 0.00961877
C  0.72091716 1.24252107 0.00614280
C  -0.73249919 1.17745902 -0.06798990
C  -1.39117814 -0.02135619 0.03393032
H  -1.20151344 -2.18767392 0.03934081
H  1.32920235 -2.08502718 0.02094728
H  2.48327661 -0.06017786 -0.04162606
H  1.21790819 2.21849695 0.09810672
H  -1.25307134 2.17636919 -0.16447187
H  -2.42738850 0.02040675 0.03828336
12
MD Step 732 Units = [Angstroms]
C  -0.65726106 -1.22043294 -0.00512543
C  0.67277941 -1.22303310 0.02367206
C  1.37357115 0.03522336 0.01125725
C  0.72126726 1.24270716 0.00261396
C  -0.73111886 1.17836223 -0.06656513
C  -1.38888307 -0.02078274 0.03337529
H  -1.21312109 -2.18832950 0.04414015
H  1.31886524 -2.07590999 0.01650488
H  2.49228463 -0.05698269 -0.03680983
H  1.20769616 2.22045713 0.10188196
H  -1.25657680 2.17483480 -0.15680804
H  -2.43421597 0.02073462 0.04029014
12
MD Step 733 Units = [Angstroms]
C  -0.65616468 -1.22294425 -0.00612052
C  0.67279261 -1.22305489 0.02420815
C  1.37143449 0.03509074 0.01287644
C  0.72115410 1.24273532 -0.00092472
C  -0.72934480 1.17964062 -0.06504673
C  -1.38628102 -0.02007549 0.03265639
H  -1.22451156 -2.18802367 0.04859190
H  1.30927142 -2.06959981 0.01211935
H  2.49960622 -0.05291425 -0.03149592
H  1.19767509 2.22209939 0.10506704
H  -1.25945546 2.17086696 -0.14875278
H  -2.44621219 0.02014386 0.04248475
12
MD Step 734 Units = [Angstroms]
C  -0.65576658 -1.22570697 -0.00695907
C  0.67340539 -1.22254338 0.02467271
C  1.36955685 0.03478496 0.01447047
C  0.72057577 1.24260570 -0.00445748
C  -0.72720622 1.18126244 -0.06343991
C  -1.38348226 -0.01924946 0.03177773
H  -1.23538363 -2.18653703 0.05263942
H  1.30111082 -2.06691527 0.00781105
H  2.50459010 -0.04799841 -0.02567895
H  1.18806703 2.22356044 0.10763129
H  -1.26174100 2.16469121 -0.14035569
H  -2.46188365 0.01861671 0.04484891
12
MD Step 735 Units = [Angstroms]
C  -0.65610027 -1.22869083 -0.00763702
C  0.67457522 -1.22147955 0.02506323
C  1.36798973 0.03431571 0.01603473
C  0.71953723 1.24232142 -0.00796882
C  -0.72473332 1.18318122 -0.06174933
C  -1.38061669 -0.01832326 0.03074507
H  -1.24549569 -2.18376175 0.05623447
H  1.29486953 -2.06838613 0.00359557
H  2.50679400 -0.04228255 -0.01936795
H  1.17907741 2.22495674 0.10954707
H  -1.26354448 2.15669295 -0.13167698
H  -2.47946898 0.01615579 0.04735052
12
MD Step 736 Units = [Angstroms]
C  -0.65717536 -1.23185340 -0.00815161
C  0.67626281 -1.21987737 0.02537729
C  1.36676694 0.03369476 0.01756569
C  0.71805058 1.24188938 -0.01144350
C  -0.72195664 1.18533805 -0.05997937
C  -1.37781540 -0.01731959 0.02956577
H  -1.25467736 -2.17971056 0.05933975
H  1.29076215 -2.07416107 -0.00050997
H  2.50600110 -0.03583381 -0.01258479
H  1.17088747 2.22637155 0.11078806
H  -1.26504792 2.14739681 -0.12278322
H  -2.49717350 0.01279267 0.04994555
12
MD Step 737 Units = [Angstroms]
C  -0.65897676 -1.23514070 -0.00850160
C  0.67843424 -1.21778660 0.02561208
C  1.36590392 0.03293563 0.01906072
C  0.71613510 1.24132094 -0.01486651
C  -0.71890697 1.18766480 -0.05813440
C  -1.37519673 -0.01626547 0.02824840
H  -1.26283675 -2.17451851 0.06193080
H  1.28871062 -2.08396989 -0.00448071
H  2.50222679 -0.02873615 -0.00536183
H  1.16364849 2.22784543 0.11132775
H  -1.26649150 2.13743423 -0.11374276
H  -2.51335048 0.00859119 0.05258167
12
MD Step 738 Units = [Angstroms]
C  -0.66146520 -1.23848806 -0.00868740
C  0.68105954 -1.21529033 0.02576412
C  1.36539765 0.03205335 0.02051785
C  0.71381723 1.24063216 -0.01822312
C  -0.71561585 1.19008818 -0.05621908
C  -1.37285778 -0.01519187 0.02680249
H  -1.26996289 -2.16843790 0.06399718
H  1.28837583 -2.09715273 -0.00827984
H  2.49571808 -0.02108632 0.00226095
H  1.15747826 2.22937139 0.11113842
H  -1.26815301 2.12749811 -0.10462090
H  -2.52661542 0.00364594 0.05520238
12
MD Step 739 Units = [Angstroms]
C  -0.66457905 -1.24182159 -0.00871119
C  0.68410858 -1.21249768 0.02582924
C  1.36522704 0.03106420 0.02193546
C  0.71113019 1.23984363 -0.02149894
C  -0.71211700 1.19253491 -0.05423867
C  -1.37087046 -0.01413303 0.02523814
H  -1.27612277 -2.16182588 0.06554271
H  1.28923108 -2.11274845 -0.01185799
H  2.48694547 -0.01298916 0.01023936
H  1.15245984 2.23089527 0.11019094
H  -1.27031874 2.11828497 -0.09547552
H  -2.53590345 -0.00192266 0.05775099
12
MD Step 740 Units = [Angstroms]
C  -0.66823735 -1.24506024 -0.00857693
C  0.68754609 -1.20953374 0.02580292
C  1.36535421 0.02998540 0.02331205
C  0.70811364 1.23897995 -0.02468013
C  -0.70844845 1.19493727 -0.05219918
C  -1.36928059 -0.01312554 0.02356579
H  -1.28145209 -2.15512377 0.06658462
H  1.29065493 -2.12961770 -0.01515605
H  2.47658431 -0.00455206 0.01852868
H  1.14864250 2.23232129 0.10845530
H  -1.27324734 2.11042913 -0.08635363
H  -2.54048931 -0.00797462 0.06017398
12
MD Step 741 Units = [Angstroms]
C  -0.67234398 -1.24811872 -0.00829027
C  0.69132761 -1.20652890 0.02568075
C  1.36572685 0.02883479 0.02464593
C  0.70481309 1.23806866 -0.02775354
C  -0.70465517 1.19723862 -0.05010744
C  -1.36810835 -0.01220714 0.02179602
H  -1.28613874 -2.14882736 0.06715144
H  1.29202021 -2.14657108 -0.01811024
H  2.46548044 0.00412100 0.02708749
H  1.14604456 2.23352185 0.10590193
H  -1.27713064 2.10443697 -0.07728988
H  -2.53998897 -0.01435683 0.06242387
12
MD Step 742 Units = [Angstroms]
C  -0.67679266 -1.25091127 -0.00785842
C  0.69539739 -1.20360956 0.02545892
C  1.36628221 0.02763030 0.02593502
C  0.70127940 1.23713901 -0.03070697
C  -0.70079143 1.19939793 -0.04797100
C  -1.36734902 -0.01141556 0.01993929
H  -1.29039889 -2.14344811 0.06727965
H  1.29276361 -2.16247950 -0.02065772
H  2.45459515 0.01293543 0.03588111
H  1.14465751 2.23435033 0.10250354
H  -1.28205802 2.10063237 -0.06830723
H  -2.53435622 -0.02090912 0.06446184
12
MD Step 743 Units = [Angstroms]
C  -0.68147252 -1.25335627 -0.00728986
C  0.69968854 -1.20089093 0.02513471
C  1.36695297 0.02638944 0.02717670
C  0.69756812 1.23622043 -0.03352943
C  -0.69692244 1.20139237 -0.04579779
C  -1.36697345 -0.01078709 0.01800583
H  -1.29444687 -2.13946699 0.06700932
H  1.29243074 -2.17635555 -0.02274162
H  2.44492612 0.02181082 0.04488390
H  1.14445109 2.23465545 0.09823731
H  -1.28799215 2.09912419 -0.05941980
H  -2.52388150 -0.02747002 0.06626039
12
MD Step 744 Units = [Angstroms]
C  -0.68627371 -1.25538122 -0.00659399
C  0.70412480 -1.19847200 0.02470680
C  1.36767474 0.02512891 0.02836778
C  0.69373887 1.23534096 -0.03621135
C  -0.69312442 1.20321758 -0.04359577
C  -1.36692819 -0.01035518 0.01600534
H  -1.29846177 -2.13728515 0.06637924
H  1.29069948 -2.18740614 -0.02431472
H  2.43740728 0.03068347 0.05407928
H  1.14537867 2.23429553 0.09308695
H  -1.29476183 2.09980248 -0.05063717
H  -2.50919356 -0.03388251 0.06780613
12
MD Step 745 Units = [Angstroms]
C  -0.69109262 -1.25692764 -0.00578080
C  0.70862321 -1.19643221 0.02417548
C  1.36839442 0.02386435 0.02950484
C  0.68985457 1.23452570 -0.03874472
C  -0.68948310 1.20488551 -0.04137249
C  -1.36713573 -0.01014901 0.01394684
H  -1.30255584 -2.13717767 0.06542249
H  1.28738795 -2.19506252 -0.02534192
H  2.43279848 0.03950519 0.06345690
H  1.14738260 2.23315138 0.08704461
H  -1.30207457 2.10236386 -0.04196900
H  -2.49125874 -0.04000015 0.06910277
12
MD Step 746 Units = [Angstroms]
C  -0.69583588 -1.25795511 -0.00486058
C  0.71309692 -1.19482921 0.02354280
C  1.36907787 0.02261047 0.03058462
C  0.68598054 1.23379548 -0.04112327
C  -0.68609050 1.20642052 -0.03913471
C  -1.36749571 -0.01019211 0.01183836
H  -1.30675038 -2.13925803 0.06416318
H  1.28245376 -2.19899614 -0.02580160
H  2.43158416 0.04823801 0.07300656
H  1.15039916 2.23113694 0.08011221
H  -1.30954618 2.10635945 -0.03342888
H  -2.47136620 -0.04569327 0.07017364
12
MD Step 747 Units = [Angstroms]
C  -0.70042308 -1.25844381 -0.00384376
C  0.71745774 -1.19369713 0.02281258
C  1.36971503 0.02138139 0.03160468
C  0.68218328 1.23316570 -0.04334249
C  -0.68304069 1.20785438 -0.03688826
C  -1.36788863 -0.01050109 0.00968688
H  -1.31096437 -2.14345999 0.06261528
H  1.27598925 -2.19912687 -0.02568635
H  2.43390363 0.05684582 0.08271015
H  1.15436267 2.22820692 0.07230226
H  -1.31674121 2.11125498 -0.02503659
H  -2.45108186 -0.05085447 0.07106273
12
MD Step 748 Units = [Angstroms]
C  -0.70478764 -1.25839519 -0.00274090
C  0.72161803 -1.19304531 0.02199046
C  1.37032115 0.02019101 0.03256405
C  0.67852910 1.23264563 -0.04539960
C  -0.68042496 1.20922141 -0.03463790
C  -1.36818354 -0.01108483 0.00749838
H  -1.31501873 -2.14954066 0.06078357
H  1.26821547 -2.19562773 -0.02500309
H  2.43953084 0.06528494 0.09253345
H  1.15920877 2.22436113 0.06363792
H  -1.32321679 2.11649203 -0.01681866
H  -2.43215173 -0.05540171 0.07183257
12
MD Step 749 Units = [Angstroms]
C  -0.70887620 -1.25783069 -0.00156277
C  0.72549208 -1.19285742 0.02108387
C  1.37093370 0.01905331 0.03346359
C  0.67508236 1.23223804 -0.04729353
C  -0.67832706 1.21055398 -0.03238745
C  -1.36825090 -0.01194412 0.00527834
H  -1.31865511 -2.15710434 0.05866648
H  1.25947512 -2.18892617 -0.02377263
H  2.44790896 0.07349669 0.10242037
H  1.16487646 2.21964533 0.05415262
H  -1.32856320 2.12154227 -0.00880730
H  -2.41634183 -0.05927702 0.07255724
12
MD Step 750 Units = [Angstroms]
C  -0.71264681 -1.25678895 -0.00032048
C  0.72899711 -1.19309125 0.02010186
C  1.37160572 0.01798221 0.03430615
C  0.67190352 1.23193931 -0.04902469
C  -0.67681890 1.21187911 -0.03013997
C  -1.36798007 -0.01307202 0.00303263
H  -1.32156564 -2.16564258 0.05626010
H  1.25022264 -2.17969837 -0.02202852
H  2.45823044 0.08140392 0.11229115
H  1.17130884 2.21414880 0.04388897
H  -1.33243723 2.12595036 -0.00103836
H  -2.40522124 -0.06243972 0.07330950
12
MD Step 751 Units = [Angstroms]
C  -0.71606639 -1.25532196 0.00097432
C  0.73205430 -1.19368000 0.01905498
C  1.37239736 0.01699117 0.03509629
C  0.66904719 1.23173987 -0.05059489
C  -0.67595686 1.21321595 -0.02789800
C  -1.36729845 -0.01445455 0.00076877
H  -1.32342742 -2.17458340 0.05356222
H  1.24100808 -2.16884901 -0.01981472
H  2.46954236 0.08891216 0.12204514
H  1.17845254 2.20799869 0.03289744
H  -1.33458675 2.12936468 0.00645131
H  -2.39992424 -0.06485576 0.07414347
12
MD Step 752 Units = [Angstroms]
C  -0.71910794 -1.25349099 0.00230937
C  0.73459031 -1.19453565 0.01795486
C  1.37336741 0.01609239 0.03583973
C  0.66656015 1.23162512 -0.05200710
C  -0.67577888 1.21457408 -0.02566383
C  -1.36618727 -0.01607154 -0.00150274
H  -1.32393639 -2.18334240 0.05057581
H  1.23245010 -2.15746651 -0.01718201
H  2.48085488 0.09591465 0.13156705
H  1.18625565 2.20135161 0.02123466
H  -1.33486685 2.13155743 0.01362665
H  -2.40095389 -0.06648743 0.07507712
12
MD Step 753 Units = [Angstroms]
C  -0.72174798 -1.25136268 0.00367183
C  0.73653982 -1.19555553 0.01681383
C  1.37456609 0.01529598 0.03654275
C  0.66447967 1.23157647 -0.05326520
C  -0.67630231 1.21595258 -0.02343983
C  -1.36468855 -0.01789705 -0.00376767
H  -1.32283612 -2.19136976 0.04731138
H  1.22519379 -2.14674411 -0.01418287
H  2.49123569 0.10229946 0.14073510
H  1.19466441 2.19438303 0.00896179
H  -1.33324870 2.13243597 0.02045706
H  -2.40809121 -0.06728899 0.07608057
12
MD Step 754 Units = [Angstroms]
C  -0.72396424 -1.24900568 0.00504829
C  0.73784921 -1.19663205 0.01564436
C  1.37602992 0.01460908 0.03721148
C  0.66283230 1.23157269 -0.05437386
C  -0.67752258 1.21733957 -0.02122874
C  -1.36290073 -0.01989905 -0.00600812
H  -1.31993953 -2.19818971 0.04378800
H  1.21985196 -2.13786288 -0.01086569
H  2.49988190 0.10795703 0.14942961
H  1.20361888 2.18727523 -0.00385701
H  -1.32982199 2.13204738 0.02691886
H  -2.42044290 -0.06721102 0.07707477
12
MD Step 755 Units = [Angstroms]
C  -0.72573392 -1.24648779 0.00642496
C  0.73848132 -1.19766516 0.01445855
C  1.37777854 0.01403525 0.03785136
C  0.66163306 1.23159125 -0.05533830
C  -0.67941276 1.21871232 -0.01903393
C  -1.36096434 -0.02203880 -0.00820339
H  -1.31514318 -2.20343103 0.04003328
H  1.21693407 -2.13184565 -0.00726962
H  2.50616873 0.11278702 0.15754072
H  1.21304797 2.18020479 -0.01715566
H  -1.32479151 2.13057642 0.03299721
H  -2.43660949 -0.06621206 0.07794129
12
MD Step 756 Units = [Angstroms]
C  -0.72703253 -1.24387363 0.00778787
C  0.73842038 -1.19857524 0.01326784
C  1.37981308 0.01357401 0.03846662
C  0.66088539 1.23160967 -0.05616416
C  -0.68192429 1.22003788 -0.01685965
C  -1.35904250 -0.02427011 -0.01033161
H  -1.30843484 -2.20684881 0.03608236
H  1.21677401 -2.12940699 -0.00342176
H  2.50967884 0.11670382 0.16497505
H  1.22286449 2.17333087 -0.03086688
H  -1.31846724 2.12833639 0.03868751
H  -2.45491596 -0.06427215 0.07853950
12
MD Step 757 Units = [Angstroms]
C  -0.72783333 -1.24122251 0.00912306
C  0.73767577 -1.19931340 0.01208301
C  1.38211568 0.01322068 0.03905995
C  0.66058161 1.23160665 -0.05685745
C  -0.68498878 1.22127452 -0.01471117
C  -1.35730181 -0.02653939 -0.01237122
H  -1.29989573 -2.20833819 0.03197629
H  1.21947357 -2.13083588 0.00066171
H  2.51021765 0.11964080 0.17166100
H  1.23296099 2.16678522 -0.04492225
H  -1.31124688 2.12575080 0.04399593
H  -2.47363862 -0.06140300 0.07872529
12
MD Step 758 Units = [Angstroms]
C  -0.72810759 -1.23858656 0.01041682
C  0.73628352 -1.19986630 0.01091445
C  1.38464970 0.01296649 0.03963220
C  0.66070393 1.23156297 -0.05742448
C  -0.68852129 1.22237399 -0.01259479
C  -1.35589730 -0.02878647 -0.01430239
H  -1.28969810 -2.20794083 0.02775993
H  1.22487788 -2.13594645 0.00497045
H  2.50781920 0.12155334 0.17755300
H  1.24320706 2.16066506 -0.05925173
H  -1.30358963 2.12332353 0.04893865
H  -2.49118305 -0.05765225 0.07836672
12
MD Step 759 Units = [Angstroms]
C  -0.72782551 -1.23600897 0.01165590
C  0.73430465 -1.20025399 0.00977270
C  1.38736040 0.01279897 0.04018218
C  0.66122587 1.23146210 -0.05787189
C  -0.69242473 1.22328494 -0.01051777
C  -1.35496248 -0.03094638 -0.01610779
H  -1.27809885 -2.20584393 0.02347965
H  1.23259094 -2.14411247 0.00949271
H  2.50274465 0.12242082 0.18263470
H  1.25344875 2.15502963 -0.07378295
H  -1.29598091 2.12159584 0.05353969
H  -2.50619811 -0.05310176 0.07735446
12
MD Step 760 Units = [Angstroms]
C  -0.72695789 -1.23352263 0.01282772
C  0.73182068 -1.20052204 0.00866888
C  1.39017621 0.01270264 0.04070654
C  0.66211386 1.23129039 -0.05820664
C  -0.69659530 1.22395744 -0.00848797
C  -1.35460408 -0.03295172 -0.01777302
H  -1.26542882 -2.20237092 0.01918085
H  1.24202746 -2.15437451 0.01420839
H  2.49547304 0.12224737 0.18692089
H  1.26351056 2.14990042 -0.08844021
H  -1.28888963 2.12109099 0.05782711
H  -2.51763460 -0.04786227 0.07560719
12
MD Step 761 Units = [Angstroms]
C  -0.72547842 -1.23114944 0.01392053
C  0.72892753 -1.20073021 0.00761496
C  1.39301082 0.01265986 0.04119976
C  0.66332904 1.23103699 -0.05843609
C  -0.70092843 1.22434816 -0.00651343
C  -1.35489960 -0.03473552 -0.01928666
H  -1.25207748 -2.19796231 0.01490568
H  1.25248659 -2.16558682 0.01908468
H  2.48668131 0.12106125 0.19045756
H  1.27320002 2.14526512 -0.10314372
H  -1.28272231 2.12225094 0.06182796
H  -2.52476681 -0.04206631 0.07307339
12
MD Step 762 Units = [Angstroms]
C  -0.72336655 -1.22890045 0.01492358
C  0.72572896 -1.20094129 0.00662374
C  1.39576643 0.01265207 0.04165434
C  0.66482886 1.23069344 -0.05856793
C  -0.70532443 1.22442571 -0.00460188
C  -1.35589646 -0.03623414 -0.02064022
H  -1.23847235 -2.19314503 0.01069105
H  1.26322968 -2.17656619 0.02407512
H  2.47720841 0.11891211 0.19331938
H  1.28231457 2.14108444 -0.11780921
H  -1.27778080 2.12537395 0.06556257
H  -2.52719539 -0.03586107 0.06973099
12
MD Step 763 Units = [Angstroms]
C  -0.72061065 -1.22677723 0.01582716
C  0.72233090 -1.20121199 0.00570857
C  1.39833883 0.01266115 0.04206130
C  0.66656865 1.23025303 -0.05861017
C  -0.70969317 1.22417495 -0.00276018
C  -1.35761152 -0.03739009 -0.02182801
H  -1.22505335 -2.18848952 0.00656725
H  1.27354794 -2.18621466 0.02912177
H  2.46799874 0.11586593 0.19560337
H  1.29065013 2.13730104 -0.13234810
H  -1.27423160 2.13056478 0.06903951
H  -2.52484499 -0.02940175 0.06558620
12
MD Step 764 Units = [Angstroms]
C  -0.71721144 -1.22477444 0.01662267
C  0.71883699 -1.20158706 0.00488298
C  1.40062422 0.01267101 0.04241100
C  0.66850300 1.22971011 -0.05857105
C  -0.71395711 1.22359950 -0.00099398
C  -1.36003043 -0.03815461 -0.02284695
H  -1.21224315 -2.18455614 0.00255762
H  1.28281285 -2.19360470 0.03415910
H  2.46002205 0.11199741 0.19741822
H  1.29801053 2.13384925 -0.14666833
H  -1.27209292 2.13770854 0.07225231
H  -2.51796385 -0.02284560 0.06067195
12
MD Step 765 Units = [Angstroms]
C  -0.71318513 -1.22288331 0.01730254
C  0.71534551 -1.20209621 0.00416024
C  1.40252784 0.01266922 0.04269428
C  0.67058697 1.22905933 -0.05845889
C  -0.71805244 1.22272181 0.00069251
C  -1.36310676 -0.03848981 -0.02369650
H  -1.20041626 -2.18183553 -0.00132075
H  1.29050936 -2.19802873 0.03911852
H  2.45417312 0.10738069 0.19886958
H  1.30421706 2.13066485 -0.16067588
H  -1.27124229 2.14647504 0.07517888
H  -2.50712691 -0.01634623 0.05504617
12
MD Step 766 Units = [Angstroms]
C  -0.70856622 -1.22109553 0.01786009
C  0.71194723 -1.20275318 0.00355298
C  1.40397325 0.01264832 0.04290384
C  0.67277698 1.22829499 -0.05828188
C  -0.72192859 1.22158071 0.00229646
C  -1.36676130 -0.03837032 -0.02437851
H  -1.18987046 -2.18069076 -0.00505517
H  1.29625542 -2.19902247 0.04393286
H  2.45116289 0.10208025 0.20004284
H  1.30911709 2.12769382 -0.17427670
H  -1.27144218 2.15635297 0.07778373
H  -2.49323759 -0.01004809 0.04878930
12
MD Step 767 Units = [Angstroms]
C  -0.70340925 -1.21940672 0.01828937
C  0.70872399 -1.20355591 0.00307276
C  1.40491076 0.01260688 0.04303549
C  0.67503161 1.22741060 -0.05804798
C  -0.72554651 1.22022709 0.00381622
C  -1.37088248 -0.03778427 -0.02489697
H  -1.18080526 -2.18131121 -0.00863478
H  1.29981310 -2.19637246 0.04854044
H  2.45142032 0.09614444 0.20098702
H  1.31259143 2.12489959 -0.18737911
H  -1.27237739 2.16670651 0.08002244
H  -2.47751783 -0.00408117 0.04200017
12
MD Step 768 Units = [Angstroms]
C  -0.69778943 -1.21781869 0.01858503
C  0.70574748 -1.20448715 0.00272983
C  1.40532318 0.01254968 0.04308911
C  0.67731209 1.22639861 -0.05776467
C  -0.72887646 1.21871857 0.00525102
C  -1.37532924 -0.03673352 -0.02525760
H  -1.17331082 -2.18368719 -0.01204790
H  1.30109531 -2.19011620 0.05288867
H  2.45502735 0.08960378 0.20170351
H  1.31455961 2.12226824 -0.19989618
H  -1.27369651 2.17684274 0.08184727
H  -2.46146938 0.00144338 0.03478952
12
MD Step 769 Units = [Angstroms]
C  -0.69180176 -1.21634007 0.01874217
C  0.70307809 -1.20551513 0.00253273
C  1.40522735 0.01248717 0.04306882
C  0.67958258 1.22525056 -0.05743886
C  -0.73189593 1.21711413 0.00660065
C  -1.37993813 -0.03523320 -0.02546718
H  -1.16736935 -2.18761078 -0.01527990
H  1.30017066 -2.18053919 0.05693745
H  2.46170388 0.08247513 0.20214310
H  1.31498301 2.11981156 -0.21174806
H  -1.27505045 2.18607845 0.08321282
H  -2.44678651 0.00643529 0.02727021
12
MD Step 770 Units = [Angstroms]
C  -0.68555882 -1.21498512 0.01875637
C  0.70076386 -1.20659413 0.00248809
C  1.40467132 0.01243428 0.04298255
C  0.68181023 1.22395746 -0.05707679
C  -0.73458784 1.21546931 0.00786515
C  -1.38453593 -0.03331025 -0.02553264
H  -1.16286830 -2.19270248 -0.01831228
H  1.29726650 -2.16816963 0.06066229
H  2.47084703 0.07477042 0.20221211
H  1.31386568 2.11756765 -0.22286398
H  -1.27612393 2.19379782 0.08408081
H  -2.43520499 0.01082321 0.01954515
12
MD Step 771 Units = [Angstroms]
C  -0.67918724 -1.21377122 0.01862375
C  0.69883944 -1.20766532 0.00260035
C  1.40372774 0.01240866 0.04284093
C  0.68396510 1.22251046 -0.05668399
C  -0.73693930 1.21383237 0.00904460
C  -1.38895763 -0.03100130 -0.02546012
H  -1.15962229 -2.19845784 -0.02112296
H  1.29276806 -2.15376718 0.06405689
H  2.48161436 0.06650730 0.20178604
H  1.31125272 2.11559918 -0.23318362
H  -1.27665844 2.19949709 0.08442363
H  -2.42828950 0.01454806 0.01169522
12
MD Step 772 Units = [Angstroms]
C  -0.67282334 -1.21271563 0.01834109
C  0.69732562 -1.20865834 0.00287160
C  1.40248534 0.01242890 0.04265590
C  0.68602000 1.22090178 -0.05626530
C  -0.73894075 1.21224157 0.01013898
C  -1.39306709 -0.02835007 -0.02525436
H  -1.15739996 -2.20430484 -0.02368780
H  1.28720875 -2.13829895 0.06713484
H  2.49303065 0.05771877 0.20072700
H  1.30722642 2.11398918 -0.24265786
H  -1.27646716 2.20281562 0.08422656
H  -2.42719154 0.01755314 0.00377148
12
MD Step 773 Units = [Angstroms]
C  -0.66660811 -1.21183224 0.01790609
C  0.69622982 -1.20949440 0.00330160
C  1.40104014 0.01251276 0.04243933
C  0.68795024 1.21912580 -0.05582499
C  -0.74058530 1.21072336 0.01114807
C  -1.39677538 -0.02540492 -0.02491869
H  -1.15595136 -2.20966236 -0.02598277
H  1.28124544 -2.12289368 0.06992938
H  2.50409615 0.04845967 0.19890100
H  1.30190047 2.11283463 -0.25124862
H  -1.27544335 2.20355540 0.08348876
H  -2.43243870 0.01977525 -0.00420416
12
MD Step 774 Units = [Angstroms]
C  -0.66068183 -1.21112888 0.01731745
C  0.69554797 -1.21009171 0.00388804
C  1.39948781 0.01267565 0.04220195
C  0.68973349 1.21718020 -0.05536687
C  -0.74186806 1.20929154 0.01207133
C  -1.40005113 -0.02221700 -0.02445583
H  -1.15503287 -2.21399241 -0.02798641
H  1.27561193 -2.10876521 0.07249011
H  2.51388000 0.03880905 0.19619215
H  1.29541251 2.11223801 -0.25892786
H  -1.27356392 2.20169088 0.08222338
H  -2.44382410 0.02114195 -0.01222887
12
MD Step 775 Units = [Angstroms]
C  -0.65517876 -1.21060548 0.01657510
C  0.69526831 -1.21037347 0.00462706
C  1.39791779 0.01292943 0.04195251
C  0.69134965 1.21506716 -0.05489446
C  -0.74278554 1.20794712 0.01290795
C  -1.40291923 -0.01883950 -0.02386913
H  -1.15442794 -2.21684195 -0.02968209
H  1.27104798 -2.09710210 0.07487598
H  2.52159079 0.02886916 0.19251256
H  1.28791567 2.11229747 -0.26567582
H  -1.27088919 2.19737116 0.08045682
H  -2.46043672 0.02157780 -0.02030266
12
MD Step 776 Units = [Angstroms]
C  -0.65022184 -1.21025303 0.01568031
C  0.69537659 -1.21027808 0.00551421
C  1.39640912 0.01328154 0.04169744
C  0.69278084 1.21279443 -0.05441126
C  -0.74333493 1.20667890 0.01365680
C  -1.40544899 -0.01532763 -0.02316376
H  -1.15396300 -2.21787316 -0.03105986
H  1.26820825 -2.08893117 0.07714456
H  2.52662404 0.01876188 0.18780784
H  1.27956983 2.11309624 -0.27147862
H  -1.26755920 2.19091442 0.07822732
H  -2.48082199 0.02101765 -0.02841233
12
MD Step 777 Units = [Angstroms]
C  -0.64591793 -1.21005329 0.01463578
C  0.69586169 -1.20976962 0.00654541
C  1.39502783 0.01373437 0.04144060
C  0.69401135 1.21037620 -0.05392087
C  -0.74351354 1.20546479 0.01431653
C  -1.40773600 -0.01173895 -0.02234750
H  -1.15351894 -2.21688306 -0.03211778
H  1.26756656 -2.08497725 0.07933946
H  2.52859087 0.00862381 0.18205917
H  1.27053326 2.11469237 -0.27632562
H  -1.26378597 2.18279371 0.07558284
H  -2.50321651 0.01942157 -0.03652127
12
MD Step 778 Units = [Angstroms]
C  -0.64235362 -1.20997892 0.01344575
C  0.69671989 -1.20884615 0.00771788
C  1.39382513 0.01428514 0.04118335
C  0.69502772 1.20783378 -0.05342717
C  -0.74331867 1.20427386 0.01488570
C  -1.40988372 -0.00813347 -0.02143084
H  -1.15303848 -2.21381414 -0.03286271
H  1.26933845 -2.08555219 0.08147911
H  2.52733310 -0.00139940 0.17528275
H  1.26095567 2.11710988 -0.28020681
H  -1.25984067 2.17361160 0.07257814
H  -2.52578718 0.01678586 -0.04456714
12
MD Step 779 Units = [Angstroms]
C  -0.63959192 -1.20999393 0.01211602
C  0.69795609 -1.20754317 0.00903066
C  1.39283647 0.01492597 0.04092469
C  0.69581865 1.20519580 -0.05293446
C  -0.74274795 1.20306941 0.01536297
C  -1.41198863 -0.00457318 -0.02042653
H  -1.15253011 -2.20875742 -0.03331055
H  1.27344501 -2.09050495 0.08355067
H  2.52292924 -0.01115881 0.16752750
H  1.25097318 2.12033241 -0.28311082
H  -1.25603435 2.16406142 0.06927119
H  -2.54682350 0.01314716 -0.05246618
12
MD Step 780 Units = [Angstroms]
C  -0.63767009 -1.21005439 0.01065402
C  0.69958115 -1.20593098 0.01048447
C  1.39208086 0.01564450 0.04066144
C  0.69637496 1.20249802 -0.05244738
C  -0.74180058 1.20181299 0.01574735
C  -1.41413065 -0.00112099 -0.01934890
H  -1.15206826 -2.20194839 -0.03348599
H  1.27952935 -2.09924851 0.08551108
H  2.51569341 -0.02050805 0.15887138
H  1.24070572 2.12430035 -0.28502375
H  -1.25269153 2.15487394 0.06571907
H  -2.56486381 0.00858008 -0.06012094
12
MD Step 781 Units = [Angstroms]
C  -0.63659878 -1.21010946 0.00906875
C  0.70160621 -1.20410673 0.01208105
C  1.39156084 0.01642471 0.04038861
C  0.69668948 1.19978269 -0.05197088
C  -0.74047918 1.20046924 0.01603852
C  -1.41636821 0.00216067 -0.01821307
H  -1.15178959 -2.19375548 -0.03342170
H  1.28701981 -2.11085496 0.08729482
H  2.50616629 -0.02930908 0.14941639
H  1.23025692 2.12891200 -0.28592910
H  -1.25011736 2.14675147 0.06197366
H  -2.57876171 0.00319067 -0.06742887
12
MD Step 782 Units = [Angstroms]
C  -0.63636252 -1.21010287 0.00737074
C  0.70403557 -1.20218327 0.01382218
C  1.39126319 0.01724802 0.04009973
C  0.69675691 1.19709731 -0.05150999
C  -0.73879231 1.19901119 0.01623701
C  -1.41873652 0.00521147 -0.01703429
H  -1.15188405 -2.18465950 -0.03315691
H  1.29521997 -2.12419039 0.08882577
H  2.49509480 -0.03743735 0.13928201
H  1.21971630 2.13402873 -0.28580893
H  -1.24856141 2.14029577 0.05807810
H  -2.58771153 -0.00289209 -0.07429007
12
MD Step 783 Units = [Angstroms]
C  -0.63692172 -1.20997520 0.00557195
C  0.70686039 -1.20027765 0.01570872
C  1.39116084 0.01809436 0.03978745
C  0.69657375 1.19449309 -0.05106954
C  -0.73675699 1.19742514 0.01634438
C  -1.42124724 0.00797479 -0.01582733
H  -1.15258011 -2.17522268 -0.03273543
H  1.30340125 -2.13805534 0.09002930
H  2.48339520 -0.04478605 0.12859710
H  1.20916310 2.13948382 -0.28464598
H  -1.24818321 2.13594028 0.05406439
H  -2.59125242 -0.00952479 -0.08061399
12
MD Step 784 Units = [Angstroms]
C  -0.63821612 -1.20966711 0.00368557
C  0.71005466 -1.19850129 0.01773973
C  1.39121643 0.01894309 0.03944413
C  0.69613836 1.19202297 -0.05065383
C  -0.73440081 1.19571407 0.01636325
C  -1.42388868 0.01039917 -0.01460598
H  -1.15412325 -2.16604615 -0.03220322
H  1.31088013 -2.15130444 0.09084219
H  2.47209415 -0.05126809 0.11749046
H  1.19867114 2.14509398 -0.28242641
H  -1.24902633 2.13389965 0.04995305
H  -2.58926600 -0.01655749 -0.08632513
12
MD Step 785 Units = [Angstroms]
C  -0.64016940 -1.20912342 0.00172581
C  0.71357381 -1.19695267 0.01991205
C  1.39138781 0.01977359 0.03906256
C  0.69545113 1.18973953 -0.05026632
C  -0.73176301 1.19389900 0.01629709
C  -1.42662569 0.01243967 -0.01338256
H  -1.15674832 -2.15771748 -0.03160568
H  1.31707208 -2.16293326 0.09121897
H  2.46224518 -0.05681516 0.10608084
H  1.18831387 2.15067241 -0.27914295
H  -1.25100680 2.13414710 0.04575462
H  -2.58197585 -0.02384112 -0.09136850
12
MD Step 786 Units = [Angstroms]
C  -0.64269462 -1.20829782 -0.00029230
C  0.71735584 -1.19571255 0.02222004
C  1.39163521 0.02056542 0.03863658
C  0.69451480 1.18769275 -0.04990929
C  -0.72889419 1.19201757 0.01615001
C  -1.42939924 0.01405898 -0.01216748
H  -1.16064805 -2.15075216 -0.03098506
H  1.32152297 -2.17213275 0.09113496
H  2.45482392 -0.06137308 0.09446828
H  1.17816897 2.15604214 -0.27479778
H  -1.25391909 2.13642503 0.04147295
H  -2.56995098 -0.03123445 -0.09571499
12
MD Step 787 Units = [Angstroms]
C  -0.64569993 -1.20715770 -0.00235316
C  0.72132411 -1.19484097 0.02465559
C  1.39192921 0.02129811 0.03816150
C  0.69333502 1.18592791 -0.04958364
C  -0.72585464 1.19012052 0.01592639
C  -1.43212600 0.01522840 -0.01096873
H  -1.16594187 -2.14553690 -0.03037841
H  1.32392370 -2.17831908 0.09058688
H  2.45061440 -0.06489410 0.08272872
H  1.16832200 2.16104846 -0.26940495
H  -1.25745861 2.14028567 0.03710899
H  -2.55410861 -0.03861119 -0.09936661
12
MD Step 788 Units = [Angstroms]
C  -0.64909386 -1.20568802 -0.00444078
C  0.72539085 -1.19437540 0.02720819
C  1.39225784 0.02195074 0.03763412
C  0.69192082 1.18448363 -0.04928871
C  -0.72271178 1.18826657 0.01563058
C  -1.43469893 0.01592853 -0.00979150
H  -1.17265038 -2.14228421 -0.02981653
H  1.32411459 -2.18114799 0.08959192
H  2.45010657 -0.06732828 0.07091376
H  1.15886877 2.16556939 -0.26299197
H  -1.26125605 2.14515254 0.03266459
H  -2.53570536 -0.04586690 -0.10236100
12
MD Step 789 Units = [Angstroms]
C  -0.65278961 -1.20389372 -0.00653892
C  0.72946095 -1.19432948 0.02986512
C  1.39263110 0.02250169 0.03705235
C  0.69028522 1.18339034 -0.04902222
C  -0.71953693 1.18651686 0.01526668
C  -1.43699032 0.01614972 -0.00863796
H  -1.18068121 -2.14100734 -0.02932391
H  1.32208468 -2.18052149 0.08818599
H  2.45342807 -0.06861684 0.05905602
H  1.14991626 2.16952340 -0.25560047
H  -1.26491672 2.15038985 0.02814526
H  -2.51629911 -0.05292460 -0.10477320
12
MD Step 790 Units = [Angstroms]
C  -0.65670787 -1.20179996 -0.00863118
C  0.73343520 -1.19469205 0.03261165
C  1.39308143 0.02292884 0.03641454
C  0.68844568 1.18266896 -0.04878034
C  -0.71640211 1.18492978 0.01483833
C  -1.43885888 0.01589198 -0.00750746
H  -1.18982937 -2.14152110 -0.02891980
H  1.31796906 -2.17659121 0.08642158
H  2.46032764 -0.06869061 0.04717884
H  1.14158197 2.17287390 -0.24728582
H  -1.26805873 2.15536881 0.02356173
H  -2.49766061 -0.05973677 -0.10671230
12
MD Step 791 Units = [Angstroms]
C  -0.66077820 -1.19945023 -0.01070107
C  0.73721306 -1.19542669 0.03543125
C  1.39365996 0.02321031 0.03571867
C  0.68642447 1.18233025 -0.04855773
C  -0.71337718 1.18355683 0.01434866
C  -1.44016241 0.01516431 -0.00639735
H  -1.19979264 -2.14346832 -0.02861968
H  1.31204464 -2.16975895 0.08436511
H  2.47021419 -0.06747454 0.03530723
H  1.13399194 2.17563006 -0.23811577
H  -1.27034541 2.15952304 0.01893029
H  -2.48161884 -0.06628077 -0.10831004
12
MD Step 792 Units = [Angstroms]
C  -0.66493891 -1.19690275 -0.01273216
C  0.74069491 -1.19647188 0.03830588
C  1.39442936 0.02332578 0.03496173
C  0.68424879 1.18237452 -0.04834781
C  -0.71052732 1.18243955 0.01380027
C  -1.44077571 0.01398316 -0.00530463
H  -1.21019882 -2.14636626 -0.02843701
H  1.30472271 -2.16067097 0.08209371
H  2.48224080 -0.06489747 0.02347717
H  1.12727730 2.17784377 -0.22816831
H  -1.27151017 2.16239029 0.01427225
H  -2.46984223 -0.07254540 -0.10970034
12
MD Step 793 Units = [Angstroms]
C  -0.66913603 -1.19422595 -0.01470818
C  0.74378413 -1.19774269 0.04121641
C  1.39545513 0.02325793 0.03413946
C  0.68195078 1.18279193 -0.04814295
C  -0.70791108 1.18160759 0.01319523
C  -1.44061106 0.01237034 -0.00422800
H  -1.22063954 -2.14966374 -0.02838452
H  1.29653421 -2.15019906 0.07969117
H  2.49541258 -0.06090418 0.01174091
H  1.12156962 2.17960302 -0.21752880
H  -1.27137367 2.16364069 0.00961263
H  -2.46358904 -0.07850981 -0.11099210
12
MD Step 794 Units = [Angstroms]
C  -0.67332162 -1.19149389 -0.01661320
C  0.74638957 -1.19913452 0.04414303
C  1.39679711 0.02299394 0.03324637
C  0.67956719 1.18356328 -0.04793472
C  -0.70557869 1.18107751 0.01253520
C  -1.43963610 0.01035093 -0.00317005
H  -1.23070491 -2.15279945 -0.02847507
H  1.28810249 -2.13939806 0.07724278
H  2.50869610 -0.05546665 0.00016781
H  1.11699529 2.18102178 -0.20628676
H  -1.26985429 2.16309389 0.00497868
H  -2.46349003 -0.08412068 -0.11224224
12
MD Step 795 Units = [Angstroms]
C  -0.67745183 -1.18878211 -0.01843184
C  0.74842888 -1.20052994 0.04706590
C  1.39850246 0.02252647 0.03227607
C  0.67713889 1.18466131 -0.04771423
C  -0.70357074 1.18085226 0.01182145
C  -1.43788312 0.00795205 -0.00213858
H  -1.24001455 -2.15525427 -0.02872190
H  1.28009831 -2.12943054 0.07482954
H  2.52111392 -0.04859208 -0.01115863
H  1.11366893 2.18222721 -0.19453259
H  -1.26697337 2.16072739 0.00039809
H  -2.46943393 -0.08927732 -0.11343852
12
MD Step 796 Units = [Angstroms]
C  -0.68148497 -1.18616443 -0.02014948
C  0.74983309 -1.20180867 0.04996569
C  1.40060082 0.02185429 0.03122181
C  0.67471008 1.18605238 -0.04747231
C  -0.70191701 1.18092107 0.01105498
C  -1.43544653 0.00520302 -0.00114658
H  -1.24824238 -2.15659322 -0.02913844
H  1.27317557 -2.12145393 0.07252228
H  2.53181612 -0.04032687 -0.02214598
H  1.11168656 2.18334515 -0.18235456
H  -1.26285571 2.15667765 -0.00410270
H  -2.48059722 -0.09383196 -0.11449876
12
MD Step 797 Units = [Angstroms]
C  -0.68537973 -1.18371060 -0.02175247
C  0.75055208 -1.20286022 0.05282411
C  1.40310153 0.02098226 0.03007704
C  0.67232736 1.18769834 -0.04719983
C  -0.70063566 1.18125986 0.01023668
C  -1.43246924 0.00213707 -0.00021084
H  -1.25513447 -2.15649629 -0.02973789
H  1.26789211 -2.11647817 0.07037735
H  2.54012896 -0.03075678 -0.03269915
H  1.11111866 2.18448518 -0.16983639
H  -1.25772562 2.15123423 -0.00850018
H  -2.49560623 -0.09760636 -0.11528681
12
MD Step 798 Units = [Angstroms]
C  -0.68909367 -1.18148448 -0.02322827
C  0.75056016 -1.20359707 0.05562418
C  1.40599235 0.01992102 0.02883594
C  0.67003851 1.18955857 -0.04688784
C  -0.69973281 1.18183217 0.00936745
C  -1.42912292 -0.00120628 0.00065016
H  -1.26052048 -2.15477878 -0.03053269
H  1.26462936 -2.11521732 0.06843498
H  2.54558452 -0.02000401 -0.04272667
H  1.11200393 2.18572705 -0.15705567
H  -1.25189755 2.14482570 -0.01277515
H  -2.51277354 -0.10041787 -0.11563862
12
MD Step 799 Units = [Angstroms]
C  -0.69258220 -1.17954281 -0.02456559
C  0.74986004 -1.20396528 0.05835022
C  1.40923945 0.01868623 0.02749395
C  0.66789123 1.19159183 -0.04652767
C  -0.69920280 1.18259091 0.00844830
C  -1.42558789 -0.00477909 0.00141855
H  -1.26431986 -2.15140279 -0.03153402
H  1.26353009 -2.11797116 0.06672122
H  2.54793693 -0.00822223 -0.05214662
H  1.11434427 2.18710985 -0.14408330
H  -1.24576012 2.13799504 -0.01691378
H  -2.53033756 -0.10210555 -0.11538947
12
MD Step 800 Units = [Angstroms]
C  -0.69579813 -1.17793391 -0.02575448
C  0.74848402 -1.20394984 0.06098762
C  1.41278797 0.01729772 0.02604820
C  0.66593169 1.19375790 -0.04611103
C  -0.69902919 1.18348114 0.00748048
C  -1.42203685 -0.00852378 0.00207873
H  -1.26654359 -2.14648108 -0.03275141
H  1.26447287 -2.12457153 0.06525271
H  2.54716939 0.00440982 -0.06089182
H  1.11810163 2.18862563 -0.13098394
H  -1.23975213 2.13136214 -0.02090795
H  -2.54665415 -0.10254921 -0.11439544
12
MD Step 801 Units = [Angstroms]
C  -0.69869176 -1.17669665 -0.02678632
C  0.74649150 -1.20357310 0.06352251
C  1.41656324 0.01577851 0.02449790
C  0.66420308 1.19601880 -0.04562996
C  -0.69918674 1.18444399 0.00646546
C  -1.41862405 -0.01237331 0.00261841
H  -1.26729192 -2.14027372 -0.03419252
H  1.26709187 -2.13441061 0.06404241
H  2.54349403 0.01769584 -0.06891438
H  1.12319719 2.19021816 -0.11781724
H  -1.23433014 2.12557235 -0.02475474
H  -2.56032123 -0.10167878 -0.11254646
12
MD Step 802 Units = [Angstroms]
C  -0.70121188 -1.17585949 -0.02765391
C  0.74396336 -1.20288715 0.06594150
C  1.42047240 0.01415381 0.02284464
C  0.66274420 1.19833946 -0.04507688
C  -0.69964409 1.18542171 0.00540491
C  -1.41547918 -0.01625261 0.00302895
H  -1.26674782 -2.13317684 -0.03586308
H  1.27083600 -2.14654176 0.06310436
H  2.53734406 0.03143020 -0.07618924
H  1.12951332 2.19178724 -0.10463962
H  -1.22992889 2.12123278 -0.02845483
H  -2.57024371 -0.09947553 -0.10977185
12
MD Step 803 Units = [Angstroms]
C  -0.70330735 -1.17543988 -0.02835136
C  0.74099467 -1.20196274 0.06823160
C  1.42440695 0.01245006 0.02109258
C  0.66158809 1.20068807 -0.04444447
C  -0.70036703 1.18636330 0.00430052
C  -1.41270453 -0.02008099 0.00330532
H  -1.26516535 -2.12570194 -0.03776691
H  1.27504998 -2.15982185 0.06245602
H  2.52935496 0.04540671 -0.08271626
H  1.13689802 2.19319793 -0.09150608
H  -1.22691859 2.11884274 -0.03200988
H  -2.57565774 -0.09596801 -0.10604073
12
MD Step 804 Units = [Angstroms]
C  -0.70492947 -1.17544441 -0.02887411
C  0.73768728 -1.20087778 0.07038036
C  1.42824642 0.01069408 0.01924845
C  0.66076087 1.20303581 -0.04372574
C  -0.70132161 1.18723001 0.00315383
C  -1.41037368 -0.02377517 0.00344580
H  -1.26285174 -2.11844398 -0.03990599
H  1.27905692 -2.17305793 0.06211822
H  2.52032991 0.05942715 -0.08852016
H  1.14517180 2.19429365 -0.07847187
H  -1.22556515 2.11872865 -0.03541934
H  -2.57613399 -0.09122566 -0.10135968
12
MD Step 805 Units = [Angstroms]
C  -0.70603501 -1.17586978 -0.02921887
C  0.73414350 -1.19970778 0.07237602
C  1.43186372 0.00891248 0.01732129
C  0.66028087 1.20535639 -0.04291407
C  -0.70247676 1.18799949 0.00196599
C  -1.40853077 -0.02725275 0.00345166
H  -1.26014282 -2.11203740 -0.04228044
H  1.28222721 -2.18513034 0.06211356
H  2.51118447 0.07330823 -0.09364748
H  1.15413643 2.19491139 -0.06559357
H  -1.22600095 2.12099623 -0.03867725
H  -2.57157465 -0.08535183 -0.09576942
12
MD Step 806 Units = [Angstroms]
C  -0.70658978 -1.17670488 -0.02938356
C  0.73046149 -1.19851923 0.07420779
C  1.43513223 0.00713143 0.01532196
C  0.66015807 1.20762525 -0.04200325
C  -0.70380561 1.18866782 0.00073770
C  -1.40718956 -0.03043567 0.00332683
H  -1.25737213 -2.10710112 -0.04488818
H  1.28402717 -2.19507976 0.06246413
H  2.50286820 0.08688531 -0.09815993
H  1.16358459 2.19489764 -0.05292943
H  -1.22821193 2.12551065 -0.04177000
H  -2.56221212 -0.07847714 -0.08934125
12
MD Step 807 Units = [Angstroms]
C  -0.70657232 -1.17793367 -0.02936740
C  0.72673199 -1.19736575 0.07586603
C  1.43793445 0.00537697 0.01326217
C  0.66039396 1.20981876 -0.04098771
C  -0.70528556 1.18924895 -0.00053093
C  -1.40633226 -0.03325358 0.00307757
H  -1.25483626 -2.10417681 -0.04772412
H  1.28404835 -2.20215954 0.06318949
H  2.49626696 0.10001104 -0.10212412
H  1.17331003 2.19412325 -0.04053905
H  -1.23204394 2.13190993 -0.04467564
H  -2.54861128 -0.07075292 -0.08217325
12
MD Step 808 Units = [Angstroms]
C  -0.70597748 -1.17953843 -0.02917091
C  0.72303639 -1.19628642 0.07734245
C  1.44017127 0.00367588 0.01115353
C  0.66098176 1.21191331 -0.03986263
C  -0.70689716 1.18977162 -0.00184016
C  -1.40590852 -0.03564688 0.00271216
H  -1.25276081 -2.10366844 -0.05077877
H  1.28202244 -2.20586201 0.06430516
H  2.49209734 0.11254824 -0.10559922
H  1.18311719 2.19249612 -0.02848238
H  -1.23722634 2.13964847 -0.04736494
H  -2.53167098 -0.06234452 -0.07438571
12
MD Step 809 Units = [Angstroms]
C  -0.70481918 -1.18150271 -0.02879611
C  0.71944533 -1.19530520 0.07863015
C  1.44177020 0.00205690 0.00900641
C  0.66190704 1.21388464 -0.03862422
C  -0.70862223 1.19027468 -0.00319048
C  -1.40583554 -0.03756915 0.00224042
H  -1.25127280 -2.10579294 -0.05403627
H  1.27782745 -2.20592888 0.06582175
H  2.49081221 0.12435835 -0.10862470
H  1.19282973 2.18997082 -0.01681822
H  -1.24340720 2.14806117 -0.04980390
H  -2.51261384 -0.05342368 -0.06611495
12
MD Step 810 Units = [Angstroms]
C  -0.70313200 -1.18381320 -0.02824665
C  0.71601774 -1.19443101 0.07972371
C  1.44269093 0.00055205 0.00682918
C  0.66314852 1.21570738 -0.03726988
C  -0.71044189 1.19080153 -0.00458233
C  -1.40600062 -0.03898902 0.00167310
H  -1.25038511 -2.11055191 -0.05747222
H  1.27148958 -2.20235391 0.06774467
H  2.49253843 0.13528892 -0.11121164
H  1.20229749 2.18655467 -0.00560249
H  -1.25019325 2.15643532 -0.05195714
H  -2.49294766 -0.04416005 -0.05750448
12
MD Step 811 Units = [Angstroms]
C  -0.70097103 -1.18646007 -0.02752800
C  0.71280001 -1.19365781 0.08061923
C  1.44292694 -0.00080260 0.00462788
C  0.66467915 1.21735492 -0.03579843
C  -0.71233492 1.19139491 -0.00601585
C  -1.40626799 -0.03989111 0.00102100
H  -1.24999650 -2.11773038 -0.06105181
H  1.26318321 -2.19538220 0.07007436
H  2.49706219 0.14516483 -0.11333987
H  1.21140139 2.18230993 0.00511358
H  -1.25718785 2.16407867 -0.05379134
H  -2.47437852 -0.03471241 -0.04869340
12
MD Step 812 Units = [Angstroms]
C  -0.69841015 -1.18943577 -0.02664751
C  0.70982541 -1.19296483 0.08131425
C  1.44250284 -0.00196696 0.00240646
C  0.66646716 1.21879965 -0.03421027
C  -0.71427682 1.19209233 -0.00749062
C  -1.40649110 -0.04027598 0.00029397
H  -1.24990715 -2.12692282 -0.06472874
H  1.25322898 -2.18550654 0.07280709
H  2.50386525 0.15378713 -0.11496177
H  1.22005603 2.17735223 0.01528508
H  -1.26402311 2.17037613 -0.05527837
H  -2.45866018 -0.02522218 -0.03980316
12
MD Step 813 Units = [Angstroms]
C  -0.69553877 -1.19273257 -0.02561437
C  0.70711378 -1.19231700 0.08180775
C  1.44146827 -0.00289799 0.00016746
C  0.66847724 1.22001371 -0.03250746
C  -0.71623951 1.19292261 -0.00900550
C  -1.40653027 -0.04015890 -0.00050002
H  -1.24984645 -2.13758080 -0.06844547
H  1.24208778 -2.17345715 0.07593616
H  2.51220184 0.16094052 -0.11601150
H  1.22820967 2.17184506 0.02487468
H  -1.27038424 2.17483201 -0.05639749
H  -2.44738243 -0.01581184 -0.03092589
12
MD Step 814 Units = [Angstroms]
C  -0.69245753 -1.19633966 -0.02443948
C  0.70467192 -1.19166633 0.08209994
C  1.43989008 -0.00355167 -0.00208715
C  0.67067160 1.22097008 -0.03069377
C  -0.71819158 1.19390336 -0.01055851
C  -1.40627305 -0.03956751 -0.00135529
H  -1.24950741 -2.14907264 -0.07213471
H  1.23034652 -2.16017740 0.07945383
H  2.52119704 0.16640771 -0.11641692
H  1.23584173 2.16599081 0.03385342
H  -1.27602659 2.17709822 -0.05713694
H  -2.44173028 -0.00659065 -0.02211879
12
MD Step 815 Units = [Angstroms]
C  -0.68927340 -1.20024030 -0.02313513
C  0.70249504 -1.19095497 0.08219211
C  1.43784422 -0.00388550 -0.00435500
C  0.67301099 1.22164404 -0.02877465
C  -0.72009887 1.19503950 -0.01214674
C  -1.40565233 -0.03853866 -0.00226821
H  -1.24858168 -2.16074505 -0.07572222
H  1.21869032 -2.14677598 0.08335354
H  2.52994645 0.16998677 -0.11611127
H  1.24295765 2.16001845 0.04220085
H  -1.28078635 2.17699087 -0.05749457
H  -2.44227480 0.00233347 -0.01340813
12
MD Step 816 Units = [Angstroms]
C  -0.68609463 -1.20440973 -0.02171461
C  0.70056958 -1.19012068 0.08208637
C  1.43540875 -0.00386123 -0.00663270
C  0.67545574 1.22201494 -0.02675710
C  -0.72192509 1.19632248 -0.01376628
C  -1.40465633 -0.03711506 -0.00323612
H  -1.24679092 -2.17197886 -0.07913024
H  1.20785650 -2.13444649 0.08763208
H  2.53760216 0.17150758 -0.11504252
H  1.24958156 2.15416883 0.04990451
H  -1.28458641 2.17449760 -0.05747803
H  -2.44886344 0.01084100 -0.00480262
12
MD Step 817 Units = [Angstroms]
C  -0.68302577 -1.20881391 -0.02019174
C  0.69887753 -1.18910513 0.08178542
C  1.43265845 -0.00344741 -0.00891532
C  0.67796658 1.22206807 -0.02464946
C  -0.72363236 1.19773031 -0.01541222
C  -1.40332738 -0.03534260 -0.00425592
H  -1.24391165 -2.18223426 -0.08228130
H  1.19856930 -2.12435157 0.09229083
H  2.54343799 0.17084491 -0.11317958
H  1.25574724 2.14867815 0.05695881
H  -1.28743817 2.16977744 -0.05710427
H  -2.46064995 0.01879333 0.00368854
12
MD Step 818 Units = [Angstroms]
C  -0.68016314 -1.21340910 -0.01858049
C  0.69740177 -1.18786432 0.08129253
C  1.42966113 -0.00262163 -0.01119618
C  0.68050545 1.22179661 -0.02246123
C  -0.72518168 1.19922831 -0.01707870
C  -1.40175002 -0.03326879 -0.00532291
H  -1.23979322 -2.19108416 -0.08510192
H  1.19146085 -2.11748075 0.09733481
H  2.54689373 0.16792697 -0.11051530
H  1.26148825 2.14376138 0.06336343
H  -1.28943946 2.16315322 -0.05639857
H  -2.47625247 0.02603524 0.01203996
12
MD Step 819 Units = [Angstroms]
C  -0.67759077 -1.21814212 -0.01689446
C  0.69613136 -1.18637925 0.08061164
C  1.42647525 -0.00137231 -0.01346688
C  0.68303606 1.22120338 -0.02020272
C  -0.72653332 1.20077063 -0.01875896
C  -1.40003330 -0.03094221 -0.00643010
H  -1.23436932 -2.19823679 -0.08752595
H  1.18699225 -2.11450659 0.10276854
H  2.54760203 0.16273960 -0.10706703
H  1.26682831 2.13959666 0.06912147
H  -1.29076778 2.15509560 -0.05539311
H  -2.49398402 0.03240613 0.02020184
12
MD Step 820 Units = [Angstroms]
C  -0.67537710 -1.22295099 -0.01514660
C  0.69506538 -1.18466397 0.07974776
C  1.42314855 0.00030004 -0.01571734
C  0.68552442 1.22030222 -0.01788482
C  -0.72764753 1.20230275 -0.02044551
C  -1.39829268 -0.02841258 -0.00756835
H  -1.22766398 -2.20354879 -0.08949750
H  1.18539328 -2.11567417 0.10858887
H  2.54540258 0.15532702 -0.10287539
H  1.27177313 2.13631280 0.07423765
H  -1.29166750 2.14619634 -0.05412490
H  -2.51208677 0.03775543 0.02810031
12
MD Step 821 Units = [Angstroms]
C  -0.67357249 -1.22776581 -0.01334882
C  0.69421396 -1.18276841 0.07870751
C  1.41971736 0.00238207 -0.01793603
C  0.68793895 1.21911895 -0.01551872
C  -0.72848561 1.20376489 -0.02213039
C  -1.39663556 -0.02573101 -0.00872693
H  -1.21979299 -2.20703066 -0.09097320
H  1.18663785 -2.12075680 0.11477613
H  2.54034728 0.14578959 -0.09800173
H  1.27630487 2.13398094 0.07871683
H  -1.29242956 2.13712868 -0.05263335
H  -2.52891998 0.04195644 0.03564382
12
MD Step 822 Units = [Angstroms]
C  -0.67220782 -1.23250980 -0.01151177
C  0.69359608 -1.18077478 0.07749950
C  1.41620642 0.00484747 -0.02011031
C  0.69025054 1.21769167 -0.01311570
C  -0.72901172 1.20509652 -0.02380537
C  -1.39515216 -0.02294987 -0.00989422
H  -1.21096077 -2.20884477 -0.09192384
H  1.19046166 -2.12909230 0.12128666
H  2.53269776 0.13427919 -0.09252468
H  1.28037996 2.13261156 0.08256313
H  -1.29336269 2.12859423 -0.05095758
H  -2.54308292 0.04491554 0.04273210
12
MD Step 823 Units = [Angstroms]
C  -0.67129409 -1.23710065 -0.00964474
C  0.69323487 -1.17878861 0.07613454
C  1.41262935 0.00765745 -0.02222671
C  0.69243232 1.21607027 -0.01068699
C  -0.72919533 1.20624165 -0.02546229
C  -1.39391085 -0.02012243 -0.01105850
H  -1.20145245 -2.20929537 -0.09233511
H  1.19641565 -2.13968840 0.12804905
H  2.52291453 0.12099222 -0.08653587
H  1.28393070 2.13215720 0.08577982
H  -1.29475725 2.12125873 -0.04913383
H  -2.55347926 0.04657601 0.04926496
12
MD Step 824 Units = [Angstroms]
C  -0.67082335 -1.24145231 -0.00775560
C  0.69315187 -1.17692675 0.07462536
C  1.40898978 0.01076176 -0.02427144
C  0.69445935 1.21431538 -0.00824366
C  -0.72901411 1.20715438 -0.02709325
C  -1.39295664 -0.01730214 -0.01220851
H  -1.19162018 -2.20880891 -0.09220712
H  1.20393860 -2.15136604 0.13496560
H  2.51163441 0.10616017 -0.08013484
H  1.28687038 2.13252029 0.08836984
H  -1.29684501 2.11568318 -0.04719346
H  -2.55934134 0.04691781 0.05514966
12
MD Step 825 Units = [Angstroms]
C  -0.67077066 -1.24547756 -0.00585098
C  0.69336165 -1.17530548 0.07298609
C  1.40528376 0.01410024 -0.02623086
C  0.69630825 1.21249649 -0.00579660
C  -0.72845681 1.20780391 -0.02869080
C  -1.39231117 -0.01454177 -0.01333394
H  -1.18186282 -2.20790246 -0.09155255
H  1.21243061 -2.16290439 0.14191816
H  2.49963221 0.09003820 -0.07342323
H  1.28910115 2.13356534 0.09033704
H  -1.29976118 2.11226080 -0.04516214
H  -2.56023337 0.04595502 0.06030677
12
MD Step 826 Units = [Angstroms]
C  -0.67109723 -1.24909156 -0.00393652
C  0.69386804 -1.17403070 0.07123152
C  1.40150341 0.01760481 -0.02809202
C  0.69795694 1.21068964 -0.00335652
C  -0.72752551 1.20817802 -0.03024797
C  -1.39197301 -0.01189252 -0.01442586
H  -1.17259880 -2.20713896 -0.09039306
H  1.22131421 -2.17316138 0.14877661
H  2.48776304 0.07289255 -0.06649883
H  1.29052365 2.13513377 0.09168769
H  -1.30351625 2.11117184 -0.04306023
H  -2.55604815 0.04373234 0.06467488
12
MD Step 827 Units = [Angstroms]
C  -0.67175437 -1.25221642 -0.00201738
C  0.69466228 -1.17319105 0.06937641
C  1.39764203 0.02120155 -0.02984312
C  0.69938460 1.20897464 -0.00093398
C  -0.72623661 1.20828434 -0.03175824
C  -1.39191775 -0.00940313 -0.01547707
H  -1.16423320 -2.20707027 -0.08875423
H  1.23007789 -2.18115856 0.15540793
H  2.47688510 0.05498895 -0.05945020
H  1.29104713 2.13706000 0.09243215
H  -1.30798430 2.11236586 -0.04090443
H  -2.54700514 0.04032137 0.06821478
12
MD Step 828 Units = [Angstroms]
C  -0.67268792 -1.25478635 -0.00009872
C  0.69572276 -1.17285376 0.06743480
C  1.39370018 0.02481278 -0.03147386
C  0.70057173 1.20743199 0.00146058
C  -0.72462036 1.20814894 -0.03321542
C  -1.39209770 -0.00711910 -0.01648247
H  -1.15712228 -2.20817260 -0.08665932
H  1.23830296 -2.18613216 0.16168453
H  2.46776865 0.03658445 -0.05235292
H  1.29059913 2.13918713 0.09258636
H  -1.31291132 2.11557526 -0.03871013
H  -2.53365205 0.03581696 0.07091341
12
MD Step 829 Units = [Angstroms]
C  -0.67384263 -1.25675290 0.00181373
C  0.69701608 -1.17306256 0.06541957
C  1.38969174 0.02835883 -0.03297555
C  0.70150057 1.20613980 0.00381683
C  -0.72271888 1.20781284 -0.03461352
C  -1.39244148 -0.00508194 -0.01743939
H  -1.15154032 -2.21078304 -0.08412321
H  1.24567827 -2.18755900 0.16749134
H  2.46100414 0.01792510 -0.04526852
H  1.28913365 2.14138106 0.09217298
H  -1.31794167 2.12035650 -0.03649377
H  -2.51686559 0.03033308 0.07278742
12
MD Step 830 Units = [Angstroms]
C  -0.67516592 -1.25808919 0.00371326
C  0.69849860 -1.17383669 0.06334200
C  1.38564843 0.03175942 -0.03434095
C  0.70215569 1.20517060 0.00612454
C  -0.72058329 1.20732693 -0.03594665
C  -1.39285453 -0.00332838 -0.01834791
H  -1.14765457 -2.21504848 -0.08114757
H  1.25200749 -2.18516721 0.17273166
H  2.45692705 -0.00074985 -0.03824648
H  1.28663745 2.14354200 0.09122206
H  -1.32265737 2.12614950 -0.03427456
H  -2.49784116 0.02399774 0.07388557
12
MD Step 831 Units = [Angstroms]
C  -0.67661059 -1.25879225 0.00559202
C  0.70011824 -1.17517064 0.06121148
C  1.38162168 0.03493498 -0.03556391
C  0.70252472 1.20458843 0.00837357
C  -0.71827028 1.20674652 -0.03720903
C  -1.39322174 -0.00188967 -0.01921083
H  -1.14551328 -2.22089777 -0.07771875
H  1.25721329 -2.17893941 0.17733224
H  2.45557709 -0.01919925 -0.03132856
H  1.28313389 2.14561285 0.08977115
H  -1.32662221 2.13234343 -0.03207530
H  -2.47805542 0.01694643 0.07428829
12
MD Step 832 Units = [Angstroms]
C  -0.67813625 -1.25888296 0.00744109
C  0.70181604 -1.17703407 0.05903525
C  1.37768079 0.03780796 -0.03663893
C  0.70259919 1.20444619 0.01055391
C  -0.71583889 1.20612622 -0.03839496
C  -1.39341386 -0.00079081 -0.02003340
H  -1.14504893 -2.22804370 -0.07380894
H  1.26134015 -2.16911253 0.18124793
H  2.45670179 -0.03717063 -0.02455435
H  1.27868441 2.14758388 0.08786487
H  -1.32942381 2.13833844 -0.02992225
H  -2.45918233 0.00931437 0.07410258
12
MD Step 833 Units = [Angstroms]
C  -0.67970946 -1.25840339 0.00925093
C  0.70352759 -1.17937223 0.05681814
C  1.37390786 0.04030463 -0.03756072
C  0.70237541 1.20478338 0.01265568
C  -0.71334772 1.20551566 -0.03949895
C  -1.39329899 -0.00004993 -0.02082241
H  -1.14609566 -2.23601461 -0.06938039
H  1.26455651 -2.15617442 0.18446589
H  2.45980288 -0.05439475 -0.01796590
H  1.27338739 2.14949340 0.08555395
H  -1.33070867 2.14359706 -0.02784424
H  -2.44294830 0.00122891 0.07345006
12
MD Step 834 Units = [Angstroms]
C  -0.68130312 -1.25741234 0.01101187
C  0.70518415 -1.18210703 0.05456241
C  1.37039044 0.04235755 -0.03832398
C  0.70185534 1.20562443 0.01466919
C  -0.71085269 1.20495638 -0.04051578
C  -1.39275889 0.00032191 -0.02158473
H  -1.14841644 -2.24420856 -0.06439164
H  1.26715400 -2.14085345 0.18700891
H  2.46421327 -0.07058684 -0.01161050
H  1.26737465 2.15142444 0.08289387
H  -1.33020855 2.14768251 -0.02587136
H  -2.43092809 -0.00719497 0.07244831
12
MD Step 835 Units = [Angstroms]
C  -0.68289520 -1.25597973 0.01271481
C  0.70671410 -1.18513943 0.05226770
C  1.36721350 0.04390834 -0.03892329
C  0.70104735 1.20697766 0.01658493
C  -0.70840533 1.20447960 -0.04144061
C  -1.39170794 0.00032043 -0.02232548
H  -1.15173458 -2.25195913 -0.05880426
H  1.26953982 -2.12409373 0.18893675
H  2.46918658 -0.08545475 -0.00554075
H  1.26080550 2.15349718 0.07994318
H  -1.32775798 2.15028487 -0.02403342
H  -2.42431177 -0.01585357 0.07118836
12
MD Step 836 Units = [Angstroms]
C  -0.68446741 -1.25418106 0.01435175
C  0.70804501 -1.18835402 0.04993129
C  1.36445207 0.04491069 -0.03935328
C  0.69996682 1.20883505 0.01839363
C  -0.70605132 1.20410498 -0.04226913
C  -1.39010969 -0.00005280 -0.02304648
H  -1.15576426 -2.25860155 -0.05258886
H  1.27221623 -2.10700675 0.19034361
H  2.47398255 -0.09871193 0.00018729
H  1.25385875 2.15585752 0.07676162
H  -1.32330465 2.15123697 -0.02235850
H  -2.42370005 -0.02464663 0.06971472
12
MD Step 837 Units = [Angstroms]
C  -0.68600394 -1.25209249 0.01591627
C  0.70910704 -1.19162617 0.04754881
C  1.36216558 0.04533283 -0.03960874
C  0.69863651 1.21117285 0.02008633
C  -0.70382943 1.20383996 -0.04299764
C  -1.38798591 -0.00079154 -0.02374538
H  -1.16023657 -2.26353088 -0.04572936
H  1.27574075 -2.09079123 0.19134975
H  2.47793744 -0.11009224 0.00551739
H  1.24672300 2.15866226 0.07340818
H  -1.31691365 2.15052230 -0.02087159
H  -2.42899337 -0.03346571 0.06801527
12
MD Step 838 Units = [Angstroms]
C  -0.68749034 -1.24978705 0.01740377
C  0.70983804 -1.19483203 0.04511544
C  1.36039410 0.04515936 -0.03968497
C  0.69708661 1.21395297 0.02165440
C  -0.70177051 1.20367971 -0.04362315
C  -1.38541469 -0.00188585 -0.02441598
H  -1.16491955 -2.26624767 -0.03822540
H  1.28066348 -2.07661955 0.19208578
H  2.48051512 -0.11936381 0.01039675
H  1.23958581 2.16206190 0.06993939
H  -1.30876669 2.14827606 -0.01959346
H  -2.43941447 -0.04218446 0.06602529
12
MD Step 839 Units = [Angstroms]
C  -0.68891256 -1.24733195 0.01881158
C  0.71019017 -1.19786048 0.04262774
C  1.35915638 0.04439201 -0.03957793
C  0.69535443 1.21712517 0.02308965
C  -0.69989674 1.20360760 -0.04414351
C  -1.38251831 -0.00332225 -0.02504958
H  -1.16963218 -2.26639062 -0.03009275
H  1.28744453 -2.06550141 0.19267030
H  2.48134009 -0.12634052 0.01477952
H  1.23262263 2.16618253 0.06640781
H  -1.29915609 2.14477933 -0.01853983
H  -2.45365576 -0.05065572 0.06364402
12
MD Step 840 Units = [Angstroms]
C  -0.69025618 -1.24478681 0.02013898
C  0.71013699 -1.20062471 0.04008565
C  1.35844940 0.04304944 -0.03928456
C  0.69348366 1.22062976 0.02438442
C  -0.69822144 1.20359633 -0.04455748
C  -1.37944517 -0.00508317 -0.02563681
H  -1.17425337 -2.26375738 -0.02136227
H  1.29636492 -2.05814972 0.19318444
H  2.48021600 -0.13089024 0.01862969
H  1.22598646 2.17110862 0.06286099
H  -1.28847263 2.14044480 -0.01772096
H  -2.47009986 -0.05871716 0.06075747
12
MD Step 841 Units = [Angstroms]
C  -0.69150579 -1.24220262 0.02138701
C  0.70967936 -1.20307088 0.03749417
C  1.35824883 0.04116614 -0.03880291
C  0.69152326 1.22440055 0.02553167
C  -0.69674935 1.20360986 -0.04486472
C  -1.37635116 -0.00714581 -0.02616937
H  -1.17872688 -2.25831556 -0.01207769
H  1.30745268 -2.05488203 0.19365007
H  2.47713340 -0.13294003 0.02192342
H  1.21979938 2.17686889 0.05934093
H  -1.27718598 2.13579170 -0.01714168
H  -2.48704732 -0.06620276 0.05725985
12
MD Step 842 Units = [Angstroms]
C  -0.69264448 -1.23962112 0.02255828
C  0.70884805 -1.20518143 0.03486423
C  1.35851043 0.03879062 -0.03813243
C  0.68952586 1.22836783 0.02652506
C  -0.69547785 1.20360628 -0.04506577
C  -1.37338448 -0.00948093 -0.02664118
H  -1.18306319 -2.25020562 -0.00229240
H  1.32044697 -2.05558640 0.19401846
H  2.47226945 -0.13247824 0.02465057
H  1.21414688 2.18342705 0.05588406
H  -1.26581636 2.13140764 -0.01680215
H  -2.50290240 -0.07295561 0.05306899
12
MD Step 843 Units = [Angstroms]
C  -0.69365369 -1.23707460 0.02365663
C  0.70770215 -1.20697214 0.03221232
C  1.35917200 0.03598312 -0.03727407
C  0.68754594 1.23246106 0.02735908
C  -0.69439894 1.20354187 -0.04516199
C  -1.37067562 -0.01205197 -0.02704901
H  -1.18733817 -2.23973582 0.00793420
H  1.33481345 -2.05976151 0.19417345
H  2.46597977 -0.12955368 0.02681555
H  1.20907571 2.19067892 0.05252154
H  -1.25489780 2.12789655 -0.01669921
H  -2.51629687 -0.07883857 0.04813410
12
MD Step 844 Units = [Angstroms]
C  -0.69451317 -1.23458621 0.02468681
C  0.70632336 -1.20848431 0.02955904
C  1.36015607 0.03281309 -0.03623045
C  0.68563767 1.23661106 0.02802909
C  -0.69350199 1.20337602 -0.04515531
C  -1.36833182 -0.01481478 -0.02739257
H  -1.19168837 -2.22736831 0.01854088
H  1.34980711 -2.06661658 0.19394810
H  2.45878104 -0.12427144 0.02843707
H  1.20459537 2.19845631 0.04927992
H  -1.24493494 2.12581505 -0.01682833
H  -2.52615696 -0.08374103 0.04243755
12
MD Step 845 Units = [Angstroms]
C  -0.69520134 -1.23217084 0.02565410
C  0.70480777 -1.20977453 0.02692707
C  1.36137356 0.02935641 -0.03500590
C  0.68385271 1.24075160 0.02853144
C  -0.69277671 1.20307663 -0.04504812
C  -1.36643475 -0.01771792 -0.02767428
H  -1.19630155 -2.21369450 0.02946873
H  1.36456421 -2.07520063 0.19314925
H  2.45132076 -0.11678529 0.02954673
H  1.20068298 2.20653746 0.04618182
H  -1.23635852 2.12560436 -0.01718579
H  -2.53173043 -0.08758207 0.03599260
12
MD Step 846 Units = [Angstroms]
C  -0.69569619 -1.22983690 0.02656397
C  0.70325700 -1.21090471 0.02433907
C  1.36272869 0.02569270 -0.03360637
C  0.68223800 1.24482033 0.02886351
C  -0.69221585 1.20262512 -0.04484303
C  -1.36503984 -0.02070361 -0.02789895
H  -1.20140118 -2.19939779 0.04066478
H  1.37819927 -2.08452877 0.19158299
H  2.44433075 -0.10728655 0.03018620
H  1.19729091 2.21466249 0.04324662
H  -1.22948633 2.12752835 -0.01777046
H  -2.53259219 -0.09031114 0.02883932
12
MD Step 847 Units = [Angstroms]
C  -0.69597657 -1.22758906 0.02742181
C  0.70177036 -1.21193412 0.02181592
C  1.36412513 0.02190270 -0.03203921
C  0.68083390 1.24875921 0.02902378
C  -0.69181695 1.20201993 -0.04454273
C  -1.36417613 -0.02370907 -0.02807333
H  -1.20722396 -2.18520283 0.05208449
H  1.38988823 -2.09368382 0.18907572
H  2.43856245 -0.09599040 0.03040283
H  1.19435595 2.22255221 0.04049089
H  -1.22449713 2.13163045 -0.01858490
H  -2.52864251 -0.09190732 0.02103968
12
MD Step 848 Units = [Angstroms]
C  -0.69602418 -1.22543177 0.02823282
C  0.70043878 -1.21291413 0.01937563
C  1.36547336 0.01806589 -0.03031283
C  0.67967255 1.25251432 0.02901192
C  -0.69158283 1.20127785 -0.04415003
C  -1.36384586 -0.02666833 -0.02820570
H  -1.21399045 -2.17181359 0.06369212
H  1.39892851 -2.10188548 0.18548839
H  2.43470640 -0.08312166 0.03024430
H  1.19180921 2.22992801 0.03792877
H  -1.22142251 2.13771940 -0.01963512
H  -2.52010575 -0.09237811 0.01267249
12
MD Step 849 Units = [Angstroms]
C  -0.69582601 -1.22337324 0.02900210
C  0.69934054 -1.21388523 0.01703274
C  1.36669843 0.01425881 -0.02843627
C  0.67877679 1.25603550 0.02882880
C  -0.69152057 1.20043275 -0.04366785
C  -1.36402387 -0.02951432 -0.02830547
H  -1.22187102 -2.15984624 0.07545846
H  1.40477609 -2.10853053 0.18072417
H  2.43330471 -0.06890310 0.02975293
H  1.18958553 2.23653109 0.03557199
H  -1.22015782 2.14538765 -0.02092919
H  -2.50753163 -0.09175803 0.00382792
12
MD Step 850 Units = [Angstroms]
C  -0.69537690 -1.22142896 0.02973493
C  0.69853855 -1.21487566 0.01479814
C  1.36774694 0.01055401 -0.02641887
C  0.67815964 1.25927563 0.02847653
C  -0.69163956 1.19953196 -0.04309936
C  -1.36465696 -0.03218107 -0.02838258
H  -1.23095171 -2.14976658 0.08735581
H  1.40706486 -2.11321239 0.17473109
H  2.43467123 -0.05354924 0.02896119
H  1.18763180 2.24213933 0.03342986
H  -1.22048889 2.15405839 -0.02247498
H  -2.49179478 -0.09010687 -0.00539856
12
MD Step 851 Units = [Angstroms]
C  -0.69468186 -1.21962404 0.03043723
C  0.69807852 -1.21590086 0.01267914
C  1.36859182 0.00701986 -0.02426999
C  0.67782417 1.26219007 0.02795850
C  -0.69194883 1.19863126 -0.04244817
C  -1.36566413 -0.03460607 -0.02844694
H  -1.24120633 -2.14184352 0.09935085
H  1.40561498 -2.11572884 0.16750157
H  2.43883708 -0.03726713 0.02788948
H  1.18591347 2.24658083 0.03150912
H  -1.22212792 2.16305082 -0.02427778
H  -2.47408269 -0.08750702 -0.01491340
12
MD Step 852 Units = [Angstroms]
C  -0.69375757 -1.21799352 0.03111601
C  0.69798783 -1.21696324 0.01067966
C  1.36923377 0.00372093 -0.02199902
C  0.67776401 1.26473607 0.02727940
C  -0.69245459 1.19778926 -0.04171843
C  -1.36693901 -0.03673253 -0.02850767
H  -1.25248112 -2.13612817 0.11139708
H  1.40043540 -2.11608452 0.15907013
H  2.44553561 -0.02026336 0.02654692
H  1.18441905 2.24974338 0.02981376
H  -1.22475173 2.17165107 -0.02633818
H  -2.45585616 -0.08405907 -0.02463306
12
MD Step 853 Units = [Angstroms]
C  -0.69263264 -1.21658047 0.03177971
C  0.69827482 -1.21805190 0.00880043
C  1.36969894 0.00071861 -0.01961556
C  0.67796408 1.26687250 0.02644519
C  -0.69315829 1.19706219 -0.04091490
C  -1.36835607 -0.03851154 -0.02857234
H  -1.26449627 -2.13246289 0.12342887
H  1.39172337 -2.11449148 0.14950999
H  2.45423162 -0.00275363 0.02493492
H  1.18316233 2.25157953 0.02834494
H  -1.22803640 2.17917796 -0.02865083
H  -2.43876396 -0.07987523 -0.03449217
12
MD Step 854 Units = [Angstroms]
C  -0.69134658 -1.21543207 0.03243827
C  0.69892856 -1.21914228 0.00703934
C  1.37003344 -0.00192863 -0.01712967
C  0.67840173 1.26855989 0.02546310
C  -0.69405537 1.19649951 -0.04004298
C  -1.36978176 -0.03990394 -0.02864638
H  -1.27686476 -2.13051737 0.13535854
H  1.37986068 -2.11136753 0.13892848
H  2.46418809 0.01502913 0.02305232
H  1.18218223 2.25210713 0.02710092
H  -1.23168543 2.18503681 -0.03120399
H  -2.42449771 -0.07507081 -0.04444943
12
MD Step 855 Units = [Angstroms]
C  -0.68994761 -1.21459461 0.03310289
C  0.69991944 -1.22019618 0.00539181
C  1.37029603 -0.00416552 -0.01455221
C  0.67904806 1.26976087 0.02434158
C  -0.69513491 1.19614055 -0.03910869
C  -1.37109054 -0.04088170 -0.02873292
H  -1.28912478 -2.12984314 0.14707760
H  1.36540363 -2.10732854 0.12746076
H  2.47455517 0.03283181 0.02090077
H  1.18154025 2.25140538 0.02607708
H  -1.23545024 2.18875890 -0.03397997
H  -2.41458987 -0.06975558 -0.05448809
12
MD Step 856 Units = [Angstroms]
C  -0.68848969 -1.21410830 0.03378554
C  0.70120085 -1.22116255 0.00385140
C  1.37055034 -0.00594109 -0.01189497
C  0.67986935 1.27044104 0.02309031
C  -0.69637976 1.19601217 -0.03811862
C  -1.37218338 -0.04142850 -0.02883320
H  -1.30077975 -2.12993526 0.15846149
H  1.34906099 -2.10316757 0.11526092
H  2.48446318 0.05038416 0.01848890
H  1.18131573 2.24960639 0.02526613
H  -1.23914404 2.19002760 -0.03695614
H  -2.41018472 -0.06402762 -0.06460834
12
MD Step 857 Units = [Angstroms]
C  -0.68702913 -1.21400271 0.03449822
C  0.70271257 -1.22198006 0.00241068
C  1.37085796 -0.00721037 -0.00917076
C  0.68082859 1.27057017 0.02172004
C  -0.69776722 1.19612724 -0.03707986
C  -1.37300406 -0.04153949 -0.02894778
H  -1.31133898 -2.13029105 0.16937700
H  1.33165382 -2.09981151 0.10249007
H  2.49310530 0.06740696 0.01583471
H  1.18159888 2.24688263 0.02465823
H  -1.24265019 2.18869340 -0.04010634
H  -2.41183909 -0.05797221 -0.07481150
12
MD Step 858 Units = [Angstroms]
C  -0.68562119 -1.21429350 0.03525229
C  0.70438613 -1.22258213 0.00106227
C  1.37127302 -0.00793649 -0.00639334
C  0.68188698 1.27012385 0.02024259
C  -0.69926967 1.19648397 -0.03599992
C  -1.37354815 -0.04122019 -0.02907801
H  -1.32035414 -2.13045930 0.17969074
H  1.31405232 -2.09824628 0.08930165
H  2.49980184 0.08362327 0.01296618
H  1.18248215 2.24343109 0.02424132
H  -1.24592640 2.18478015 -0.04340265
H  -2.41941624 -0.05166620 -0.08508032
12
MD Step 859 Units = [Angstroms]
C  -0.68431683 -1.21498053 0.03605771
C  0.70615186 -1.22290478 -0.00019991
C  1.37183836 -0.00809285 -0.00357724
C  0.68300532 1.26908526 0.01867071
C  -0.70085539 1.19706582 -0.03488663
C  -1.37386137 -0.04048494 -0.02922725
H  -1.32744853 -2.13007710 0.18927756
H  1.29709143 -2.09940811 0.07582635
H  2.50404477 0.09877022 0.00992036
H  1.18405028 2.23945506 0.02400127
H  -1.24900550 2.17848393 -0.04681722
H  -2.43211097 -0.04518542 -0.09536238
12
MD Step 860 Units = [Angstroms]
C  -0.68315974 -1.21604717 0.03692252
C  0.70794678 -1.22289676 -0.00137973
C  1.37258316 -0.00766506 -0.00073756
C  0.68414533 1.26744705 0.01701795
C  -0.70248929 1.19784223 -0.03374805
C  -1.37402819 -0.03935528 -0.02940144
H  -1.33233848 -2.12889482 0.19802817
H  1.28147611 -2.10404986 0.06216009
H  2.50552493 0.11261020 0.00674141
H  1.18637012 2.23514519 0.02392213
H  -1.25199261 2.17016430 -0.05032416
H  -2.44859697 -0.03861116 -0.10556294
12
MD Step 861 Units = [Angstroms]
C  -0.68218378 -1.21746066 0.03785229
C  0.70972164 -1.22252987 -0.00247840
C  1.37352158 -0.00665248 0.00211025
C  0.68527072 1.26521309 0.01529857
C  -0.70413364 1.19877017 -0.03259232
C  -1.37415470 -0.03785865 -0.02960870
H  -1.33484766 -2.12679092 0.20585547
H  1.26769679 -2.11260691 0.04835976
H  2.50414625 0.12494023 0.00347819
H  1.18948101 2.23066190 0.02398617
H  -1.25505781 2.16032655 -0.05390135
H  -2.46724511 -0.03203291 -0.11554923
12
MD Step 862 Units = [Angstroms]
C  -0.68141089 -1.21917298 0.03884985
C  0.71144506 -1.22180682 -0.00349487
C  1.37465229 -0.00506921 0.00495059
C  0.68634798 1.26239990 0.01352735
C  -0.70574919 1.19979663 -0.03142753
C  -1.37435117 -0.03602749 -0.02985829
H  -1.33491520 -2.12377886 0.21269950
H  1.25597843 -2.12509737 0.03444915
H  2.50003046 0.13559949 0.00018138
H  1.19338696 2.22612116 0.02417388
H  -1.25842305 2.14959259 -0.05753181
H  -2.48634840 -0.02554672 -0.12516328
12
MD Step 863 Units = [Angstroms]
C  -0.68084964 -1.22112235 0.03991501
C  0.71310373 -1.22076394 -0.00442690
C  1.37595854 -0.00294447 0.00776800
C  0.68734693 1.25903752 0.01171950
C  -0.70729662 1.20086228 -0.03026159
C  -1.37471805 -0.03389853 -0.03015936
H  -1.33259855 -2.12000736 0.21853097
H  1.24627863 -2.14108821 0.02043397
H  2.49351396 0.14447482 -0.00309934
H  1.19805166 2.22158558 0.02446387
H  -1.26234147 2.13865861 -0.06120445
H  -2.50430541 -0.01925067 -0.13423826
12
MD Step 864 Units = [Angstroms]
C  -0.68049459 -1.22323495 0.04104443
C  0.71469864 -1.21946768 -0.00527254
C  1.37740903 -0.00032240 0.01054735
C  0.68824093 1.25516970 0.00989045
C  -0.70873870 1.20190613 -0.02910220
C  -1.37533699 -0.03151224 -0.03051980
H  -1.32807084 -2.11575430 0.22335304
H  1.23833417 -2.15974020 0.00632100
H  2.48513629 0.15150380 -0.00631819
H  1.20339704 2.21706198 0.02483280
H  -1.26706881 2.12823933 -0.06491369
H  -2.51974272 -0.01323964 -0.14261373
12
MD Step 865 Units = [Angstroms]
C  -0.68032656 -1.22542715 0.04223169
C  0.71623901 -1.21800585 -0.00603131
C  1.37895956 0.00273887 0.01327410
C  0.68900687 1.25085333 0.00805569
C  -0.71004289 1.20287103 -0.02795689
C  -1.37626645 -0.02891224 -0.03094539
H  -1.32161211 -2.11141324 0.22720102
H  1.23173919 -2.17991854 -0.00786504
H  2.47561710 0.15667504 -0.00943594
H  1.20930571 2.21250579 0.02525530
H  -1.27282770 2.11900230 -0.06865766
H  -2.53158134 -0.00760083 -0.15014749
12
MD Step 866 Units = [Angstroms]
C  -0.68031403 -1.22760825 0.04346755
C  0.71773579 -1.21647628 -0.00670496
C  1.38055603 0.00616862 0.01593456
C  0.68962493 1.24615707 0.00623059
C  -0.71118446 1.20370925 -0.02683318
C  -1.37754037 -0.02614454 -0.03143924
H  -1.31359268 -2.10747049 0.23013942
H  1.22603128 -2.20033720 -0.02207159
H  2.46581744 0.16002471 -0.01242189
H  1.21562696 2.20783164 0.02570410
H  -1.27976883 2.11149979 -0.07243503
H  -2.53906352 -0.00241084 -0.15672383
12
MD Step 867 Units = [Angstroms]
C  -0.68041572 -1.22968407 0.04474043
C  0.71919639 -1.21497561 -0.00729749
C  1.38213884 0.00988556 0.01851609
C  0.69007824 1.24115944 0.00443018
C  -0.71214923 1.20438740 -0.02573878
C  -1.37916844 -0.02325676 -0.03200147
H  -1.30444726 -2.10447084 0.23225564
H  1.22076530 -2.21970160 -0.03621665
H  2.45668099 0.16162869 -0.01525482
H  1.22218583 2.20292844 0.02615031
H  -1.28793512 2.10610957 -0.07624075
H  -2.54175823 0.00226592 -0.16225890
12
MD Step 868 Units = [Angstroms]
C  -0.68058427 -1.23156140 0.04603733
C  0.72062157 -1.21359032 -0.00781479
C  1.38364911 0.01380039 0.02100714
C  0.69035261 1.23594625 0.00266899
C  -0.71293562 1.20488964 -0.02468190
C  -1.38113683 -0.02029739 -0.03262897
H  -1.29463950 -2.10297054 0.23365000
H  1.21556501 -2.23682473 -0.05019372
H  2.44915388 0.16159049 -0.01792222
H  1.22879390 2.19767701 0.02656390
H  -1.29723669 2.10299602 -0.08006169
H  -2.53955894 0.00637786 -0.16670463
12
MD Step 869 Units = [Angstroms]
C  -0.68077075 -1.23315335 0.04734487
C  0.72200425 -1.21239056 -0.00826390
C  1.38503612 0.01781864 0.02339718
C  0.69043621 1.23060783 0.00096080
C  -0.71355532 1.20521845 -0.02367140
C  -1.38340876 -0.01731500 -0.03331526
H  -1.28461883 -2.10347936 0.23442278
H  1.21015207 -2.25070729 -0.06388044
H  2.44408729 0.16002616 -0.02041739
H  1.23526099 2.19196814 0.02691442
H  -1.30744297 2.10210024 -0.08387312
H  -2.53268188 0.00988629 -0.17005187
12
MD Step 870 Units = [Angstroms]
C  -0.68092952 -1.23438499 0.04865060
C  0.72332980 -1.21142673 -0.00865233
C  1.38626505 0.02184356 0.02567650
C  0.69031949 1.22523606 -0.00068153
C  -0.71403233 1.20539309 -0.02271685
C  -1.38592462 -0.01435757 -0.03405029
H  -1.27477449 -2.10639692 0.23465950
H  1.20435773 -2.26058484 -0.07714851
H  2.44213481 0.15704919 -0.02273460
H  1.24140643 2.18571918 0.02717180
H  -1.31819478 2.10316070 -0.08763728
H  -2.52166652 0.01276531 -0.17233333
12
MD Step 871 Units = [Angstroms]
C  -0.68102272 -1.23519882 0.04994418
C  0.72457715 -1.21072779 -0.00898730
C  1.38732369 0.02577885 0.02783578
C  0.68999513 1.21992147 -0.00224622
C  -0.71440054 1.20544583 -0.02182840
C  -1.38860209 -0.01147192 -0.03482030
H  -1.26539441 -2.11195259 0.23441727
H  1.19812405 -2.26595146 -0.08987321
H  2.44366320 0.15275921 -0.02486311
H  1.24706920 2.17888779 0.02730720
H  -1.32903437 2.10575908 -0.09130416
H  -2.50737451 0.01500146 -0.17362577
12
MD Step 872 Units = [Angstroms]
C  -0.68102358 -1.23555887 0.05121828
C  0.72572014 -1.21030074 -0.00927519
C  1.38822613 0.02953086 0.02986582
C  0.68945819 1.21475043 -0.00372270
C  -0.71470035 1.20541718 -0.02101649
C  -1.39133708 -0.00870314 -0.03560787
H  -1.25663751 -2.12016068 0.23371526
H  1.19150010 -2.26656953 -0.10194227
H  2.44869671 0.14723753 -0.02678165
H  1.25211617 2.17148194 0.02729392
H  -1.33944731 2.10938065 -0.09481464
H  -2.49097712 0.01659306 -0.17405036
12
MD Step 873 Units = [Angstroms]
C  -0.68091805 -1.23545267 0.05246889
C  0.72672883 -1.21013050 -0.00952097
C  1.38901260 0.03301019 0.03175727
C  0.68870627 1.20980271 -0.00510167
C  -0.71497488 1.20535076 -0.02029147
C  -1.39400670 -0.00609407 -0.03639223
H  -1.24852555 -2.13080120 0.23253172
H  1.18463695 -2.26247358 -0.11326384
H  2.45690958 0.14055083 -0.02845504
H  1.25644812 2.16356569 0.02710817
H  -1.34890845 2.11347749 -0.09810500
H  -2.47391593 0.01754876 -0.17376910
12
MD Step 874 Units = [Angstroms]
C  -0.68070449 -1.23489066 0.05369507
C  0.72757053 -1.21018009 -0.00972768
C  1.38974510 0.03613303 0.03350075
C  0.68773978 1.20514921 -0.00637517
C  -0.71526649 1.20528882 -0.01966317
C  -1.39647579 -0.00368466 -0.03715014
H  -1.24095655 -2.14343155 0.23080845
H  1.17778273 -2.25397138 -0.12377418
H  2.46766924 0.13276082 -0.02983414
H  1.26000323 2.15526056 0.02672963
H  -1.35692483 2.11752548 -0.10111199
H  -2.45781864 0.01788499 -0.17297460
12
MD Step 875 Units = [Angstroms]
C  -0.68039191 -1.23390310 0.05489811
C  0.72821061 -1.21039112 -0.00989597
C  1.39049981 0.03882233 0.03508706
C  0.68656228 1.20085022 -0.00753654
C  -0.71561386 1.20526855 -0.01914056
C  -1.39860824 -0.00151140 -0.03785745
H  -1.23373576 -2.15742736 0.22846171
H  1.17127726 -2.24164164 -0.13344473
H  2.48011915 0.12393640 -0.03085924
H  1.26275799 2.14674242 0.02614193
H  -1.36307130 2.12106949 -0.10377770
H  -2.44435666 0.01762235 -0.17187156
12
MD Step 876 Units = [Angstroms]
C  -0.67999709 -1.23253523 0.05608042
C  0.72861329 -1.21068502 -0.01002365
C  1.39135793 0.04100921 0.03650765
C  0.68518086 1.19695407 -0.00858035
C  -0.71604971 1.20531944 -0.01873145
C  -1.40028284 0.00039335 -0.03849131
H  -1.22661661 -2.17204390 0.22539664
H  1.16554433 -2.22632297 -0.14228813
H  2.49328215 0.11416392 -0.03146580
H  1.26472538 2.13823406 0.02533282
H  -1.36701677 2.12375590 -0.10605363
H  -2.43504699 0.01678149 -0.17065025
12
MD Step 877 Units = [Angstroms]
C  -0.67954155 -1.23084166 0.05724434
C  0.72874261 -1.21096582 -0.01010550
C  1.39239667 0.04263471 0.03775514
C  0.68360671 1.19349619 -0.00950227
C  -0.71659931 1.20546153 -0.01844220
C  -1.40141142 0.00200178 -0.03903275
H  -1.21934303 -2.18648636 0.22152221
H  1.16107771 -2.20908467 -0.15036156
H  2.50616397 0.10355312 -0.03159109
H  1.26595030 2.12999361 0.02429412
H  -1.36854173 2.12535350 -0.10790392
H  -2.43102757 0.01538009 -0.16945634
12
MD Step 878 Units = [Angstroms]
C  -0.67904867 -1.22888092 0.05839107
C  0.72856412 -1.21112540 -0.01013341
C  1.39368165 0.04365164 0.03882367
C  0.68185557 1.19049894 -0.01029897
C  -0.71727939 1.20570432 -0.01827761
C  -1.40195469 0.00329095 -0.03946880
H  -1.21168606 -2.19997780 0.21676393
H  1.15841636 -2.19116783 -0.15776501
H  2.51784199 0.09223793 -0.03118039
H  1.26650262 2.12229930 0.02302145
H  -1.36754827 2.12576525 -0.10930754
H  -2.43286106 0.01343246 -0.16836540
12
MD Step 879 Units = [Angstroms]
C  -0.67854133 -1.22671087 0.05951998
C  0.72804763 -1.21105191 -0.01009713
C  1.39526128 0.04402646 0.03970930
C  0.67994832 1.18797183 -0.01096795
C  -0.71809745 1.20604635 -0.01824078
C  -1.40193072 0.00424269 -0.03979364
H  -1.20347137 -2.21181706 0.21107285
H  1.15810436 -2.17388741 -0.16463160
H  2.52753256 0.08037313 -0.03019179
H  1.26646790 2.11543135 0.02151379
H  -1.36406390 2.12503301 -0.11025973
H  -2.44042877 0.01095239 -0.16737050
12
MD Step 880 Units = [Angstroms]
C  -0.67804007 -1.22438523 0.06062811
C  0.72717128 -1.21064137 -0.00998588
C  1.39716319 0.04374072 0.04041006
C  0.67791136 1.18591257 -0.01150739
C  -0.71905139 1.20647509 -0.01833301
C  -1.40141299 0.00484343 -0.04000819
H  -1.19459681 -2.22142329 0.20443072
H  1.16063366 -2.15849509 -0.17110791
H  2.53463670 0.06812838 -0.02859928
H  1.26593677 2.10965213 0.01977293
H  -1.35823998 2.12333613 -0.11077249
H  -2.45295271 0.00795829 -0.16638779
12
MD Step 881 Units = [Angstroms]
C  -0.67756184 -1.22195118 0.06171010
C  0.72592655 -1.20981111 -0.00979060
C  1.39939240 0.04279196 0.04092607
C  0.67577682 1.18430845 -0.01191609
C  -0.72012954 1.20696753 -0.01855380
C  -1.40051854 0.00508412 -0.04011851
H  -1.18504151 -2.22836715 0.19685158
H  1.16637388 -2.14601898 -0.17732528
H  2.53876809 0.05568121 -0.02639438
H  1.26499369 2.10518624 0.01780292
H  -1.35034437 2.12098362 -0.11087421
H  -2.46913763 0.00447829 -0.16527783
12
MD Step 882 Units = [Angstroms]
C  -0.67711911 -1.21944784 0.06275819
C  0.72432361 -1.20851228 -0.00950654
C  1.40193077 0.04119384 0.04125948
C  0.67358247 1.18313826 -0.01219339
C  -0.72131116 1.20749121 -0.01890087
C  -1.39939040 0.00496027 -0.04013344
H  -1.17486857 -2.23239077 0.18838078
H  1.17550064 -2.13711358 -0.18336717
H  2.53976832 0.04320995 -0.02358645
H  1.26370647 2.10220254 0.01560967
H  -1.34074745 2.11839817 -0.11060819
H  -2.48738440 0.00055308 -0.16387463
12
MD Step 883 Units = [Angstroms]
C  -0.67671938 -1.21690530 0.06376250
C  0.72239520 -1.20673796 -0.00913545
C  1.40473745 0.03897562 0.04141433
C  0.67137123 1.18237437 -0.01233917
C  -0.72256764 1.20800620 -0.01937035
C  -1.39817933 0.00447241 -0.04006247
H  -1.16422331 -2.23341888 0.17909194
H  1.18794037 -2.13196211 -0.18924176
H  2.53771308 0.03088718 -0.02020205
H  1.26211793 2.10079997 0.01320067
H  -1.32989978 2.11608938 -0.11002976
H  -2.50601155 -0.00376437 -0.16201375
12
MD Step 884 Units = [Angstroms]
C  -0.67636513 -1.21434408 0.06471140
C  0.72019793 -1.20452428 -0.00868650
C  1.40775017 0.03618112 0.04139648
C  0.66919012 1.18198475 -0.01235392
C  -0.72386459 1.20846796 -0.01995706
C  -1.39702887 0.00362672 -0.03991410
H  -1.15332812 -2.23156254 0.16908261
H  1.20334922 -2.13026253 -0.19486894
H  2.53291081 0.01887394 -0.01628332
H  1.26024073 2.10099897 0.01058506
H  -1.31830091 2.11461430 -0.10920200
H  -2.52343765 -0.00841175 -0.15955326
12
MD Step 885 Units = [Angstroms]
C  -0.67605396 -1.21177495 0.06559196
C  0.71780997 -1.20194421 -0.00817577
C  1.41088736 0.03286716 0.04121336
C  0.66708894 1.18193487 -0.01223881
C  -0.72516467 1.20883127 -0.02065489
C  -1.39606522 0.00243564 -0.03969488
H  -1.14247446 -2.22711565 0.15846872
H  1.22113484 -2.13130224 -0.20008646
H  2.52589257 0.00731483 -0.01188555
H  1.25805645 2.10273969 0.00777395
H  -1.30645971 2.11452457 -0.10818992
H  -2.53830436 -0.01332157 -0.15638579
12
MD Step 886 Units = [Angstroms]
C  -0.67577921 -1.20919932 0.06639055
C  0.71532558 -1.19909614 -0.00762420
C  1.41405134 0.02910177 0.04087379
C  0.66511833 1.18218921 -0.01199588
C  -0.72643102 1.20905513 -0.02145734
C  -1.39539165 0.00091837 -0.03940912
H  -1.13201135 -2.22054253 0.14737809
H  1.24051647 -2.13409604 -0.20467309
H  2.51738920 -0.00366573 -0.00707373
H  1.25551875 2.10588696 0.00478089
H  -1.29484973 2.11630345 -0.10705401
H  -2.54954452 -0.01842544 -0.15244324
12
MD Step 887 Units = [Angstroms]
C  -0.67553077 -1.20661037 0.06709344
C  0.71284770 -1.19609075 -0.00705496
C  1.41713307 0.02496223 0.04038766
C  0.66332773 1.18271237 -0.01162814
C  -0.72763062 1.20910779 -0.02235803
C  -1.39508599 -0.00089890 -0.03905892
H  -1.12232948 -2.21245389 0.13594315
H  1.26060704 -2.13754611 -0.20838073
H  2.50829039 -0.01396587 -0.00191812
H  1.25256060 2.11024165 0.00162249
H  -1.28386567 2.12030022 -0.10584372
H  -2.55641106 -0.02365758 -0.14769643
12
MD Step 888 Units = [Angstroms]
C  -0.67529621 -1.20399541 0.06768746
C  0.71048017 -1.19303926 -0.00649078
C  1.42001861 0.02053299 0.03976554
C  0.66176313 1.18346972 -0.01113973
C  -0.72873709 1.20897136 -0.02335109
C  -1.39519983 -0.00298310 -0.03864433
H  -1.11384004 -2.20356785 0.12429331
H  1.28049786 -2.14058581 -0.21096643
H  2.49958050 -0.02350634 0.00351091
H  1.24910414 2.11555670 -0.00168107
H  -1.27378861 2.12667310 -0.10459257
H  -2.55848462 -0.02895749 -0.14215240
12
MD Step 889 Units = [Angstroms]
C  -0.67506229 -1.20133949 0.06816058
C  0.70832087 -1.19004487 -0.00595186
C  1.42259749 0.01590362 0.03901834
C  0.66046502 1.18442766 -0.01053599
C  -0.72973226 1.20864476 -0.02443137
C  -1.39575832 -0.00529473 -0.03816357
H  -1.10694772 -2.19465424 0.11254770
H  1.29933067 -2.14228576 -0.21221787
H  2.49224945 -0.03222823 0.00914820
H  1.24507218 2.12155618 -0.00510575
H  -1.26476722 2.13535314 -0.10331579
H  -2.55567342 -0.03427181 -0.13585081
12
MD Step 890 Units = [Angstroms]
C  -0.67481670 -1.19863027 0.06850240
C  0.70645637 -1.18719769 -0.00545453
C  1.42477248 0.01116672 0.03815694
C  0.65946651 1.18555359 -0.00982352
C  -0.73060616 1.20814439 -0.02559443
C  -1.39675983 -0.00778866 -0.03761329
H  -1.10201889 -2.18646372 0.10080951
H  1.31635037 -2.14191831 -0.21196984
H  2.48718421 -0.04008799 0.01493804
H  1.24039980 2.12795524 -0.00862352
H  -1.25681868 2.14603792 -0.10201113
H  -2.54821347 -0.03955573 -0.12886016
12
MD Step 891 Units = [Angstroms]
C  -0.67454997 -1.19586364 0.06870438
C  0.70495807 -1.18457235 -0.00501058
C  1.42646952 0.00641602 0.03719199
C  0.65879199 1.18681564 -0.00901015
C  -0.73135561 1.20750229 -0.02683626
C  -1.39817541 -0.01041507 -0.03698870
H  -1.09934766 -2.17964824 0.08916314
H  1.33093892 -2.13898852 -0.21011262
H  2.48505551 -0.04705084 0.02083619
H  1.23504489 2.13447942 -0.01220267
H  -1.24984820 2.15821756 -0.10066265
H  -2.53667052 -0.04477419 -0.12127400
12
MD Step 892 Units = [Angstroms]
C  -0.67425724 -1.19304912 0.06875971
C  0.70387960 -1.18222740 -0.00462706
C  1.42764592 0.00174467 0.03613399
C  0.65845625 1.18818224 -0.00810489
C  -0.73198192 1.20676218 -0.02815289
C  -1.39994833 -0.01312068 -0.03628386
H  -1.09912428 -2.17468475 0.07767505
H  1.34263507 -2.13324358 -0.20659455
H  2.48622195 -0.05308412 0.02680877
H  1.22899663 2.14088172 -0.01580840
H  -1.24368169 2.17122744 -0.09924639
H  -2.52193984 -0.04990301 -0.11320643
12
MD Step 893 Units = [Angstroms]
C  -0.67393961 -1.19021374 0.06866297
C  0.70325508 -1.18020526 -0.00430632
C  1.42829506 -0.00275610 0.03499349
C  0.65846409 1.18962169 -0.00711780
C  -0.73248819 1.20597418 -0.02953990
C  -1.40199468 -0.01584999 -0.03549201
H  -1.10141153 -2.17181684 0.06639821
H  1.35114560 -2.12467139 -0.20142113
H  2.49067461 -0.05815282 0.03282800
H  1.22228154 2.14695662 -0.01940365
H  -1.23810386 2.18431664 -0.09773647
H  -2.50523308 -0.05492980 -0.10478621
12
MD Step 894 Units = [Angstroms]
C  -0.67360477 -1.18740347 0.06840953
C  0.70309793 -1.17853241 -0.00404622
C  1.42844626 -0.00699798 0.03378150
C  0.65881056 1.19110190 -0.00605987
C  -0.73287707 1.20518936 -0.03099210
C  -1.40420616 -0.01854657 -0.03460610
H  -1.10613388 -2.17102750 0.05537910
H  1.35635265 -2.11349565 -0.19465248
H  2.49803704 -0.06221853 0.03886615
H  1.21496655 2.15255034 -0.02295011
H  -1.23289450 2.19671973 -0.09611067
H  -2.48803621 -0.05985425 -0.09614871
12
MD Step 895 Units = [Angstroms]
C  -0.67326667 -1.18468159 0.06799490
C  0.70340018 -1.17721914 -0.00384038
C  1.42815985 -0.01089634 0.03250981
C  0.65948150 1.19259015 -0.00494283
C  -0.73314908 1.20445461 -0.03250324
C  -1.40645679 -0.02115437 -0.03361965
H  -1.11308219 -2.17204933 0.04466508
H  1.35831931 -2.10017034 -0.18639960
H  2.50762077 -0.06524214 0.04488966
H  1.20715924 2.15756701 -0.02640935
H  -1.22785831 2.20772147 -0.09435439
H  -2.47201988 -0.06468679 -0.08742519
12
MD Step 896 Units = [Angstroms]
C  -0.67294445 -1.18212421 0.06741431
C  0.70413231 -1.17625913 -0.00367852
C  1.42751876 -0.01437094 0.03119113
C  0.66045463 1.19405327 -0.00377901
C  -0.73330182 1.20380863 -0.03406588
C  -1.40861460 -0.02361918 -0.03252757
H  -1.12193310 -2.17440954 0.03431013
H  1.35729324 -2.08537248 -0.17681953
H  2.51852142 -0.06718890 0.05085511
H  1.19900510 2.16197043 -0.02974389
H  -1.22284632 2.21670884 -0.09246306
H  -2.45888896 -0.06944460 -0.07873061
12
MD Step 897 Units = [Angstroms]
C  -0.67266068 -1.17981397 0.06666241
C  0.70524389 -1.17562923 -0.00354690
C  1.42661851 -0.01734689 0.02983903
C  0.66170082 1.19545800 -0.00258113
C  -0.73332992 1.20327886 -0.03567134
C  -1.41055808 -0.02589009 -0.03132717
H  -1.13227936 -2.17749851 0.02437756
H  1.35370472 -2.06998851 -0.16610813
H  2.52973224 -0.06803404 0.05670821
H  1.19068218 2.16578143 -0.03291818
H  -1.21776928 2.22320864 -0.09044307
H  -2.45017525 -0.07414429 -0.07015224
12
MD Step 898 Units = [Angstroms]
C  -0.67243943 -1.17783313 0.06573336
C  0.70666555 -1.17528999 -0.00342919
C  1.42555748 -0.01975596 0.02846756
C  0.66318568 1.19677176 -0.00136220
C  -0.73322530 1.20287949 -0.03730984
C  -1.41219467 -0.02792110 -0.03001867
H  -1.14366546 -2.18064764 0.01493931
H  1.34815269 -2.05508573 -0.15448928
H  2.54025281 -0.06776712 0.06238552
H  1.18239323 2.16907076 -0.03589937
H  -1.21260456 2.22691198 -0.08831152
H  -2.44700577 -0.07879158 -0.06174271
12
MD Step 899 Units = [Angstroms]
C  -0.67230435 -1.17625713 0.06462110
C  0.70831287 -1.17518808 -0.00330755
C  1.42442875 -0.02153826 0.02709084
C  0.66487118 1.19796370 -0.00013539
C  -0.73297791 1.20261030 -0.03897052
C  -1.41347672 -0.02967258 -0.02860519
H  -1.15562323 -2.18320304 0.00607265
H  1.34137053 -2.04185838 -0.14219917
H  2.54917834 -0.06639437 0.06781822
H  1.17435583 2.17194779 -0.03865769
H  -1.20739827 2.22768807 -0.08609521
H  -2.44990481 -0.08337044 -0.05352057
12
MD Step 900 Units = [Angstroms]
C  -0.67227695 -1.17514937 0.06331972
C  0.71009260 -1.17526144 -0.00316433
C  1.42331400 -0.02264433 0.02572251
C  0.66671732 1.19900610 0.00108614
C  -0.73257625 1.20245624 -0.04064167
C  -1.41440949 -0.03111243 -0.02709212
H  -1.16770342 -2.18458639 -0.00214469
H  1.33416401 -2.03153928 -0.12946580
H  2.55576391 -0.06393893 0.07293670
H  1.16679104 2.17454573 -0.04116656
H  -1.20226390 2.22558924 -0.08382906
H  -2.45869340 -0.08783490 -0.04547883
12
MD Step 901 Units = [Angstroms]
C  -0.67237511 -1.17455752 0.06182394
C  0.71191130 -1.17544747 -0.00298381
C  1.42227930 -0.02303729 0.02437522
C  0.66868375 1.19987592 0.00228923
C  -0.73200801 1.20238783 -0.04231084
C  -1.41504839 -0.03221670 -0.02548605
H  -1.17950140 -2.18433984 -0.00963976
H  1.32732056 -2.02527474 -0.11648595
H  2.55946562 -0.06043952 0.07767530
H  1.15991134 2.17700428 -0.04340232
H  -1.19737809 2.22084826 -0.08155427
H  -2.47252237 -0.09210713 -0.03759841
12
MD Step 902 Units = [Angstroms]
C  -0.67261178 -1.17451124 0.06012952
C  0.71368544 -1.17569356 -0.00275398
C  1.42137257 -0.02269483 0.02306031
C  0.67073109 1.20055651 0.00346083
C  -0.73126060 1.20236227 -0.04396515
C  -1.41548631 -0.03296959 -0.02379370
H  -1.19067656 -2.18215545 -0.01634939
H  1.32149981 -2.02397480 -0.10340475
H  2.55996373 -0.05594829 0.08197667
H  1.15390878 2.17945140 -0.04534357
H  -1.19297324 2.21386695 -0.07931609
H  -2.49002675 -0.09608232 -0.02986170
12
MD Step 903 Units = [Angstroms]
C  -0.67299389 -1.17502093 0.05823365
C  0.71535077 -1.17596774 -0.00246754
C  1.42062209 -0.02161086 0.02178745
C  0.67282202 1.20103915 0.00458805
C  -0.73032166 1.20232561 -0.04559145
C  -1.41583566 -0.03336289 -0.02202124
H  -1.20096645 -2.17789195 -0.02222429
H  1.31712921 -2.02816716 -0.09030440
H  2.55717375 -0.05052842 0.08579551
H  1.14894446 2.18198612 -0.04697042
H  -1.18932623 2.20519416 -0.07716144
H  -2.50954828 -0.09963899 -0.02226198
12
MD Step 904 Units = [Angstroms]
C  -0.67352135 -1.17607742 0.05613530
C  0.71686867 -1.17626643 -0.00212182
C  1.42003589 -0.01979646 0.02056454
C  0.67492207 1.20132433 0.00565818
C  -0.72917999 1.20221600 -0.04717669
C  -1.41621024 -0.03339538 -0.02017395
H  -1.21019640 -2.17158179 -0.02723229
H  1.31433471 -2.03789361 -0.07720702
H  2.55124928 -0.04425173 0.08910172
H  1.14514014 2.18466452 -0.04826368
H  -1.18674188 2.19549038 -0.07513637
H  -2.52936122 -0.10265104 -0.01480716
12
MD Step 905 Units = [Angstroms]
C  -0.67418630 -1.17765222 0.05383544
C  0.71822735 -1.17661664 -0.00171758
C  1.41960183 -0.01728008 0.01939760
C  0.67699998 1.20142258 0.00665877
C  -0.72782675 1.20196818 -0.04870816
C  -1.41671090 -0.03307211 -0.01825634
H  -1.21828547 -2.16343038 -0.03136049
H  1.31292987 -2.05268216 -0.06409138
H  2.54257799 -0.03719665 0.09188289
H  1.14257297 2.18749072 -0.04920420
H  -1.18553045 2.18547712 -0.07328351
H  -2.54785439 -0.10499852 -0.00751878
12
MD Step 906 Units = [Angstroms]
C  -0.67497266 -1.17969843 0.05133732
C  0.71943780 -1.17707161 -0.00125724
C  1.41928859 -0.01410697 0.01829076
C  0.67902780 1.20135464 0.00757775
C  -0.72625724 1.20151916 -0.05017383
C  -1.41741643 -0.03240387 -0.01627250
H  -1.22524874 -2.15380801 -0.03461633
H  1.31246714 -2.07160583 -0.05091807
H  2.53176900 -0.02944616 0.09414591
H  1.14127355 2.19041422 -0.04977266
H  -1.18597876 2.17587194 -0.07163983
H  -2.56365139 -0.10657542 -0.00042820
12
MD Step 907 Units = [Angstroms]
C  -0.67585611 -1.18215229 0.04864648
C  0.72052603 -1.17770135 -0.00074300
C  1.41904774 -0.01033792 0.01724641
C  0.68098073 1.20115092 0.00840352
C  -0.72447312 1.20081453 -0.05156258
C  -1.41837907 -0.03140669 -0.01422641
H  -1.23119487 -2.14323334 -0.03702731
H  1.31233270 -2.09341016 -0.03765452
H  2.51962729 -0.02108602 0.09591728
H  1.14122750 2.19333387 -0.04994970
H  -1.18831701 2.16731435 -0.07023496
H  -2.57567520 -0.10729416 0.00642803
12
MD Step 908 Units = [Angstroms]
C  -0.67680470 -1.18493580 0.04577084
C  0.72152422 -1.17858086 -0.00017552
C  1.41881743 -0.00604751 0.01626535
C  0.68283686 1.20085033 0.00912513
C  -0.72248477 1.19981472 -0.05286436
C  -1.41962321 -0.03010150 -0.01212240
H  -1.23631731 -2.13234627 -0.03863915
H  1.31185506 -2.11667267 -0.02429293
H  2.50710932 -0.01220285 0.09724167
H  1.14238001 2.19610802 -0.04971666
H  -1.19268480 2.16029289 -0.06909033
H  -2.58317397 -0.10708785 0.01301276
12
MD Step 909 Units = [Angstroms]
C  -0.67778033 -1.18796034 0.04272042
C  0.72246301 -1.17977917 0.00044651
C  1.41852804 -0.00132201 0.01534719
C  0.68457679 1.20049856 0.00973248
C  -0.72031332 1.19849993 -0.05407034
C  -1.42114590 -0.02851356 -0.00996544
H  -1.24087706 -2.12186760 -0.03951210
H  1.31040034 -2.13995616 -0.01085832
H  2.49525470 -0.00288249 0.09817787
H  1.14464281 2.19856929 -0.04905661
H  -1.19910246 2.15508683 -0.06821915
H  -2.58572628 -0.10591122 0.01929214
12
MD Step 910 Units = [Angstroms]
C  -0.67874112 -1.19113167 0.03950709
C  0.72336628 -1.18135101 0.00112631
C  1.41810985 0.00374298 0.01449086
C  0.68618344 1.20014585 0.01021652
C  -0.71799181 1.19687282 -0.05517287
C  -1.42291781 -0.02667205 -0.00776145
H  -1.24517532 -2.11254457 -0.03971556
H  1.30743954 -2.16193079 0.00259219
H  2.48509286 0.00679125 0.09879202
H  1.14790254 2.20054206 -0.04795570
H  -1.20745369 2.15173528 -0.06762733
H  -2.58323941 -0.10374131 0.02523905
12
MD Step 911 Units = [Angstroms]
C  -0.67964473 -1.19435600 0.03614405
C  0.72424832 -1.18333165 0.00186844
C  1.41750221 0.00904500 0.01369533
C  0.68764192 1.19984458 0.01056942
C  -0.71556503 1.19495836 -0.05616551
C  -1.42488421 -0.02460940 -0.00551755
H  -1.24951625 -2.10508392 -0.03932135
H  1.30258651 -2.18145685 0.01597568
H  2.47753142 0.01673689 0.09914841
H  1.15202983 2.20186067 -0.04640447
H  -1.21748435 2.15004110 -0.06731465
H  -2.57594808 -0.10057831 0.03083621
12
MD Step 912 Units = [Angstroms]
C  -0.68045240 -1.19754662 0.03264527
C  0.72511304 -1.18573456 0.00267809
C  1.41666284 0.01447732 0.01296038
C  0.68893953 1.19964682 0.01078477
C  -0.71308798 1.19280085 -0.05704294
C  -1.42696576 -0.02236072 -0.00324231
H  -1.25416291 -2.10007881 -0.03839675
H  1.29561290 -2.19763298 0.02919236
H  2.47324202 0.02687426 0.09929928
H  1.15688815 2.20238639 -0.04439914
H  -1.22881873 2.14960847 -0.06727619
H  -2.56441519 -0.09644667 0.03607913
12
MD Step 913 Units = [Angstroms]
C  -0.68113309 -1.20063021 0.02902507
C  0.72595421 -1.18855072 0.00356038
C  1.41557532 0.01993155 0.01228725
C  0.69006591 1.19960186 0.01085768
C  -0.71062294 1.19045901 -0.05780094
C  -1.42905937 -0.01996326 -0.00094596
H  -1.25929303 -2.09794015 -0.03699880
H  1.28644917 -2.20982027 0.04213493
H  2.47256694 0.03712232 0.09927589
H  1.16234193 2.20202177 -0.04194253
H  -1.24099040 2.14990493 -0.06750344
H  -2.54952982 -0.09139616 0.04097883
12
MD Step 914 Units = [Angstroms]
C  -0.68166702 -1.20355178 0.02529776
C  0.72675630 -1.19174898 0.00451971
C  1.41425303 0.02530023 0.01167898
C  0.69101325 1.19975409 0.01078485
C  -0.70823579 1.18800016 -0.05843635
C  -1.43104014 -0.01745594 0.00135952
H  -1.26496328 -2.09884532 -0.03517131
H  1.27517915 -2.21765312 0.05469761
H  2.47546916 0.04739622 0.09908317
H  1.16826351 2.20072137 -0.03904468
H  -1.25348193 2.15033431 -0.06798514
H  -2.53249187 -0.08550176 0.04556399
12
MD Step 915 Units = [Angstroms]
C  -0.68204788 -1.20627718 0.02147761
C  0.72749535 -1.19527654 0.00555916
C  1.41273822 0.03047939 0.01114037
C  0.69177646 1.20014102 0.01056460
C  -0.70599204 1.18549457 -0.05894704
C  -1.43276553 -0.01487925 0.00366035
H  -1.27109070 -2.10271525 -0.03294545
H  1.26203275 -2.22104478 0.06678467
H  2.48153940 0.05760463 0.09869977
H  1.17453844 2.19849824 -0.03572294
H  -1.26576687 2.15030750 -0.06870778
H  -2.51476715 -0.07886118 0.04988155
12
MD Step 916 Units = [Angstroms]
C  -0.68228324 -1.20879277 0.01757905
C  0.72813972 -1.19905954 0.00667994
C  1.41109658 0.03537090 0.01067751
C  0.69235336 1.20079180 0.01019678
C  -0.70395306 1.18301073 -0.05933190
C  -1.43408342 -0.01227530 0.00594125
H  -1.27745618 -2.10922530 -0.03034360
H  1.24737886 -2.22019160 0.07831851
H  2.49005823 0.06764828 0.09808313
H  1.18106922 2.19542591 -0.03200180
H  -1.27734828 2.14930172 -0.06965601
H  -2.49799479 -0.07158891 0.05399487
12
MD Step 917 Units = [Angstroms]
C  -0.68239320 -1.21110260 0.01361702
C  0.72865085 -1.20300358 0.00788078
C  1.40940857 0.03988467 0.01029701
C  0.69274481 1.20172605 0.00968274
C  -0.70217283 1.18061184 -0.05959076
C  -1.43484481 -0.00968834 0.00818596
H  -1.28372928 -2.11784723 -0.02738531
H  1.23171752 -2.21557548 0.08924767
H  2.50009639 0.07742019 0.09717827
H  1.18777705 2.19163579 -0.02791219
H  -1.28779054 2.14690457 -0.07081299
H  -2.48383496 -0.06380632 0.05797794
12
MD Step 918 Units = [Angstroms]
C  -0.68240760 -1.21322361 0.00960726
C  0.72898417 -1.20699477 0.00915750
C  1.40775958 0.04394062 0.01000522
C  0.69295487 1.20295318 0.00902512
C  -0.70069537 1.17835334 -0.05972436
C  -1.43492106 -0.00716531 0.01037821
H  -1.28950840 -2.12791256 -0.02409357
H  1.21566847 -2.20795919 0.09955423
H  2.51062981 0.08680761 0.09592765
H  1.19460165 2.18731013 -0.02349054
H  -1.29674329 2.14284271 -0.07216071
H  -2.47376294 -0.05562943 0.06190546
12
MD Step 919 Units = [Angstroms]
C  -0.68236249 -1.21518027 0.00556667
C  0.72909062 -1.21090210 0.01050254
C  1.40623078 0.04747031 0.00980745
C  0.69299079 1.20447220 0.00822772
C  -0.69955281 1.17628150 -0.05973424
C  -1.43422248 -0.00475633 0.01250286
H  -1.29436744 -2.13868468 -0.02049979
H  1.19995133 -2.19836448 0.10925952
H  2.52064745 0.09569500 0.09428014
H  1.20149911 2.18267082 -0.01877769
H  -1.30395818 2.13699795 -0.07368058
H  -2.46884304 -0.04715800 0.06583993
12
MD Step 920 Units = [Angstroms]
C  -0.68229653 -1.21699942 0.00151330
C  0.72891921 -1.21458218 0.01190489
C  1.40489168 0.05041831 0.00970744
C  0.69286316 1.20627208 0.00729539
C  -0.69876400 1.17443253 -0.05962268
C  -1.43271387 -0.00251442 0.01454709
H  -1.29790061 -2.14942803 -0.01664659
H  1.18535195 -2.18801957 0.11842608
H  2.52923842 0.10396743 0.09219764
H  1.20843774 2.17796453 -0.01381765
H  -1.30929926 2.12941353 -0.07535397
H  -2.46954078 -0.03847027 0.06981872
12
MD Step 921 Units = [Angstroms]
C  -0.68224753 -1.21870615 -0.00253368
C  0.72842091 -1.21788749 0.01335052
C  1.40379493 0.05274310 0.00970706
C  0.69258584 1.20833251 0.00623378
C  -0.69833369 1.17283226 -0.05939253
C  -1.43042178 -0.00049450 0.01650116
H  -1.29975953 -2.15946668 -0.01258835
H  1.17267051 -2.17826333 0.12715284
H  2.53565381 0.11151381 0.08965919
H  1.21539224 2.17344528 -0.00865653
H  -1.31274834 2.12029311 -0.07716299
H  -2.47563411 -0.02962597 0.07384536
12
MD Step 922 Units = [Angstroms]
C  -0.68224956 -1.22032081 -0.00655421
C  0.72755405 -1.22067834 0.01482357
C  1.40297318 0.05441750 0.00980614
C  0.69217598 1.21062529 0.00504932
C  -0.69825219 1.17149606 -0.05904714
C  -1.42743076 0.00124856 0.01835868
H  -1.29968047 -2.16822895 -0.00838983
H  1.16265106 -2.17040200 0.13556118
H  2.53934577 0.11822982 0.08666260
H  1.22233667 2.16935565 -0.00334160
H  -1.31440528 2.10999312 -0.07909127
H  -2.48625589 -0.02067642 0.07788783
12
MD Step 923 Units = [Angstroms]
C  -0.68233063 -1.22185724 -0.01052765
C  0.72629066 -1.22283755 0.01630825
C  1.40243746 0.05542859 0.01000251
C  0.69165383 1.21311592 0.00374909
C  -0.69849555 1.17042924 -0.05859020
C  -1.42387007 0.00266224 0.02011616
H  -1.29750173 -2.17527863 -0.00412338
H  1.15589957 -2.16553204 0.14377131
H  2.53998923 0.12402052 0.08322458
H  1.22923685 2.16590827 0.00207919
H  -1.31448277 2.09900788 -0.08112473
H  -2.50005237 -0.01167730 0.08188443
12
MD Step 924 Units = [Angstroms]
C  -0.68251089 -1.22332181 -0.01443312
C  0.72462248 -1.22428500 0.01779131
C  1.40217671 0.05577710 0.01029211
C  0.69104250 1.21576548 0.00234081
C  -0.69902663 1.16962794 -0.05802562
C  -1.41989516 0.00369877 0.02177219
H  -1.29317316 -2.18033498 0.00013446
H  1.15280540 -2.16436385 0.15187275
H  2.53749178 0.12880284 0.07937952
H  1.23604346 2.16326964 0.00755733
H  -1.31329390 2.08794558 -0.08325232
H  -2.51540384 -0.00269886 0.08575465
12
MD Step 925 Units = [Angstroms]
C  -0.68280147 -1.22471302 -0.01824991
C  0.72256522 -1.22498796 0.01926426
C  1.40215821 0.05547635 0.01066912
C  0.69036740 1.21853249 0.00083283
C  -0.69979699 1.16908070 -0.05735743
C  -1.41566908 0.00431716 0.02332643
H  -1.28675943 -2.18328408 0.00430679
H  1.15348588 -2.16709509 0.15989663
H  2.53199564 0.13250813 0.07517764
H  1.24268656 2.16154803 0.01304360
H  -1.31123072 2.07749258 -0.08546621
H  -2.53064458 0.00616919 0.08941140
12
MD Step 926 Units = [Angstroms]
C  -0.68320399 -1.22602142 -0.02195785
C  0.72015957 -1.22496390 0.02072477
C  1.40232864 0.05455086 0.01112618
C  0.68965562 1.22137466 -0.00076586
C  -0.70074994 1.16877099 -0.05658976
C  -1.41134765 0.00448484 0.02477883
H  -1.27843848 -2.18418316 0.00832022
H  1.15777015 -2.17337481 0.16779893
H  2.52387260 0.13508469 0.07068243
H  1.24907288 2.16078674 0.01848749
H  -1.30873241 2.06836435 -0.08776146
H  -2.54423764 0.01481832 0.09277168
12
MD Step 927 Units = [Angstroms]
C  -0.68371064 -1.22722983 -0.02553772
C  0.71746877 -1.22427483 0.02217663
C  1.40261607 0.05303485 0.01165472
C  0.68893496 1.22425028 -0.00244555
C  -0.70182447 1.16868071 -0.05572678
C  -1.40706949 0.00417900 0.02612895
H  -1.26849547 -2.18325845 0.01210852
H  1.16522738 -2.18237092 0.17546061
H  2.51371024 0.13650026 0.06596742
H  1.25508635 2.16096362 0.02383668
H  -1.30624356 2.06124394 -0.09013465
H  -2.55488886 0.02312529 0.09576410
12
MD Step 928 Units = [Angstroms]
C  -0.68430512 -1.22831397 -0.02897165
C  0.71457312 -1.22301506 0.02362841
C  1.40293304 0.05097060 0.01224520
C  0.68823281 1.22711927 -0.00419586
C  -0.70295994 1.16879430 -0.05477286
C  -1.40295061 0.00338758 0.02737560
H  -1.25731149 -2.18089498 0.01561581
H  1.17523074 -2.19291721 0.18270404
H  2.50228511 0.13674369 0.06111232
H  1.26059215 2.16199667 0.02903668
H  -1.30416594 2.05671254 -0.09258155
H  -2.56160670 0.03095786 0.09833337
12
MD Step 929 Units = [Angstroms]
C  -0.68496406 -1.22924371 -0.03224347
C  0.71156317 -1.22129631 0.02509133
C  1.40318116 0.04840703 0.01288758
C  0.68757498 1.22994382 -0.00600577
C  -0.70410073 1.16910297 -0.05373273
C  -1.39908189 0.00210999 0.02851669
H  -1.24534567 -2.17761586 0.01879896
H  1.18703885 -2.20369372 0.18931941
H  2.49051744 0.13582519 0.05619843
H  1.26544394 2.16375470 0.03403066
H  -1.30281058 2.05518153 -0.09509364
H  -2.56372531 0.03818065 0.10044247
12
MD Step 930 Units = [Angstroms]
C  -0.68565929 -1.22998534 -0.03533892
C  0.70853282 -1.21923399 0.02657702
C  1.40325765 0.04539847 0.01357171
C  0.68698440 1.23268868 -0.00786363
C  -0.70520017 1.16960805 -0.05261170
C  -1.39552833 0.00035742 0.02954910
H  -1.23310936 -2.17404776 0.02162852
H  1.19987587 -2.21339440 0.19509284
H  2.47940263 0.13377419 0.05130355
H  1.26949346 2.16607166 0.03875993
H  -1.30235900 2.05683810 -0.09765438
H  -2.56090824 0.04466073 0.10207357
12
MD Step 931 Units = [Angstroms]
C  -0.68636056 -1.23050510 -0.03824578
C  0.70557350 -1.21693685 0.02809571
C  1.40306366 0.04200380 0.01428779
C  0.68648005 1.23532107 -0.00975739
C  -0.70622302 1.17032267 -0.05141590
C  -1.39232874 -0.00184725 0.03046864
H  -1.22113186 -2.17087049 0.02408781
H  1.21299739 -2.22085417 0.19982988
H  2.46991920 0.13063442 0.04649719
H  1.27260140 2.16876282 0.04316470
H  -1.30284215 2.06161641 -0.10023581
H  -2.55314575 0.05027306 0.10322840
12
MD Step 932 Units = [Angstroms]
C  -0.68703876 -1.23077385 -0.04095373
C  0.70276975 -1.21450073 0.02965495
C  1.40251392 0.03828598 0.01502672
C  0.68607603 1.23781048 -0.01167467
C  -0.70714597 1.17127113 -0.05015239
C  -1.38949554 -0.00447010 0.03127008
H  -1.20991922 -2.16875131 0.02616973
H  1.22573725 -2.22512846 0.20337157
H  2.46292014 0.12645646 0.04183680
H  1.27464829 2.17164125 0.04718542
H  -1.30414180 2.06920138 -0.10279660
H  -2.54075288 0.05490624 0.10392861
12
MD Step 933 Units = [Angstroms]
C  -0.68766927 -1.23077263 -0.04345405
C  0.70019607 -1.21200552 0.03125902
C  1.40154625 0.03431185 0.01578031
C  0.68578095 1.24012828 -0.01360304
C  -0.70795641 1.17248605 -0.04882917
C  -1.38701444 -0.00746731 0.03194710
H  -1.19991020 -2.16826969 0.02787131
H  1.23753717 -2.22553326 0.20560350
H  2.45902363 0.12128951 0.03736604
H  1.27554443 2.17453294 0.05076429
H  -1.30601375 2.07906454 -0.10528210
H  -2.52436889 0.05846873 0.10421603
12
MD Step 934 Units = [Angstroms]
C  -0.68823476 -1.23049811 -0.04573915
C  0.69791469 -1.20951433 0.03290863
C  1.40012929 0.03015203 0.01654129
C  0.68559754 1.24224737 -0.01553017
C  -0.70864989 1.17400391 -0.04745499
C  -1.38484439 -0.01078675 0.03249235
H  -1.19143617 -2.16984300 0.02918710
H  1.24796400 -2.22165951 0.20645974
H  2.45852526 0.11517445 0.03311561
H  1.27523804 2.17728984 0.05384696
H  -1.30812671 2.09052410 -0.10762662
H  -2.50495358 0.06089568 0.10415281
12
MD Step 935 Units = [Angstroms]
C  -0.68872711 -1.22996687 -0.04780211
C  0.69597383 -1.20707365 0.03460097
C  1.39826647 0.02588056 0.01730309
C  0.68552268 1.24414194 -0.01744409
C  -0.70922701 1.17585983 -0.04603909
C  -1.38291866 -0.01436977 0.03289757
H  -1.18469223 -2.17366737 0.03010272
H  1.25672010 -2.21337440 0.20592372
H  2.46135343 0.10814100 0.02910638
H  1.27372086 2.17979982 0.05638421
H  -1.31010817 2.10281690 -0.10975739
H  -2.48376954 0.06215523 0.10382047
12
MD Step 936 Units = [Angstroms]
C  -0.68914793 -1.22921733 -0.04963633
C  0.69440621 -1.20471382 0.03632975
C  1.39599539 0.02157433 0.01805957
C  0.68554765 1.24578732 -0.01933334
C  -0.70969060 1.17808266 -0.04459082
C  -1.38114835 -0.01815301 0.03315388
H  -1.17972589 -2.17968695 0.03059049
H  1.26365104 -2.20081858 0.20402757
H  2.46707985 0.10020998 0.02535383
H  1.27103116 2.18199339 0.05833331
H  -1.31158879 2.11516995 -0.11159949
H  -2.46233485 0.06225280 0.10331708
12
MD Step 937 Units = [Angstroms]
C  -0.68950756 -1.22830879 -0.05123543
C  0.69322774 -1.20244930 0.03808530
C  1.39338273 0.01731196 0.01880471
C  0.68565864 1.24716010 -0.02118713
C  -0.71004350 1.18069076 -0.04311925
C  -1.37942960 -0.02206986 0.03325229
H  -1.17644524 -2.18759895 0.03060853
H  1.26875286 -2.18440315 0.20085086
H  2.47498237 0.09140021 0.02187234
H  1.26725365 2.18384660 0.05965920
H  -1.31223967 2.12686263 -0.11308083
H  -2.44232908 0.06123066 0.10275126
12
MD Step 938 Units = [Angstroms]
C  -0.68982283 -1.22731762 -0.05259338
C  0.69243633 -1.20027884 0.03985474
C  1.39051609 0.01317250 0.01953241
C  0.68583756 1.24823856 -0.02299546
C  -0.71028722 1.18368897 -0.04163290
C  -1.37765556 -0.02605130 0.03318453
H  -1.17464416 -2.19689320 0.03010354
H  1.27217913 -2.16480562 0.19651836
H  2.48414378 0.08173788 0.01867817
H  1.26251663 2.18538031 0.06033507
H  -1.31179986 2.13727522 -0.11413661
H  -2.42544164 0.05916056 0.10223224
12
MD Step 939 Units = [Angstroms]
C  -0.69011418 -1.22633135 -0.05370490
C  0.69201117 -1.19818578 0.04162220
C  1.38749471 0.00923392 0.02023651
C  0.68606300 1.24900321 -0.02474920
C  -0.71042134 1.18706663 -0.04013936
C  -1.37573260 -0.03002602 0.03294417
H  -1.17403838 -2.20691665 0.02901656
H  1.27424488 -2.14295968 0.19119615
H  2.49356385 0.07126554 0.01579062
H  1.25698617 2.18665541 0.06034246
H  -1.31009463 2.14592330 -0.11471296
H  -2.41316921 0.05612882 0.10185638
12
MD Step 940 Units = [Angstroms]
C  -0.69040261 -1.22544187 -0.05456587
C  0.69191294 -1.19613927 0.04336938
C  1.38442053 0.00557158 0.02091085
C  0.68631150 1.24943772 -0.02644010
C  -0.71044350 1.19079650 -0.03864518
C  -1.37359791 -0.03392010 0.03252779
H  -1.17430486 -2.21694908 0.02729010
H  1.27542196 -2.12002960 0.18508452
H  2.50226383 0.06004885 0.01323157
H  1.25085777 2.18776444 0.05967080
H  -1.30704586 2.15248003 -0.11476958
H  -2.40659510 0.05221651 0.10169206
12
MD Step 941 Units = [Angstroms]
C  -0.69070698 -1.22473881 -0.05517375
C  0.69208562 -1.19409742 0.04507635
C  1.38139101 0.00225662 0.02154946
C  0.68655887 1.24952994 -0.02806074
C  -0.71034956 1.19483438 -0.03715562
C  -1.37123410 -0.03765681 0.03193598
H  -1.17511812 -2.22627673 0.02487507
H  1.27631747 -2.09735716 0.17840616
H  2.50937081 0.04818006 0.01102381
H  1.24434589 2.18881974 0.05831642
H  -1.30267664 2.15678881 -0.11428151
H  -2.40620669 0.04748145 0.10176680
12
MD Step 942 Units = [Angstroms]
C  -0.69104204 -1.22430372 -0.05552780
C  0.69246049 -1.19201318 0.04672296
C  1.37849368 -0.00064558 0.02214686
C  0.68678161 1.24927313 -0.02960452
C  -0.71013391 1.19911953 -0.03567462
C  -1.36867596 -0.04115735 0.03117386
H  -1.17617992 -2.23425497 0.02173619
H  1.27762632 -2.07637060 0.17138871
H  2.51417770 0.03577827 0.00918907
H  1.23767209 2.18993911 0.05628109
H  -1.29711141 2.15886842 -0.11324010
H  -2.41180867 0.04194904 0.10206067
12
MD Step 943 Units = [Angstroms]
C  -0.69141697 -1.22420546 -0.05562922
C  0.69296301 -1.18984343 0.04829050
C  1.37580249 -0.00307700 0.02269828
C  0.68695830 1.24866716 -0.03106558
C  -0.70978969 1.20357563 -0.03420480
C  -1.36600674 -0.04434282 0.03025075
H  -1.17724094 -2.24035590 0.01785558
H  1.28005271 -2.05845244 0.16424275
H  2.51618112 0.02298730 0.00774596
H  1.23105260 2.19123008 0.05357048
H  -1.29057207 2.15891098 -0.11165317
H  -2.42256297 0.03561634 0.10250833
12
MD Step 944 Units = [Angstroms]
C  -0.69183467 -1.22449666 -0.05548111
C  0.69352183 -1.18756034 0.04976355
C  1.37337543 -0.00498858 0.02319988
C  0.68707086 1.24771965 -0.03243873
C  -0.70930907 1.20811263 -0.03274743
C  -1.36334541 -0.04713736 0.02917933
H  -1.17811522 -2.24420105 0.01323427
H  1.28420532 -2.04477783 0.15713885
H  2.51510245 0.00997176 0.00670821
H  1.22468648 2.19277452 0.05019251
H  -1.28336943 2.15727199 -0.10954416
H  -2.43714061 0.02846740 0.10300904
12
MD Step 945 Units = [Angstroms]
C  -0.69229141 -1.22521116 -0.05508829
C  0.69407864 -1.18516261 0.05113144
C  1.37125304 -0.00634172 0.02364889
C  0.68710552 1.24644681 -0.03371945
C  -0.70868377 1.21262952 -0.03130270
C  -1.36082879 -0.04947186 0.02797429
H  -1.17868897 -2.24558155 0.00789213
H  1.29048474 -2.03615376 0.15018973
H  2.51089700 -0.00308806 0.00608343
H  1.21874555 2.19461538 0.04615607
H  -1.27588864 2.15444971 -0.10695030
H  -2.45393487 0.02049330 0.10344145
12
MD Step 946 Units = [Angstroms]
C  -0.69277686 -1.22636209 -0.05445717
C  0.69459621 -1.18268336 0.05238879
C  1.36945753 -0.00710955 0.02404378
C  0.68705349 1.24487398 -0.03490386
C  -0.70790605 1.21701823 -0.02986989
C  -1.35859383 -0.05128743 0.02665104
H  -1.17892510 -2.24446836 0.00186628
H  1.29899358 -2.03290101 0.14344340
H  2.50375493 -0.01600223 0.00587224
H  1.21336698 2.19674741 0.04147037
H  -1.26856677 2.15105106 -0.10391934
H  -2.47127564 0.01170972 0.10367882
12
MD Step 947 Units = [Angstroms]
C  -0.69327441 -1.22794069 -0.05359544
C  0.69506227 -1.18019165 0.05353503
C  1.36799244 -0.00727789 0.02438425
C  0.68691125 1.24303556 -0.03598885
C  -0.70697040 1.22116875 -0.02844775
C  -1.35676327 -0.05253822 0.02522459
H  -1.17886448 -2.24101420 -0.00479138
H  1.30949842 -2.03481511 0.13688987
H  2.49409471 -0.02857803 0.00606789
H  1.20864927 2.19911332 0.03614478
H  -1.26186149 2.14774180 -0.10050495
H  -2.48760214 0.00216771 0.10360161
12
MD Step 948 Units = [Angstroms]
C  -0.69376174 -1.22991589 -0.05251185
C  0.69548789 -1.17778682 0.05457295
C  1.36684302 -0.00684567 0.02467125
C  0.68668044 1.24097438 -0.03697216
C  -0.70587597 1.22497541 -0.02703498
C  -1.35543636 -0.05319318 0.02370883
H  -1.17862408 -2.23554749 -0.01201774
H  1.32145785 -2.04121859 0.13047911
H  2.48254717 -0.04062752 0.00665646
H  1.20465175 2.20160589 0.03018958
H  -1.25621114 2.14518154 -0.09676099
H  -2.50157796 -0.00804302 0.10310606
12
MD Step 949 Units = [Angstroms]
C  -0.69421151 -1.23223496 -0.05121594
C  0.69590144 -1.17558719 0.05550692
C  1.36597773 -0.00582483 0.02490685
C  0.68636744 1.23874058 -0.03785253
C  -0.70462946 1.22834378 -0.02563069
C  -1.35468387 -0.05323690 0.02211614
H  -1.17839103 -2.22855635 -0.01974273
H  1.33410643 -2.05108611 0.12414357
H  2.46992624 -0.05197515 0.00761755
H  1.20139750 2.20407608 0.02361708
H  -1.25198964 2.14394905 -0.09273539
H  -2.51215396 -0.01879642 0.10210908
12
MD Step 950 Units = [Angstroms]
C  -0.69459256 -1.23482562 -0.04971777
C  0.69634019 -1.17371639 0.05634129
C  1.36535121 -0.00423980 0.02509415
C  0.68598272 1.23638983 -0.03862983
C  -0.70324815 1.23119733 -0.02423479
C  -1.35454630 -0.05266960 0.02045726
H  -1.17841133 -2.22066028 -0.02789413
H  1.34656717 -2.06320313 0.11781864
H  2.45718129 -0.06246459 0.00892561
H  1.19887878 2.20634584 0.01644309
H  -1.24946227 2.14446833 -0.08846478
H  -2.51859470 -0.02993577 0.10055027
12
MD Step 951 Units = [Angstroms]
C  -0.69487137 -1.23759986 -0.04802761
C  0.69684217 -1.17229072 0.05707929
C  1.36490907 -0.00212674 0.02523705
C  0.68554003 1.23398135 -0.03930523
C  -0.70176220 1.23348282 -0.02284831
C  -1.35503386 -0.05150636 0.01874131
H  -1.17897124 -2.21256620 -0.03640242
H  1.35796176 -2.07631816 0.11145650
H  2.44532739 -0.07196331 0.01055186
H  1.19706425 2.20822418 0.00868845
H  -1.24875062 2.14694934 -0.08397111
H  -2.52048506 -0.04128086 0.09839248
12
MD Step 952 Units = [Angstroms]
C  -0.69501417 -1.24045960 -0.04615578
C  0.69743996 -1.17140934 0.05772258
C  1.36459467 0.00046738 0.02534005
C  0.68505555 1.23157565 -0.03988120
C  -0.70021561 1.23517309 -0.02147336
C  -1.35612724 -0.04977583 0.01697587
H  -1.18037036 -2.20500798 -0.04520488
H  1.36749743 -2.08926265 0.10503262
H  2.43535389 -0.08036332 0.01246639
H  1.19590696 2.20952463 0.00038019
H  -1.24981461 2.15135687 -0.07926129
H  -2.51772945 -0.05263577 0.09562151
12
MD Step 953 Units = [Angstroms]
C  -0.69498957 -1.24330398 -0.04411258
C  0.69815707 -1.17114825 0.05827112
C  1.36435706 0.00348549 0.02540806
C  0.68454706 1.22923220 -0.04036156
C  -0.69866547 1.23626699 -0.02011295
C  -1.35777850 -0.04751836 0.01516714
H  -1.18288700 -2.19867212 -0.05424768
H  1.37452350 -2.10103066 0.09854640
H  2.42811903 -0.08757711 0.01464022
H  1.19535228 2.21008213 -0.00844771
H  -1.25245612 2.15741496 -0.07432983
H  -2.51055048 -0.06379740 0.09224571
12
MD Step 954 Units = [Angstroms]
C  -0.69477157 -1.24603740 -0.04190840
C  0.69900625 -1.17155715 0.05872354
C  1.36415907 0.00686117 0.02544622
C  0.68403310 1.22700729 -0.04075140
C  -0.69717930 1.23678630 -0.01877058
C  -1.35991201 -0.04478382 0.01331998
H  -1.18673876 -2.19411772 -0.06348515
H  1.37856114 -2.11082382 0.09201825
H  2.42424637 -0.09352933 0.01704659
H  1.19534506 2.20976796 -0.01775422
H  -1.25634376 2.16464586 -0.06916391
H  -2.49948835 -0.07456485 0.08829531
12
MD Step 955 Units = [Angstroms]
C  -0.69434249 -1.24857717 -0.03955418
C  0.69998937 -1.17265855 0.05907739
C  1.36398373 0.01051937 0.02545986
C  0.68353223 1.22495203 -0.04105694
C  -0.69583111 1.23677060 -0.01744976
C  -1.36242568 -0.04162917 0.01143811
H  -1.19204469 -2.19170387 -0.07287547
H  1.37931507 -2.11807261 0.08548510
H  2.42404356 -0.09814644 0.01966114
H  1.19583551 2.20850158 -0.02749170
H  -1.26105315 2.17243365 -0.06374941
H  -2.48539652 -0.08475020 0.08382126
12
MD Step 956 Units = [Angstroms]
C  -0.69369541 -1.25085936 -0.03706192
C  0.70109771 -1.17444795 0.05932962
C  1.36383743 0.01437750 0.02545452
C  0.68306229 1.22311069 -0.04128529
C  -0.69469669 1.23627120 -0.01615357
C  -1.36519334 -0.03811595 0.00952425
H  -1.19879654 -2.19153982 -0.08237346
H  1.37667542 -2.12244498 0.07899557
H  2.42746289 -0.10134812 0.02246086
H  1.19678363 2.20625865 -0.03760691
H  -1.26611450 2.18009897 -0.05807643
H  -2.46942395 -0.09419021 0.07889286
12
MD Step 957 Units = [Angstroms]
C  -0.69283532 -1.25284169 -0.03444539
C  0.70231241 -1.17689460 0.05947692
C  1.36374912 0.01834720 0.02543601
C  0.68263976 1.22151936 -0.04144429
C  -0.69384881 1.23534530 -0.01488438
C  -1.36806921 -0.03430784 0.00758045
H  -1.20684632 -2.19346960 -0.09192234
H  1.37071623 -2.12385042 0.07260523
H  2.43411343 -0.10304373 0.02542210
H  1.19816185 2.20307483 -0.04804244
H  -1.27105925 2.18697130 -0.05214344
H  -2.45296943 -0.10275752 0.07359342
12
MD Step 958 Units = [Angstroms]
C  -0.69177902 -1.25450302 -0.03172058
C  0.70360477 -1.17994226 0.05951612
C  1.36376568 0.02233681 0.02541049
C  0.68227917 1.22020507 -0.04154217
C  -0.69335293 1.23405103 -0.01364366
C  -1.37089595 -0.03026886 0.00560860
H  -1.21591384 -2.19709520 -0.10144669
H  1.36169337 -2.12244331 0.06637221
H  2.44332090 -0.10313563 0.02851858
H  1.19995586 2.19904516 -0.05873837
H  -1.27545999 2.19244971 -0.04595952
H  -2.43759252 -0.11036853 0.06801296
12
MD Step 959 Units = [Angstroms]
C  -0.69055353 -1.25583997 -0.02890594
C  0.70493630 -1.18351025 0.05944457
C  1.36394484 0.02625445 0.02538448
C  0.68199267 1.21918516 -0.04158730
C  -0.69326359 1.23244376 -0.01243199
C  -1.37351689 -0.02606230 0.00361116
H  -1.22561275 -2.20183236 -0.11084897
H  1.35004164 -2.11862571 0.06035285
H  2.45421979 -0.10152849 0.03171982
H  1.20216364 2.19431906 -0.06963395
H  -1.27896099 2.19604834 -0.03954475
H  -2.42487150 -0.11698377 0.06223820
12
MD Step 960 Units = [Angstroms]
C  -0.68919358 -1.25686161 -0.02602215
C  0.70625907 -1.18749473 0.05926053
C  1.36434717 0.03001143 0.02536479
C  0.68178975 1.21846723 -0.04158792
C  -0.69362158 1.23057363 -0.01124914
C  -1.37579214 -0.02175099 0.00159205
H  -1.23548935 -2.20698579 -0.12001045
H  1.33636779 -2.11304511 0.05459745
H  2.46585689 -0.09814183 0.03499067
H  1.20479255 2.18909116 -0.08066923
H  -1.28129911 2.19742689 -0.03292930
H  -2.41621456 -0.12259775 0.05634097
12
MD Step 961 Units = [Angstroms]
C  -0.68773873 -1.25758361 -0.02309163
C  0.70751668 -1.19177115 0.05896352
C  1.36502875 0.03352552 0.02535829
C  0.68167718 1.21804937 -0.04155197
C  -0.69445188 1.22848413 -0.01009424
C  -1.37761594 -0.01739855 -0.00044268
H  -1.24506640 -2.21182865 -0.12879623
H  1.32143325 -2.10657861 0.04914616
H  2.47728802 -0.09292263 0.03829192
H  1.20785468 2.18358822 -0.09178611
H  -1.28231661 2.19640854 -0.02615149
H  -2.41265447 -0.12721807 0.05036796
12
MD Step 962 Units = [Angstroms]
C  -0.68623040 -1.25802293 -0.02013782
C  0.70864666 -1.19619869 0.05855471
C  1.36603527 0.03672381 0.02537176
C  0.68165915 1.21792087 -0.04148687
C  -0.69576217 1.22621142 -0.00896599
C  -1.37893116 -0.01307136 -0.00248443
H  -1.25388465 -2.21567389 -0.13706320
H  1.30611885 -2.10029149 0.04402554
H  2.48765651 -0.08585540 0.04158167
H  1.21136074 2.17805313 -0.10292904
H  -1.28196730 2.19298853 -0.01925530
H  -2.41467722 -0.13083940 0.04433509
12
MD Step 963 Units = [Angstroms]
C  -0.68470928 -1.25819374 -0.01718437
C  0.70958497 -1.20062760 0.05803705
C  1.36739797 0.03954486 0.02541154
C  0.68173755 1.21806326 -0.04139945
C  -0.69754199 1.22378421 -0.00786285
C  -1.37973666 -0.00884017 -0.00452225
H  -1.26153750 -2.21793038 -0.14466897
H  1.29136444 -2.09535810 0.03924676
H  2.49625013 -0.07696860 0.04481732
H  1.21531280 2.17272693 -0.11404486
H  -1.28031750 2.18733513 -0.01228749
H  -2.42213740 -0.13342180 0.03822919
12
MD Step 964 Units = [Angstroms]
C  -0.68321305 -1.25810479 -0.01425434
C  0.71027261 -1.20491005 0.05741521
C  1.36913105 0.04194004 0.02548334
C  0.68191235 1.21845170 -0.04129598
C  -0.69976259 1.22122413 -0.00678334
C  -1.38008500 -0.00478040 -0.00654368
H  -1.26769701 -2.21814241 -0.15148077
H  1.27808171 -2.09293897 0.03480642
H  2.50253822 -0.06633729 0.04795758
H  1.21969671 2.16783048 -0.12508202
H  -1.27754195 2.17978370 -0.00529469
H  -2.43428868 -0.13488249 0.03201643
12
MD Step 965 Units = [Angstroms]
C  -0.68177445 -1.25775800 -0.01136957
C  0.71066391 -1.20891368 0.05669532
C  1.37123037 0.04387420 0.02559192
C  0.68218202 1.21905644 -0.04118220
C  -0.70237742 1.21854652 -0.00572619
C  -1.38007156 -0.00097081 -0.00853579
H  -1.27213163 -2.21601445 -0.15738334
H  1.26704853 -2.09402286 0.03069093
H  2.50619355 -0.05408264 0.05096460
H  1.22447504 2.16354754 -0.13598910
H  -1.27391420 2.17082244 0.00167956
H  -2.44991811 -0.13510435 0.02565474
12
MD Step 966 Units = [Angstroms]
C  -0.68041972 -1.25714804 -0.00855006
C  0.71073474 -1.21253556 0.05588427
C  1.37367296 0.04532547 0.02574097
C  0.68254379 1.21984446 -0.04106342
C  -0.70532369 1.21576187 -0.00469056
C  -1.37981862 0.00250922 -0.01048628
H  -1.27471732 -2.21142450 -0.16228545
H  1.25880523 -2.09926192 0.02688380
H  2.50710333 -0.04036880 0.05380585
H  1.22958158 2.16001121 -0.14671298
H  -1.26979003 2.16106734 0.00859738
H  -2.46753970 -0.13395713 0.01910609
12
MD Step 967 Units = [Angstroms]
C  -0.67916725 -1.25626249 -0.00581354
C  0.71048828 -1.21571307 0.05498905
C  1.37641726 0.04628465 0.02593285
C  0.68299387 1.22078085 -0.04094471
C  -0.70852500 1.21287787 -0.00367615
C  -1.37945888 0.00558317 -0.01238431
H  -1.27544338 -2.20442925 -0.16612513
H  1.25358024 -2.10884323 0.02337414
H  2.50537197 -0.02539760 0.05645580
H  1.23491832 2.15729521 -0.15719698
H  -1.26558254 2.15122357 0.01542860
H  -2.48559321 -0.13132280 0.01234536
12
MD Step 968 Units = [Angstroms]
C  -0.67802678 -1.25508241 -0.00317504
C  0.70995670 -1.21842823 0.05401619
C  1.37940388 0.04675403 0.02616856
C  0.68352735 1.22183005 -0.04083098
C  -0.71189501 1.20990248 -0.00268328
C  -1.37912171 0.00818086 -0.01422090
H  -1.27441392 -2.19526266 -0.16887343
H  1.25126829 -2.12243782 0.02016322
H  2.50131600 -0.00940138 0.05889735
H  1.24035573 2.15541114 -0.16737938
H  -1.26172832 2.14203148 0.02215145
H  -2.50260806 -0.12711746 0.00536475
12
MD Step 969 Units = [Angstroms]
C  -0.67699896 -1.25358315 -0.00064668
C  0.70919783 -1.22070424 0.05297148
C  1.38255731 0.04674587 0.02644760
C  0.68413794 1.22295672 -0.04072708
C  -0.71534222 1.20684763 -0.00171280
C  -1.37892341 0.01024149 -0.01598906
H  -1.27184477 -2.18432779 -0.17053649
H  1.25146770 -2.13924510 0.01726703
H  2.49544919 0.00736611 0.06112272
H  1.24573646 2.15431181 -0.17719269
H  -1.25864604 2.13419880 0.02875187
H  -2.51731583 -0.12130573 -0.00182580
12
MD Step 970 Units = [Angstroms]
C  -0.67607570 -1.25173577 0.00176250
C  0.70828826 -1.22259525 0.05186011
C  1.38578875 0.04628069 0.02676803
C  0.68481753 1.22412629 -0.04063776
C  -0.71877519 1.20373348 -0.00076588
C  -1.37896134 0.01171618 -0.01768361
H  -1.26805443 -2.17218030 -0.17115544
H  1.25356326 -2.15811777 0.01471403
H  2.48845386 0.02464030 0.06313370
H  1.25088245 2.15390001 -0.18656384
H  -1.25669153 2.12832525 0.03522073
H  -2.52871472 -0.11390722 -0.00920095
12
MD Step 971 Units = [Angstroms]
C  -0.67524124 -1.24950893 0.00404640
C  0.70731471 -1.22417291 0.05068705
C  1.38900036 0.04538543 0.02712652
C  0.68555564 1.22530519 -0.04056764
C  -0.72210770 1.20059213 0.00015635
C  -1.37931069 0.01256990 -0.01930100
H  -1.26344697 -2.15950035 -0.17080333
H  1.25682871 -2.17772726 0.01253959
H  2.48113409 0.04215706 0.06494099
H  1.25560456 2.15404148 -0.19541556
H  -1.25611623 2.12483062 0.04154955
H  -2.53609938 -0.10499718 -0.01672355
12
MD Step 972 Units = [Angstroms]
C  -0.67447420 -1.24687199 0.00620148
C  0.70636582 -1.22551321 0.04945751
C  1.39209130 0.04409163 0.02751858
C  0.68633890 1.22646086 -0.04052101
C  -0.72526304 1.19747006 0.00105313
C  -1.38002292 0.01278289 -0.02083893
H  -1.25848482 -2.14704993 -0.16957825
H  1.26052307 -2.19672608 0.01077946
H  2.47434817 0.05966306 0.06656225
H  1.25971380 2.15458020 -0.20366859
H  -1.25703680 2.12390033 0.04772522
H  -2.53907099 -0.09470340 -0.02434883
12
MD Step 973 Units = [Angstroms]
C  -0.67375049 -1.24379902 0.00822604
C  0.70552577 -1.22668612 0.04817727
C  1.39496518 0.04243397 0.02793885
C  0.68715068 1.22756158 -0.04050162
C  -0.72817673 1.19442823 0.00192451
C  -1.38112466 0.01235158 -0.02229606
H  -1.25365033 -2.13561423 -0.16759233
H  1.26396484 -2.21387707 0.00946417
H  2.46892236 0.07692294 0.06801900
H  1.26303298 2.15535437 -0.21124459
H  -1.25942253 2.12546069 0.05372525
H  -2.53753894 -0.08320107 -0.03202866
12
MD Step 974 Units = [Angstroms]
C  -0.67304713 -1.24027401 0.01011920
C  0.70486979 -1.22774881 0.04685288
C  1.39753845 0.04044924 0.02838148
C  0.68797086 1.22857624 -0.04051249
C  -0.73079761 1.19153954 0.00277148
C  -1.38261698 0.01128892 -0.02367168
H  -1.24939786 -2.12592929 -0.16495707
H  1.26657991 -2.22813909 0.00861522
H  2.46555454 0.09372133 0.06933249
H  1.26540779 2.15621141 -0.21806943
H  -1.26310318 2.12919018 0.05951460
H  -2.53172080 -0.07070628 -0.03971588
12
MD Step 975 Units = [Angstroms]
C  -0.67234623 -1.23629636 0.01187970
C  0.70446144 -1.22874214 0.04549168
C  1.39974806 0.03817598 0.02884050
C  0.68877597 1.22947415 -0.04055559
C  -0.73308718 1.18888400 0.00359602
C  -1.38447464 0.00962406 -0.02496533
H  -1.24610171 -2.11860361 -0.16176705
H  1.26792725 -2.23871435 0.00824327
H  2.46472368 0.10985894 0.07051938
H  1.26671619 2.15702093 -0.22407641
H  -1.26779486 2.13456384 0.06504521
H  -2.52214122 -0.05746782 -0.04736871
12
MD Step 976 Units = [Angstroms]
C  -0.67163873 -1.23188585 0.01350485
C  0.70435098 -1.22968926 0.04410176
C  1.40155731 0.03565458 0.02931019
C  0.68953949 1.23022488 -0.04063176
C  -0.73501796 1.18654232 0.00440091
C  -1.38664587 0.00740131 -0.02617647
H  -1.24400859 -2.11404617 -0.15808515
H  1.26770979 -2.24506918 0.00834774
H  2.46662389 0.12514392 0.07158811
H  1.26687575 2.15768476 -0.22920918
H  -1.27313772 2.14092059 0.07025811
H  -2.50962574 -0.04375690 -0.05495540
12
MD Step 977 Units = [Angstroms]
C  -0.67092677 -1.22708587 0.01498980
C  0.70457428 -1.23059536 0.04269183
C  1.40295810 0.03292762 0.02978528
C  0.69023243 1.23079838 -0.04074045
C  -0.73657123 1.18458943 0.00518937
C  -1.38905354 0.00467839 -0.02730413
H  -1.24320479 -2.11241553 -0.15393300
H  1.26577745 -2.24694069 0.00891721
H  2.47113888 0.13938215 0.07253685
H  1.26584842 2.15814375 -0.23342407
H  -1.27873749 2.14753955 0.07508766
H  -2.49527981 -0.02985389 -0.06245864
12
MD Step 978 Units = [Angstroms]
C  -0.67022442 -1.22196400 0.01632750
C  0.70515203 -1.23144787 0.04127108
C  1.40396950 0.03004003 0.03026098
C  0.69082402 1.23116517 -0.04087976
C  -0.73773499 1.18308857 0.00596465
C  -1.39159862 0.00152403 -0.02834655
H  -1.24360608 -2.11360189 -0.14928932
H  1.26212736 -2.24433847 0.00993043
H  2.47786289 0.15237040 0.07335362
H  1.26364249 2.15838098 -0.23669156
H  -1.28420435 2.15371263 0.07946669
H  -2.48044002 -0.01603267 -0.06987916
12
MD Step 979 Units = [Angstroms]
C  -0.66955617 -1.21660947 0.01750921
C  0.70608907 -1.23221651 0.03984902
C  1.40463287 0.02703881 0.03073288
C  0.69128261 1.23129690 -0.04104645
C  -0.73850229 1.18208687 0.00672963
C  -1.39416733 -0.00198481 -0.02930112
H  -1.24497282 -2.11724623 -0.14409673
H  1.25690359 -2.23754562 0.01135750
H  2.48616208 0.16389574 0.07401836
H  1.26031187 2.15842151 -0.23899691
H  -1.28918478 2.15880503 0.08333183
H  -2.46658365 -0.00254415 -0.07723706
12
MD Step 980 Units = [Angstroms]
C  -0.66895397 -1.21112818 0.01852563
C  0.70737385 -1.23285344 0.03843540
C  1.40500495 0.02397217 0.03119672
C  0.69157655 1.23116707 -0.04123601
C  -0.73887000 1.18161240 0.00748644
C  -1.39664234 -0.00576565 -0.03016454
H  -1.24694622 -2.12279185 -0.13827510
H  1.25039626 -2.22711929 0.01316156
H  2.49526068 0.17374162 0.07450630
H  1.25595261 2.15832853 -0.24033973
H  -1.29338510 2.16230031 0.08662815
H  -2.45518955 0.01039707 -0.08456904
12
MD Step 981 Units = [Angstroms]
C  -0.66845313 -1.20563606 0.01936809
C  0.70897846 -1.23329367 0.03703999
C  1.40515040 0.02088824 0.03164819
C  0.69167524 1.23075211 -0.04144296
C  -0.73883823 1.18167275 0.00823622
C  -1.39891758 -0.00973265 -0.03093339
H  -1.24909715 -2.12955592 -0.13173783
H  1.24303734 -2.21388537 0.01530082
H  2.50433344 0.18169904 0.07479182
H  1.25069682 2.15819602 -0.24073260
H  -1.29658738 2.16383044 0.08931284
H  -2.44755906 0.02261837 -0.09192031
12
MD Step 982 Units = [Angstroms]
C  -0.66808825 -1.20025212 0.02002979
C  0.71085942 -1.23345666 0.03567234
C  1.40513513 0.01783363 0.03208274
C  0.69155020 1.23003248 -0.04166106
C  -0.73840993 1.18225461 0.00897883
C  -1.40091384 -0.01379782 -0.03160521
H  -1.25097708 -2.13680668 -0.12440750
H  1.23538792 -2.19891796 0.01773144
H  2.51258921 0.18757984 0.07485185
H  1.24470451 2.15813837 -0.24019871
H  -1.29865915 2.16319357 0.09135782
H  -2.44462694 0.03398350 -0.09933105
12
MD Step 983 Units = [Angstroms]
C  -0.66788954 -1.19509217 0.02050664
C  0.71295991 -1.23325016 0.03434156
C  1.40502087 0.01485196 0.03249540
C  0.69117622 1.22899407 -0.04188367
C  -0.73759073 1.18332435 0.00971280
C  -1.40259160 -0.01787142 -0.03217969
H  -1.25216317 -2.14383404 -0.11622795
H  1.22811021 -2.18349033 0.02041105
H  2.51933705 0.19122936 0.07466866
H  1.23815357 2.15827737 -0.23876885
H  -1.29955862 2.16036199 0.09275147
H  -2.44680962 0.04437686 -0.10682007
12
MD Step 984 Units = [Angstroms]
C  -0.66788007 -1.19026364 0.02079779
C  0.71521386 -1.23257740 0.03305593
C  1.40486150 0.01198268 0.03288077
C  0.69053256 1.22762948 -0.04210415
C  -0.73638878 1.18482916 0.01043514
C  -1.40395688 -0.02186199 -0.03265981
H  -1.25229303 -2.15000663 -0.10717191
H  1.22191770 -2.16898480 0.02330280
H  2.52403301 0.19253673 0.07423151
H  1.23122888 2.15872760 -0.23647793
H  -1.29933617 2.15548224 0.09349933
H  -2.45393672 0.05368387 -0.11437038
12
MD Step 985 Units = [Angstroms]
C  -0.66807393 -1.18586173 0.02090575
C  0.71755208 -1.23134807 0.03182260
C  1.40470052 0.00926014 0.03323302
C  0.68960412 1.22593925 -0.04231613
C  -0.73481465 1.18669902 0.01114141
C  -1.40505860 -0.02567698 -0.03305233
H  -1.25108823 -2.15481310 -0.09724410
H  1.21750113 -2.15675638 0.02637880
H  2.52631000 0.19144211 0.07353767
H  1.22411138 2.15958150 -0.23336154
H  -1.29813230 2.14886774 0.09362393
H  -2.46528832 0.06177622 -0.12192144
12
MD Step 986 Units = [Angstroms]
C  -0.66847519 -1.18196654 0.02083629
C  0.71990978 -1.22949229 0.03064745
C  1.40456973 0.00671308 0.03354591
C  0.68838254 1.22393281 -0.04251386
C  -0.73288137 1.18884930 0.01182578
C  -1.40597814 -0.02922443 -0.03336758
H  -1.24836816 -2.15788940 -0.08648091
H  1.21543640 -2.14796115 0.02962178
H  2.52599471 0.18794114 0.07259265
H  1.21696805 2.16089587 -0.22945292
H  -1.29617099 2.14098270 0.09316350
H  -2.47972414 0.06850848 -0.12937076
12
MD Step 987 Units = [Angstroms]
C  -0.66907765 -1.17864085 0.02059814
C  0.72223415 -1.22697486 0.02953513
C  1.40448843 0.00436442 0.03381293
C  0.68686719 1.22162909 -0.04269234
C  -0.73060472 1.19118430 0.01248126
C  -1.40681488 -0.03241581 -0.03361860
H  -1.24405648 -2.15903488 -0.07494736
H  1.21609209 -2.14338159 0.03302360
H  2.52311542 0.18208683 0.07140996
H  1.20994403 2.16268133 -0.22478089
H  -1.29374693 2.13241496 0.09216944
H  -2.49586288 0.07372682 -0.13658378
12
MD Step 988 Units = [Angstroms]
C  -0.66986505 -1.17592838 0.02020256
C  0.72448986 -1.22380613 0.02848940
C  1.40446326 0.00223149 0.03402738
C  0.68506594 1.21905648 -0.04284743
C  -0.72800419 1.19360190 0.01310004
C  -1.40767134 -0.03516964 -0.03381987
H  -1.23818247 -2.15822033 -0.06273256
H  1.21956118 -2.14329524 0.03658031
H  2.51790235 0.17398910 0.07001054
H  1.20315741 2.16489650 -0.21936897
H  -1.29120460 2.12383568 0.09070241
H  -2.51226362 0.07728505 -0.14340842
12
MD Step 989 Units = [Angstroms]
C  -0.67081189 -1.17385227 0.01966284
C  0.72666080 -1.22004578 0.02751363
C  1.40448851 0.00032664 0.03418249
C  0.68299557 1.21625231 -0.04297576
C  -0.72510452 1.19599909 0.01367395
C  -1.40864103 -0.03741510 -0.03398603
H  -1.23087850 -2.15558947 -0.04994387
H  1.22563926 -2.14742884 0.04028518
H  2.51078046 0.16381205 0.06842171
H  1.19669731 2.16744767 -0.21323576
H  -1.28890827 2.11594481 0.08882703
H  -2.52757454 0.07906201 -0.14969031
12
MD Step 990 Units = [Angstroms]
C  -0.67188466 -1.17241409 0.01899374
C  0.72874741 -1.21579832 0.02661132
C  1.40454724 -0.00134185 0.03427158
C  0.68068200 1.21326174 -0.04307459
C  -0.72193805 1.19827840 0.01419501
C  -1.40979992 -0.03909523 -0.03413079
H  -1.22237389 -2.15145395 -0.03670026
H  1.23385709 -2.15501351 0.04412201
H  2.50235196 0.15176824 0.06667589
H  1.19062499 2.17019431 -0.20639664
H  -1.28720351 2.10940500 0.08660583
H  -2.54063548 0.07897537 -0.15528566
12
MD Step 991 Units = [Angstroms]
C  -0.67304347 -1.17159342 0.01821087
C  0.73076060 -1.21120167 0.02578631
C  1.40461332 -0.00276848 0.03428822
C  0.67816012 1.21013600 -0.04314154
C  -0.71854750 1.20035448 0.01465596
C  -1.41120145 -0.04016930 -0.03426620
H  -1.21298440 -2.14628011 -0.02312503
H  1.24355656 -2.16492189 0.04806125
H  2.49336441 0.13810985 0.06480870
H  1.18497780 2.17295979 -0.19886623
H  -1.28637399 2.10477072 0.08409312
H  -2.55053787 0.07699037 -0.16007079
12
MD Step 992 Units = [Angstroms]
C  -0.67424416 -1.17134875 0.01733003
C  0.73271437 -1.20641255 0.02504280
C  1.40465491 -0.00394914 0.03422641
C  0.67547335 1.20693041 -0.04317428
C  -0.71498853 1.20216002 0.01505072
C  -1.41287409 -0.04061438 -0.03440209
H  -1.20309581 -2.14066434 -0.00933818
H  1.25398624 -2.17584361 0.05205977
H  2.48466024 0.12311633 0.06285680
H  1.17977485 2.17554593 -0.19066129
H  -1.28660017 2.10242352 0.08133015
H  -2.55665396 0.07312353 -0.16394865
12
MD Step 993 Units = [Angstroms]
C  -0.67544080 -1.17161986 0.01636663
C  0.73461909 -1.20159212 0.02438508
C  1.40463935 -0.00487977 0.03408076
C  0.67267287 1.20370202 -0.04317030
C  -0.71133147 1.20364988 0.01537465
C  -1.41482044 -0.04042590 -0.03454575
H  -1.19314009 -2.13529347 0.00455075
H  1.26439227 -2.18645380 0.05606392
H  2.47710557 0.10707975 0.06085524
H  1.17502382 2.17774985 -0.18180354
H  -1.28792827 2.10252627 0.07834263
H  -2.55864851 0.06744279 -0.16685298
12
MD Step 994 Units = [Angstroms]
C  -0.67658856 -1.17233225 0.01533511
C  0.73647685 -1.19689445 0.02381715
C  1.40453948 -0.00555522 0.03384669
C  0.66981661 1.20050739 -0.04312664
C  -0.70766150 1.20480272 0.01562448
C  -1.41701717 -0.03961756 -0.03470171
H  -1.18356349 -2.13088827 0.01844839
H  1.27408858 -2.19554480 0.06001431
H  2.47150146 0.09028965 0.05883491
H  1.17072780 2.17938118 -0.17232201
H  -1.29025696 2.10500628 0.07514117
H  -2.55648266 0.06006513 -0.16875136
12
MD Step 995 Units = [Angstroms]
C  -0.67764695 -1.17340336 0.01424874
C  0.73827912 -1.19245851 0.02334237
C  1.40434026 -0.00596878 0.03352059
C  0.66696782 1.19740034 -0.04303973
C  -0.70407679 1.20561990 0.01579809
C  -1.41941543 -0.03822034 -0.03487159
H  -1.17478795 -2.12813119 0.03228020
H  1.28250210 -2.20211222 0.06385086
H  2.46848774 0.07302059 0.05682026
H  1.16689162 2.18027803 -0.16225460
H  -1.29334557 2.10957104 0.07172456
H  -2.55041503 0.05115227 -0.16964735
12
MD Step 996 Units = [Angstroms]
C  -0.67858284 -1.17475017 0.01311960
C  0.74000638 -1.18840306 0.02296316
C  1.40404469 -0.00611243 0.03309984
C  0.66419342 1.19443013 -0.04290529
C  -0.70068477 1.20612186 0.01589411
C  -1.42194165 -0.03628086 -0.03505399
H  -1.16716987 -2.12758561 0.04598894
H  1.28919645 -2.20540167 0.06751738
H  2.46845639 0.05552518 0.05482783
H  1.16352693 2.18032055 -0.15164869
H  -1.29684212 2.11575248 0.06808493
H  -2.54099986 0.04090425 -0.16958186
12
MD Step 997 Units = [Angstroms]
C  -0.67937309 -1.17629694 0.01195908
C  0.74162903 -1.18482362 0.02268080
C  1.40367730 -0.00597803 0.03258285
C  0.66156194 1.19163992 -0.04271832
C  -0.69759702 1.20634300 0.01591138
C  -1.42449922 -0.03385910 -0.03524450
H  -1.16096291 -2.12961881 0.05952829
H  1.29388130 -2.20492881 0.07096521
H  2.47149349 0.03803426 0.05286599
H  1.16065598 2.17944107 -0.14056092
H  -1.30032502 2.12296934 0.06421336
H  -2.52907681 0.02955039 -0.16863307
12
MD Step 998 Units = [Angstroms]
C  -0.68000609 -1.17798173 0.01077852
C  0.74310899 -1.18179038 0.02249528
C  1.40328411 -0.00555905 0.03196893
C  0.65914116 1.18906575 -0.04247310
C  -0.69492336 1.20632609 0.01584856
C  -1.42697172 -0.03102538 -0.03543593
H  -1.15629235 -2.13434473 0.07285286
H  1.29641444 -2.20048526 0.07415621
H  2.47736473 0.02076294 0.05093576
H  1.15831360 2.17763036 -0.12905601
H  -1.30335005 2.13059510 0.06010488
H  -2.51574231 0.01733698 -0.16691353
12
MD Step 999 Units = [Angstroms]
C  -0.68048194 -1.17976039 0.00959008
C  0.74440124 -1.17934656 0.02240521
C  1.40292895 -0.00485263 0.03125812
C  0.65699572 1.18673590 -0.04216336
C  -0.69276603 1.20611698 0.01570378
C  -1.42922883 -0.02785711 -0.03561885
H  -1.15314702 -2.14160003 0.08590694
H  1.29680141 -2.19213928 0.07706536
H  2.48554844 0.00391943 0.04903256
H  1.15654752 2.17493965 -0.11720506
H  -1.30549484 2.13802087 0.05576193
H  -2.50228949 0.00451204 -0.16456284
12
MD Step 1000 Units = [Angstroms]
C  -0.68081106 -1.18160727 0.00840737
C  0.74545528 -1.17750701 0.02240772
C  1.40268659 -0.00386138 0.03045098
C  0.65518454 1.18467074 -0.04178232
C  -0.69121430 1.20576029 0.01547443
C  -1.43113556 -0.02443524 -0.03578271
H  -1.15139049 -2.15095986 0.09861532
H  1.29519516 -2.18023525 0.07968312
H  2.49530767 -0.01228729 0.04714839
H  1.15541689 2.17147840 -0.10508324
H  -1.30639575 2.14470677 0.05119615
H  -2.49010543 -0.00869091 -0.16173456
12
MD Step 1001 Units = [Angstroms]
C  -0.68101179 -1.18351294 0.00724567
C  0.74621621 -1.17625700 0.02249834
C  1.40263455 -0.00259455 0.02954843
C  0.65375863 1.18288303 -0.04132293
C  -0.69034001 1.20529615 0.01515711
C  -1.43256520 -0.02084124 -0.03591731
H  -1.15078853 -2.16178969 0.11087878
H  1.29189558 -2.16539116 0.08201758
H  2.50578400 -0.02764393 0.04527389
H  1.15498899 2.16740773 -0.09276733
H  -1.30577500 2.15021948 0.04642869
H  -2.48052351 -0.02206617 -0.15857761
12
MD Step 1002 Units = [Angstroms]
C  -0.68110723 -1.18547969 0.00612177
C  0.74662568 -1.17555213 0.02267088
C  1.40284495 -0.00106848 0.02855160
C  0.65275917 1.18137849 -0.04077798
C  -0.69019407 1.20475802 0.01474768
C  -1.43341453 -0.01715488 -0.03601459
H  -1.15104612 -2.17332088 0.12257542
H  1.28734597 -2.14848859 0.08409626
H  2.51609393 -0.04193437 0.04340000
H  1.15533424 2.16292982 -0.08033332
H  -1.30345828 2.15425719 0.04148925
H  -2.47464607 -0.03544132 -0.15521461
12
MD Step 1003 Units = [Angstroms]
C  -0.68112217 -1.18751617 0.00505339
C  0.74662314 -1.17531987 0.02291743
C  1.40337769 0.00069380 0.02746174
C  0.65221622 1.18015683 -0.04014026
C  -0.69080394 1.20417134 0.01424137
C  -1.43361844 -0.01345331 -0.03607029
H  -1.15184648 -2.18473427 0.13356709
H  1.28212104 -2.13064506 0.08596658
H  2.52541305 -0.05494521 0.04151906
H  1.15651974 2.15827379 -0.06785413
H  -1.29938417 2.15666413 0.03641448
H  -2.47317269 -0.04867146 -0.15172244
12
MD Step 1004 Units = [Angstroms]
C  -0.68108034 -1.18963229 0.00405831
C  0.74614804 -1.17546408 0.02322848
C  1.40427561 0.00266339 0.02628022
C  0.65214814 1.17921293 -0.03940278
C  -0.69217221 1.20355283 0.01363301
C  -1.43316010 -0.00981122 -0.03608483
H  -1.15288583 -2.19523791 0.14370903
H  1.27689886 -2.11315612 0.08769427
H  2.53304045 -0.06647372 0.03962537
H  1.15860157 2.15367884 -0.05539804
H  -1.29360685 2.15743700 0.03124577
H  -2.47628037 -0.06162342 -0.14812122
12
MD Step 1005 Units = [Angstroms]
C  -0.68100229 -1.19183511 0.00315354
C  0.74514352 -1.17587329 0.02359326
C  1.40556158 0.00480684 0.02500856
C  0.65256157 1.17853829 -0.03855884
C  -0.69427618 1.20291044 0.01291733
C  -1.43207361 -0.00630160 -0.03606330
H  -1.15390064 -2.20413039 0.15286059
H  1.27240989 -2.09739591 0.08935823
H  2.53844256 -0.07633652 0.03771537
H  1.16161659 2.14937594 -0.04302764
H  -1.28629299 2.15672448 0.02602692
H  -2.48359344 -0.07415603 -0.14437560
12
MD Step 1006 Units = [Angstroms]
C  -0.68090387 -1.19412601 0.00235454
C  0.74356223 -1.17643293 0.02400053
C  1.40723718 0.00708750 0.02364844
C  0.65345216 1.17812244 -0.03760217
C  -0.69706863 1.20224367 0.01208921
C  -1.43043827 -0.00299617 -0.03601436
H  -1.15468666 -2.21084692 0.16089538
H  1.26935994 -2.08467417 0.09104122
H  2.54127958 -0.08437778 0.03578760
H  1.16557442 2.14556976 -0.03079966
H  -1.27771295 2.15481965 0.02080163
H  -2.49425327 -0.08610544 -0.14040813
12
MD Step 1007 Units = [Angstroms]
C  -0.68079528 -1.19649895 0.00167453
C  0.74137360 -1.17704014 0.02443952
C  1.40928258 0.00946697 0.02220183
C  0.65480565 1.17795440 -0.03652703
C  -0.70047967 1.20154463 0.01114409
C  -1.42836641 0.00003510 -0.03594860
H  -1.15511078 -2.21498944 0.16770981
H  1.26833375 -2.07606473 0.09281705
H  2.54141899 -0.09047638 0.03384250
H  1.17045059 2.14242259 -0.01876559
H  -1.26822554 2.15214372 0.01561108
H  -2.50706374 -0.09728148 -0.13611991
12
MD Step 1008 Units = [Angstroms]
C  -0.68068059 -1.19893969 0.00112406
C  0.73857144 -1.17761824 0.02490112
C  1.41165709 0.01190638 0.02067103
C  0.65659927 1.17802377 -0.03532823
C  -0.70441996 1.20079973 0.01007822
C  -1.42598850 0.00272558 -0.03587679
H  -1.15511755 -2.21634396 0.17322986
H  1.26969743 -2.07224050 0.09473639
H  2.53893995 -0.09455196 0.03188215
H  1.17618186 2.14004233 -0.00697281
H  -1.25825573 2.14921852 0.01049175
H  -2.52066878 -0.10747581 -0.13141203
12
MD Step 1009 Units = [Angstroms]
C  -0.68055766 -1.20142551 0.00071060
C  0.73517956 -1.17812694 0.02537878
C  1.41430034 0.01436757 0.01905875
C  0.65880315 1.17832164 -0.03400121
C  -0.70878502 1.19999229 0.00888898
C  -1.42343901 0.00501415 -0.03580847
H  -1.15473181 -2.21488849 0.17741590
H  1.27352618 -2.07336089 0.09681541
H  2.53413031 -0.09656940 0.02991011
H  1.18266450 2.13847574 0.00453384
H  -1.24826461 2.14662572 0.00547379
H  -2.53371853 -0.11647759 -0.12620260
12
MD Step 1010 Units = [Angstroms]
C  -0.68041856 -1.20392531 0.00043834
C  0.73125365 -1.17856525 0.02586891
C  1.41713401 0.01681403 0.01736823
C  0.66138170 1.17884102 -0.03254208
C  -0.71346048 1.19910607 0.00757499
C  -1.42084529 0.00684775 -0.03575109
H  -1.15405848 -2.21079344 0.18026577
H  1.27958108 -2.07904842 0.09903085
H  2.52747555 -0.09654165 0.02793111
H  1.18975615 2.13770802 0.01571061
H  -1.23871293 2.14495240 0.00058013
H  -2.54499772 -0.12409119 -0.12043720
12
MD Step 1011 Units = [Angstroms]
C  -0.68025030 -1.20640012 0.00030811
C  0.72687849 -1.17896636 0.02637064
C  1.42006440 0.01921168 0.01560323
C  0.66429466 1.17957679 -0.03094768
C  -0.71832784 1.19812948 0.00613627
C  -1.41831998 0.00818360 -0.03570963
H  -1.15327939 -2.20441454 0.18181583
H  1.28734337 -2.08846240 0.10132323
H  2.51963686 -0.09453001 0.02595080
H  1.19728109 2.13766845 0.02651370
H  -1.23002131 2.14472615 -0.00417340
H  -2.55350917 -0.13015145 -0.11409298
12
MD Step 1012 Units = [Angstroms]
C  -0.68003608 -1.20880406 0.00031738
C  0.72216145 -1.17938659 0.02688508
C  1.42298620 0.02152929 0.01376813
C  0.66749793 1.18052536 -0.02921571
C  -0.72327014 1.19706006 0.00457410
C  -1.41595645 0.00899099 -0.03568657
H  -1.15264632 -2.19627659 0.18213955
H  1.29609489 -2.10044445 0.10360691
H  2.51141366 -0.09064127 0.02397537
H  1.20503873 2.13824134 0.03689874
H  -1.22253226 2.14634743 -0.00877680
H  -2.55851942 -0.13453472 -0.10717818
12
MD Step 1013 Units = [Angstroms]
C  -0.67975684 -1.21108621 0.00046063
C  0.71722408 -1.17989221 0.02741422
C  1.42578776 0.02373864 0.01186798
C  0.67094415 1.18168395 -0.02734485
C  -0.72817682 1.19590814 0.00289092
C  -1.41382631 0.00925249 -0.03568209
H  -1.15246850 -2.18704482 0.18134317
H  1.30501978 -2.11369091 0.10578348
H  2.50368647 -0.08502089 0.02201112
H  1.21281428 2.13928066 0.04682105
H  -1.21648066 2.15003044 -0.01322389
H  -2.55957898 -0.13716579 -0.09972900
12
MD Step 1014 Units = [Angstroms]
C  -0.67939342 -1.21319350 0.00072982
C  0.71219391 -1.18054748 0.02796004
C  1.42835811 0.02581425 0.00990851
C  0.67458308 1.18304972 -0.02533494
C  -0.73294724 1.19469902 0.00109015
C  -1.41197795 0.00896474 -0.03569435
H  -1.15309276 -2.17748056 0.17955744
H  1.31330167 -2.12691041 0.10775465
H  2.49733850 -0.07784242 0.02006376
H  1.22039061 2.14062650 0.05623649
H  -1.21197830 2.15576510 -0.01750991
H  -2.55652888 -0.13802171 -0.09180506
12
MD Step 1015 Units = [Angstroms]
C  -0.67892911 -1.21507493 0.00111537
C  0.70719771 -1.18140600 0.02852371
C  1.43059533 0.02773297 0.00789621
C  0.67836198 1.18461883 -0.02318713
C  -0.73749257 1.19347269 -0.00082406
C  -1.41043559 0.00813864 -0.03571982
H  -1.15487500 -2.16837962 0.17692566
H  1.32019976 -2.13894159 0.10943235
H  2.49316018 -0.06929436 0.01813771
H  1.22756020 2.14212169 0.06510302
H  -1.20901503 2.16330895 -0.02162944
H  -2.54950175 -0.13713330 -0.08348444
12
MD Step 1016 Units = [Angstroms]
C  -0.67835270 -1.21668698 0.00160725
C  0.70235647 -1.18250568 0.02910522
C  1.43241523 0.02947347 0.00583835
C  0.68222597 1.18638544 -0.02090410
C  -0.74173615 1.19228122 -0.00284691
C  -1.40919850 0.00679907 -0.03575358
H  -1.15814330 -2.16049578 0.17358858
H  1.32509891 -2.14882668 0.11074508
H  2.49174855 -0.05956693 0.01623522
H  1.23413614 2.14362688 0.07338241
H  -1.20747567 2.17221149 -0.02557515
H  -2.53892042 -0.13458513 -0.07485824
12
MD Step 1017 Units = [Angstroms]
C  -0.67766166 -1.21799941 0.00219623
C  0.69778189 -1.18386667 0.02970315
C  1.43375900 0.03101603 0.00374301
C  0.68611853 1.18834097 -0.01849018
C  -0.74561267 1.19118405 -0.00497306
C  -1.40824065 0.00498422 -0.03578979
H  -1.16315590 -2.15445764 0.16966838
H  1.32753751 -2.15584869 0.11164120
H  2.49342020 -0.04884217 0.01435563
H  1.23996138 2.14503300 0.08104213
H  -1.20716773 2.18186541 -0.02933760
H  -2.52549229 -0.13051326 -0.06602475
12
MD Step 1018 Units = [Angstroms]
C  -0.67686509 -1.21900051 0.00287497
C  0.69357381 -1.18549098 0.03031467
C  1.43459795 0.03234279 0.00161906
C  0.68998216 1.19047331 -0.01595143
C  -0.74906682 1.19024225 -0.00719660
C  -1.40751130 0.00274422 -0.03582209
H  -1.17006009 -2.15069240 0.16525492
H  1.32722053 -2.15954566 0.11209019
H  2.49815778 -0.03728951 0.01249484
H  1.24491579 2.14627051 0.08805710
H  -1.20785384 2.19157397 -0.03290604
H  -2.51019260 -0.12510010 -0.05708288
12
MD Step 1019 Units = [Angstroms]
C  -0.67598571 -1.21970046 0.00363861
C  0.68981790 -1.18736305 0.03093559
C  1.43493428 0.03343850 -0.00052388
C  0.69375906 1.19276643 -0.01329578
C  -0.75205174 1.18951263 -0.00951101
C  -1.40693738 0.00013930 -0.03584415
H  -1.17886040 -2.14937237 0.16039779
H  1.32402483 -2.15971351 0.11208269
H  2.50560461 -0.02506787 0.01064523
H  1.24892072 2.14731490 0.09441099
H  -1.20928308 2.20062193 -0.03626981
H  -2.49422606 -0.11856492 -0.04812514
12
MD Step 1020 Units = [Angstroms]
C  -0.67506036 -1.22013178 0.00448486
C  0.68658359 -1.18945030 0.03156032
C  1.43479766 0.03429159 -0.00267556
C  0.69739196 1.19520014 -0.01053294
C  -0.75452773 1.18904268 -0.01190911
C  -1.40642887 -0.00276270 -0.03585022
H  -1.18940365 -2.15039715 0.15510622
H  1.31800182 -2.15640570 0.11163029
H  2.51510942 -0.01233216 0.00879608
H  1.25194077 2.14818833 0.10009709
H  -1.21121738 2.20834003 -0.03941997
H  -2.47895403 -0.11114917 -0.03923065
12
MD Step 1021 Units = [Angstroms]
C  -0.67413866 -1.22034663 0.00541332
C  0.68392181 -1.19170343 0.03218196
C  1.43423864 0.03489533 -0.00482519
C  0.70082504 1.19775020 -0.00767435
C  -0.75646133 1.18886657 -0.01438298
C  -1.40588776 -0.00588930 -0.03583560
H  -1.20138528 -2.15341561 0.14935693
H  1.30937968 -2.14993348 0.11076520
H  2.52581020 0.00075885 0.00693436
H  1.25398304 2.14895743 0.10511859
H  -1.21345144 2.21415698 -0.04235076
H  -2.46577865 -0.10309713 -0.03045984
12
MD Step 1022 Units = [Angstroms]
C  -0.67327997 -1.22041134 0.00642455
C  0.68186306 -1.19405666 0.03279227
C  1.43332029 0.03524859 -0.00696163
C  0.70400474 1.20038876 -0.00473307
C  -0.75782470 1.18900261 -0.01692391
C  -1.40522058 -0.00916646 -0.03579687
H  -1.21437595 -2.15788195 0.14310763
H  1.29856422 -2.14086548 0.10953966
H  2.53673763 0.01403651 0.00504587
H  1.25509356 2.14972720 0.10948818
H  -1.21582633 2.21763713 -0.04506080
H  -2.45598613 -0.09463478 -0.02185255
12
MD Step 1023 Units = [Angstroms]
C  -0.67254895 -1.22039968 0.00751887
C  0.68041594 -1.19642801 0.03338172
C  1.43211000 0.03535616 -0.00907352
C  0.70688067 1.20308510 -0.00172355
C  -0.75859527 1.18945174 -0.01952239
C  -1.40435278 -0.01252137 -0.03573171
H  -1.22786263 -2.16313213 0.13631244
H  1.28613463 -2.13002156 0.10802486
H  2.54691772 0.02731992 0.00311627
H  1.25535145 2.15063135 0.11322697
H  -1.21823792 2.21850484 -0.04755394
H  -2.45056975 -0.08595188 -0.01343163
12
MD Step 1024 Units = [Angstroms]
C  -0.67201075 -1.22038584 0.00869540
C  0.67956702 -1.19872084 0.03393964
C  1.43067247 0.03522847 -0.01114942
C  0.70940644 1.20580684 0.00133860
C  -0.75875544 1.19019720 -0.02216808
C  -1.40324176 -0.01588433 -0.03563824
H  -1.24129578 -2.16846473 0.12893571
H  1.27282715 -2.11845058 0.10630825
H  2.55545887 0.04041753 0.00113213
H  1.25486082 2.15181947 0.11636284
H  -1.22064140 2.21665749 -0.04983962
H  -2.45007133 -0.07719292 -0.00521183
12
MD Step 1025 Units = [Angstroms]
C  -0.67172610 -1.22043847 0.00995134
C  0.67928256 -1.20082742 0.03445457
C  1.42906449 0.03488084 -0.01317794
C  0.71154047 1.20852130 0.00443696
C  -0.75829240 1.19120498 -0.02484982
C  -1.40188496 -0.01918967 -0.03551426
H  -1.25413484 -2.17321344 0.12096214
H  1.25949826 -2.10737920 0.10448857
H  2.56161676 0.05313162 -0.00091842
H  1.25374109 2.15344169 0.11892829
H  -1.22305296 2.21216904 -0.05193295
H  -2.45448592 -0.06845961 0.00278798
12
MD Step 1026 Units = [Angstroms]
C  -0.67174715 -1.22061628 0.01128175
C  0.67951303 -1.20263591 0.03491491
C  1.42733155 0.03433228 -0.01514777
C  0.71324670 1.21119718 0.00755457
C  -0.75719779 1.19242517 -0.02755568
C  -1.40032029 -0.02237573 -0.03535636
H  -1.26588684 -2.17680390 0.11240219
H  1.24705974 -2.09811901 0.10266759
H  2.56483701 0.06526454 -0.00304522
H  1.25211637 2.15563210 0.12095807
H  -1.22554863 2.20528474 -0.05385446
H  -2.46326069 -0.05982337 0.01053353
12
MD Step 1027 Units = [Angstroms]
C  -0.67211401 -1.22096506 0.01267947
C  0.68020024 -1.20404108 0.03530979
C  1.42550584 0.03360413 -0.01704784
C  0.71449528 1.21380627 0.01067427
C  -0.75546753 1.19379419 -0.03027300
C  -1.39861891 -0.02538452 -0.03515957
H  -1.27613578 -2.17879330 0.10329353
H  1.23638473 -2.09192774 0.10093885
H  2.56477997 0.07662555 -0.00525593
H  1.25010500 2.15849248 0.12248681
H  -1.22826020 2.19640645 -0.05562939
H  -2.47538847 -0.05134189 0.01796866
12
MD Step 1028 Units = [Angstroms]
C  -0.67285231 -1.22151604 0.01413538
C  0.68128637 -1.20495778 0.03563016
C  1.42360532 0.03271870 -0.01886728
C  0.71526307 1.21632502 0.01377903
C  -0.75310180 1.19523799 -0.03298855
C  -1.39687286 -0.02816177 -0.03491744
H  -1.28456324 -2.17889503 0.09369932
H  1.22819528 -2.08983716 0.09937465
H  2.56133250 0.08703776 -0.00755606
H  1.24781015 2.16207806 0.12354693
H  -1.23136668 2.18606675 -0.05728672
H  -2.48956604 -0.04307318 0.02501563
12
MD Step 1029 Units = [Angstroms]
C  -0.67397158 -1.22228501 0.01563870
C  0.68272277 -1.20533472 0.03586975
C  1.42163346 0.03169789 -0.02059555
C  0.71553411 1.21873588 0.01685219
C  -0.75010539 1.19667645 -0.03568867
C  -1.39518106 -0.03065744 -0.03462255
H  -1.29096162 -2.17699176 0.08370440
H  1.22295563 -2.09248169 0.09801451
H  2.55461091 0.09634470 -0.00994912
H  1.24531270 2.16638727 0.12416726
H  -1.23508034 2.17489031 -0.05885780
H  -2.50437203 -0.03508311 0.03158103
12
MD Step 1030 Units = [Angstroms]
C  -0.67546448 -1.22327191 0.01717741
C  0.68447597 -1.20516435 0.03602569
C  1.41957962 0.03056221 -0.02222250
C  0.71529988 1.22102811 0.01987766
C  -0.74648877 1.19802871 -0.03835954
C  -1.39363698 -0.03282705 -0.03426724
H  -1.29524174 -2.17314027 0.07341029
H  1.22080205 -2.09997527 0.09685842
H  2.54495676 0.10441655 -0.01243706
H  1.24266717 2.17135689 0.12437231
H  -1.23962562 2.16354185 -0.06037462
H  -2.51842538 -0.02744608 0.03756489
12
MD Step 1031 Units = [Angstroms]
C  -0.67730689 -1.22446077 0.01873862
C  0.68652898 -1.20448577 0.03609852
C  1.41741996 0.02933005 -0.02373841
C  0.71455953 1.22319804 0.02284008
C  -0.74226975 1.19921932 -0.04098741
C  -1.39231960 -0.03463318 -0.03384432
H  -1.29743571 -2.16756992 0.06292935
H  1.22153266 -2.11187752 0.09586752
H  2.53292476 0.11115562 -0.01502069
H  1.23990109 2.17686343 0.12418252
H  -1.24521122 2.15266333 -0.06186804
H  -2.53050307 -0.02024082 0.04286995
12
MD Step 1032 Units = [Angstroms]
C  -0.67945874 -1.22581986 0.02030906
C  0.68887758 -1.20337941 0.03609165
C  1.41511934 0.02801747 -0.02513411
C  0.71332005 1.22524867 0.02572489
C  -0.73747591 1.20018456 -0.04355892
C  -1.39128800 -0.03604713 -0.03334764
H  -1.29769501 -2.16067454 0.05237849
H  1.22466029 -2.12726172 0.09497193
H  2.51925961 0.11650065 -0.01770037
H  1.23701781 2.18273079 0.12361514
H  -1.25199697 2.14280693 -0.06336606
H  -2.53961398 -0.01354419 0.04740944
12
MD Step 1033 Units = [Angstroms]
C  -0.68186576 -1.22730251 0.02187547
C  0.69152329 -1.20195542 0.03601043
C  1.41263432 0.02663835 -0.02640103
C  0.71159646 1.22718867 0.02851841
C  -0.73214730 1.20087796 -0.04606137
C  -1.39057859 -0.03705023 -0.03277244
H  -1.29628249 -2.15299607 0.04187258
H  1.22950932 -2.14486151 0.09408318
H  2.50485712 0.12042898 -0.02047679
H  1.23400217 2.18874325 0.12268581
H  -1.26005990 2.13437405 -0.06489246
H  -2.54503799 -0.00742487 0.05111279
12
MD Step 1034 Units = [Angstroms]
C  -0.68446218 -1.22884886 0.02342508
C  0.69446557 -1.20033946 0.03586119
C  1.40991778 0.02520509 -0.02753127
C  0.70941207 1.22903099 0.03120786
C  -0.72633898 1.20127419 -0.04848297
C  -1.39020431 -0.03763484 -0.03211558
H  -1.29355602 -2.14519667 0.03151805
H  1.23532586 -2.16325057 0.09310744
H  2.49070516 0.12295558 -0.02335180
H  1.23082812 2.19466223 0.12141022
H  -1.26936590 2.12757210 -0.06646604
H  -2.54634255 -0.00193799 0.05392947
12
MD Step 1035 Units = [Angstroms]
C  -0.68717435 -1.23038889 0.02494604
C  0.69769535 -1.19865936 0.03565040
C  1.40692509 0.02372956 -0.02851766
C  0.70679883 1.23079101 0.03378141
C  -0.72012272 1.20137034 -0.05081303
C  -1.39015459 -0.03780478 -0.03137573
H  -1.28994160 -2.13801593 0.02140734
H  1.24137441 -2.18101007 0.09195651
H  2.47780272 0.12412819 -0.02632912
H  1.22746730 2.20024499 0.11980586
H  -1.27975344 2.12239863 -0.06810053
H  -2.54338800 0.00287905 0.05583145
12
MD Step 1036 Units = [Angstroms]
C  -0.68992530 -1.23184718 0.02642773
C  0.70119118 -1.19703510 0.03538417
C  1.40362174 0.02222440 -0.02935380
C  0.70379777 1.23248474 0.03622824
C  -0.71358750 1.20118459 -0.05304214
C  -1.39039569 -0.03757539 -0.03055344
H  -1.28589475 -2.13221143 0.01161510
H  1.24700674 -2.19685616 0.09055522
H  2.46706145 0.12401851 -0.02941460
H  1.22389765 2.20526333 0.11789345
H  -1.29093433 2.11865613 -0.06980519
H  -2.53632875 0.00700973 0.05681486
12
MD Step 1037 Units = [Angstroms]
C  -0.69264007 -1.23314905 0.02786084
C  0.70491784 -1.19557234 0.03506793
C  1.39999112 0.02070439 -0.03003415
C  0.70045934 1.23412691 0.03853861
C  -0.70683838 1.20075239 -0.05516227
C  -1.39087125 -0.03697306 -0.02965126
H  -1.28185179 -2.12848455 0.00219751
H  1.25170177 -2.20972117 0.08884515
H  2.45920141 0.12271089 -0.03261571
H  1.22011114 2.20952070 0.11569795
H  -1.30251213 2.11599364 -0.07158571
H  -2.52561249 0.01046064 0.05690085
12
MD Step 1038 Units = [Angstroms]
C  -0.69525109 -1.23422776 0.02923725
C  0.70882680 -1.19435882 0.03470638
C  1.39604127 0.01918752 -0.03055416
C  0.69684359 1.23572933 0.04070394
C  -0.69999413 1.20012126 -0.05716684
C  -1.39150306 -0.03603441 -0.02867379
H  -1.27817687 -2.12739908 -0.00680473
H  1.25508298 -2.21879620 0.08678579
H  2.45465991 0.12029095 -0.03594015
H  1.21612001 2.21286647 0.11324905
H  -1.31401511 2.11396527 -0.07344542
H  -2.51197498 0.01326260 0.05613558
12
MD Step 1039 Units = [Angstroms]
C  -0.69770295 -1.23503140 0.03054963
C  0.71285781 -1.19346265 0.03430346
C  1.39180878 0.01769564 -0.03091040
C  0.69301997 1.23729961 0.04271693
C  -0.69318370 1.19934499 -0.05905075
C  -1.39219295 -0.03480497 -0.02762765
H  -1.27511387 -2.12930576 -0.01535983
H  1.25692225 -2.22354898 0.08435406
H  2.45353367 0.11683729 -0.03939338
H  1.21196126 2.21520656 0.11058114
H  -1.32493737 2.11209364 -0.07538642
H  -2.49642302 0.01547051 0.05458860
12
MD Step 1040 Units = [Angstroms]
C  -0.69995561 -1.23552838 0.03179083
C  0.71694077 -1.19293118 0.03386239
C  1.38735869 0.01625433 -0.03110078
C  0.68906664 1.23884024 0.04457159
C  -0.68654219 1.19847840 -0.06081040
C  -1.39282638 -0.03333759 -0.02652126
H  -1.27275426 -2.13428825 -0.02343615
H  1.25713748 -2.22372959 0.08154319
H  2.45556922 0.11241845 -0.04297588
H  1.20769904 2.21650998 0.10773287
H  -1.33478149 2.10992796 -0.07741051
H  -2.48019410 0.01716094 0.05234889
12
MD Step 1041 Units = [Angstroms]
C  -0.70198546 -1.23571011 0.03295337
C  0.72099752 -1.19279001 0.03338568
C  1.38278026 0.01489204 -0.03112466
C  0.68506916 1.24034818 0.04626333
C  -0.68020649 1.19757299 -0.06244359
C  -1.39327904 -0.03169033 -0.02536433
H  -1.27102887 -2.14214377 -0.03099370
H  1.25578917 -2.21937280 0.07836127
H  2.46020384 0.10709547 -0.04668045
H  1.20342492 2.21681095 0.10474620
H  -1.34309719 2.10709054 -0.07952004
H  -2.46468002 0.01842712 0.04951752
12
MD Step 1042 Units = [Angstroms]
C  -0.70378404 -1.23559053 0.03402915
C  0.72494336 -1.19304167 0.03287513
C  1.37817948 0.01363864 -0.03098286
C  0.68111851 1.24181488 0.04778891
C  -0.67431090 1.19667367 -0.06394943
C  -1.39342706 -0.02992417 -0.02416712
H  -1.26972590 -2.15240365 -0.03797848
H  1.25307785 -2.21080107 0.07482978
H  2.46664674 0.10092847 -0.05049053
H  1.19925581 2.21620645 0.10166524
H  -1.34951286 2.10330958 -0.08171850
H  -2.45130583 0.01937065 0.04619714
12
MD Step 1043 Units = [Angstroms]
C  -0.70535485 -1.23520268 0.03500940
C  0.72868829 -1.19366427 0.03233183
C  1.37366997 0.01252373 -0.03067768
C  0.67730860 1.24322680 0.04914644
C  -0.66898267 1.19581672 -0.06532807
C  -1.39316050 -0.02810043 -0.02293944
H  -1.26853022 -2.16438900 -0.04432116
H  1.24934218 -2.19862697 0.07098190
H  2.47398105 0.09398443 -0.05437988
H  1.19532963 2.21484930 0.09853480
H  -1.35375919 2.09843941 -0.08401104
H  -2.44136757 0.02009090 0.04247934
12
MD Step 1044 Units = [Angstroms]
C  -0.70670914 -1.23459337 0.03588510
C  0.73213814 -1.19461057 0.03175622
C  1.36936393 0.01157491 -0.03021266
C  0.67373324 1.24456634 0.05033523
C  -0.66433764 1.19502855 -0.06658051
C  -1.39239847 -0.02627831 -0.02168970
H  -1.26707389 -2.17728861 -0.04994029
H  1.24505451 -2.18374873 0.06686029
H  2.48126652 0.08634373 -0.05831353
H  1.19179872 2.21293675 0.09539889
H  -1.35568525 2.09247062 -0.08640493
H  -2.43585145 0.02067357 0.03843290
12
MD Step 1045 Units = [Angstroms]
C  -0.70786151 -1.23381720 0.03664754
C  0.73519610 -1.19580867 0.03114825
C  1.36536451 0.01081628 -0.02959234
C  0.67048290 1.24581304 0.05135559
C  -0.66047584 1.19432512 -0.06770817
C  -1.39110224 -0.02451269 -0.02042433
H  -1.26498722 -2.19024346 -0.05474868
H  1.24080853 -2.16732737 0.06251391
H  2.48762797 0.07810395 -0.06224988
H  1.18882115 2.21069526 0.09229915
H  -1.35526798 2.08553255 -0.08890994
H  -2.43527505 0.02118121 0.03409679
12
MD Step 1046 Units = [Angstroms]
C  -0.70882603 -1.23293103 0.03728894
C  0.73776514 -1.19716555 0.03050758
C  1.36176006 0.01026723 -0.02882201
C  0.66764132 1.24694521 0.05220865
C  -0.65747739 1.19371205 -0.06871258
C  -1.38928290 -0.02285259 -0.01914771
H  -1.26194216 -2.20242436 -0.05866126
H  1.23729151 -2.15073018 0.05799363
H  2.49232229 0.06938065 -0.06614335
H  1.18655030 2.20836199 0.08927342
H  -1.35261566 2.07788978 -0.09153873
H  -2.43959620 0.02164817 0.02948071
12
MD Step 1047 Units = [Angstroms]
C  -0.70961315 -1.23198949 0.03780311
C  0.73975210 -1.19857475 0.02983402
C  1.35862042 0.00994162 -0.02790741
C  0.66528236 1.24794154 0.05289604
C  -0.65539882 1.19318514 -0.06959493
C  -1.38700080 -0.02134012 -0.01786278
H  -1.25768395 -2.21309507 -0.06160257
H  1.23523347 -2.13542642 0.05334673
H  2.49478360 0.06030546 -0.06994734
H  1.18512349 2.20616470 0.08635454
H  -1.34796493 2.06993274 -0.09430724
H  -2.44821949 0.02208105 0.02457328
12
MD Step 1048 Units = [Angstroms]
C  -0.71022746 -1.23104177 0.03818585
C  0.74107383 -1.19992867 0.02912793
C  1.35599479 0.00984719 -0.02685449
C  0.66346711 1.24878284 0.05341962
C  -0.65427037 1.19273149 -0.07035579
C  -1.38435711 -0.02001004 -0.01657204
H  -1.25205095 -2.22165835 -0.06351307
H  1.23532988 -2.12283107 0.04861111
H  2.49465044 0.05102256 -0.07361705
H  1.18465054 2.20430151 0.08356949
H  -1.34167014 2.06216124 -0.09723480
H  -2.46009841 0.02246366 0.01935510
12
MD Step 1049 Units = [Angstroms]
C  -0.71066641 -1.23012940 0.03843526
C  0.74166484 -1.20113405 0.02839053
C  1.35391080 0.00998530 -0.02566918
C  0.66224169 1.24945361 0.05378124
C  -0.65409467 1.19233130 -0.07099473
C  -1.38148012 -0.01888967 -0.01527847
H  -1.24498478 -2.22768685 -0.06435362
H  1.23814348 -2.11411244 0.04381093
H  2.49177955 0.04168386 -0.07711217
H  1.18520356 2.20292300 0.08093886
H  -1.33418293 2.05515865 -0.10034412
H  -2.47390041 0.02276438 0.01381185
12
MD Step 1050 Units = [Angstroms]
C  -0.71091957 -1.22928478 0.03855192
C  0.74148540 -1.20212740 0.02762409
C  1.35237441 0.01035096 -0.02435724
C  0.66163557 1.24994325 0.05398251
C  -0.65484730 1.19196052 -0.07151023
C  -1.37851005 -0.01799877 -0.01398628
H  -1.23653345 -2.23094194 -0.06410835
H  1.24400369 -2.11000442 0.03895548
H  2.48625019 0.03244367 -0.08039935
H  1.18680921 2.20211852 0.07847679
H  -1.32602040 2.04955428 -0.10366058
H  -2.48818871 0.02294348 0.00794409
12
MD Step 1051 Units = [Angstroms]
C  -0.71096868 -1.22853021 0.03853892
C  0.74052768 -1.20288571 0.02683160
C  1.35137035 0.01093304 -0.02292412
C  0.66166083 1.25024683 0.05402464
C  -0.65647942 1.19159434 -0.07189960
C  -1.37558571 -0.01734952 -0.01270123
H  -1.22684979 -2.23138381 -0.06278599
H  1.25293070 -2.11067777 0.03404236
H  2.47836075 0.02345277 -0.08345446
H  1.18944449 2.20190865 0.07619121
H  -1.31772139 2.04597263 -0.10721081
H  -2.50158160 0.02295875 0.00177178
12
MD Step 1052 Units = [Angstroms]
C  -0.71078831 -1.22787714 0.03840177
C  0.73881805 -1.20342883 0.02601635
C  1.35086328 0.01171492 -0.02137485
C  0.66231201 1.25036535 0.05390842
C  -0.65892232 1.19121159 -0.07215919
C  -1.37283451 -0.01694632 -0.01143056
H  -1.21618646 -2.22917430 -0.06041980
H  1.26461003 -2.11571486 0.02906419
H  2.46861705 0.01485238 -0.08626433
H  1.19303682 2.20224477 0.07408436
H  -1.30979360 2.04497119 -0.11102014
H  -2.51286893 0.02276918 -0.00466569
12
MD Step 1053 Units = [Angstroms]
C  -0.71034714 -1.22732585 0.03814823
C  0.73641456 -1.20381275 0.02518124
C  1.35079963 0.01267521 -0.01971398
C  0.66356678 1.25030535 0.05363423
C  -0.66209327 1.19079942 -0.07228472
C  -1.37036606 -0.01678575 -0.01018276
H  -1.20488750 -2.22467219 -0.05706606
H  1.27842743 -2.12419702 0.02401650
H  2.45770947 0.00676808 -0.08882796
H  1.19746845 2.20301569 0.07215361
H  -1.30265814 2.04697278 -0.11510895
H  -2.52108404 0.02233676 -0.01131274
12
MD Step 1054 Units = [Angstroms]
C  -0.70960984 -1.22686569 0.03778806
C  0.73340055 -1.20411622 0.02432832
C  1.35111077 0.01378889 -0.01794568
C  0.66538718 1.25007805 0.05320213
C  -0.66590183 1.19035763 -0.07227180
C  -1.36826861 -0.01685659 -0.00896717
H  -1.19337549 -2.21841834 -0.05280102
H  1.29355329 -2.13487311 0.01890407
H  2.44647451 -0.00069563 -0.09115642
H  1.20258469 2.20406044 0.07039219
H  -1.29660120 2.05220293 -0.11948810
H  -2.52554068 0.02162715 -0.01810228
12
MD Step 1055 Units = [Angstroms]
C  -0.70853960 -1.22647638 0.03733257
C  0.72987626 -1.20442542 0.02345858
C  1.35171768 0.01502832 -0.01607381
C  0.66772145 1.24969811 0.05261207
C  -0.67025528 1.18990169 -0.07211653
C  -1.36660715 -0.01714014 -0.00779362
H  -1.18213257 -2.21110667 -0.04771601
H  1.30905030 -2.14635545 0.01374391
H  2.43583691 -0.00745937 -0.09327114
H  1.20820500 2.20518540 0.06879006
H  -1.29174354 2.06064517 -0.12415417
H  -2.52584782 0.02060985 -0.02496107
12
MD Step 1056 Units = [Angstroms]
C  -0.70710127 -1.22613063 0.03679409
C  0.72595083 -1.20482062 0.02257193
C  1.35253727 0.01636444 -0.01410234
C  0.67050619 1.24918214 0.05186411
C  -0.67506251 1.18946346 -0.07181605
C  -1.36542240 -0.01761085 -0.00667201
H  -1.17167369 -2.20353645 -0.04191075
H  1.32397679 -2.15729380 0.00856492
H  2.42673094 -0.01347060 -0.09519978
H  1.21413564 2.20618371 0.06733466
H  -1.28803510 2.07202530 -0.12908554
H  -2.52191354 0.01925807 -0.03181495
12
MD Step 1057 Units = [Angstroms]
C  -0.70526505 -1.22579851 0.03618531
C  0.72173582 -1.20536689 0.02166742
C  1.35349020 0.01776757 -0.01203581
C  0.67366883 1.24854716 0.05095864
C  -0.68023597 1.18908936 -0.07136903
C  -1.36473012 -0.01823725 -0.00561194
H  -1.16251163 -2.19654396 -0.03548532
H  1.33746779 -2.16650063 0.00340526
H  2.42000527 -0.01870216 -0.09696985
H  1.22018250 2.20685479 0.06601160
H  -1.28527586 2.08582981 -0.13424034
H  -2.51394474 0.01754884 -0.03859413
12
MD Step 1058 Units = [Angstroms]
C  -0.70301057 -1.22545322 0.03551859
C  0.71734081 -1.20610938 0.02074355
C  1.35450912 0.01920815 -0.00987999
C  0.67713022 1.24780914 0.04989660
C  -0.68569192 1.18883623 -0.07077588
C  -1.36452045 -0.01898318 -0.00462227
H  -1.15511513 -2.19091581 -0.02853194
H  1.34878849 -2.17302430 -0.00169137
H  2.41632292 -0.02314755 -0.09860030
H  1.22616308 2.20702229 0.06480522
H  -1.28315728 2.10135518 -0.13955692
H  -2.50244484 0.01546304 -0.04523843
12
MD Step 1059 Units = [Angstroms]
C  -0.70033117 -1.22507762 0.03480539
C  0.71287068 -1.20707174 0.01979849
C  1.35554598 0.02065706 -0.00764253
C  0.68080717 1.24698180 0.04867976
C  -0.69134966 1.18876564 -0.07003879
C  -1.36475769 -0.01980927 -0.00371073
H  -1.14986446 -2.18729403 -0.02112837
H  1.35736435 -2.17618180 -0.00667946
H  2.41607434 -0.02681388 -0.10009291
H  1.23191669 2.20654897 0.06369913
H  -1.28131400 2.11777787 -0.14495679
H  -2.48820640 0.01298560 -0.05170249
12
MD Step 1060 Units = [Angstroms]
C  -0.69723750 -1.22467003 0.03405597
C  0.70842380 -1.20825670 0.01883042
C  1.35657676 0.02208601 -0.00533350
C  0.68461491 1.24607570 0.04731084
C  -0.69713059 1.18893773 -0.06916154
C  -1.36538104 -0.02067444 -0.00288345
H  -1.14701140 -2.18608908 -0.01333469
H  1.36279577 -2.17556690 -0.01151512
H  2.41932268 -0.02971415 -0.10142527
H  1.23731224 2.20534796 0.06267658
H  -1.27937517 2.13423154 -0.15034961
H  -2.47229116 0.01010521 -0.05796063
12
MD Step 1061 Units = [Angstroms]
C  -0.69376027 -1.22424793 0.03327945
C  0.70409074 -1.20964739 0.01783770
C  1.35760257 0.02346776 -0.00296553
C  0.68846922 1.24509762 0.04579364
C  -0.70295749 1.18940558 -0.06814929
C  -1.36630722 -0.02153738 -0.00214463
H  -1.14665124 -2.18742020 -0.00519470
H  1.36486546 -2.17104743 -0.01615914
H  2.42579504 -0.03186111 -0.10254755
H  1.24225349 2.20338957 0.06172083
H  -1.27700743 2.14987966 -0.15563922
H  -2.45598597 0.00681355 -0.06401040
12
MD Step 1062 Units = [Angstroms]
C  -0.68995126 -1.22384817 0.03248417
C  0.69995277 -1.21120862 0.01681920
C  1.35864690 0.02477667 -0.00055368
C  0.69228835 1.24405042 0.04413317
C  -0.70875449 1.19021052 -0.06700815
C  -1.36743616 -0.02235782 -0.00149634
H  -1.14871326 -2.19109806 0.00325825
H  1.36354404 -2.16276057 -0.02057981
H  2.43492172 -0.03326413 -0.10338413
H  1.24668141 2.20070384 0.06081542
H  -1.27394592 2.16397581 -0.16072986
H  -2.44072218 0.00310353 -0.06987330
12
MD Step 1063 Units = [Angstroms]
C  -0.68588251 -1.22352348 0.03167830
C  0.69608022 -1.21288790 0.01577447
C  1.35974974 0.02598926 0.00188519
C  0.69599451 1.24293312 0.04233565
C  -0.71444736 1.19137882 -0.06574491
C  -1.36866042 -0.02309762 -0.00093877
H  -1.15297157 -2.19665445 0.01199300
H  1.35899656 -2.15111003 -0.02475582
H  2.44591355 -0.03392957 -0.10383967
H  1.25057390 2.19737845 0.05994442
H  -1.27001342 2.17590888 -0.16553186
H  -2.42795078 -0.00103323 -0.07559091
12
MD Step 1064 Units = [Angstroms]
C  -0.68164381 -1.22333602 0.03087042
C  0.69253052 -1.21461610 0.01470408
C  1.36096018 0.02708497 0.00433323
C  0.69951521 1.24174146 0.04040850
C  -0.71996426 1.19291941 -0.06436670
C  -1.36987797 -0.02372149 -0.00047088
H  -1.15907389 -2.20341080 0.02097215
H  1.35158925 -2.13676396 -0.02867907
H  2.45785895 -0.03386368 -0.10380828
H  1.25394270 2.19355236 0.05909249
H  -1.26512968 2.18523410 -0.16996669
H  -2.41897764 -0.00560886 -0.08121493
12
MD Step 1065 Units = [Angstroms]
C  -0.67733884 -1.22334941 0.03006988
C  0.68934637 -1.21630826 0.01360982
C  1.36232892 0.02804676 0.00677248
C  0.70278419 1.24046862 0.03836027
C  -0.72523647 1.19482267 -0.06288071
C  -1.37100664 -0.02419769 -0.00009153
H  -1.16658163 -2.21056869 0.03014596
H  1.34189214 -2.12064766 -0.03235742
H  2.46982199 -0.03307682 -0.10318357
H  1.25682789 2.18940518 0.05824500
H  -1.25931371 2.19169246 -0.17397112
H  -2.41478285 -0.01064012 -0.08679164
12
MD Step 1066 Units = [Angstroms]
C  -0.67308049 -1.22362101 0.02928694
C  0.68655464 -1.21786535 0.01249498
C  1.36390186 0.02886156 0.00918568
C  0.70574232 1.23910633 0.03620060
C  -0.73019896 1.19705989 -0.06129395
C  -1.37199674 -0.02449866 0.00019914
H  -1.17501366 -2.21730319 0.03944970
H  1.33066921 -2.10392083 -0.03581659
H  2.48092706 -0.03158741 -0.10186790
H  1.25929008 2.18514292 0.05738794
H  -1.25268153 2.19522119 -0.17750068
H  -2.41586474 -0.01614614 -0.09234381
12
MD Step 1067 Units = [Angstroms]
C  -0.66898578 -1.22419554 0.02853259
C  0.68416696 -1.21917810 0.01136432
C  1.36571533 0.02952040 0.01155696
C  0.70833818 1.23764615 0.03394006
C  -0.73479078 1.19958360 -0.05961301
C  -1.37283833 -0.02460185 0.00039858
H  -1.18388717 -2.22284416 0.04880441
H  1.31884513 -2.08792520 -0.03910027
H  2.49042366 -0.02942492 -0.09977961
H  1.26140090 2.18098087 0.05650772
H  -1.24544046 2.19595672 -0.18053239
H  -2.42215366 -0.02214203 -0.09785540
12
MD Step 1068 Units = [Angstroms]
C  -0.66517069 -1.22510087 0.02781820
C  0.68218295 -1.22013414 0.01022390
C  1.36779282 0.03001824 0.01387222
C  0.71052865 1.23608081 0.03159006
C  -0.73895522 1.20232858 -0.05784388
C  -1.37356082 -0.02449057 0.00050127
H  -1.19275189 -2.22653810 0.05812036
H  1.30743721 -2.07408924 -0.04226697
H  2.49773063 -0.02663148 -0.09685797
H  1.26323250 2.17712499 0.05559095
H  -1.23788029 2.19422992 -0.18306658
H  -2.43302331 -0.02862977 -0.10326412
12
MD Step 1069 Units = [Angstroms]
C  -0.66174512 -1.22634574 0.02715504
C  0.68059651 -1.22062887 0.00908055
C  1.37014314 0.03035345 0.01611946
C  0.71227920 1.23440569 0.02916272
C  -0.74263993 1.20521391 -0.05599187
C  -1.37422504 -0.02415481 0.00049910
H  -1.20121632 -2.22788952 0.06730192
H  1.29744833 -2.06378472 -0.04538248
H  2.50246332 -0.02326214 -0.09306598
H  1.26484694 2.17375331 0.05462405
H  -1.23036039 2.19055105 -0.18512746
H  -2.44739626 -0.03558871 -0.10846465
12
MD Step 1070 Units = [Angstroms]
C  -0.65880800 -1.22791925 0.02655383
C  0.67940452 -1.22057931 0.00794089
C  1.37275941 0.03052720 0.01828883
C  0.71356407 1.23262006 0.02667074
C  -0.74579725 1.20814628 -0.05406160
C  -1.37491071 -0.02359178 0.00038235
H  -1.20896685 -2.22658522 0.07625318
H  1.28973085 -2.05814754 -0.04850805
H  2.50444811 -0.01938417 -0.08839144
H  1.26628676 2.17099960 0.05359283
H  -1.22329135 2.18558091 -0.18676169
H  -2.46390987 -0.04296900 -0.11332094
12
MD Step 1071 Units = [Angstroms]
C  -0.65644275 -1.22979135 0.02602418
C  0.67861554 -1.21993799 0.00681029
C  1.37561875 0.03054272 0.02037267
C  0.71436618 1.23072805 0.02412725
C  -0.74838493 1.21102480 -0.05205725
C  -1.37570275 -0.02280591 0.00014109
H  -1.21578124 -2.22250613 0.08488350
H  1.28485012 -2.05789782 -0.05168614
H  2.50372776 -0.01507537 -0.08284659
H  1.26756782 2.16894100 0.05248219
H  -1.21710957 2.18008405 -0.18803408
H  -2.48109727 -0.05068954 -0.11768321
12
MD Step 1072 Units = [Angstroms]
C  -0.65471312 -1.23191402 0.02557413
C  0.67825544 -1.21870309 0.00569188
C  1.37868251 0.03040471 0.02236541
C  0.71467679 1.22873921 0.02154567
C  -0.75036756 1.21374738 -0.04998307
C  -1.37667966 -0.02180855 -0.00023349
H  -1.22153782 -2.21573053 0.09311289
H  1.28298786 -2.06320951 -0.05492780
H  2.50055936 -0.01042159 -0.07646659
H  1.26867529 2.16759139 0.05127584
H  -1.21224432 2.17486231 -0.18901980
H  -2.49754505 -0.05864060 -0.12140499
12
MD Step 1073 Units = [Angstroms]
C  -0.65365982 -1.23422265 0.02520976
C  0.67836717 -1.21692109 0.00458605
C  1.38189710 0.03011887 0.02426337
C  0.71449494 1.22666855 0.01893958
C  -0.75171858 1.21621851 -0.04784413
C  -1.37790534 -0.02061725 -0.00074804
H  -1.22622129 -2.20653110 0.10087692
H  1.28391922 -2.07367288 -0.05820618
H  2.49540396 -0.00551349 -0.06930682
H  1.26956352 2.16690132 0.04995627
H  -1.20907843 2.17067126 -0.18979312
H  -2.51200837 -0.06668971 -0.12435672
12
MD Step 1074 Units = [Angstroms]
C  -0.65329802 -1.23663771 0.02493472
C  0.67900426 -1.21468108 0.00349072
C  1.38519583 0.02969171 0.02606451
C  0.71382666 1.22453599 0.01632252
C  -0.75242270 1.21835741 -0.04564732
C  -1.37942438 -0.01925495 -0.00140642
H  -1.22992461 -2.19536550 0.10813097
H  1.28707154 -2.08836394 -0.06145837
H  2.48890501 -0.00044253 -0.06143875
H  1.27015962 2.16676438 0.04850495
H  -1.20790676 2.16812915 -0.19041365
H  -2.52348229 -0.07468917 -0.12643490
12
MD Step 1075 Units = [Angstroms]
C  -0.65361624 -1.23906677 0.02475001
C  0.68022012 -1.21210241 0.00240208
C  1.38850183 0.02913050 0.02776803
C  0.71268416 1.22236542 0.01370782
C  -0.75247829 1.22010539 -0.04340232
C  -1.38125999 -0.01774904 -0.00220932
H  -1.23284538 -2.18285837 0.11485352
H  1.29164254 -2.10599642 -0.06459496
H  2.48185123 0.00470369 -0.05294443
H  1.27037039 2.16702925 0.04690276
H  -1.20889883 2.16763402 -0.19091259
H  -2.53123856 -0.08248388 -0.12756722
12
MD Step 1076 Units = [Angstroms]
C  -0.65457688 -1.24140725 0.02465373
C  0.68205656 -1.20931987 0.00131577
C  1.39173271 0.02844330 0.02937391
C  0.71108501 1.22018328 0.01110849
C  -0.75189911 1.22143080 -0.04112234
C  -1.38341353 -0.01613048 -0.00315423
H  -1.23527398 -2.16977117 0.12104761
H  1.29673813 -2.12510793 -0.06751347
H  2.47511981 0.00984632 -0.04390963
H  1.27009162 2.16751562 0.04513066
H  -1.21207308 2.16930713 -0.19128221
H  -2.53484085 -0.08991863 -0.12771478
12
MD Step 1077 Units = [Angstroms]
C  -0.65611886 -1.24355031 0.02464122
C  0.68453481 -1.20646991 0.00022787
C  1.39480675 0.02763907 0.03088236
C  0.70905147 1.21801699 0.00853698
C  -0.75071483 1.22233056 -0.03882435
C  -1.38586469 -0.01443296 -0.00423537
H  -1.23757028 -2.15695556 0.12673971
H  1.30149371 -2.14423280 -0.07011167
H  2.46959867 0.01491970 -0.03441631
H  1.26921860 2.16803215 0.04317046
H  -1.21728906 2.17297682 -0.19147142
H  -2.53414902 -0.09684506 -0.12687267
12
MD Step 1078 Units = [Angstroms]
C  -0.65816228 -1.24538622 0.02470534
C  0.68765044 -1.20368034 -0.00086423
C  1.39765049 0.02672774 0.03229338
C  0.70661002 1.21589334 0.00600512
C  -0.74897027 1.22282775 -0.03652870
C  -1.38857182 -0.01269200 -0.00544384
H  -1.24012681 -2.14528839 0.13197493
H  1.30515939 -2.16203275 -0.07229790
H  2.46609224 0.01987441 -0.02453570
H  1.26765669 2.16839451 0.04100566
H  -1.22425964 2.17820704 -0.19138894
H  -2.52931947 -0.10312812 -0.12506945
12
MD Step 1079 Units = [Angstroms]
C  -0.66061506 -1.24681112 0.02483726
C  0.69137240 -1.20106383 -0.00196143
C  1.40020655 0.02572030 0.03360633
C  0.70379110 1.21383690 0.00352397
C  -0.74672322 1.22296613 -0.03425819
C  -1.39147233 -0.01094420 -0.00676761
H  -1.24331877 -2.13559029 0.13680827
H  1.30714736 -2.17737906 -0.07399761
H  2.46522228 0.02467819 -0.01432363
H  1.26533107 2.16844191 0.03862221
H  -1.23258079 2.18436279 -0.19091333
H  -2.52080355 -0.10865255 -0.12236602
12
MD Step 1080 Units = [Angstroms]
C  -0.66338085 -1.24773454 0.02502739
C  0.69564498 -1.19871434 -0.00306268
C  1.40244047 0.02462890 0.03481998
C  0.70062903 1.21186869 0.00110374
C  -0.74404160 1.22280289 -0.03203679
C  -1.39448324 -0.00922633 -0.00819180
H  -1.24744628 -2.12853624 0.14129238
H  1.30705003 -2.18939497 -0.07515650
H  2.46734198 0.02931418 -0.00381968
H  1.26219480 2.16805086 0.03600922
H  -1.24177268 2.19069645 -0.18990730
H  -2.50934137 -0.11332909 -0.11885327
12
MD Step 1081 Units = [Angstroms]
C  -0.66636704 -1.24808651 0.02526658
C  0.70039149 -1.19670536 -0.00416504
C  1.40434475 0.02346699 0.03593271
C  0.69716200 1.21000512 -0.00124622
C  -0.74100023 1.22240107 -0.02988826
C  -1.39750271 -0.00757458 -0.00969891
H  -1.25267871 -2.12457296 0.14546397
H  1.30464070 -2.19747281 -0.07574149
H  2.47248238 0.03377684 0.00694924
H  1.25823480 2.16714547 0.03315936
H  -1.25132414 2.19643688 -0.18823306
H  -2.49594365 -0.11709973 -0.11464799
12
MD Step 1082 Units = [Angstroms]
C  -0.66949158 -1.24782287 0.02554709
C  0.70551861 -1.19508892 -0.00526373
C  1.40593917 0.02224935 0.03694314
C  0.69343216 1.20825732 -0.00351750
C  -0.73767785 1.22182301 -0.02783497
C  -1.40041335 -0.00602393 -0.01126936
H  -1.25901406 -2.12386049 0.14933195
H  1.29986652 -2.20127912 -0.07574053
H  2.48034487 0.03806669 0.01796170
H  1.25347548 2.16570387 0.03006917
H  -1.26073427 2.20086727 -0.18576598
H  -2.48185051 -0.11994058 -0.10988591
12
MD Step 1083 Units = [Angstroms]
C  -0.67268738 -1.24692758 0.02586326
C  0.71092043 -1.19389448 -0.00635225
C  1.40726724 0.02099198 0.03785071
C  0.68948560 1.20663077 -0.00570262
C  -0.73415456 1.22112524 -0.02589694
C  -1.40308840 -0.00460778 -0.01288240
H  -1.26626443 -2.12625211 0.15287050
H  1.29283990 -2.20075720 -0.07516201
H  2.49034170 0.04218526 0.02919309
H  1.24797976 2.16376044 0.02673907
H  -1.26954678 2.20338451 -0.18240497
H  -2.46845480 -0.12186015 -0.10471126
12
MD Step 1084 Units = [Angstroms]
C  -0.67590377 -1.24541146 0.02621158
C  0.71648205 -1.19312764 -0.00742257
C  1.40838949 0.01971189 0.03865631
C  0.68537237 1.20512543 -0.00779500
C  -0.73050980 1.22035502 -0.02409117
C  -1.40540158 -0.00335802 -0.01451722
H  -1.27407214 -2.13131770 0.15601912
H  1.28383115 -2.19613156 -0.07403404
H  2.50167416 0.04613136 0.04060778
H  1.24184762 2.16140382 0.02317317
H  -1.27737621 2.20353901 -0.17807910
H  -2.45718184 -0.12289092 -0.09926303
12
MD Step 1085 Units = [Angstroms]
C  -0.67910519 -1.24330808 0.02659024
C  0.72208240 -1.19276863 -0.00846519
C  1.40937535 0.01842658 0.03936259
C  0.68114639 1.20373619 -0.00978900
C  -0.72682067 1.21954818 -0.02243130
C  -1.40724018 -0.00230563 -0.01615426
H  -1.28195262 -2.13840424 0.15868954
H  1.27326189 -2.18791393 -0.07240361
H  2.51343023 0.04989942 0.05215436
H  1.23521199 2.15877084 0.01937887
H  -1.28392656 2.20105805 -0.17275101
H  -2.44932919 -0.12307399 -0.09365984
12
MD Step 1086 Units = [Angstroms]
C  -0.68226797 -1.24066785 0.02699831
C  0.72759662 -1.19277114 -0.00946936
C  1.41029502 0.01715350 0.03997392
C  0.67686519 1.20245371 -0.01167989
C  -0.72316061 1.21872794 -0.02092744
C  -1.40851975 -0.00148141 -0.01777644
H  -1.28935287 -2.14671863 0.16077730
H  1.26169623 -2.17690553 -0.07033510
H  2.52468250 0.05347967 0.06376445
H  1.22823217 2.15603626 0.01536638
H  -1.28900390 2.19585688 -0.16641769
H  -2.44588844 -0.12243893 -0.08798693
12
MD Step 1087 Units = [Angstroms]
C  -0.68537606 -1.23755176 0.02743485
C  0.73289846 -1.19306250 -0.01042333
C  1.41121266 0.01590934 0.04049625
C  0.67258970 1.20126561 -0.01346384
C  -0.71959796 1.21790444 -0.01958611
C  -1.40919710 -0.00091650 -0.01936986
H  -1.29571278 -2.15541559 0.16217513
H  1.24982407 -2.16418461 -0.06790762
H  2.53457250 0.05685954 0.07535490
H  1.22108509 2.15339895 0.01114805
H  -1.29252457 2.18804123 -0.15910936
H  -2.44738829 -0.12098521 -0.08228941
12
MD Step 1088 Units = [Angstroms]
C  -0.68841691 -1.23402596 0.02789801
C  0.73786325 -1.19354645 -0.01131479
C  1.41218123 0.01470939 0.04093657
C  0.66838373 1.20015791 -0.01513790
C  -0.71619471 1.21707470 -0.01841039
C  -1.40927795 -0.00064197 -0.02092384
H  -1.30051861 -2.16367668 0.16278517
H  1.23842938 -2.15106390 -0.06521017
H  2.54237478 0.06002580 0.08683235
H  1.21395468 2.15106520 0.00673786
H  -1.29451962 2.17790329 -0.15088679
H  -2.45380324 -0.11867217 -0.07657437
12
MD Step 1089 Units = [Angstroms]
C  -0.69137762 -1.23015778 0.02838448
C  0.74237219 -1.19411008 -0.01213144
C  1.41323918 0.01356691 0.04130247
C  0.66431331 1.19911666 -0.01670007
C  -0.71300510 1.21622312 -0.01740012
C  -1.40881677 -0.00068712 -0.02243028
H  -1.30334308 -2.17077297 0.16252862
H  1.22833657 -2.13900131 -0.06233421
H  2.54754036 0.06296681 0.09809903
H  1.20702037 2.14923032 0.00215085
H  -1.29513509 2.16591104 -0.14183719
H  -2.46455689 -0.11542265 -0.07082150
12
MD Step 1090 Units = [Angstroms]
C  -0.69424193 -1.22601317 0.02888917
C  0.74631824 -1.19463558 -0.01286189
C  1.41440861 0.01249262 0.04160156
C  0.66044573 1.19812965 -0.01814923
C  -0.71007442 1.21532267 -0.01655226
C  -1.40790897 -0.00107666 -0.02388263
H  -1.30387125 -2.17610970 0.16135204
H  1.22033236 -2.12945443 -0.05936384
H  2.54972324 0.06567453 0.10905903
H  1.20044538 2.14806025 -0.00259711
H  -1.29462670 2.15268898 -0.13206855
H  -2.47861891 -0.11113958 -0.06499834
12
MD Step 1091 Units = [Angstroms]
C  -0.69698778 -1.22165526 0.02940504
C  0.74961330 -1.19501618 -0.01349649
C  1.41569442 0.01149421 0.04184098
C  0.65684823 1.19718795 -0.01948524
C  -0.70743831 1.21433686 -0.01586143
C  -1.40667792 -0.00182724 -0.02527488
H  -1.30191447 -2.17925548 0.15923080
H  1.21506964 -2.12368781 -0.05636529
H  2.54879421 0.06814635 0.11962447
H  1.19436634 2.14767504 -0.00748938
H  -1.29334617 2.13898707 -0.12170224
H  -2.49466476 -0.10572972 -0.05907528
12
MD Step 1092 Units = [Angstroms]
C  -0.69958561 -1.21714363 0.02992325
C  0.75219533 -1.19517326 -0.01402806
C  1.41708423 0.01057611 0.04202692
C  0.65358642 1.19628720 -0.02070892
C  -0.70512270 1.21322303 -0.01532063
C  -1.40526043 -0.00294418 -0.02660085
H  -1.29741567 -2.17996002 0.15617024
H  1.21297134 -2.12256836 -0.05337844
H  2.54484564 0.07038637 0.12972123
H  1.18888512 2.14813630 -0.01250833
H  -1.29171656 2.12563443 -0.11086411
H  -2.51125367 -0.09912672 -0.05303635
12
MD Step 1093 Units = [Angstroms]
C  -0.70199729 -1.21253379 0.03043326
C  0.75403347 -1.19507008 -0.01445224
C  1.41854889 0.00973930 0.04216423
C  0.65072233 1.19542838 -0.02182215
C  -0.70314496 1.21193691 -0.01492199
C  -1.40379376 -0.00441905 -0.02785392
H  -1.29044887 -2.17816397 0.15220511
H  1.21415990 -2.12640479 -0.05041348
H  2.53818859 0.07240645 0.13929426
H  1.18406412 2.14944019 -0.01763482
H  -1.29019466 2.11347637 -0.09967472
H  -2.52698666 -0.09130771 -0.04688453
12
MD Step 1094 Units = [Angstroms]
C  -0.70417582 -1.20787667 0.03092314
C  0.75512935 -1.19471734 -0.01476719
C  1.42004356 0.00898145 0.04225608
C  0.64831232 1.19461806 -0.02282782
C  -0.70151595 1.21043834 -0.01465762
C  -1.40240595 -0.00622832 -0.02902710
H  -1.28121473 -2.17400284 0.14739782
H  1.21843539 -2.13488482 -0.04745412
H  2.52934139 0.07422659 0.14831187
H  1.17992529 2.15151693 -0.02284765
H  -1.28922149 2.10329718 -0.08824012
H  -2.54062384 -0.08230124 -0.04064206
12
MD Step 1095 Units = [Angstroms]
C  -0.70606587 -1.20321798 0.03137983
C  0.75551411 -1.19416902 -0.01497298
C  1.42150968 0.00829716 0.04230376
C  0.64640487 1.19386799 -0.02372986
C  -0.70024298 1.20869760 -0.01452024
C  -1.40120954 -0.00833333 -0.03011322
H  -1.27003232 -2.16780490 0.14183534
H  1.22530991 -2.14713323 -0.04446628
H  2.51900647 0.07587450 0.15676859
H  1.17645321 2.15423687 -0.02812289
H  -1.28916596 2.09573681 -0.07664515
H  -2.55115856 -0.07218747 -0.03434760
12
MD Step 1096 Units = [Angstroms]
C  -0.70760526 -1.19859771 0.03178954
C  0.75524188 -1.19350981 -0.01507072
C  1.42287811 0.00767854 0.04230663
C  0.64503851 1.19319417 -0.02453320
C  -0.69933273 1.20670124 -0.01450351
C  -1.40029787 -0.01068114 -0.03110529
H  -1.25732597 -2.16008071 0.13562489
H  1.23408698 -2.16186919 -0.04140904
H  2.50803101 0.07738406 0.16468568
H  1.17360147 2.15742238 -0.03343349
H  -1.29027128 2.09121512 -0.06495122
H  -2.55785686 -0.06109320 -0.02805178
12
MD Step 1097 Units = [Angstroms]
C  -0.70872738 -1.19405012 0.03213823
C  0.75438185 -1.19283896 -0.01506174
C  1.42407390 0.00711599 0.04226244
C  0.64423998 1.19261534 -0.02524366
C  -0.69879336 1.20445614 -0.01460189
C  -1.39974316 -0.01320653 -0.03199677
H  -1.24360551 -2.15150013 0.12888797
H  1.24396096 -2.17760999 -0.03824447
H  2.49734745 0.07879225 0.17210808
H  1.17130151 2.16086381 -0.03874905
H  -1.29261569 2.08987929 -0.05319953
H  -2.56027483 -0.04918405 -0.02181233
12
MD Step 1098 Units = [Angstroms]
C  -0.70936470 -1.18960461 0.03241216
C  0.75301075 -1.19225479 -0.01494708
C  1.42502263 0.00659919 0.04216785
C  0.64402290 1.19215136 -0.02586781
C  -0.69863500 1.20199094 -0.01481020
C  -1.39959518 -0.01583465 -0.03278178
H  -1.22943763 -2.14285188 0.12175273
H  1.25411163 -2.19286520 -0.03494414
H  2.48789286 0.08013420 0.17909701
H  1.16947281 2.16433781 -0.04403607
H  -1.29609754 2.09158701 -0.04141895
H  -2.55826463 -0.03665539 -0.01568926
12
MD Step 1099 Units = [Angstroms]
C  -0.70945308 -1.18528797 0.03259850
C  0.75120701 -1.19184320 -0.01472725
C  1.42565812 0.00611826 0.04201938
C  0.64438699 1.19182122 -0.02641279
C  -0.69886834 1.19935427 -0.01512289
C  -1.39988020 -0.01848437 -0.03345527
H  -1.21540774 -2.13498220 0.11434505
H  1.26377743 -2.20628522 -0.03149199
H  2.48051231 0.08143681 0.18571791
H  1.16803308 2.16762594 -0.04925849
H  -1.30044877 2.09592992 -0.02963646
H  -2.55197626 -0.02372281 -0.00974017
12
MD Step 1100 Units = [Angstroms]
C  -0.70893697 -1.18112806 0.03268600
C  0.74904690 -1.19167072 -0.01440216
C  1.42593033 0.00566502 0.04181468
C  0.64531788 1.19164129 -0.02688609
C  -0.69950164 1.19661041 -0.01553343
C  -1.40059986 -0.02107220 -0.03401320
H  -1.20207394 -2.12871325 0.10677927
H  1.27230332 -2.21675432 -0.02788433
H  2.47585873 0.08271153 0.19202513
H  1.16690780 2.17053199 -0.05437857
H  -1.30527300 2.10229113 -0.01788699
H  -2.54185744 -0.01061214 -0.00401579
12
MD Step 1101 Units = [Angstroms]
C  -0.70777462 -1.17715843 0.03266543
C  0.74660220 -1.19178147 -0.01397123
C  1.42581220 0.00523419 0.04155369
C  0.64678770 1.19162364 -0.02729533
C  -0.70053704 1.19383329 -0.01603377
C  -1.40173022 -0.02351635 -0.03445265
H  -1.18991808 -2.12474869 0.09915014
H  1.27916693 -2.22343713 -0.02412822
H  2.47430771 0.08394786 0.19804598
H  1.16603795 2.17289667 -0.05935802
H  -1.31009868 2.10992365 -0.00622021
H  -2.52864929 0.00245105 0.00144451
12
MD Step 1102 Units = [Angstroms]
C  -0.70594305 -1.17342288 0.03252993
C  0.74393891 -1.19219669 -0.01343357
C  1.42530362 0.00482435 0.04123967
C  0.64875616 1.19177468 -0.02764811
C  -0.70196721 1.19110017 -0.01661433
C  -1.40322163 -0.02574092 -0.03477205
H  -1.17930195 -2.12358144 0.09152783
H  1.28399058 -2.22579469 -0.02023906
H  2.47590675 0.08510935 0.20376817
H  1.16538590 2.17460891 -0.06415930
H  -1.31443560 2.11803353 0.00529688
H  -2.51337077 0.01525230 0.00661686
12
MD Step 1103 Units = [Angstroms]
C  -0.70344164 -1.16997848 0.03227490
C  0.74111636 -1.19291542 -0.01278811
C  1.42443166 0.00443859 0.04087960
C  0.65117222 1.19209424 -0.02795177
C  -0.70377291 1.18848586 -0.01726407
C  -1.40500027 -0.02767966 -0.03497123
H  -1.17043741 -2.12542301 0.08395714
H  1.28654645 -2.22358564 -0.01623811
H  2.48037157 0.08613349 0.20913401
H  1.16493886 2.17561322 -0.06874685
H  -1.31782530 2.12585515 0.01658148
H  -2.49728109 0.02759875 0.01149601
12
MD Step 1104 Units = [Angstroms]
C  -0.70029410 -1.16689576 0.03189761
C  0.73818648 -1.19391554 -0.01203380
C  1.42324696 0.00408470 0.04048391
C  0.65397622 1.19257500 -0.02821330
C  -0.70592211 1.18605800 -0.01797089
C  -1.40697258 -0.02927896 -0.03505151
H  -1.16337704 -2.13017182 0.07646129
H  1.28676013 -2.21686319 -0.01215003
H  2.48713040 0.08693586 0.21404308
H  1.16471000 2.17591286 -0.07308830
H  -1.31987995 2.13271103 0.02753936
H  -2.48180752 0.03932692 0.01609652
12
MD Step 1105 Units = [Angstroms]
C  -0.69654840 -1.16425558 0.03139660
C  0.73519292 -1.19515461 -0.01116986
C  1.42181713 0.00377494 0.04006558
C  0.65710217 1.19320256 -0.02843923
C  -0.70837043 1.18387362 -0.01872213
C  -1.40903330 -0.03049969 -0.03501550
H  -1.15802664 -2.13742870 0.06904866
H  1.28471526 -2.20597305 -0.00800048
H  2.49540475 0.08741776 0.21836267
H  1.16473725 2.17556860 -0.07715545
H  -1.32030855 2.13805467 0.03807089
H  -2.46842980 0.05030523 0.02045055
12
MD Step 1106 Units = [Angstroms]
C  -0.69227496 -1.16214306 0.03077103
C  0.73217019 -1.19657053 -0.01019594
C  1.42021889 0.00352559 0.03963896
C  0.66048029 1.19395591 -0.02863561
C  -0.71106263 1.18197662 -0.01950502
C  -1.41107725 -0.03131749 -0.03486658
H  -1.15417560 -2.14655523 0.06172080
H  1.28065919 -2.19155214 -0.00381365
H  2.50430779 0.08747565 0.22194296
H  1.16507967 2.17469309 -0.08092489
H  -1.31893212 2.14149815 0.04807762
H  -2.45852296 0.06042820 0.02460114
12
MD Step 1107 Units = [Angstroms]
C  -0.68756372 -1.16063997 0.03002016
C  0.72914293 -1.19808240 -0.00911239
C  1.41853031 0.00335620 0.03921834
C  0.66403951 1.19480844 -0.02880800
C  -0.71393491 1.18039608 -0.02030719
C  -1.41301321 -0.03172148 -0.03460812
H  -1.15153718 -2.15675977 0.05447928
H  1.27500670 -2.17452228 0.00039025
H  2.51294140 0.08701058 0.22463363
H  1.16581186 2.17344091 -0.08437829
H  -1.31569032 2.14282817 0.05746859
H  -2.45317840 0.06960205 0.02859140
12
MD Step 1108 Units = [Angstroms]
C  -0.68252046 -1.15981715 0.02914298
C  0.72612588 -1.19959234 -0.00792044
C  1.41682435 0.00328869 0.03881682
C  0.66770983 1.19572945 -0.02896152
C  -0.71691728 1.17914520 -0.02111706
C  -1.41477699 -0.03171198 -0.03424254
H  -1.14979020 -2.16719171 0.04733039
H  1.26833548 -2.15606830 0.00459764
H  2.52047861 0.08593616 0.22629866
H  1.16701635 2.17199473 -0.08750226
H  -1.31064210 2.14201344 0.06616629
H  -2.45304063 0.07772514 0.03245141
12
MD Step 1109 Units = [Angstroms]
C  -0.67726292 -1.15972827 0.02813818
C  0.72312509 -1.20098968 -0.00662242
C  1.41516409 0.00334637 0.03844538
C  0.67142446 1.19668602 -0.02910091
C  -0.71993606 1.17822077 -0.02192426
C  -1.41634001 -0.03129777 -0.03377052
H  -1.14861589 -2.17702779 0.04028711
H  1.26136437 -2.13758580 0.00880368
H  2.52622529 0.08418435 0.22682789
H  1.16877468 2.17054829 -0.09028774
H  -1.30396173 2.13920542 0.07411163
H  -2.45820375 0.08467060 0.03618674
12
MD Step 1110 Units = [Angstroms]
C  -0.67191695 -1.16040563 0.02700415
C  0.72014120 -1.20215832 -0.00522179
C  1.41359967 0.00355273 0.03811230
C  0.67512163 1.19764519 -0.02923066
C  -0.72291601 1.17760332 -0.02271991
C  -1.41771092 -0.03049402 -0.03319063
H  -1.14772654 -2.18554035 0.03336900
H  1.25490466 -2.12058420 0.01301341
H  2.52966154 0.08170902 0.22614476
H  1.17115768 2.16928764 -0.09272903
H  -1.29593040 2.13473228 0.08126818
H  -2.46819967 0.09027915 0.03977228
12
MD Step 1111 Units = [Angstroms]
C  -0.66661252 -1.16185811 0.02573922
C  0.71717524 -1.20298821 -0.00372306
C  1.41216650 0.00393019 0.03782285
C  0.67874594 1.19857626 -0.02935507
C  -0.72578230 1.17725820 -0.02349688
C  -1.41892981 -0.02932126 -0.03249955
H  -1.14688585 -2.19214528 0.02660060
H  1.24977853 -2.10653889 0.01724069
H  2.53046642 0.07848759 0.22421065
H  1.17421590 2.16837214 -0.09482265
H  -1.28692263 2.12908406 0.08762473
H  -2.48208077 0.09436613 0.04315348
12
MD Step 1112 Units = [Angstroms]
C  -0.66147987 -1.16407090 0.02434190
C  0.71423641 -1.20338981 -0.00213136
C  1.41088443 0.00449863 0.03757917
C  0.68224925 1.19945299 -0.02947836
C  -0.72846242 1.17713780 -0.02424983
C  -1.42005727 -0.02780538 -0.03169287
H  -1.14592225 -2.19643165 0.02000905
H  1.24670943 -2.09670428 0.02150434
H  2.52853045 0.07452123 0.22102654
H  1.17797119 2.16791770 -0.09656600
H  -1.27738575 2.12288584 0.09319588
H  -2.49857025 0.09674073 0.04625415
12
MD Step 1113 Units = [Angstroms]
C  -0.65664538 -1.16700649 0.02281108
C  0.71135029 -1.20330867 -0.00045192
C  1.40975757 0.00527404 0.03738034
C  0.68559105 1.20025548 -0.02960473
C  -0.73088819 1.17718522 -0.02497516
C  -1.42116172 -0.02597814 -0.03076605
H  -1.14473722 -2.19817751 0.01362156
H  1.24620455 -2.09192366 0.02582173
H  2.52395923 0.06983385 0.21663257
H  1.18241040 2.16798406 -0.09795637
H  -1.26781113 2.11685530 0.09801961
H  -2.51623699 0.09723041 0.04898795
12
MD Step 1114 Units = [Angstroms]
C  -0.65222753 -1.17060636 0.02114633
C  0.70856469 -1.20273613 0.00131066
C  1.40877459 0.00626724 0.03722256
C  0.68873836 1.20097156 -0.02973836
C  -0.73299808 1.17733944 -0.02567053
C  -1.42230805 -0.02387759 -0.02971543
H  -1.14331028 -2.19735602 0.00746286
H  1.24846132 -2.09248782 0.03020112
H  2.51706947 0.06447024 0.21110570
H  1.18748226 2.16856815 -0.09899015
H  -1.25869671 2.11174278 0.10215113
H  -2.53365599 0.09570317 0.05127000
12
MD Step 1115 Units = [Angstroms]
C  -0.64833284 -1.17479315 0.01934809
C  0.70595067 -1.20171214 0.00315292
C  1.40790970 0.00748301 0.03709952
C  0.69166518 1.20159747 -0.02988337
C  -0.73473995 1.17754178 -0.02633421
C  -1.42354939 -0.02154800 -0.02853902
H  -1.14170151 -2.19413450 0.00155284
H  1.25332925 -2.09808900 0.03463553
H  2.50837623 0.05849322 0.20455546
H  1.19309767 2.16960434 -0.09966269
H  -1.25050280 2.10825582 0.10565301
H  -2.54953130 0.09208259 0.05302624
12
MD Step 1116 Units = [Angstroms]
C  -0.64505193 -1.17947291 0.01741796
C  0.70359757 -1.20031931 0.00507280
C  1.40712451 0.00891955 0.03700287
C  0.69435155 1.20213785 -0.03004373
C  -0.73607372 1.17774297 -0.02696411
C  -1.42492214 -0.01903912 -0.02723696
H  -1.14005148 -2.18886697 -0.00409550
H  1.26034067 -2.10788619 0.03910016
H  2.49856805 0.05197996 0.19711748
H  1.19913372 2.17097165 -0.09996871
H  -1.24360631 2.10697617 0.10858240
H  -2.56277658 0.08635459 0.05419971
12
MD Step 1117 Units = [Angstroms]
C  -0.64245609 -1.18453775 0.01535883
C  0.70160320 -1.19866985 0.00706950
C  1.40637115 0.01056854 0.03692294
C  0.69678255 1.20260505 -0.03022307
C  -0.73697376 1.17790962 -0.02755685
C  -1.42644374 -0.01640507 -0.02581176
H  -1.13857752 -2.18207865 -0.00947766
H  1.26879851 -2.12065795 0.04355433
H  2.48846575 0.04501741 0.18894431
H  1.20544085 2.17250689 -0.09990319
H  -1.23826081 2.10828249 0.11097785
H  -2.57256015 0.07856712 0.05475382
12
MD Step 1118 Units = [Angstroms]
C  -0.64059463 -1.18986895 0.01317506
C  0.70006197 -1.19688992 0.00914300
C  1.40559692 0.01241549 0.03684960
C  0.69894708 1.20301784 -0.03042453
C  -0.73743026 1.17802880 -0.02810692
C  -1.42811206 -0.01370290 -0.02426836
H  -1.13756409 -2.17443895 -0.01459867
H  1.27789090 -2.13499288 0.04794681
H  2.47896120 0.03769749 0.18019384
H  1.21185232 2.17402194 -0.09946267
H  -1.23457070 2.11229498 0.11284857
H  -2.57832633 0.06882531 0.05467361
12
MD Step 1119 Units = [Angstroms]
C  -0.63949343 -1.19534094 0.01087262
C  0.69905379 -1.19510519 0.01129352
C  1.40475052 0.01444044 0.03677331
C  0.70083692 1.20339974 -0.03065057
C  -0.73744922 1.17810968 -0.02860639
C  -1.42990552 -0.01099109 -0.02261407
H  -1.13734514 -2.16671938 -0.01947321
H  1.28680086 -2.14946786 0.05222247
H  2.47093598 0.03011266 0.17101596
H  1.21819498 2.17532305 -0.09864665
H  -1.23248525 2.11885522 0.11416925
H  -2.57980359 0.05728391 0.05396559
12
MD Step 1120 Units = [Angstroms]
C  -0.63915509 -1.20082645 0.00845905
C  0.69863576 -1.19343018 0.01352090
C  1.40378940 0.01661861 0.03668611
C  0.70244589 1.20377711 -0.03090280
C  -0.73705095 1.17818171 -0.02904502
C  -1.43178345 -0.00832812 -0.02085845
H  -1.13827616 -2.15973358 -0.02412440
H  1.29479031 -2.16278330 0.05632845
H  2.46516580 0.02235337 0.16153948
H  1.22430033 2.17622998 -0.09745898
H  -1.23181376 2.12754617 0.11488192
H  -2.57700716 0.04413859 0.05265693
12
MD Step 1121 Units = [Angstroms]
C  -0.63956094 -1.20620288 0.00594337
C  0.69883733 -1.19196179 0.01582421
C  1.40268703 0.01892102 0.03658238
C  0.70376924 1.20417730 -0.03118189
C  -0.73626747 1.17828990 -0.02941103
C  -1.43368632 -0.00577109 -0.01901315
H  -1.14069599 -2.15426063 -0.02858133
H  1.30125276 -2.17384801 0.06021883
H  2.46222414 0.01450806 0.15186183
H  1.23001474 2.17659338 -0.09590898
H  -1.23225785 2.13774737 0.11490417
H  -2.57023867 0.02961629 0.05079396
12
MD Step 1122 Units = [Angstroms]
C  -0.64067472 -1.21135933 0.00333590
C  0.69965866 -1.19077623 0.01820132
C  1.40143877 0.02131487 0.03645921
C  0.70480335 1.20462676 -0.03148747
C  -0.73513923 1.17848832 -0.02969211
C  -1.43553625 -0.00337448 -0.01709175
H  -1.14488128 -2.15095876 -0.03287513
H  1.30573962 -2.18182255 0.06385764
H  2.46240360 0.00666636 0.14204421
H  1.23520834 2.17630887 -0.09401220
H  -1.23345330 2.14871190 0.11414155
H  -2.56008144 0.01396468 0.04844016
12
MD Step 1123 Units = [Angstroms]
C  -0.64244740 -1.21620340 0.00064797
C  0.70107126 -1.18992791 0.02064868
C  1.40006473 0.02376368 0.03631622
C  0.70554560 1.20514945 -0.03181815
C  -0.73371188 1.17883312 -0.02987647
C  -1.43723810 -0.00118889 -0.01510945
H  -1.15100044 -2.15028233 -0.03703447
H  1.30796916 -2.18613577 0.06722057
H  2.46567340 -0.00107569 0.13211357
H  1.23978188 2.17532731 -0.09179072
H  -1.23501333 2.15964930 0.11250094
H  -2.54738521 -0.00255949 0.04567294
12
MD Step 1124 Units = [Angstroms]
C  -0.64482225 -1.22066644 -0.00210841
C  0.70302034 -1.18944921 0.02316111
C  1.39860878 0.02622753 0.03615485
C  0.70599444 1.20576559 -0.03217156
C  -0.73203342 1.17937627 -0.02995384
C  -1.43868227 0.00074013 -0.01308265
H  -1.15907658 -2.15241904 -0.04108112
H  1.30782682 -2.18648832 0.07029605
H  2.47168393 -0.00861029 0.12207090
H  1.24367138 2.17366053 -0.08927306
H  -1.23656690 2.16980098 0.10990249
H  -2.53323077 -0.01970277 0.04257920
12
MD Step 1125 Units = [Angstroms]
C  -0.64773926 -1.22470603 -0.00492074
C  0.70542784 -1.18935020 0.02573166
C  1.39713379 0.02866348 0.03597739
C  0.70614959 1.20649056 -0.03254442
C  -0.73015197 1.18016063 -0.02991614
C  -1.43974990 0.00237307 -0.01102847
H  -1.16896868 -2.15726232 -0.04502689
H  1.30536274 -2.18285270 0.07308581
H  2.47981712 -0.01581470 0.11190343
H  1.24685028 2.17138256 -0.08649360
H  -1.23778878 2.17850049 0.10628844
H  -2.51886362 -0.03722658 0.03924905
12
MD Step 1126 Units = [Angstroms]
C  -0.65113816 -1.22830512 -0.00777616
C  0.70819592 -1.18961812 0.02835151
C  1.39571437 0.03102632 0.03578593
C  0.70601235 1.20733435 -0.03293268
C  -0.72811417 1.18121654 -0.02975792
C  -1.44032135 0.00367707 -0.00896398
H  -1.18037657 -2.16442598 -0.04887246
H  1.30078943 -2.17547443 0.07560551
H  2.48927003 -0.02255180 0.10159738
H  1.24932910 2.16862609 -0.08349165
H  -1.23842087 2.18521649 0.10162841
H  -2.50558908 -0.05491512 0.03576835
12
MD Step 1127 Units = [Angstroms]
C  -0.65495980 -1.23146814 -0.01066147
C  0.71121043 -1.19021665 0.03100987
C  1.39442840 0.03326974 0.03558159
C  0.70558611 1.20830129 -0.03333161
C  -0.72596388 1.18255970 -0.02947653
C  -1.44028763 0.00462580 -0.00690559
H  -1.19286893 -2.17329738 -0.05260849
H  1.29447950 -2.16487389 0.07788512
H  2.49915236 -0.02867455 0.09114836
H  1.25115243 2.16557441 -0.08031030
H  -1.23828589 2.18958015 0.09592167
H  -2.49463146 -0.07257587 0.03221110
12
MD Step 1128 Units = [Angstroms]
C  -0.65914625 -1.23421510 -0.01356299
C  0.71434453 -1.19108548 0.03369410
C  1.39334918 0.03534785 0.03536394
C  0.70487687 1.20939021 -0.03373597
C  -0.72374130 1.18419020 -0.02907212
C  -1.43956344 0.00519856 -0.00486837
H  -1.20592772 -2.18311607 -0.05621834
H  1.28696025 -2.15184350 0.07996903
H  2.50858007 -0.03403317 0.08056796
H  1.25239333 2.16244894 -0.07699495
H  -1.23729538 2.19140042 0.08919691
H  -2.48697522 -0.09003020 0.02863347
12
MD Step 1129 Units = [Angstroms]
C  -0.66364005 -1.23657515 -0.01646649
C  0.71746266 -1.19214118 0.03638975
C  1.39253898 0.03721668 0.03513090
C  0.70389391 1.21059499 -0.03414011
C  -0.72148207 1.18609225 -0.02854749
C  -1.43809899 0.00537857 -0.00286579
H  -1.21899929 -2.19306091 -0.05968170
H  1.27889936 -2.13742995 0.08191515
H  2.51675303 -0.03848371 0.06988605
H  1.25314539 2.15949298 -0.07359189
H  -1.23545360 2.19067022 0.08151009
H  -2.48322129 -0.10709518 0.02507153
12
MD Step 1130 Units = [Angstroms]
C  -0.66838325 -1.23858073 -0.01935706
C  0.72042542 -1.19328056 0.03908092
C  1.39204446 0.03883580 0.03487883
C  0.70265050 1.21190555 -0.03453812
C  -0.71921654 1.18823455 -0.02790787
C  -1.43588748 0.00515112 -0.00090977
H  -1.23154305 -2.20233088 -0.06297824
H  1.27107382 -2.12288733 0.08379259
H  2.52301191 -0.04189621 0.05914987
H  1.25351277 2.15695257 -0.07014686
H  -1.23285814 2.18756538 0.07294094
H  -2.48349707 -0.12356237 0.02154354
12
MD Step 1131 Units = [Angstroms]
C  -0.67331643 -1.24026308 -0.02221913
C  0.72309586 -1.19438782 0.04175077
C  1.39189387 0.04016955 0.03460281
C  0.70116444 1.21330911 -0.03492391
C  -0.71696912 1.19057121 -0.02716056
C  -1.43296606 0.00450242 0.00098903
H  -1.24307164 -2.21021043 -0.06609066
H  1.26431420 -2.10958681 0.08567695
H  2.52687532 -0.04416188 0.04842076
H  1.25359907 2.15505593 -0.06670385
H  -1.22969711 2.18243632 0.06358812
H  -2.48744662 -0.13918246 0.01805609
12
MD Step 1132 Units = [Angstroms]
C  -0.67837801 -1.24164936 -0.02503652
C  0.72534766 -1.19534606 0.04438223
C  1.39209563 0.04118810 0.03429705
C  0.69945865 1.21479163 -0.03529128
C  -0.71475791 1.19304335 -0.02631450
C  -1.42940994 0.00341967 0.00282063
H  -1.25318020 -2.21611662 -0.06900702
H  1.25942112 -2.09887649 0.08764316
H  2.52806126 -0.04519852 0.03776973
H  1.25349599 2.15399339 -0.06330416
H  -1.22624179 2.17579043 0.05356320
H  -2.49430318 -0.15366303 0.01461177
12
MD Step 1133 Units = [Angstroms]
C  -0.68350368 -1.24276105 -0.02779255
C  0.72707451 -1.19605212 0.04695893
C  1.39263795 0.04186811 0.03395536
C  0.69756127 1.21633925 -0.03563401
C  -0.71259492 1.19558163 -0.02537970
C  -1.42532184 0.00189265 0.00457541
H  -1.26156533 -2.21962962 -0.07172221
H  1.25706036 -2.09190242 0.08975644
H  2.52649711 -0.04495448 0.02727237
H  1.25327322 2.15389998 -0.05998590
H  -1.22283300 2.16826239 0.04298357
H  -2.50302002 -0.16668118 0.01121598
12
MD Step 1134 Units = [Angstroms]
C  -0.68862597 -1.24361340 -0.03047027
C  0.72819937 -1.19643211 0.04946607
C  1.39348911 0.04219306 0.03357154
C  0.69550560 1.21793962 -0.03594588
C  -0.71048688 1.19811000 -0.02436665
C  -1.42081960 -0.00008365 0.00624386
H  -1.26803587 -2.22051044 -0.07423885
H  1.25765627 -2.08942500 0.09206303
H  2.52232123 -0.04341096 0.01700373
H  1.25297074 2.15484285 -0.05678378
H  -1.21985919 2.16056907 0.03196475
H  -2.51242261 -0.17790674 0.00788099
12
MD Step 1135 Units = [Angstroms]
C  -0.69367399 -1.24421544 -0.03305263
C  0.72868123 -1.19645322 0.05189116
C  1.39459841 0.04215336 0.03313993
C  0.69332951 1.21958275 -0.03622069
C  -0.70843708 1.20055061 -0.02328567
C  -1.41602485 -0.00250604 0.00781661
H  -1.27251773 -2.21870947 -0.07656765
H  1.26131222 -2.09168165 0.09458318
H  2.51587720 -0.04058278 0.00703336
H  1.25259473 2.15681512 -0.05372933
H  -1.21772527 2.15344817 0.02061304
H  -2.52134824 -0.18702891 0.00462709
12
MD Step 1136 Units = [Angstroms]
C  -0.69857335 -1.24457037 -0.03552271
C  0.72851737 -1.19612797 0.05422435
C  1.39589786 0.04174620 0.03265577
C  0.69107457 1.22126151 -0.03645230
C  -0.70644795 1.20282991 -0.02214643
C  -1.41105430 -0.00536034 0.00928465
H  -1.27505431 -2.21436832 -0.07872757
H  1.26778418 -2.09834132 0.09730861
H  2.50769915 -0.03651733 -0.00257934
H  1.25211765 2.15973697 -0.05085126
H  -1.21681287 2.14758320 0.00901985
H  -2.52875335 -0.19377952 0.00148135
12
MD Step 1137 Units = [Angstroms]
C  -0.70324641 -1.24467619 -0.03786402
C  0.72774040 -1.19550970 0.05645837
C  1.39730478 0.04097522 0.03211556
C  0.68878471 1.22297150 -0.03663465
C  -0.70452418 1.20488508 -0.02095766
C  -1.40601408 -0.00861939 0.01063957
H  -1.27580313 -2.20781531 -0.08074562
H  1.27651716 -2.10856744 0.10020509
H  2.49848478 -0.03129159 -0.01178875
H  1.25148252 2.16346383 -0.04817587
H  -1.21743629 2.14352345 -0.00274053
H  -2.53378383 -0.19794957 -0.00152489
12
MD Step 1138 Units = [Angstroms]
C  -0.70761295 -1.24452667 -0.04006068
C  0.72641094 -1.19468080 0.05858804
C  1.39872581 0.03985008 0.03151733
C  0.68650483 1.22471048 -0.03676183
C  -0.70267580 1.20666990 -0.01972725
C  -1.40099638 -0.01224186 0.01187388
H  -1.27502761 -2.19955294 -0.08265636
H  1.28673254 -2.12116659 0.10321916
H  2.48905181 -0.02500689 -0.02056538
H  1.25061079 2.16780039 -0.04572744
H  -1.21980067 2.14161217 -0.01460897
H  -2.53581427 -0.19939855 -0.00435892
12
MD Step 1139 Units = [Angstroms]
C  -0.71159151 -1.24411296 -0.04209778
C  0.72460846 -1.19373808 0.06060969
C  1.40006251 0.03838583 0.03086069
C  0.68427919 1.22647738 -0.03682816
C  -0.70092040 1.20815875 -0.01846265
C  -1.39607793 -0.01617201 0.01298122
H  -1.27308242 -2.19023418 -0.08450091
H  1.29753862 -2.13477462 0.10628669
H  2.48027454 -0.01778189 -0.02889585
H  1.24941266 2.17251865 -0.04352844
H  -1.22397112 2.14193838 -0.02653513
H  -2.53446587 -0.19805785 -0.00698942
12
MD Step 1140 Units = [Angstroms]
C  -0.71510146 -1.24342609 -0.04396164
C  0.72242225 -1.19277894 0.06252060
C  1.40121850 0.03660231 0.03014660
C  0.68214992 1.22827111 -0.03682830
C  -0.69928391 1.20934781 -0.01717149
C  -1.39131917 -0.02034022 0.01395659
H  -1.27039005 -2.18062338 -0.08632529
H  1.30803620 -2.14803095 0.10934123
H  2.47300100 -0.00974469 -0.03677991
H  1.24779858 2.17737774 -0.04159957
H  -1.22985985 2.14432387 -0.03846844
H  -2.52961223 -0.19393013 -0.00938891
12
MD Step 1141 Units = [Angstroms]
C  -0.71806596 -1.24246062 -0.04564014
C  0.71994425 -1.19189119 0.06431847
C  1.40210771 0.03452361 0.02937693
C  0.68015564 1.23008924 -0.03675733
C  -0.69779963 1.21025333 -0.01586226
C  -1.38676392 -0.02466434 0.01479644
H  -1.26740721 -2.17153929 -0.08817795
H  1.31740044 -2.15971073 0.11232041
H  2.46795752 -0.00102574 -0.04422427
H  1.24569055 2.18214360 -0.03995952
H  -1.23723474 2.14834895 -0.05034904
H  -2.52137897 -0.18708613 -0.01153587
12
MD Step 1142 Units = [Angstroms]
C  -0.72041583 -1.24121931 -0.04712304
C  0.71726405 -1.19114688 0.06600118
C  1.40266239 0.03217782 0.02855377
C  0.67833031 1.23192671 -0.03661090
C  -0.69650565 1.21090724 -0.01454473
C  -1.38243907 -0.02905183 0.01549884
H  -1.26458143 -2.16378062 -0.09010643
H  1.32493398 -2.16880720 0.11517035
H  2.46565483 0.00824630 -0.05123403
H  1.24303229 2.18660678 -0.03862474
H  -1.24574712 2.15341055 -0.06210117
H  -2.51013957 -0.17765952 -0.01341651
12
MD Step 1143 Units = [Angstroms]
C  -0.72209395 -1.23971834 -0.04840237
C  0.71446563 -1.19059955 0.06756659
C  1.40283966 0.02959716 0.02767870
C  0.67670231 1.23377475 -0.03638535
C  -0.69544119 1.21135147 -0.01323012
C  -1.37835458 -0.03340247 0.01606345
H  -1.26230200 -2.15804073 -0.09215322
H  1.33009547 -2.17457284 0.11784814
H  2.46631438 0.01794467 -0.05780338
H  1.23979736 2.19059720 -0.03760906
H  -1.25497228 2.15879919 -0.07363086
H  -2.49650565 -0.16583979 -0.01502624
12
MD Step 1144 Units = [Angstroms]
C  -0.72305964 -1.23799209 -0.04947268
C  0.71162532 -1.19028362 0.06901248
C  1.40262482 0.02681843 0.02675216
C  0.67529381 1.23562000 -0.03607774
C  -0.69464262 1.21163193 -0.01193087
C  -1.37450417 -0.03761194 0.01649156
H  -1.26085239 -2.15482391 -0.09435140
H  1.33251193 -2.17653386 0.12032319
H  2.46983284 0.02794049 -0.06390821
H  1.23599472 2.19399504 -0.03692334
H  -1.26445452 2.16377943 -0.08482780
H  -2.48130644 -0.15186263 -0.01637063
12
MD Step 1145 Units = [Angstroms]
C  -0.72329237 -1.23609605 -0.05033129
C  0.70881030 -1.19021479 0.07033652
C  1.40203085 0.02388363 0.02577319
C  0.67412026 1.23744404 -0.03568596
C  -0.69413976 1.21179329 -0.01066021
C  -1.37086726 -0.04157570 0.01678597
H  -1.26037391 -2.15437997 -0.09672063
H  1.33198308 -2.17449173 0.12257800
H  2.47579412 0.03809650 -0.06950278
H  1.23167165 2.19673750 -0.03657519
H  -1.27374941 2.16766160 -0.09557078
H  -2.46554988 -0.13599740 -0.01746546
12
MD Step 1146 Units = [Angstroms]
C  -0.72279397 -1.23410678 -0.05097836
C  0.70607725 -1.19039066 0.07153627
C  1.40109419 0.02084046 0.02473953
C  0.67319028 1.23922324 -0.03520873
C  -0.69395300 1.21187496 -0.00943158
C  -1.36741287 -0.04519341 0.01695078
H  -1.26084897 -2.15667224 -0.09926432
H  1.32848355 -2.16852121 0.12460888
H  2.48352631 0.04826155 -0.07452138
H  1.22691366 2.19882116 -0.03656886
H  -1.28245878 2.16985797 -0.10573495
H  -2.45035714 -0.11853218 -0.01833569
12
MD Step 1147 Units = [Angstroms]
C  -0.72158894 -1.23211841 -0.05141681
C  0.70347102 -1.19079098 0.07260909
C  1.39986810 0.01774239 0.02364809
C  0.67250572 1.24092912 -0.03464561
C  -0.69409129 1.21190826 -0.00825798
C  -1.36410596 -0.04837319 0.01699100
H  -1.26210815 -2.16138711 -0.10196852
H  1.32216573 -2.15896941 0.12642678
H  2.49218943 0.05826807 -0.07888464
H  1.22184161 2.20029974 -0.03690518
H  -1.29025690 2.16992205 -0.11519962
H  -2.43686653 -0.09975861 -0.01901270
12
MD Step 1148 Units = [Angstroms]
C  -0.71972306 -1.23023592 -0.05165204
C  0.70102340 -1.19137785 0.07355217
C  1.39841493 0.01464818 0.02249568
C  0.67206209 1.24252907 -0.03399702
C  -0.69455116 1.21191473 -0.00715142
C  -1.36091579 -0.05103532 0.01691209
H  -1.26385887 -2.16798242 -0.10480288
H  1.31336310 -2.14645532 0.12805829
H  2.50087473 0.06793401 -0.08250840
H  1.21660597 2.20127736 -0.03758168
H  -1.29690832 2.16757293 -0.12385574
H  -2.42611118 -0.07995985 -0.01953025
12
MD Step 1149 Units = [Angstroms]
C  -0.71726056 -1.22856660 -0.05169154
C  0.69875210 -1.19209587 0.07436244
C  1.39679897 0.01162075 0.02127969
C  0.67184915 1.24398766 -0.03326418
C  -0.69531647 1.21190512 -0.00612236
C  -1.35782520 -0.05311497 0.01671942
H  -1.26572852 -2.17576251 -0.10772328
H  1.30259044 -2.13186453 0.12954658
H  2.50869795 0.07706843 -0.08531311
H  1.21137847 2.20189744 -0.03859278
H  -1.30227896 2.16270829 -0.13161251
H  -2.41888731 -0.05940604 -0.01991938
12
MD Step 1150 Units = [Angstroms]
C  -0.71428055 -1.22721111 -0.05154431
C  0.69666080 -1.19287337 0.07503657
C  1.39508058 0.00872567 0.01999875
C  0.67185197 1.24526817 -0.03244907
C  -0.69635886 1.21187905 -0.00517934
C  -1.35483846 -0.05456353 0.01641772
H  -1.26731242 -2.18396345 -0.11067585
H  1.29053420 -2.11632894 0.13095151
H  2.51487535 0.08547979 -0.08723218
H  1.20634156 2.20232754 -0.03993006
H  -1.30634191 2.15540864 -0.13840284
H  -2.41564079 -0.03835908 -0.02020377
12
MD Step 1151 Units = [Angstroms]
C  -0.71087325 -1.22625553 -0.05122038
C  0.69474068 -1.19362568 0.07557105
C  1.39331201 0.00602925 0.01865322
C  0.67205207 1.24633465 -0.03155445
C  -0.69763863 1.21182505 -0.00432854
C  -1.35198560 -0.05534872 0.01601079
H  -1.26821836 -2.19183351 -0.11360136
H  1.27802346 -2.10117758 0.13234813
H  2.51877868 0.09298489 -0.08821799
H  1.20167622 2.20274121 -0.04158240
H  -1.30917862 2.14593472 -0.14418764
H  -2.41640167 -0.01708509 -0.02039666
12
MD Step 1152 Units = [Angstroms]
C  -0.70713618 -1.22576532 -0.05073025
C  0.69297428 -1.19426173 0.07596247
C  1.39153466 0.00359635 0.01724546
C  0.67242878 1.24715398 -0.03058385
C  -0.69910608 1.21172123 -0.00357362
C  -1.34932153 -0.05545393 0.01550136
H  -1.26810273 -2.19869917 -0.11643963
H  1.26597219 -2.08784467 0.13382221
H  2.51997062 0.09941750 -0.08824582
H  1.19754926 2.20329821 -0.04353610
H  -1.31097530 2.13471748 -0.14895858
H  -2.42078596 0.00413122 -0.02050047
12
MD Step 1153 Units = [Angstroms]
C  -0.70317065 -1.22578151 -0.05008445
C  0.69134208 -1.19469454 0.07620809
C  1.38977757 0.00148821 0.01577996
C  0.67296060 1.24769814 -0.02954153
C  -0.70070326 1.21153671 -0.00291557
C  -1.34692012 -0.05487735 0.01489126
H  -1.26669663 -2.20401347 -0.11913344
H  1.25528861 -2.07772827 0.13546200
H  2.51822502 0.10463593 -0.08731563
H  1.19410111 2.20412509 -0.04577477
H  -1.31201312 2.12233886 -0.15273868
H  -2.42806381 0.02497745 -0.02050888
12
MD Step 1154 Units = [Angstroms]
C  -0.69907820 -1.22631888 -0.04929310
C  0.68983097 -1.19485485 0.07630664
C  1.38805658 -0.00023971 0.01426344
C  0.67362640 1.24794609 -0.02843257
C  -0.70236630 1.21123405 -0.00235287
C  -1.34486504 -0.05363141 0.01418178
H  -1.26382305 -2.20738758 -0.12163190
H  1.24675929 -2.07201041 0.13734619
H  2.51353628 0.10852919 -0.08545232
H  1.19143558 2.20529849 -0.04827904
H  -1.31265002 2.10950050 -0.15558016
H  -2.43727396 0.04511412 -0.02041067
12
MD Step 1155 Units = [Angstroms]
C  -0.69495726 -1.22736584 -0.04836562
C  0.68844291 -1.19470518 0.07625931
C  1.38637406 -0.00153978 0.01270471
C  0.67440648 1.24788544 -0.02726288
C  -0.70402844 1.21077293 -0.00188186
C  -1.34323968 -0.05174247 0.01337398
H  -1.25940688 -2.20860912 -0.12389313
H  1.24093088 -2.07147218 0.13952966
H  2.50612063 0.11102174 -0.08270457
H  1.18961275 2.20683349 -0.05102612
H  -1.31329221 2.09697759 -0.15755860
H  -2.44735452 0.06418532 -0.02019394
12
MD Step 1156 Units = [Angstroms]
C  -0.69089981 -1.22888553 -0.04731045
C  0.68720085 -1.19425035 0.07607053
C  1.38471921 -0.00237377 0.01111456
C  0.67528317 1.24751336 -0.02603923
C  -0.70562374 1.21011501 -0.00149753
C  -1.34211823 -0.04925062 0.01246911
H  -1.25347990 -2.20765063 -0.12588663
H  1.23802312 -2.07635389 0.14203064
H  2.49640986 0.11207659 -0.07914261
H  1.18864596 2.20867874 -0.05398930
H  -1.31435442 2.08555752 -0.15876320
H  -2.45726317 0.08183594 -0.01984972
12
MD Step 1157 Units = [Angstroms]
C  -0.68698830 -1.23081783 -0.04613485
C  0.68614970 -1.19354061 0.07574846
C  1.38306901 -0.00271415 0.00950544
C  0.67624110 1.24683690 -0.02476932
C  -0.70709150 1.20922980 -0.00119444
C  -1.34155937 -0.04620926 0.01146884
H  -1.24618182 -2.20467034 -0.12759499
H  1.23790213 -2.08630659 0.14482311
H  2.48503536 0.11169644 -0.07485461
H  1.18850313 2.21071922 -0.05713746
H  -1.31621093 2.07596670 -0.15928356
H  -2.46607083 0.09773053 -0.01937427
12
MD Step 1158 Units = [Angstroms]
C  -0.68329292 -1.23308203 -0.04484478
C  0.68535156 -1.19266610 0.07530461
C  1.38139025 -0.00254463 0.00789109
C  0.67726712 1.24587262 -0.02346173
C  -0.70838079 1.20810060 -0.00096798
C  -1.34160253 -0.04268405 0.01037545
H  -1.23775708 -2.20000560 -0.12901524
H  1.24012312 -2.10045221 0.14783731
H  2.47279841 0.10992215 -0.06994168
H  1.18911228 2.21278635 -0.06043492
H  -1.31914310 2.06879436 -0.15919492
H  -2.47302462 0.11157016 -0.01877028
12
MD Step 1159 Units = [Angstroms]
C  -0.67986955 -1.23558024 -0.04344484
C  0.68487679 -1.19174427 0.07475306
C  1.37964296 -0.00186034 0.00628599
C  0.67834989 1.24464549 -0.02212592
C  -0.70945447 1.20672959 -0.00081533
C  -1.34226624 -0.03875154 0.00919189
H  -1.22854646 -2.19415716 -0.13015928
H  1.24402616 -2.11753128 0.15096815
H  2.46062164 0.10682799 -0.06451150
H  1.19037034 2.21467417 -0.06384151
H  -1.32329270 2.06442621 -0.15854481
H  -2.47758449 0.12310512 -0.01804704
12
MD Step 1160 Units = [Angstroms]
C  -0.67675865 -1.23820157 -0.04193838
C  0.68479364 -1.19090426 0.07410910
C  1.37778566 -0.00066734 0.00470472
C  0.67947930 1.24318746 -0.02077209
C  -0.71029185 1.20514083 -0.00073619
C  -1.34354804 -0.03449720 0.00792188
H  -1.21897119 -2.18776111 -0.13105319
H  1.24885268 -2.13609046 0.15408864
H  2.44947820 0.10251351 -0.05867083
H  1.19215412 2.21615923 -0.06731313
H  -1.32863121 2.06300158 -0.15734441
H  -2.47944101 0.13214347 -0.01721996
12
MD Step 1161 Units = [Angstroms]
C  -0.67398543 -1.24082741 -0.04032770
C  0.68515918 -1.19027220 0.07338795
C  1.37578218 0.00101810 0.00316129
C  0.68064577 1.24153573 -0.01941106
C  -0.71088942 1.20338034 -0.00073285
C  -1.34542503 -0.03001322 0.00656983
H  -1.20950749 -2.18154490 -0.13173464
H  1.25385159 -2.15466053 0.15706458
H  2.44029945 0.09709287 -0.05251796
H  1.19433205 2.21702212 -0.07080272
H  -1.33495325 2.06440402 -0.15556717
H  -2.47852159 0.13855585 -0.01630977
12
MD Step 1162 Units = [Angstroms]
C  -0.67156133 -1.24333791 -0.03861449
C  0.68601303 -1.18996009 0.07260360
C  1.37360956 0.00317032 0.00166859
C  0.68183955 1.23973091 -0.01805402
C  -0.71125944 1.20151329 -0.00080976
C  -1.34785472 -0.02539623 0.00514085
H  -1.20065033 -2.17626532 -0.13224808
H  1.25835700 -2.17189337 0.15976722
H  2.43386971 0.09068364 -0.04613651
H  1.19677561 2.21706818 -0.07426152
H  -1.34189619 2.06828686 -0.15315494
H  -2.47498988 0.14227761 -0.01534155
12
MD Step 1163 Units = [Angstroms]
C  -0.66948697 -1.24561945 -0.03680045
C  0.68737416 -1.19005862 0.07176809
C  1.37126562 0.00575486 0.00023809
C  0.68305012 1.23781534 -0.01671238
C  -0.71142692 1.19961855 -0.00097248
C  -1.35077598 -0.02074489 0.00364067
H  -1.19286783 -2.17263053 -0.13263756
H  1.26183417 -2.18664961 0.16208244
H  2.43072447 0.08339817 -0.03959226
H  1.19936953 2.21614571 -0.07764060
H  -1.34898128 2.07412702 -0.15002992
H  -2.46923973 0.14330845 -0.01434352
12
MD Step 1164 Units = [Angstroms]
C  -0.66775590 -1.24757260 -0.03488808
C  0.68924022 -1.19063351 0.07089097
C  1.36877440 0.00872866 -0.00112022
C  0.68426556 1.23583162 -0.01539742
C  -0.71142553 1.19778207 -0.00122663
C  -1.35411036 -0.01615754 0.00207556
H  -1.18655123 -2.17121410 -0.13293777
H  1.26390030 -2.19804464 0.16391662
H  2.43107378 0.07534029 -0.03293398
H  1.20202000 2.21416049 -0.08089251
H  -1.35566714 2.08129451 -0.14610922
H  -2.46188161 0.14170966 -0.01334570
12
MD Step 1165 Units = [Angstroms]
C  -0.66635861 -1.24911939 -0.03288148
C  0.69158842 -1.19172391 0.06997915
C  1.36618811 0.01203966 -0.00239742
C  0.68547215 1.23382134 -0.01412011
C  -0.71129366 1.19608991 -0.00157675
C  -1.35776408 -0.01172976 0.00045217
H  -1.18196888 -2.17237522 -0.13316478
H  1.26432960 -2.20546742 0.16519986
H  2.43476991 0.06660848 -0.02619809
H  1.20466063 2.21108580 -0.08397283
H  -1.36140495 2.08912388 -0.14131870
H  -2.45371654 0.13759821 -0.01237841
12
MD Step 1166 Units = [Angstroms]
C  -0.66528584 -1.25020843 -0.03078700
C  0.69437718 -1.19334197 0.06903681
C  1.36358461 0.01562622 -0.00358524
C  0.68665399 1.23182420 -0.01289082
C  -0.71107085 1.19462206 -0.00202548
C  -1.36163138 -0.00755183 -0.00122260
H  -1.17923404 -2.17620182 -0.13330853
H  1.26305115 -2.20858574 0.16588784
H  2.44132853 0.05730415 -0.01941568
H  1.20725591 2.20696753 -0.08684158
H  -1.36568704 2.09697751 -0.13560390
H  -2.44569046 0.13113704 -0.01147051
12
MD Step 1167 Units = [Angstroms]
C  -0.66453051 -1.25081700 -0.02861360
C  0.69754804 -1.19547258 0.06806546
C  1.36106115 0.01941670 -0.00467553
C  0.68779290 1.22987735 -0.01171918
C  -0.71079528 1.19344734 -0.00257305
C  -1.36559994 -0.00370622 -0.00294176
H  -1.17829442 -2.18249088 -0.13332928
H  1.26014511 -2.20734780 0.16596306
H  2.44999812 0.04754169 -0.01261965
H  1.20980214 2.20192417 -0.08946432
H  -1.36808457 2.10429523 -0.12893695
H  -2.43882271 0.12252141 -0.01064780
12
MD Step 1168 Units = [Angstroms]
C  -0.66408788 -1.25094946 -0.02637280
C  0.70102736 -1.19807316 0.06706392
C  1.35872553 0.02332962 -0.00565991
C  0.68886846 1.22801486 -0.01061386
C  -0.71050198 1.19261977 -0.00321708
C  -1.36955847 -0.00026506 -0.00469839
H  -1.17894590 -2.19077112 -0.13315898
H  1.25583987 -2.20198470 0.16543597
H  2.45986011 0.03745627 -0.00584982
H  1.21232568 2.19614163 -0.09181281
H  -1.36827334 2.11062943 -0.12131970
H  -2.43410703 0.11196269 -0.00993162
12
MD Step 1169 Units = [Angstroms]
C  -0.66395431 -1.25063259 -0.02407816
C  0.70472795 -1.20107347 0.06602847
C  1.35668678 0.02727485 -0.00652968
C  0.68985845 1.22626751 -0.00958257
C  -0.71022175 1.19217600 -0.00395263
C  -1.37340613 0.00271197 -0.00648572
H  -1.18086666 -2.20036268 -0.13270738
H  1.25050984 -2.19301380 0.16434601
H  2.46993771 0.02720709 0.00084481
H  1.21487860 2.18986274 -0.09386515
H  -1.36604952 2.11566783 -0.11278368
H  -2.43239195 0.09967241 -0.00933819
12
MD Step 1170 Units = [Angstroms]
C  -0.66412511 -1.24990904 -0.02174460
C  0.70855065 -1.20437597 0.06495291
C  1.35504668 0.03115575 -0.00727599
C  0.69073957 1.22466258 -0.00863196
C  -0.70998044 1.19213392 -0.00477237
C  -1.37706227 0.00517900 -0.00829717
H  -1.18366324 -2.21045927 -0.13187152
H  1.24467080 -2.18123718 0.16276212
H  2.47929450 0.01697515 0.00740673
H  1.21753173 2.18337184 -0.09560529
H  -1.36133743 2.11924662 -0.10338787
H  -2.43425909 0.08585109 -0.00887898
12
MD Step 1171 Units = [Angstroms]
C  -0.66459225 -1.24883034 -0.01938755
C  0.71238643 -1.20785771 0.06382884
C  1.35389307 0.03487223 -0.00789014
C  0.69148849 1.22322384 -0.00776775
C  -0.70979838 1.19249199 -0.00566696
C  -1.38047441 0.00710424 -0.01012628
H  -1.18691855 -2.22021589 -0.13054618
H  1.23896716 -2.16772443 0.16078143
H  2.48711201 0.00695688 0.01377270
H  1.22036543 2.17697492 -0.09702201
H  -1.35419170 2.12135675 -0.09321483
H  -2.43992598 0.07068527 -0.00856210
12
MD Step 1172 Units = [Angstroms]
C  -0.66534247 -1.24745060 -0.01702211
C  0.71611959 -1.21137490 0.06264615
C  1.35329519 0.03832439 -0.00836395
C  0.69208321 1.22197157 -0.00699482
C  -0.70968980 1.19322938 -0.00662543
C  -1.38362223 0.00846920 -0.01196663
H  -1.19023437 -2.22882794 -0.12863351
H  1.23414342 -2.15376467 0.15852481
H  2.49274352 -0.00264472 0.01987765
H  1.22345851 2.17097674 -0.09810725
H  -1.34479453 2.12214429 -0.08236566
H  -2.44919968 0.05435381 -0.00839429
12
MD Step 1173 Units = [Angstroms]
C  -0.66635604 -1.24582165 -0.01466247
C  0.71963279 -1.21477145 0.06139395
C  1.35330067 0.04141642 -0.00869019
C  0.69250454 1.22092272 -0.00631737
C  -0.70966243 1.19430686 -0.00763567
C  -1.38651650 0.00926720 -0.01381170
H  -1.19326398 -2.23559367 -0.12605071
H  1.23099156 -2.14077222 0.15612735
H  2.49574722 -0.01162987 0.02565882
H  1.22687627 2.16565656 -0.09885421
H  -1.33344816 2.12190453 -0.07095402
H  -2.46149557 0.03704033 -0.00838290
12
MD Step 1174 Units = [Angstroms]
C  -0.66760615 -1.24398961 -0.01232140
C  0.72281434 -1.21789210 0.06006185
C  1.35393377 0.04406028 -0.00886291
C  0.69273760 1.22009091 -0.00573913
C  -0.70971738 1.19566852 -0.00868500
C  -1.38919315 0.00950153 -0.01565485
H  -1.19573435 -2.23995824 -0.12273507
H  1.23027042 -2.13013904 0.15372315
H  2.49590391 -0.01981148 0.03105978
H  1.23065879 2.16124503 -0.09925524
H  -1.32056093 2.12106753 -0.05909935
H  -2.47591681 0.01894639 -0.00853718
12
MD Step 1175 Units = [Angstroms]
C  -0.66905887 -1.24199285 -0.01001000
C  0.72556728 -1.22059887 0.05864173
C  1.35519446 0.04617915 -0.00887779
C  0.69277314 1.21948656 -0.00526353
C  -0.70984962 1.19724460 -0.00976075
C  -1.39170428 0.00918407 -0.01748935
H  -1.19745925 -2.24154143 -0.11864686
H  1.23260227 -2.12304578 0.15142557
H  2.49322437 -0.02702367 0.03603398
H  1.23481102 2.15790495 -0.09930011
H  -1.30662524 2.12017199 -0.04691970
H  -2.49137309 0.00029990 -0.00886861
12
MD Step 1176 Units = [Angstroms]
C  -0.67067348 -1.23986076 -0.00773752
C  0.72781897 -1.22278798 0.05712938
C  1.35705813 0.04771011 -0.00873240
C  0.69260848 1.21911664 -0.00489380
C  -0.71004918 1.19895558 -0.01085087
C  -1.39410839 0.00833437 -0.01930846
H  -1.19834581 -2.24015316 -0.11377035
H  1.23836496 -2.12026887 0.14930709
H  2.48794950 -0.03312920 0.04054783
H  1.23929605 2.15571832 -0.09897478
H  -1.29218593 2.11982419 -0.03452472
H  -2.50671022 -0.01864384 -0.00939021
12
MD Step 1177 Units = [Angstroms]
C  -0.67240309 -1.23761321 -0.00551135
C  0.72952866 -1.22440239 0.05552579
C  1.35947585 0.04860619 -0.00842639
C  0.69224794 1.21898438 -0.00463302
C  -0.71030335 1.20071773 -0.01194441
C  -1.39646165 0.00697935 -0.02110559
H  -1.19839633 -2.23580001 -0.10811333
H  1.24760859 -2.12203853 0.14738460
H  2.48054354 -0.03802535 0.04458313
H  1.24403253 2.15468139 -0.09826113
H  -1.27779912 2.12064069 -0.02201022
H  -2.52082648 -0.03760831 -0.01011542
12
MD Step 1178 Units = [Angstroms]
C  -0.67419552 -1.23526029 -0.00333704
C  0.73069080 -1.22543600 0.05383745
C  1.36237559 0.04883758 -0.00796169
C  0.69170271 1.21908870 -0.00448408
C  -0.71059952 1.20244966 -0.01303182
C  -1.39881143 0.00515329 -0.02287438
H  -1.19770669 -2.22868502 -0.10170565
H  1.26002416 -2.12799643 0.14561569
H  2.47167807 -0.04164784 0.04813870
H  1.24889712 2.15470844 -0.09713756
H  -1.26398479 2.12317755 -0.00945538
H  -2.53276190 -0.05630635 -0.01105676
12
MD Step 1179 Units = [Angstroms]
C  -0.67599438 -1.23280257 -0.00121843
C  0.73133312 -1.22592832 0.05207566
C  1.36566465 0.04839201 -0.00734250
C  0.69099012 1.21942358 -0.00444952
C  -0.71092825 1.20407945 -0.01410490
C  -1.40119211 0.00289792 -0.02460888
H  -1.19646142 -2.21920037 -0.09459654
H  1.27497680 -2.13726868 0.14390739
H  2.46220192 -0.04397206 0.05123078
H  1.25373137 2.15564328 -0.09558057
H  -1.25117918 2.12785414 0.00307596
H  -2.54175803 -0.07445242 -0.01222469
12
MD Step 1180 Units = [Angstroms]
C  -0.67774054 -1.23023183 0.00084207
C  0.73151012 -1.22595159 0.05025501
C  1.36923399 0.04727429 -0.00657529
C  0.69013248 1.21997733 -0.00453128
C  -0.71128587 1.20555106 -0.01515649
C  -1.40362286 0.00026232 -0.02630355
H  -1.19492438 -2.20791098 -0.08685080
H  1.29159300 -2.14862755 0.14213423
H  2.45309097 -0.04501066 0.05389167
H  1.25835242 2.15727695 -0.09356694
H  -1.23969592 2.13488497 0.01552976
H  -2.54729267 -0.09177423 -0.01362679
12
MD Step 1181 Units = [Angstroms]
C  -0.67937389 -1.22753275 0.00284323
C  0.73129413 -1.22559507 0.04839159
C  1.37296484 0.04550498 -0.00566852
C  0.68915553 1.22073208 -0.00473048
C  -0.71167595 1.20682891 -0.01617978
C  -1.40610665 -0.00269748 -0.02795341
H  -1.19342339 -2.19552530 -0.07854375
H  1.30887477 -2.16068852 0.14015960
H  2.44537316 -0.04480715 0.05616617
H  1.26256619 2.15936898 -0.09107621
H  -1.22970408 2.14423453 0.02785307
H  -2.54909698 -0.10802283 -0.01526727
12
MD Step 1182 Units = [Angstroms]
C  -0.68083563 -1.22468587 0.00478454
C  0.73076650 -1.22495067 0.04650145
C  1.37673750 0.04311846 -0.00463214
C  0.68808679 1.22166339 -0.00504714
C  -0.71210906 1.20789951 -0.01716767
C  -1.40863004 -0.00591911 -0.02955401
H  -1.19232675 -2.18284975 -0.06975478
H  1.32581079 -2.17209038 0.13785467
H  2.44002884 -0.04342564 0.05810563
H  1.26618146 2.16166972 -0.08809307
H  -1.22122788 2.15560670 0.03998453
H  -2.54716165 -0.12298100 -0.01714675
12
MD Step 1183 Units = [Angstroms]
C  -0.68207103 -1.22167185 0.00666576
C  0.73001024 -1.22410253 0.04459940
C  1.38044166 0.04016062 -0.00347703
C  0.68695394 1.22274013 -0.00547994
C  -0.71260115 1.20877003 -0.01811222
C  -1.41116337 -0.00933482 -0.03110150
H  -1.19201066 -2.17072497 -0.06056030
H  1.34146423 -2.18162776 0.13511153
H  2.43787499 -0.04093897 0.05976010
H  1.26902353 2.16394147 -0.08460950
H  -1.21416730 2.16847221 0.05184695
H  -2.54173624 -0.13647011 -0.01926235
12
MD Step 1184 Units = [Angstroms]
C  -0.68303277 -1.21847711 0.00848640
C  0.72910489 -1.22312100 0.04269846
C  1.38398680 0.03668659 -0.00221427
C  0.68578328 1.22392465 -0.00602601
C  -0.71317067 1.20946415 -0.01900443
C  -1.41366131 -0.01287258 -0.03259265
H  -1.19281852 -2.15994645 -0.05102672
H  1.35503081 -2.18833025 0.13185021
H  2.43945173 -0.03741808 0.06117012
H  1.27094629 2.16597688 -0.08062616
H  -1.20833346 2.18212765 0.06334404
H  -2.53332235 -0.14835578 -0.02160796
12
MD Step 1185 Units = [Angstroms]
C  -0.68368445 -1.21509986 0.01024542
C  0.72812309 -1.22206020 0.04080955
C  1.38731034 0.03275899 -0.00085458
C  0.68459856 1.22517317 -0.00668092
C  -0.71383548 1.21001632 -0.01983440
C  -1.41606393 -0.01645740 -0.03402488
H  -1.19501613 -2.15117812 -0.04120531
H  1.36587080 -2.19149874 0.12802094
H  2.44493561 -0.03292638 0.06236006
H  1.27184209 2.16761341 -0.07615322
H  -1.20349006 2.19577276 0.07436204
H  -2.52265792 -0.15855187 -0.02417481
12
MD Step 1186 Units = [Angstroms]
C  -0.68400385 -1.21155561 0.01194109
C  0.72712836 -1.22095773 0.03894152
C  1.39038197 0.02844689 0.00059199
C  0.68341998 1.22643646 -0.00743857
C  -0.71460988 1.21046573 -0.02059185
C  -1.41829886 -0.02001288 -0.03539623
H  -1.19875011 -2.14487351 -0.03113011
H  1.37352353 -2.19071537 0.12360350
H  2.45410278 -0.02752107 0.06333484
H  1.27164868 2.16874361 -0.07121040
H  -1.19939278 2.20859087 0.08477543
H  -2.51068681 -0.16702213 -0.02695233
12
MD Step 1187 Units = [Angstroms]
C  -0.68398522 -1.20788056 0.01357117
C  0.72617344 -1.21983536 0.03710125
C  1.39320281 0.02382546 0.00211607
C  0.68226361 1.22766067 -0.00829128
C  -0.71550249 1.21085075 -0.02126668
C  -1.42028511 -0.02346290 -0.03670528
H  -1.20401826 -2.14122070 -0.02082004
H  1.37771307 -2.18584140 0.11860516
H  2.46635273 -0.02126082 0.06408108
H  1.27035316 2.16932078 -0.06582641
H  -1.19582133 2.21982027 0.09445492
H  -2.49850646 -0.17377794 -0.02992924
12
MD Step 1188 Units = [Angstroms]
C  -0.68364018 -1.20413204 0.01513338
C  0.72529867 -1.21869975 0.03529371
C  1.39580018 0.01897597 0.00370864
C  0.68114108 1.22878850 -0.00922994
C  -0.71651488 1.21120462 -0.02184972
C  -1.42193900 -0.02673366 -0.03795108
H  -1.21065941 -2.14012449 -0.01028472
H  1.37835146 -2.17701279 0.11305824
H  2.48078715 -0.01421651 0.06457213
H  1.26799282 2.16936009 -0.06003776
H  -1.19260216 2.22881031 0.10327629
H  -2.48728732 -0.17887067 -0.03309484
12
MD Step 1189 Units = [Angstroms]
C  -0.68299678 -1.20038547 0.01662598
C  0.72453042 -1.21754285 0.03352214
C  1.39821935 0.01398575 0.00536061
C  0.68005959 1.22976056 -0.01024418
C  -0.71764106 1.21155226 -0.02233334
C  -1.42318245 -0.02975605 -0.03913305
H  -1.21836573 -2.14122976 0.00046753
H  1.37554260 -2.16463784 0.10701768
H  2.49632345 -0.00648086 0.06477519
H  1.26465258 2.16893511 -0.05388716
H  -1.18962248 2.23506054 0.11112841
H  -2.47816342 -0.18237811 -0.03644003
12
MD Step 1190 Units = [Angstroms]
C  -0.68209707 -1.19672860 0.01804835
C  0.72387955 -1.21634192 0.03178813
C  1.40051447 0.00894762 0.00706230
C  0.67902227 1.23051698 -0.01132256
C  -0.71886751 1.21190815 -0.02271196
C  -1.42395283 -0.03246804 -0.04025088
H  -1.22671497 -2.14397961 0.01142163
H  1.36958676 -2.14939609 0.10055832
H  2.51181744 0.00182637 0.06465867
H  1.26045927 2.16816972 -0.04742161
H  -1.18683736 2.23824544 0.11792020
H  -2.47210305 -0.18438619 -0.03995781
12
MD Step 1191 Units = [Angstroms]
C  -0.68099360 -1.19325423 0.01940136
C  0.72334031 -1.21505949 0.03009178
C  1.40274032 0.00395875 0.00880323
C  0.67802885 1.23099936 -0.01245283
C  -0.72017370 1.21227508 -0.02298246
C  -1.42421274 -0.03481704 -0.04130451
H  -1.23521518 -2.14769396 0.02254985
H  1.36098187 -2.13223290 0.09377155
H  2.52617335 0.01055857 0.06419815
H  1.25557270 2.16722565 -0.04069045
H  -1.18427205 2.23822765 0.12358594
H  -2.46978010 -0.18496967 -0.04364261
12
MD Step 1192 Units = [Angstroms]
C  -0.67974552 -1.19005277 0.02068755
C  0.72289025 -1.21364415 0.02843193
C  1.40494601 -0.00088128 0.01057189
C  0.67707656 1.23115286 -0.01362217
C  -0.72153277 1.21264344 -0.02314445
C  -1.42395748 -0.03676155 -0.04229422
H  -1.24335303 -2.15165233 0.03380891
H  1.35041410 -2.11433930 0.08676052
H  2.53842933 0.01954744 0.06338029
H  1.25017397 2.16628594 -0.03374351
H  -1.18202104 2.23506291 0.12808925
H  -2.47147462 -0.18417712 -0.04748835
12
MD Step 1193 Units = [Angstroms]
C  -0.67841479 -1.18720583 0.02191093
C  0.72249216 -1.21203342 0.02680666
C  1.40717058 -0.00547281 0.01235585
C  0.67616124 1.23092858 -0.01481730
C  -0.72291242 1.21299120 -0.02320053
C  -1.42321804 -0.03827192 -0.04322076
H  -1.25063800 -2.15516759 0.04514041
H  1.33872714 -2.09710263 0.07963322
H  2.54781567 0.02861103 0.06220464
H  1.24445173 2.16553543 -0.02662967
H  -1.18024449 2.22899774 0.13142542
H  -2.47702900 -0.18202494 -0.05148558
12
MD Step 1194 Units = [Angstroms]
C  -0.67706279 -1.18478146 0.02307675
C  0.72209868 -1.21015977 0.02521385
C  1.40944029 -0.00971891 0.01414191
C  0.67527852 1.23028590 -0.01602474
C  -0.72427583 1.21328443 -0.02315622
C  -1.42205861 -0.03933001 -0.04408554
H  -1.25663806 -2.15764386 0.05647367
H  1.32685945 -2.08201361 0.07249333
H  2.55379018 0.03756325 0.06068388
H  1.23858752 2.16513973 -0.01939601
H  -1.17916191 2.22045939 0.13362207
H  -2.48587252 -0.17850231 -0.05561848
12
MD Step 1195 Units = [Angstroms]
C  -0.67574748 -1.18283089 0.02419105
C  0.72166019 -1.20796070 0.02365200
C  1.41176708 -0.01352828 0.01591629
C  0.67442489 1.22919471 -0.01723080
C  -0.72558280 1.21347883 -0.02301996
C  -1.42056922 -0.03992798 -0.04489072
H  -1.26100543 -2.15861696 0.06773022
H  1.31574476 -2.07052243 0.06542974
H  2.55605703 0.04622337 0.05884294
H  1.23274173 2.16522489 -0.01208769
H  -1.17904200 2.21003546 0.13473752
H  -2.49710757 -0.17358480 -0.05986264
12
MD Step 1196 Units = [Angstroms]
C  -0.67452089 -1.18138690 0.02526018
C  0.72113499 -1.20539207 0.02212091
C  1.41414755 -0.01681820 0.01766494
C  0.67359860 1.22763736 -0.01842164
C  -0.72679118 1.21352240 -0.02280262
C  -1.41885533 -0.04006674 -0.04563918
H  -1.26349364 -2.15777985 0.07882902
H  1.30618467 -2.06385424 0.05850708
H  2.55457551 0.05442507 0.05671755
H  1.22704185 2.16586026 -0.00474857
H  -1.18018728 2.19843990 0.13485622
H  -2.50963378 -0.16725168 -0.06418443
12
MD Step 1197 Units = [Angstroms]
C  -0.67342711 -1.18046302 0.02629039
C  0.72049972 -1.20244200 0.02062212
C  1.41656241 -0.01951726 0.01937375
C  0.67280019 1.22561002 -0.01958330
C  -0.72785873 1.21335949 -0.02251695
C  -1.41702696 -0.03975446 -0.04633444
H  -1.26396779 -2.15499679 0.08969189
H  1.29872011 -2.06281814 0.05176042
H  2.54956222 0.06202461 0.05435228
H  1.22157448 2.16704712 0.00257770
H  -1.18291163 2.18646228 0.13408088
H  -2.52228117 -0.15950178 -0.06854204
12
MD Step 1198 Units = [Angstroms]
C  -0.67250052 -1.18005345 0.02728735
C  0.71975661 -1.19914132 0.01915885
C  1.41897619 -0.02156765 0.02102877
C  0.67203260 1.22312325 -0.02070159
C  -0.72874556 1.21293638 -0.02217658
C  -1.41518913 -0.03900542 -0.04698036
H  -1.26240983 -2.15030937 0.10024886
H  1.29353990 -2.06766150 0.04519661
H  2.54148757 0.06890796 0.05179838
H  1.21638238 2.16871472 0.00984621
H  -1.18751034 2.17489977 0.13252101
H  -2.53392800 -0.15036425 -0.07288780
12
MD Step 1199 Units = [Angstroms]
C  -0.67176443 -1.18013356 0.02825570
C  0.71893509 -1.19556654 0.01773536
C  1.42133759 -0.02292690 0.02261646
C  0.67130092 1.22020187 -0.02176217
C  -0.72941707 1.21220784 -0.02179493
C  -1.41343465 -0.03783942 -0.04758091
H  -1.25891996 -2.14393624 0.11044321
H  1.29045912 -2.07801817 0.03880223
H  2.53106364 0.07499648 0.04911123
H  1.21146657 2.17072468 0.01700955
H  -1.19422340 2.16447653 0.13027920
H  -2.54359084 -0.13990350 -0.07717123
12
MD Step 1200 Units = [Angstroms]
C  -0.67123017 -1.18066064 0.02919868
C  0.71808685 -1.19183383 0.01635611
C  1.42358106 -0.02356882 0.02412389
C  0.67061180 1.21688392 -0.02275053
C  -0.72984714 1.21114391 -0.02138397
C  -1.41183949 -0.03628135 -0.04813986
H  -1.25371382 -2.13626644 0.12023600
H  1.28897519 -2.09296954 0.03255547
H  2.51921770 0.08025026 0.04634739
H  1.20679319 2.17288312 0.02401699
H  -1.20319590 2.15576109 0.12743725
H  -2.55048483 -0.12821913 -0.08134227
12
MD Step 1201 Units = [Angstroms]
C  -0.67089684 -1.18157549 0.03011782
C  0.71727641 -1.18808598 0.01502491
C  1.42563005 -0.02348366 0.02553900
C  0.66997273 1.21321893 -0.02365210
C  -0.73002106 1.20973553 -0.02095332
C  -1.41046012 -0.03436116 -0.04866050
H  -1.24711431 -2.12784421 0.12960958
H  1.28838047 -2.11119724 0.02643746
H  2.50704350 0.08466786 0.04356144
H  1.20230384 2.17495898 0.03081448
H  -1.21444208 2.14909694 0.12404516
H  -2.55405945 -0.11544265 -0.08535433
12
MD Step 1202 Units = [Angstroms]
C  -0.67075192 -1.18280474 0.03101271
C  0.71657037 -1.18447606 0.01374436
C  1.42740273 -0.02267745 0.02685087
C  0.66939127 1.20926574 -0.02445249
C  -0.72993761 1.20799779 -0.02050974
C  -1.40933235 -0.03211373 -0.04914540
H  -1.23953549 -2.11934179 0.13856947
H  1.28789272 -2.13117754 0.02044013
H  2.49572350 0.08828119 0.04080269
H  1.19792786 2.17670597 0.03734537
H  -1.22782074 2.14456233 0.12011617
H  -2.55401712 -0.10173242 -0.08916705
12
MD Step 1203 Units = [Angstroms]
C  -0.67077298 -1.18426465 0.03188106
C  0.71602812 -1.18115232 0.01251573
C  1.42882032 -0.02117058 0.02804989
C  0.66887443 1.20508997 -0.02513767
C  -0.72960969 1.20596987 -0.02005723
C  -1.40847089 -0.02957879 -0.04959625
H  -1.23145643 -2.11151631 0.14714346
H  1.28676877 -2.15136624 0.01456911
H  2.48642019 0.09114469 0.03811250
H  1.19359485 2.17788574 0.04355194
H  -1.24302884 2.14196953 0.11562909
H  -2.55032130 -0.08726804 -0.09274865
12
MD Step 1204 Units = [Angstroms]
C  -0.67093049 -1.18586629 0.03271899
C  0.71569588 -1.17824664 0.01133906
C  1.42981724 -0.01899590 0.02912793
C  0.66842812 1.20076154 -0.02569435
C  -0.72906327 1.20371168 -0.01959777
C  -1.40786959 -0.02680073 -0.05001361
H  -1.22338345 -2.10514849 0.15537696
H  1.28438280 -2.17034092 0.00884288
H  2.48014451 0.09332012 0.03552273
H  1.18924618 2.17828978 0.04937748
H  -1.25961622 2.14090366 0.11053758
H  -2.54319803 -0.07224440 -0.09607818
12
MD Step 1205 Units = [Angstroms]
C  -0.67119180 -1.18752228 0.03352179
C  0.71560377 -1.17586735 0.01021354
C  1.43035171 -0.01619670 0.03007832
C  0.66805682 1.19635232 -0.02611021
C  -0.72833484 1.20129806 -0.01913221
C  -1.40750193 -0.02382830 -0.05039683
H  -1.21580250 -2.10096499 0.16332397
H  1.28026811 -2.18689209 0.00328962
H  2.47762158 0.09485985 0.03305596
H  1.18484453 2.17775843 0.05476855
H  -1.27701897 2.14079128 0.10478357
H  -2.53313115 -0.05686551 -0.09914729
12
MD Step 1206 Units = [Angstroms]
C  -0.67152561 -1.18915417 0.03428489
C  0.71576534 -1.17409560 0.00913783
C  1.43041420 -0.01282504 0.03089572
C  0.66776330 1.19193408 -0.02637429
C  -0.72746785 1.19881176 -0.01866143
C  -1.40732229 -0.02071423 -0.05074389
H  -1.20912679 -2.09955203 0.17103402
H  1.27413150 -2.20007127 -0.00205672
H  2.47918321 0.09579366 0.03072749
H  1.18038075 2.17619571 0.05967737
H  -1.29460509 2.14098269 0.09831148
H  -2.52084826 -0.04133782 -0.10196160
12
MD Step 1207 Units = [Angstroms]
C  -0.67190626 -1.19069967 0.03500509
C  0.71617846 -1.17298392 0.00811038
C  1.43003145 -0.00894081 0.03157590
C  0.66754835 1.18757689 -0.02647721
C  -0.72650892 1.19633659 -0.01818722
C  -1.40726835 -0.01751482 -0.05105142
H  -1.20364881 -2.10127457 0.17853708
H  1.26585168 -2.20921111 -0.00716023
H  2.48471542 0.09612332 0.02854845
H  1.17587802 2.17357943 0.06406392
H  -1.31172393 2.14083223 0.09108020
H  -2.50729104 -0.02586315 -0.10454118
12
MD Step 1208 Units = [Angstroms]
C  -0.67231704 -1.19211796 0.03568168
C  0.71682675 -1.17255591 0.00712981
C  1.42926485 -0.00461170 0.03211551
C  0.66741051 1.18334796 -0.02641142
C  -0.72550420 1.19395156 -0.01771285
C  -1.40726522 -0.01428926 -0.05131473
H  -1.19950740 -2.10621801 0.18582977
H  1.25547114 -2.21393196 -0.01198648
H  2.49367652 0.09582700 0.02652907
H  1.17139317 2.16996621 0.06789757
H  -1.32775220 2.13976515 0.08307120
H  -2.49356229 -0.01063152 -0.10691951
12
MD Step 1209 Units = [Angstroms]
C  -0.67275155 -1.19339206 0.03631719
C  0.71768095 -1.17280604 0.00619506
C  1.42820352 0.00008633 0.03251191
C  0.66734589 1.17931085 -0.02617135
C  -0.72449648 1.19172648 -0.01724336
C  -1.40723194 -0.01109890 -0.05152814
H  -1.19667786 -2.11416722 0.19286641
H  1.24318756 -2.21414504 -0.01650559
H  2.50518045 0.09487141 0.02468084
H  1.16701527 2.16549109 0.07115820
H  -1.34213212 2.13732652 0.07429234
H  -2.48084323 0.00418486 -0.10914052
12
MD Step 1210 Units = [Angstroms]
C  -0.67321311 -1.19452765 0.03691749
C  0.71870011 -1.17369941 0.00530570
C  1.42695403 0.00506852 0.03276312
C  0.66734801 1.17552510 -0.02575343
C  -0.72352300 1.18971894 -0.01678556
C  -1.40709031 -0.00800610 -0.05168540
H  -1.19498753 -2.12462868 0.19955774
H  1.22934666 -2.21005755 -0.02069511
H  2.51812216 0.09322729 0.02301726
H  1.16286155 2.16036178 0.07383655
H  -1.35440025 2.13321234 0.06477806
H  -2.47028082 0.01843497 -0.11125301
12
MD Step 1211 Units = [Angstroms]
C  -0.67371248 -1.19554888 0.03749133
C  0.71983254 -1.17517135 0.00446205
C  1.42562917 0.01024128 0.03286790
C  0.66740782 1.17204607 -0.02515608
C  -0.72261391 1.18797236 -0.01634784
C  -1.40677537 -0.00507276 -0.05178037
H  -1.19415227 -2.13689059 0.20577764
H  1.21443629 -2.20217957 -0.02454286
H  2.53131459 0.09088316 0.02155316
H  1.15907087 2.15484728 0.07593385
H  -1.36420760 2.12728629 0.05458688
H  -2.46285491 0.03198800 -0.11330299
12
MD Step 1212 Units = [Angstroms]
C  -0.67426456 -1.19649212 0.03804932
C  0.72101677 -1.17712742 0.00366544
C  1.42433793 0.01550314 0.03282582
C  0.66751403 1.16892507 -0.02437957
C  -0.72179129 1.18651493 -0.01593985
C  -1.40624561 -0.00235842 -0.05180776
H  -1.19382412 -2.15010648 0.21137593
H  1.19907825 -2.19132742 -0.02804955
H  2.54361153 0.08785415 0.02030316
H  1.15579479 2.14926103 0.07746061
H  -1.37133284 2.11958588 0.04379715
H  -2.45924753 0.04472783 -0.11532484
12
MD Step 1213 Units = [Angstroms]
C  -0.67488494 -1.19739931 0.03860275
C  0.72218295 -1.17944487 0.00291827
C  1.42317770 0.02074661 0.03263736
C  0.66765378 1.16620955 -0.02342578
C  -0.72106847 1.18535905 -0.01557213
C  -1.40549067 0.00008178 -0.05176384
H  -1.19364012 -2.16338510 0.21619424
H  1.18401266 -2.17861168 -0.03123094
H  2.55400200 0.08418501 0.01927999
H  1.15318679 2.14393917 0.07843464
H  -1.37569000 2.11032115 0.03250167
H  -2.45974392 0.05654424 -0.11733336
12
MD Step 1214 Units = [Angstroms]
C  -0.67558687 -1.19831200 0.03916235
C  0.72325526 -1.18197686 0.00222408
C  1.42222898 0.02586100 0.03230399
C  0.66781356 1.16394346 -0.02229792
C  -0.72044970 1.18450137 -0.01525564
C  -1.40453421 0.00219909 -0.05164680
H  -1.19326396 -2.17587188 0.22008144
H  1.17006778 -2.16539323 -0.03411871
H  2.56167369 0.07994826 0.01849289
H  1.15139002 2.13921508 0.07887864
H  -1.37733141 2.09986724 0.02080157
H  -2.46419168 0.06732418 -0.11931892
12
MD Step 1215 Units = [Angstroms]
C  -0.67637898 -1.19926665 0.03973735
C  0.72415593 -1.18456097 0.00158734
C  1.42155197 0.03073573 0.03182819
C  0.66798056 1.16216747 -0.02100015
C  -0.71993005 1.18392326 -0.01500133
C  -1.40343114 0.00395267 -0.05145689
H  -1.19241693 -2.18681363 0.22290662
H  1.15810848 -2.15318870 -0.03675878
H  2.56605040 0.07523914 0.01794658
H  1.15052472 2.13539226 0.07881740
H  -1.37644501 2.08875025 0.00879976
H  -2.47202988 0.07694648 -0.12124700
12
MD Step 1216 Units = [Angstroms]
C  -0.67726367 -1.20029151 0.04033474
C  0.72481120 -1.18703299 0.00101305
C  1.42118454 0.03526404 0.03121341
C  0.66814398 1.16091920 -0.01953734
C  -0.71949590 1.18359214 -0.01481958
C  -1.40225997 0.00531057 -0.05119602
H  -1.19089777 -2.19560440 0.22456853
H  1.14896078 -2.14351468 -0.03920621
H  2.56681149 0.07016891 0.01764052
H  1.15067636 2.13271821 0.07827522
H  -1.37334443 2.07762423 -0.00340578
H  -2.48237890 0.08528237 -0.12306236
12
MD Step 1217 Units = [Angstroms]
C  -0.67823623 -1.20140470 0.04095882
C  0.72515873 -1.18924499 0.00050592
C  1.42114089 0.03934645 0.03046403
C  0.66829652 1.16023304 -0.01791471
C  -0.71912613 1.18346380 -0.01471974
C  -1.40111232 0.00624999 -0.05086725
H  -1.18859335 -2.20181464 0.22500157
H  1.14331784 -2.13767998 -0.04151605
H  2.56390028 0.06485767 0.01756872
H  1.15188598 2.13136247 0.07727390
H  -1.36844872 2.06723626 -0.01572837
H  -2.49416592 0.09220126 -0.12469640
12
MD Step 1218 Units = [Angstroms]
C  -0.67928438 -1.20261318 0.04161092
C  0.72515533 -1.19108442 0.00006947
C  1.42141062 0.04289416 0.02958530
C  0.66843550 1.16013961 -0.01613772
C  -0.71879432 1.18348593 -0.01470966
C  -1.40008202 0.00675725 -0.05047411
H  -1.18548297 -2.20520778 0.22417896
H  1.14164418 -2.13656517 -0.04373168
H  2.55752592 0.05942728 0.01771973
H  1.15414404 2.13140185 0.07583159
H  -1.36224943 2.05837664 -0.02809772
H  -2.50625644 0.09757978 -0.12607567
12
MD Step 1219 Units = [Angstroms]
C  -0.68038834 -1.20391225 0.04228934
C  0.72478288 -1.19248915 -0.00029492
C  1.42195832 0.04583182 0.02858328
C  0.66856372 1.16066482 -0.01421198
C  -0.71847208 1.18360308 -0.01479550
C  -1.39925584 0.00682743 -0.05001998
H  -1.18163832 -2.20574778 0.22211366
H  1.14410249 -2.14045156 -0.04587369
H  2.54815941 0.05399479 0.01807713
H  1.15738861 2.13281485 0.07396288
H  -1.35526441 2.05181367 -0.04046255
H  -2.51756846 0.10131121 -0.12712983
12
MD Step 1220 Units = [Angstroms]
C  -0.68152131 -1.20528537 0.04298941
C  0.72405092 -1.19345328 -0.00058854
C  1.42272385 0.04809982 0.02746473
C  0.66868978 1.16182843 -0.01214334
C  -0.71813324 1.18376262 -0.01498168
C  -1.39870661 0.00646405 -0.04950770
H  -1.17722040 -2.20359987 0.21885750
H  1.15052598 -2.14895884 -0.04793305
H  2.53652089 0.04866642 0.01862024
H  1.16150837 2.13548607 0.07167987
H  -1.34798136 2.04821671 -0.05278938
H  -2.52715793 0.10331313 -0.12779794
12
MD Step 1221 Units = [Angstroms]
C  -0.68265047 -1.20670438 0.04370360
C  0.72299472 -1.19402200 -0.00081534
C  1.42362412 0.04965589 0.02623711
C  0.66882790 1.16364237 -0.00993803
C  -0.71775834 1.18392114 -0.01527130
C  -1.39848878 0.00567866 -0.04893925
H  -1.17247354 -2.19912429 0.21449850
H  1.16044523 -2.16111521 -0.04987130
H  2.52355177 0.04353256 0.01932531
H  1.16635012 2.13921981 0.06899415
H  -1.34079909 2.04807661 -0.06505710
H  -2.53427472 0.10353261 -0.12803268
12
MD Step 1222 Units = [Angstroms]
C  -0.68373839 -1.20813026 0.04442195
C  0.72166998 -1.19427745 -0.00098132
C  1.42455701 0.05047590 0.02490841
C  0.66899714 1.16610900 -0.00760295
C  -0.71733829 1.18405007 -0.01566676
C  -1.39863602 0.00449038 -0.04831569
H  -1.16771546 -2.19286092 0.20915614
H  1.17316081 -2.17553401 -0.05162741
H  2.51036334 0.03866425 0.02016701
H  1.17172976 2.14376081 0.06591917
H  -1.33397809 2.05163757 -0.07724748
H  -2.53839509 0.10194887 -0.12780297
12
MD Step 1223 Units = [Angstroms]
C  -0.68474499 -1.20951492 0.04513263
C  0.72014547 -1.19432076 -0.00109365
C  1.42540808 0.05055395 0.02348718
C  0.66922027 1.16921948 -0.00514591
C  -0.71687640 1.18413938 -0.01617056
C  -1.39916009 0.00292526 -0.04763708
H  -1.16332169 -2.18550065 0.20297407
H  1.18783872 -2.19063632 -0.05312856
H  2.49815450 0.03411197 0.02112008
H  1.17744556 2.14881904 0.06247262
H  -1.32761217 2.05885540 -0.08933405
H  -2.53923814 0.09857409 -0.12709525
12
MD Step 1224 Units = [Angstroms]
C  -0.68562996 -1.21080427 0.04582269
C  0.71849589 -1.19425534 -0.00115976
C  1.42606043 0.04990161 0.02198238
C  0.66952217 1.17295254 -0.00257586
C  -0.71638810 1.18419843 -0.01678601
C  -1.40005052 0.00101545 -0.04690259
H  -1.15970223 -2.17783932 0.19610991
H  1.20360448 -2.20485778 -0.05430123
H  2.48809679 0.02990704 0.02216076
H  1.18329220 2.15409565 0.05867833
H  -1.32162868 2.06939294 -0.10127201
H  -2.53677281 0.09345311 -0.12591402
12
MD Step 1225 Units = [Angstroms]
C  -0.68635575 -1.21194301 0.04647918
C  0.71679589 -1.19417462 -0.00118657
C  1.42640663 0.04854649 0.02040343
C  0.66992815 1.17727371 0.00009688
C  -0.71589826 1.18425391 -0.01751760
C  -1.40127481 -0.00120191 -0.04611046
H  -1.15726954 -2.17071178 0.18872249
H  1.21961920 -2.21680199 -0.05508010
H  2.48119572 0.02606600 0.02326744
H  1.18907439 2.15930754 0.05456761
H  -1.31581678 2.08265452 -0.11299224
H  -2.53121903 0.08666223 -0.12428180
12
MD Step 1226 Units = [Angstroms]
C  -0.68689091 -1.21288084 0.04709022
C  0.71511594 -1.19415493 -0.00118004
C  1.42636122 0.04653035 0.01876030
C  0.67046216 1.18213510 0.00286057
C  -0.71543698 1.18434518 -0.01837095
C  -1.40277901 -0.00368581 -0.04525813
H  -1.15639837 -2.16490830 0.18095761
H  1.23513176 -2.22533215 -0.05541371
H  2.47815100 0.02259646 0.02442011
H  1.19461907 2.16420846 0.05017963
H  -1.30987585 2.09785179 -0.12440100
H  -2.52304295 0.07830718 -0.12223852
12
MD Step 1227 Units = [Angstroms]
C  -0.68721364 -1.21357948 0.04764610
C  0.71351951 -1.19425257 -0.00114488
C  1.42587075 0.04390721 0.01706366
C  0.67114503 1.18747573 0.00570195
C  -0.71503481 1.18451847 -0.01935235
C  -1.40448913 -0.00639266 -0.04434233
H  -1.15738160 -2.16108229 0.17293495
H  1.24951000 -2.22961255 -0.05526722
H  2.47924725 0.01950296 0.02559843
H  1.19978546 2.16860573 0.04556116
H  -1.30347177 2.11408654 -0.13538490
H  -2.51294296 0.06851987 -0.11984027
12
MD Step 1228 Units = [Angstroms]
C  -0.68731483 -1.21401919 0.04814006
C  0.71206128 -1.19450343 -0.00108451
C  1.42491904 0.04074152 0.01532506
C  0.67199292 1.19322224 0.00860639
C  -0.71471827 1.18482082 -0.02046798
C  -1.40631382 -0.00927734 -0.04335922
H  -1.16038894 -2.15966503 0.16473870
H  1.26225730 -2.22911892 -0.05462322
H  2.48430538 0.01679029 0.02677912
H  1.20447262 2.17237195 0.04076553
H  -1.29628962 2.13043530 -0.14581973
H  -2.50181998 0.05745348 -0.11715667
12
MD Step 1229 Units = [Angstroms]
C  -0.68720017 -1.21420326 0.04856851
C  0.71078565 -1.19492386 -0.00100104
C  1.42352633 0.03710683 0.01355715
C  0.67301605 1.19929022 0.01155795
C  -0.71450658 1.18529484 -0.02172315
C  -1.40814886 -0.01229404 -0.04230473
H  -1.16543706 -2.16080588 0.15641472
H  1.27302172 -2.22363441 -0.05348148
H  2.49270924 0.01446354 0.02793349
H  1.20862423 2.17545150 0.03585103
H  -1.28807517 2.14602373 -0.15558072
H  -2.49072427 0.04527547 -0.11426677
12
MD Step 1230 Units = [Angstroms]
C  -0.68689064 -1.21415921 0.04893072
C  0.70972532 -1.19551174 -0.00089531
C  1.42174281 0.03308474 0.01177364
C  0.67421775 1.20558580 0.01453964
C  -0.71440950 1.18597467 -0.02312142
C  -1.40988417 -0.01539679 -0.04117496
H  -1.17237883 -2.16435311 0.14797488
H  1.28160297 -2.21324281 -0.05185827
H  2.50349993 0.01252511 0.02902627
H  1.21223052 2.17786179 0.03087898
H  -1.27866268 2.16008500 -0.16455255
H  -2.48077240 0.03215896 -0.11125284
12
MD Step 1231 Units = [Angstroms]
C  -0.68642116 -1.21393635 0.04922794
C  0.70889974 -1.19624714 -0.00076698
C  1.41963872 0.02876404 0.00998923
C  0.67559399 1.21200770 0.01753361
C  -0.71442654 1.18688313 -0.02466406
C  -1.41141322 -0.01853971 -0.03996687
H  -1.18091472 -2.16988013 0.13940733
H  1.28796043 -2.19832438 -0.04978555
H  2.51551088 0.01097052 0.03001598
H  1.21532697 2.17968927 0.02591161
H  -1.26799001 2.17200117 -0.17263796
H  -2.47303444 0.01827392 -0.10819248
12
MD Step 1232 Units = [Angstroms]
C  -0.68583769 -1.21360021 0.04946237
C  0.70831332 -1.19709263 -0.00061456
C  1.41729376 0.02423975 0.00821930
C  0.67713335 1.21844973 0.02052144
C  -0.71454689 1.18802988 -0.02634948
C  -1.41264402 -0.02167731 -0.03867887
H  -1.19062393 -2.17675015 0.13068980
H  1.29222294 -2.17955411 -0.04731007
H  2.52751116 0.00978485 0.03085699
H  1.21798982 2.18108001 0.02100992
H  -1.25610389 2.18132990 -0.17976446
H  -2.46840214 0.00378045 -0.10514999
12
MD Step 1233 Units = [Angstroms]
C  -0.68519326 -1.21322529 0.04963615
C  0.70795391 -1.19799352 -0.00043552
C  1.41478771 0.01961188 0.00647955
C  0.67881761 1.22480357 0.02348443
C  -0.71475012 1.18941036 -0.02817293
C  -1.41350980 -0.02476485 -0.03731150
H  -1.20100840 -2.18420304 0.12180230
H  1.29469783 -2.15789705 -0.04449192
H  2.53833028 0.00894124 0.03150236
H  1.22032826 2.18222511 0.01623180
H  -1.24315862 2.18782029 -0.18588934
H  -2.46746070 -0.01117342 -0.10216856
12
MD Step 1234 Units = [Angstroms]
C  -0.68454367 -1.21288760 0.04975052
C  0.70779178 -1.19887886 -0.00022648
C  1.41219359 0.01498382 0.00478559
C  0.68062270 1.23096189 0.02640380
C  -0.71500718 1.19100522 -0.03012628
C  -1.41397698 -0.02775908 -0.03586778
H  -1.21154064 -2.19144605 0.11273690
H  1.29587322 -2.13458996 -0.04140230
H  2.54695130 0.00840149 0.03190689
H  1.22247338 2.18334129 0.01163070
H  -1.22941027 2.19142035 -0.19100303
H  -2.47039462 -0.02644799 -0.09926552
12
MD Step 1235 Units = [Angstroms]
C  -0.68394341 -1.21265822 0.04980539
C  0.70778017 -1.19966444 0.00001659
C  1.40957320 0.01046035 0.00315257
C  0.68252019 1.23682173 0.02926092
C  -0.71528161 1.19278027 -0.03219791
C  -1.41404815 -0.03061920 -0.03435327
H  -1.22170791 -2.19773363 0.10350319
H  1.29640371 -2.11109480 -0.03811965
H  2.55257095 0.00811861 0.03202983
H  1.22456448 2.18464775 0.00725484
H  -1.21520759 2.19227790 -0.19513099
H  -2.47695343 -0.04190340 -0.09643178
12
MD Step 1236 Units = [Angstroms]
C  -0.68344213 -1.21259847 0.04979926
C  0.70785832 -1.20025901 0.00029787
C  1.40697465 0.00614530 0.00159486
C  0.68447901 1.24228787 0.03203748
C  -0.71553102 1.19468693 -0.03437277
C  -1.41375929 -0.03330795 -0.03277570
H  -1.23104824 -2.20242894 0.09412995
H  1.29706741 -2.08900861 -0.03472401
H  2.55463318 0.00804026 0.03183698
H  1.22673381 2.18634122 0.00314728
H  -1.20097951 2.19073396 -0.19833382
H  -2.48648813 -0.05738966 -0.09363596
12
MD Step 1237 Units = [Angstroms]
C  -0.68308193 -1.21275678 0.04972923
C  0.70795791 -1.20057454 0.00062118
C  1.40443110 0.00213901 0.00012570
C  0.68646717 1.24727611 0.03471558
C  -0.71570868 1.19666357 -0.03663259
C  -1.41317211 -0.03579234 -0.03114439
H  -1.23917694 -2.20504584 0.08466368
H  1.29868456 -2.06992138 -0.03128964
H  2.55284493 0.00811269 0.03130220
H  1.22909126 2.18857160 -0.00065333
H  -1.18721825 2.18730613 -0.20070520
H  -2.49804757 -0.07273922 -0.09083173
12
MD Step 1238 Units = [Angstroms]
C  -0.68289516 -1.21316690 0.04959134
C  0.70801268 -1.20053990 0.00098935
C  1.40196004 -0.00146435 -0.00124296
C  0.68845345 1.25171602 0.03727776
C  -0.71576564 1.19863792 -0.03895631
C  -1.41236363 -0.03804401 -0.02946952
H  -1.24580458 -2.20527416 0.07516525
H  1.30199863 -2.05523067 -0.02787739
H  2.54718162 0.00828451 0.03040838
H  1.23171088 2.19142152 -0.00411138
H  -1.17445678 2.18265779 -0.20236690
H  -2.51050856 -0.08776463 -0.08796645
12
MD Step 1239 Units = [Angstroms]
C  -0.68290290 -1.21384702 0.04938091
C  0.70796989 -1.20011541 0.00140381
C  1.39956298 -0.00457940 -0.00250068
C  0.69040871 1.25555304 0.03970704
C  -0.71565322 1.20053112 -0.04132089
C  -1.41141546 -0.04003912 -0.02776144
H  -1.25074838 -2.20299298 0.06570554
H  1.30753899 -2.04594550 -0.02452867
H  2.53788679 0.00851013 0.02914801
H  1.23462123 2.19489263 -0.00719276
H  -1.16323943 2.17754932 -0.20346009
H  -2.52270936 -0.10226178 -0.08498916
12
MD Step 1240 Units = [Angstroms]
C  -0.68311389 -1.21479950 0.04909286
C  0.70780047 -1.19930399 0.00186433
C  1.39722525 -0.00713196 -0.00363863
C  0.69230663 1.25874967 0.04198694
C  -0.71532606 1.20226320 -0.04370234
C  -1.41040472 -0.04175786 -0.02603015
H  -1.25393883 -2.19827526 0.05636065
H  1.31550167 -2.04253123 -0.02126336
H  2.52546662 0.00875251 0.02752324
H  1.23780099 2.19890087 -0.00986348
H  -1.15408567 2.17276929 -0.20413304
H  -2.53356351 -0.11601702 -0.08185657
12
MD Step 1241 Units = [Angstroms]
C  -0.68352395 -1.21601094 0.04872220
C  0.70750438 -1.19815513 0.00236931
C  1.39491639 -0.00906103 -0.00464966
C  0.69412407 1.26128561 0.04410155
C  -0.71474555 1.20376016 -0.04607707
C  -1.40939739 -0.04318395 -0.02428497
H  -1.25542251 -2.19138618 0.04720690
H  1.32568880 -2.04484500 -0.01808251
H  2.51067638 0.00898524 0.02554544
H  1.24118046 2.20328161 -0.01208884
H  -1.14744917 2.16904909 -0.20452575
H  -2.54214337 -0.12881621 -0.07853683
12
MD Step 1242 Units = [Angstroms]
C  -0.68411590 -1.21745259 0.04826435
C  0.70710940 -1.19675971 0.00291621
C  1.39259167 -0.01032026 -0.00552823
C  0.69584087 1.26315705 0.04603564
C  -0.71388331 1.20496150 -0.04842331
C  -1.40844407 -0.04430407 -0.02253434
H  -1.25536095 -2.18277466 0.03831607
H  1.33753017 -2.05218344 -0.01497482
H  2.49449219 0.00919346 0.02323402
H  1.24464880 2.20780389 -0.01383347
H  -1.14367619 2.16697097 -0.20475371
H  -2.54773323 -0.14045348 -0.07501126
12
MD Step 1243 Units = [Angstroms]
C  -0.68486018 -1.21908143 0.04771558
C  0.70666387 -1.19523763 0.00350225
C  1.39019534 -0.01087876 -0.00627030
C  0.69743932 1.26437502 0.04777485
C  -0.71272435 1.20582695 -0.05072236
C  -1.40757769 -0.04510756 -0.02078574
H  -1.25402397 -2.17305608 0.02975080
H  1.35017855 -2.06342375 -0.01192453
H  2.47806003 0.00937349 0.02061438
H  1.24806568 2.21219175 -0.01506214
H  -1.14296982 2.16688587 -0.20489391
H  -2.54985850 -0.15073911 -0.07127455
12
MD Step 1244 Units = [Angstroms]
C  -0.68571619 -1.22084210 0.04707331
C  0.70622620 -1.19372188 0.00412482
C  1.38766641 -0.01072127 -0.00687310
C  0.69890365 1.26496332 0.04930593
C  -0.71126918 1.20634102 -0.05295942
C  -1.40681236 -0.04558619 -0.01904571
H  -1.25177511 -2.16298204 0.02156088
H  1.36264476 -2.07721010 -0.00891805
H  2.46261425 0.00953083 0.01771494
H  1.25127568 2.21614954 -0.01574132
H  -1.14536676 2.16885947 -0.20497638
H  -2.54829894 -0.15950612 -0.06733409
12
MD Step 1245 Units = [Angstroms]
C  -0.68663476 -1.22267031 0.04633634
C  0.70585466 -1.19234354 0.00478183
C  1.38494695 -0.00984791 -0.00733488
C  0.70021940 1.26495610 0.05061707
C  -0.70953461 1.20651399 -0.05512378
C  -1.40614307 -0.04573406 -0.01731986
H  -1.24904627 -2.15339326 0.01378079
H  1.37393173 -2.09213405 -0.00594793
H  2.44936398 0.00967680 0.01456363
H  1.25412353 2.21938839 -0.01584117
H  -1.15073150 2.17266020 -0.20498337
H  -2.54309238 -0.16661588 -0.06320884
12
MD Step 1246 Units = [Angstroms]
C  -0.68756156 -1.22449774 0.04550492
C  0.70559956 -1.19122018 0.00547177
C  1.38199249 -0.00827357 -0.00765459
C  0.70137306 1.26439545 0.05169813
C  -0.70755311 1.20637932 -0.05720843
C  -1.40554575 -0.04554769 -0.01561297
H  -1.24630000 -2.14515321 0.00642941
H  1.38313931 -2.10687497 -0.00301425
H  2.43935611 0.00982440 0.01118457
H  1.25646857 2.22165089 -0.01533757
H  -1.15876968 2.17779266 -0.20485642
H  -2.53453260 -0.17196306 -0.05892773
12
MD Step 1247 Units = [Angstroms]
C  -0.68844178 -1.22625848 0.04458056
C  0.70549873 -1.19044861 0.00619359
C  1.37878253 -0.00602725 -0.00783170
C  0.70235191 1.26332919 0.05254099
C  -0.70537070 1.20598800 -0.05920912
C  -1.40497782 -0.04502605 -0.01392908
H  -1.24398044 -2.13906477 -0.00048751
H  1.38953022 -2.12029105 -0.00012396
H  2.43333668 0.00998468 0.00759606
H  1.25819712 2.22273238 -0.01421402
H  -1.16905758 2.18356768 -0.20450917
H  -2.52316126 -0.17547986 -0.05452791
12
MD Step 1248 Units = [Angstroms]
C  -0.68922511 -1.22789624 0.04356566
C  0.70557566 -1.19010104 0.00694654
C  1.37532888 -0.00315152 -0.00786625
C  0.70314390 1.26180896 0.05313972
C  -0.70304406 1.20540139 -0.06112333
C  -1.40437955 -0.04417075 -0.01227160
H  -1.24245829 -2.13577856 -0.00697206
H  1.39256236 -2.13146777 0.00271061
H  2.43164199 0.01016492 0.00381093
H  1.25923206 2.22249746 -0.01246298
H  -1.18108223 2.18919223 -0.20384266
H  -2.50975055 -0.17713904 -0.05005253
12
MD Step 1249 Units = [Angstroms]
C  -0.68987080 -1.22937110 0.04246292
C  0.70583943 -1.19022372 0.00772999
C  1.37167915 0.00029787 -0.00775895
C  0.70373776 1.25988875 0.05349077
C  -0.70063713 1.20468389 -0.06294920
C  -1.40367659 -0.04298635 -0.01064355
H  -1.24197943 -2.13570831 -0.01302687
H  1.39189884 -2.13973858 0.00547368
H  2.43414890 0.01036968 -0.00016065
H  1.25953934 2.22089130 -0.01008675
H  -1.19428496 2.19386082 -0.20275998
H  -2.49527020 -0.17695481 -0.04554806
12
MD Step 1250 Units = [Angstroms]
C  -0.69035132 -1.23066425 0.04127479
C  0.70628533 -1.19083669 0.00854320
C  1.36791451 0.00425219 -0.00751161
C  0.70412301 1.25762386 0.05359305
C  -0.69821778 1.20389678 -0.06468470
C  -1.40278447 -0.04148078 -0.00904772
H  -1.24262872 -2.13897135 -0.01864748
H  1.38740703 -2.14469166 0.00814779
H  2.44029916 0.01060420 -0.00430646
H  1.25913109 2.21794552 -0.00709762
H  -1.20810271 2.19683450 -0.20117797
H  -2.48083142 -0.17498006 -0.04106097
12
MD Step 1251 Units = [Angstroms]
C  -0.69065421 -1.23177958 0.04000298
C  0.70689555 -1.19193387 0.00938520
C  1.36414203 0.00863010 -0.00712743
C  0.70429005 1.25507018 0.05344790
C  -0.69585476 1.20309352 -0.06632716
C  -1.40161544 -0.03966621 -0.00748701
H  -1.24431829 -2.14536908 -0.02381668
H  1.37915471 -2.14617295 0.01071542
H  2.44919031 0.01087878 -0.00860736
H  1.25806550 2.21377850 -0.00351738
H  -1.22200331 2.19750058 -0.19903521
H  -2.46760201 -0.17129886 -0.03663400
12
MD Step 1252 Units = [Angstroms]
C  -0.69078166 -1.23274163 0.03864835
C  0.70763962 -1.19348317 0.01025462
C  1.36048390 0.01333836 -0.00661126
C  0.70423024 1.25228391 0.05305900
C  -0.69361494 1.20231687 -0.06787294
C  -1.40008772 -0.03756003 -0.00596468
H  -1.24680358 -2.15441259 -0.02850237
H  1.36740727 -2.14429100 0.01316040
H  2.45970744 0.01121248 -0.01303370
H  1.25644340 2.20858998 0.00062369
H  -1.23551353 2.19541249 -0.19629638
H  -2.45669289 -0.16601417 -0.03230240
12
MD Step 1253 Units = [Angstroms]
C  -0.69074813 -1.23359044 0.03721106
C  0.70847461 -1.19542644 0.01114963
C  1.35706606 0.01827320 -0.00596961
C  0.70393613 1.24932138 0.05243220
C  -0.69156097 1.20159719 -0.06931740
C  -1.39813623 -0.03518609 -0.00448457
H  -1.24972241 -2.16538701 -0.03265954
H  1.35262624 -2.13942437 0.01546922
H  2.47066347 0.01163458 -0.01754397
H  1.25440145 2.20264978 0.00528838
H  -1.24824041 2.19031303 -0.19295381
H  -2.44902707 -0.15923256 -0.02809078
12
MD Step 1254 Units = [Angstroms]
C  -0.69057680 -1.23437460 0.03569097
C  0.70934529 -1.19767973 0.01206778
C  1.35400831 0.02332237 -0.00521054
C  0.70340177 1.24623916 0.05157519
C  -0.68974910 1.20095185 -0.07065494
C  -1.39572303 -0.03257569 -0.00305119
H  -1.25264726 -2.17743895 -0.03623540
H  1.33546570 -2.13222739 0.01763228
H  2.48092208 0.01218365 -0.02208567
H  1.25210224 2.19628072 0.01043442
H  -1.25988706 2.18214548 -0.18902701
H  -2.44521340 -0.15104984 -0.02401145
12
MD Step 1255 Units = [Angstroms]
C  -0.69029581 -1.23514410 0.03408823
C  0.71018506 -1.20013448 0.01300604
C  1.35141691 0.02836794 -0.00434332
C  0.70262331 1.24309423 0.05049724
C  -0.68822717 1.20038530 -0.07187912
C  -1.39284504 -0.02976801 -0.00166967
H  -1.25513906 -2.18966884 -0.03917627
H  1.31675965 -2.12362497 0.01964492
H  2.48948977 0.01290466 -0.02659785
H  1.24972133 2.18983609 0.01601633
H  -1.27026439 2.17105610 -0.18456094
H  -2.44545421 -0.14154241 -0.02006477
12
MD Step 1256 Units = [Angstroms]
C  -0.68993473 -1.23594407 0.03240378
C  0.71091823 -1.20266103 0.01396074
C  1.34937973 0.03328964 -0.00337811
C  0.70159973 1.23994411 0.04920882
C  -0.68703270 1.19988961 -0.07298286
C  -1.38953695 -0.02680974 -0.00034551
H  -1.25679392 -2.20121380 -0.04143420
H  1.29749066 -2.11478150 0.02150821
H  2.49557593 0.01384486 -0.03101454
H  1.24743221 2.18367286 0.02198724
H  -1.27929919 2.15739013 -0.17962315
H  -2.44951240 -0.13076753 -0.01624158
12
MD Step 1257 Units = [Angstroms]
C  -0.68952184 -1.23681017 0.03063978
C  0.71146475 -1.20511561 0.01492760
C  1.34796330 0.03796854 -0.00232550
C  0.70033383 1.23684703 0.04772130
C  -0.68619123 1.19944559 -0.07395862
C  -1.38586844 -0.02375372 0.00091577
H  -1.25727816 -2.21131279 -0.04297255
H  1.27872997 -2.10702653 0.02322899
H  2.49862700 0.01504927 -0.03526844
H  1.24539008 2.17812272 0.02830000
H  -1.28703833 2.14168086 -0.17430025
H  -2.45674778 -0.11877267 -0.01252696
12
MD Step 1258 Units = [Angstroms]
C  -0.68908197 -1.23776563 0.02879989
C  0.71174758 -1.20735204 0.01590193
C  1.34721101 0.04229091 -0.00119613
C  0.69883319 1.23386173 0.04604668
C  -0.68571513 1.19902446 -0.07479874
C  -1.38193667 -0.02065717 0.00210897
H  -1.25635136 -2.21935256 -0.04376970
H  1.26154405 -2.10172444 0.02481903
H  2.49834337 0.01655633 -0.03929454
H  1.24371640 2.17346390 0.03490763
H  -1.29364710 2.12462968 -0.16869318
H  -2.46621275 -0.10561043 -0.00890436
12
MD Step 1259 Units = [Angstroms]
C  -0.68863504 -1.23881974 0.02688940
C  0.71170241 -1.20923759 0.01687876
C  1.34714194 0.04615196 -0.00000036
C  0.69711109 1.23104698 0.04419736
C  -0.68560310 1.19859043 -0.07549572
C  -1.37785583 -0.01757953 0.00322953
H  -1.25387944 -2.22489698 -0.04382114
H  1.24687424 -2.10009142 0.02629297
H  2.49468635 0.01839403 -0.04303358
H  1.24248586 2.16989712 0.04176287
H  -1.29939889 2.10707353 -0.16291150
H  -2.47678150 -0.09135386 -0.00535895
12
MD Step 1260 Units = [Angstroms]
C  -0.68819498 -1.23996728 0.02491525
C  0.71128780 -1.21067081 0.01785321
C  1.34774978 0.04945928 0.00125216
C  0.69518720 1.22846053 0.04218608
C  -0.68584095 1.19810441 -0.07604277
C  -1.37374651 -0.01458060 0.00427370
H  -1.24984053 -2.22770391 -0.04314012
H  1.23541197 -2.10298961 0.02766542
H  2.48787973 0.02057671 -0.04643528
H  1.24171792 2.16752914 0.04881684
H  -1.30465261 2.08993651 -0.15706637
H  -2.48728351 -0.07610784 -0.00187982
12
MD Step 1261 Units = [Angstroms]
C  -0.68776900 -1.24118866 0.02288600
C  0.71049291 -1.21159645 0.01882073
C  1.34900215 0.05213583 0.00255271
C  0.69308780 1.22615754 0.04002588
C  -0.68640378 1.19752881 -0.07643421
C  -1.36972634 -0.01171894 0.00523856
H  -1.24432601 -2.22773317 -0.04175715
H  1.22750332 -2.11075265 0.02894802
H  2.47840666 0.02310286 -0.04946141
H  1.24137406 2.16636629 0.05601731
H  -1.30981535 2.07416389 -0.15126282
H  -2.49661836 -0.06001443 0.00153930
12
MD Step 1262 Units = [Angstroms]
C  -0.68735730 -1.24245037 0.02081163
C  0.70934040 -1.21201290 0.01977728
C  1.35084041 0.05412221 0.00389381
C  0.69084565 1.22418852 0.03773008
C  -0.68725957 1.19683347 -0.07666610
C  -1.36590310 -0.00905062 0.00612198
H  -1.23753795 -2.22514782 -0.03971860
H  1.22311388 -2.12310124 0.03014737
H  2.46699869 0.02595416 -0.05208843
H  1.24136141 2.16631875 0.06330680
H  -1.31529062 2.06064154 -0.14559186
H  -2.50384107 -0.04325253 0.00490029
12
MD Step 1263 Units = [Angstroms]
C  -0.68695318 -1.24370594 0.01870337
C  0.70788348 -1.21196936 0.02071943
C  1.35318077 0.05537821 0.00526937
C  0.68849922 1.22259692 0.03531238
C  -0.68837395 1.19600179 -0.07673661
C  -1.36237002 -0.00662810 0.00692253
H  -1.22978271 -2.22030828 -0.03708440
H  1.22186512 -2.13918066 0.03126473
H  2.45461040 0.02909617 -0.05430927
H  1.24154212 2.16721482 0.07062124
H  -1.32141708 2.05010923 -0.14012390
H  -2.50821744 -0.02603327 0.00820164
12
MD Step 1264 Units = [Angstroms]
C  -0.68654382 -1.24489745 0.01657338
C  0.70619831 -1.21155390 0.02164419
C  1.35591767 0.05588343 0.00667468
C  0.68609163 1.22141677 0.03278682
C  -0.68971512 1.19503607 -0.07664628
C  -1.35920296 -0.00449935 0.00763924
H  -1.22145948 -2.21375692 -0.03392477
H  1.22312734 -2.15770637 0.03229724
H  2.44237037 0.03248111 -0.05613349
H  1.24174727 2.16882268 0.07788942
H  -1.32840825 2.04308185 -0.13490459
H  -2.50925553 -0.00859307 0.01143981
12
MD Step 1265 Units = [Angstroms]
C  -0.68611171 -1.24595801 0.01443439
C  0.70437445 -1.21087673 0.02254890
C  1.35892993 0.05563691 0.00810618
C  0.68366911 1.22067049 0.03016780
C  -0.69125786 1.19396079 -0.07639801
C  -1.35645875 -0.00270693 0.00827154
H  -1.21304134 -2.20618867 -0.03031604
H  1.22613719 -2.17716692 0.03324011
H  2.43150018 0.03605246 -0.05758489
H  1.24179325 2.17087645 0.08503353
H  -1.33630671 2.03979447 -0.12995410
H  -2.50672070 0.00881452 0.01461065
12
MD Step 1266 Units = [Angstroms]
C  -0.68563691 -1.24681561 0.01229922
C  0.70250582 -1.21005359 0.02343100
C  1.36209033 0.05465596 0.00956095
C  0.68127929 1.22036726 0.02746993
C  -0.69298554 1.19282298 -0.07599677
C  -1.35417419 -0.00128732 0.00881899
H  -1.20504666 -2.19840335 -0.02633561
H  1.23010746 -2.19602453 0.03408889
H  2.42319832 0.03975086 -0.05869573
H  1.24149881 2.17310322 0.09197074
H  -1.34496454 2.04018380 -0.12527003
H  -2.50064082 0.02592744 0.01771087
12
MD Step 1267 Units = [Angstroms]
C  -0.68510015 -1.24739864 0.01018031
C  0.70068383 -1.20919272 0.02428786
C  1.36527773 0.05297427 0.01103597
C  0.67896935 1.22050199 0.02470795
C  -0.69488968 1.19168916 -0.07544906
C  -1.35236538 -0.00027035 0.00928119
H  -1.19799971 -2.19123687 -0.02205668
H  1.23430980 -2.21287222 0.03484113
H  2.41849732 0.04351970 -0.05949778
H  1.24070096 2.17524815 0.09861569
H  -1.35405568 2.04390980 -0.12083278
H  -2.49130503 0.04248412 0.02073944
12
MD Step 1268 Units = [Angstroms]
C  -0.68448661 -1.24764277 0.00808927
C  0.69899281 -1.20838663 0.02511677
C  1.36838996 0.05063984 0.01252714
C  0.67678413 1.22105500 0.02189649
C  -0.69696737 1.19063973 -0.07476233
C  -1.35102751 0.00032117 0.00965762
H  -1.19238203 -2.18547418 -0.01754364
H  1.23812591 -2.22653387 0.03549741
H  2.41811689 0.04730832 -0.06001135
H  1.23926862 2.17709588 0.10488345
H  -1.36311675 2.05041132 -0.11661232
H  -2.47925620 0.05823296 0.02369890
12
MD Step 1269 Units = [Angstroms]
C  -0.68378975 -1.24749855 0.00603660
C  0.69750741 -1.20770794 0.02591483
C  1.37135457 0.04771285 0.01402845
C  0.67476427 1.22199236 0.01904992
C  -0.69921731 1.18976169 -0.07394442
C  -1.35013528 0.00047151 0.00994751
H  -1.18858016 -2.18175347 -0.01284927
H  1.24107298 -2.23611474 0.03606166
H  2.42234672 0.05107142 -0.06023525
H  1.23711323 2.17848702 0.11069283
H  -1.37160554 2.05898213 -0.11257452
H  -2.46527393 0.07294195 0.02659655
12
MD Step 1270 Units = [Angstroms]
C  -0.68301472 -1.24693834 0.00403162
C  0.69629105 -1.20720806 0.02667897
C  1.37413473 0.04426390 0.01553149
C  0.67294457 1.22326686 0.01618208
C  -0.70163566 1.18914119 -0.07300309
C  -1.34964449 0.00017204 0.01014975
H  -1.18683851 -2.18047881 -0.00801480
H  1.24281284 -2.24101909 0.03654114
H  2.43099199 0.05476457 -0.06014080
H  1.23419595 2.17932934 0.11596949
H  -1.37896401 2.06885160 -0.10868620
H  -2.45034207 0.08640778 0.02944531
12
MD Step 1271 Units = [Angstroms]
C  -0.68218029 -1.24596085 0.00208261
C  0.69539476 -1.20691722 0.02740603
C  1.37672870 0.04037230 0.01702546
C  0.67135251 1.22481943 0.01330613
C  -0.70421268 1.18885679 -0.07194571
C  -1.34949548 -0.00057876 0.01026282
H  -1.18722775 -2.18176068 -0.00307289
H  1.24315321 -2.24095161 0.03694628
H  2.44339852 0.05833777 -0.05967210
H  1.23053137 2.17960357 0.12064881
H  -1.38467470 2.07925754 -0.10491841
H  -2.43559367 0.09846278 0.03226399
12
MD Step 1272 Units = [Angstroms]
C  -0.68131884 -1.24459230 0.00019723
C  0.69485613 -1.20684489 0.02809274
C  1.37916336 0.03612452 0.01849770
C  0.67000715 1.22658114 0.01043439
C  -0.70693045 1.18897403 -0.07077910
C  -1.34961896 -0.00177499 0.01028486
H  -1.18963662 -2.18539993 0.00194710
H  1.24204728 -2.23591450 0.03729042
H  2.45855031 0.06172983 -0.05875275
H  1.22618769 2.17936374 0.12467806
H  -1.38830419 2.08950440 -0.10124820
H  -2.42222787 0.10897769 0.03507657
12
MD Step 1273 Units = [Angstroms]
C  -0.68047410 -1.24288357 -0.00161711
C  0.69469801 -1.20697991 0.02873581
C  1.38148418 0.03161240 0.01993470
C  0.66891850 1.22847546 0.00757828
C  -0.70976201 1.18954151 -0.06950941
C  -1.34994417 -0.00340266 0.01021382
H  -1.19378919 -2.19091924 0.00701341
H  1.23959441 -2.22620639 0.03758961
H  2.47521135 0.06486614 -0.05729657
H  1.22128318 2.17873198 0.12801775
H  -1.38953240 2.09900528 -0.09765904
H  -2.41139916 0.11785821 0.03791009
12
MD Step 1274 Units = [Angstroms]
C  -0.67969722 -1.24090435 -0.00335290
C  0.69492722 -1.20729027 0.02933196
C  1.38374427 0.02693119 0.02132298
C  0.66808741 1.23042099 0.00474824
C  -0.71267149 1.19058817 -0.06814218
C  -1.35040868 -0.00543851 0.01004771
H  -1.19928325 -2.19763367 0.01208741
H  1.23604239 -2.21242360 0.03786241
H  2.49207631 0.06766035 -0.05521944
H  1.21597912 2.17788781 0.13064193
H  -1.38816928 2.10730976 -0.09414053
H  -2.40408911 0.12503471 0.04079095
12
MD Step 1275 Units = [Angstroms]
C  -0.67904181 -1.23873553 -0.00500243
C  0.69553333 -1.20772294 0.02987794
C  1.38599495 0.02217737 0.02265007
C  0.66750602 1.23233443 0.00195387
C  -0.71561504 1.19212169 -0.06668234
C  -1.35096816 -0.00784857 0.00978504
H  -1.20564047 -2.20474261 0.01712153
H  1.23178869 -2.19545878 0.03812975
H  2.50790152 0.07001945 -0.05244930
H  1.21046910 2.17705184 0.13253725
H  -1.38416229 2.11412123 -0.09068771
H  -2.40098165 0.13044710 0.04373981
12
MD Step 1276 Units = [Angstroms]
C  -0.67855893 -1.23646162 -0.00655779
C  0.69648817 -1.20820455 0.03037059
C  1.38827887 0.01744642 0.02390511
C  0.66715883 1.23413381 -0.00079601
C  -0.71854204 1.19412771 -0.06513432
C  -1.35160387 -0.01058698 0.00942525
H  -1.21235813 -2.21142365 0.02205979
H  1.22737542 -2.17648628 0.03841461
H  2.52160208 0.07185041 -0.04893300
H  1.20496517 2.17646438 0.13370078
H  -1.37759711 2.11930655 -0.08730016
H  -2.40236933 0.13402952 0.04676613
12
MD Step 1277 Units = [Angstroms]
C  -0.67829259 -1.23416422 -0.00801114
C  0.69774669 -1.20864415 0.03080687
C  1.39062583 0.01283065 0.02507915
C  0.66702426 1.23574182 -0.00349304
C  -0.72139650 1.19656978 -0.06350211
C  -1.35232586 -0.01359561 0.00896915
H  -1.21895469 -2.21691379 0.02684036
H  1.22346962 -2.15691908 0.03874156
H  2.53231382 0.07306717 -0.04463987
H  1.19968176 2.17636024 0.13413665
H  -1.36869352 2.12290008 -0.08398098
H  -2.40811484 0.13570037 0.04986339
12
MD Step 1278 Units = [Angstroms]
C  -0.67827624 -1.23191720 -0.00935494
C  0.69924994 -1.20893962 0.03118389
C  1.39305055 0.00841705 0.02616541
C  0.66707653 1.23708911 -0.00612915
C  -0.72411853 1.19939020 -0.06178944
C  -1.35317109 -0.01680482 0.00841912
H  -1.22500503 -2.22057077 0.03139923
H  1.22081931 -2.13832034 0.03913603
H  2.53942755 0.07359686 -0.03956254
H  1.19481850 2.17694162 0.13385193
H  -1.35779645 2.12510179 -0.08073586
H  -2.41767789 0.13536218 0.05300659
12
MD Step 1279 Units = [Angstroms]
C  -0.67853028 -1.22978338 -0.01058228
C  0.70093094 -1.20898854 0.03149902
C  1.39555186 0.00428546 0.02715917
C  0.66728766 1.23811724 -0.00869622
C  -0.72664580 1.20251171 -0.05999993
C  -1.35419711 -0.02013561 0.00777919
H  -1.23016494 -2.22191418 0.03567423
H  1.22017837 -2.12225981 0.03962312
H  2.54260486 0.07338508 -0.03371584
H  1.19054410 2.17835229 0.13285224
H  -1.34536114 2.12626755 -0.07757203
H  -2.43019916 0.13291155 0.05615255
12
MD Step 1280 Units = [Angstroms]
C  -0.67906059 -1.22781255 -0.01168716
C  0.70272303 -1.20870304 0.03174999
C  1.39811232 0.00050678 0.02805777
C  0.66762935 1.23878111 -0.01118590
C  -0.72891544 1.20584050 -0.05813721
C  -1.35547304 -0.02350269 0.00705484
H  -1.23418654 -2.22064966 0.03960880
H  1.22220213 -2.11012239 0.04022598
H  2.54178393 0.07240015 -0.02713457
H  1.18698305 2.18065630 0.13113800
H  -1.33193052 2.12688806 -0.07449722
H  -2.44461836 0.12825592 0.05924307
12
MD Step 1281 Units = [Angstroms]
C  -0.67985780 -1.22604012 -0.01266474
C  0.70456964 -1.20802596 0.03193502
C  1.40069825 -0.00285838 0.02886039
C  0.66807457 1.23905051 -0.01358951
C  -0.73086642 1.20927061 -0.05620518
C  -1.35707013 -0.02681807 0.00625268
H  -1.23692692 -2.21668097 0.04315534
H  1.22733048 -2.10290267 0.04096380
H  2.53717992 0.07063641 -0.01987038
H  1.18420708 2.18382466 0.12870184
H  -1.31810280 2.12755243 -0.07151849
H  -2.45979927 0.12133199 0.06220984
12
MD Step 1282 Units = [Angstroms]
C  -0.68089737 -1.22448626 -0.01351151
C  0.70643269 -1.20694378 0.03205294
C  1.40325989 -0.00576082 0.02956784
C  0.66859865 1.23891073 -0.01589806
C  -0.73244269 1.21268989 -0.05420813
C  -1.35905335 -0.02999463 0.00538007
H  -1.23835222 -2.21011370 0.04627802
H  1.23568926 -2.10104012 0.04184967
H  2.52928086 0.06811647 -0.01198793
H  1.18223260 2.18773221 0.12552791
H  -1.30448896 2.12889378 -0.06864115
H  -2.47464011 0.11212113 0.06498017
12
MD Step 1283 Units = [Angstroms]
C  -0.68214033 -1.22315524 -0.01422552
C  0.70829703 -1.20549199 0.03210340
C  1.40573210 -0.00816331 0.03018228
C  0.66917980 1.23836197 -0.01810250
C  -0.73359689 1.21598734 -0.05215088
C  -1.36147514 -0.03294936 0.00444473
H  -1.23853778 -2.20125218 0.04895502
H  1.24704292 -2.10434930 0.04288871
H  2.51883553 0.06489190 -0.00356011
H  1.18102415 2.19216542 0.12159319
H  -1.29166209 2.13151782 -0.06586764
H  -2.48815817 0.10065923 0.06748241
12
MD Step 1284 Units = [Angstroms]
C  -0.68353461 -1.22203516 -0.01480646
C  0.71016928 -1.20375073 0.03208683
C  1.40803619 -0.01004061 0.03070680
C  0.66979928 1.23741796 -0.02019406
C  -0.73429432 1.21906128 -0.05003897
C  -1.36437102 -0.03560614 0.00345443
H  -1.23766442 -2.19058917 0.05118005
H  1.26081721 -2.11206981 0.04407713
H  2.50682615 0.06104192 0.00533764
H  1.18050311 2.19683992 0.11687046
H  -1.28010470 2.13592151 -0.06319664
H  -2.49954748 0.08704079 0.06965056
12
MD Step 1285 Units = [Angstroms]
C  -0.68501714 -1.22109837 -0.01525577
C  0.71207169 -1.20183238 0.03200451
C  1.41008367 -0.01137896 0.03114496
C  0.67044112 1.23610362 -0.02216464
C  -0.73451643 1.22182703 -0.04787865
C  -1.36775706 -0.03789796 0.00241676
H  -1.23600902 -2.17878534 0.05296287
H  1.27618440 -2.12301661 0.04540234
H  2.49441630 0.05666907 0.01463373
H  1.18056016 2.20142530 0.11133262
H  -1.27016233 2.14241486 -0.06062248
H  -2.50821400 0.07141809 0.07142792
12
MD Step 1286 Units = [Angstroms]
C  -0.68651668 -1.22030298 -0.01557657
C  0.71403343 -1.19986525 0.03185839
C  1.41178265 -0.01217493 0.03150033
C  0.67109179 1.23445246 -0.02400729
C  -0.73426318 1.22422282 -0.04567691
C  -1.37162834 -0.03976872 0.00133888
H  -1.23392711 -2.16663454 0.05432836
H  1.29218232 -2.13577916 0.04684435
H  2.48286545 0.05189174 0.02426673
H  1.18106947 2.20557357 0.10495724
H  -1.26201315 2.15106259 -0.05813503
H  -2.51379511 0.05399683 0.07276982
12
MD Step 1287 Units = [Angstroms]
C  -0.68795744 -1.21959609 -0.01577347
C  0.71608204 -1.19797803 0.03165096
C  1.41304712 -0.01243402 0.03177609
C  0.67173977 1.23250371 -0.02571661
C  -0.73355354 1.22621268 -0.04344142
C  -1.37595826 -0.04117444 0.00022739
H  -1.23182490 -2.15501060 0.05531370
H  1.30783301 -2.14891324 0.04837787
H  2.47340743 0.04683386 0.03418993
H  1.18190289 2.20894802 0.09773088
H  -1.25566013 2.16166016 -0.05572012
H  -2.51616903 0.03502940 0.07364576
12
MD Step 1288 Units = [Angstroms]
C  -0.68926368 -1.21891874 -0.01585223
C  0.71823705 -1.19628783 0.03138510
C  1.41380838 -0.01216908 0.03197497
C  0.67237527 1.23029957 -0.02728903
C  -0.73242427 1.22778577 -0.04118038
C  -1.38069831 -0.04208401 -0.00091177
H  -1.23011975 -2.14479457 0.05596337
H  1.32223663 -2.16108890 0.04997476
H  2.46710247 0.04161360 0.04437213
H  1.18294272 2.21124969 0.08965258
H  -1.25094715 2.17375084 -0.05336042
H  -2.51545724 0.01480616 0.07404085
12
MD Step 1289 Units = [Angstroms]
C  -0.69036472 -1.21821260 -0.01581921
C  0.72050638 -1.19489273 0.03106392
C  1.41402650 -0.01139902 0.03209956
C  0.67298995 1.22788286 -0.02872298
C  -0.73092708 1.22895247 -0.03890237
C  -1.38577844 -0.04247932 -0.00207347
H  -1.22919088 -2.13678596 0.05632217
H  1.33463218 -2.17118405 0.05160621
H  2.46468777 0.03633415 0.05479303
H  1.18409225 2.21223943 0.08073595
H  -1.24759426 2.18667955 -0.05103666
H  -2.51202012 -0.00635517 0.07395679
12
MD Step 1290 Units = [Angstroms]
C  -0.69120022 -1.21742735 -0.01568079
C  0.72288512 -1.19386794 0.03069069
C  1.41369920 -0.01014819 0.03215302
C  0.67357682 1.22529505 -0.03001894
C  -0.72912492 1.22973844 -0.03661615
C  -1.39110833 -0.04235480 -0.00325338
H  -1.22932648 -2.13160907 0.05642736
H  1.34442887 -2.17833193 0.05324464
H  2.46646155 0.03107938 0.06543332
H  1.18528354 2.21175472 0.07101013
H  -1.24524372 2.19967040 -0.04872905
H  -2.50644270 -0.02812195 0.07341195
12
MD Step 1291 Units = [Angstroms]
C  -0.69172472 -1.21652743 -0.01544273
C  0.72535584 -1.19326432 0.03026879
C  1.41286521 -0.00844635 0.03214009
C  0.67413007 1.22257487 -0.03117944
C  -0.72708811 1.23017786 -0.03433046
C  -1.39657994 -0.04171643 -0.00444792
H  -1.23067720 -2.12963150 0.05630152
H  1.35121774 -2.18193850 0.05486510
H  2.47223405 0.02591578 0.07626180
H  1.18648231 2.20972069 0.06051929
H  -1.24350724 2.21191120 -0.04641854
H  -2.49950522 -0.05016074 0.07244023
12
MD Step 1292 Units = [Angstroms]
C  -0.69191060 -1.21549664 -0.01510984
C  0.72788955 -1.19310808 0.02980168
C  1.41160096 -0.00632925 0.03206789
C  0.67464489 1.21975743 -0.03220881
C  -0.72489082 1.23030729 -0.03205383
C  -1.40207189 -0.04058023 -0.00565412
H  -1.23322687 -2.13091304 0.05594812
H  1.35477322 -2.18168508 0.05644654
H  2.48136055 0.02089950 0.08722376
H  1.18769014 2.20615545 0.04932112
H  -1.24200778 2.22263099 -0.04408791
H  -2.49213219 -0.07215160 0.07108816
12
MD Step 1293 Units = [Angstroms]
C  -0.69174894 -1.21433931 -0.01468591
C  0.73044674 -1.19340061 0.02929288
C  1.41001160 -0.00383940 0.03194640
C  0.67511727 1.21687383 -0.03311306
C  -0.72260799 1.23016062 -0.02979444
C  -1.40745614 -0.03897065 -0.00686922
H  -1.23678857 -2.13519819 0.05535103
H  1.35505196 -2.17752722 0.05797303
H  2.49284628 0.01608534 0.09823440
H  1.18894385 2.20116946 0.03748434
H  -1.24041205 2.23116194 -0.04172260
H  -2.48531574 -0.09380033 0.06940991
12
MD Step 1294 Units = [Angstroms]
C  -0.69124812 -1.21307802 -0.01417394
C  0.73297807 -1.19411824 0.02874589
C  1.40821869 -0.00102660 0.03178830
C  0.67554381 1.21395129 -0.03389952
C  -0.72031292 1.22976556 -0.02756002
C  -1.41260668 -0.03691915 -0.00809024
H  -1.24102729 -2.14195391 0.05447820
H  1.35219269 -2.16969531 0.05943511
H  2.50549261 0.01153411 0.10917918
H  1.19031207 2.19495914 0.02508559
H  -1.23845334 2.23698342 -0.03931110
H  -2.48001467 -0.11484511 0.06746019
12
MD Step 1295 Units = [Angstroms]
C  -0.69043064 -1.21174845 -0.01357666
C  0.73542473 -1.19521185 0.02816408
C  1.40634767 0.00205211 0.03160842
C  0.67592166 1.21101361 -0.03457664
C  -0.71807521 1.22914138 -0.02535776
C  -1.41740954 -0.03446341 -0.00931331
H  -1.24550345 -2.15044290 0.05328829
H  1.34651776 -2.15869765 0.06083133
H  2.51804811 0.00731628 0.11992040
H  1.19188905 2.18779442 0.01220595
H  -1.23594605 2.23975002 -0.03684526
H  -2.47703970 -0.13505497 0.06528613
12
MD Step 1296 Units = [Angstroms]
C  -0.68932909 -1.21039295 -0.01289707
C  0.73771866 -1.19660672 0.02755057
C  1.40451739 0.00533309 0.03142277
C  0.67624854 1.20808210 -0.03515362
C  -0.71595896 1.22829770 -0.02319426
C  -1.42177239 -0.03164710 -0.01053320
H  -1.24972666 -2.15981466 0.05173848
H  1.33853326 -2.14532122 0.06217007
H  2.52933675 0.00351163 0.13030740
H  1.19378557 2.18000033 -0.00107251
H  -1.23279400 2.23930704 -0.03432016
H  -2.47694479 -0.15421915 0.06291954
12
MD Step 1297 Units = [Angstroms]
C  -0.68798196 -1.20905406 -0.01213896
C  0.73978323 -1.19820360 0.02690803
C  1.40283265 0.00874740 0.03124764
C  0.67652300 1.20517673 -0.03564015
C  -0.71402110 1.22723410 -0.02107552
C  -1.42563171 -0.02852033 -0.01174294
H  -1.25320892 -2.16919648 0.04979151
H  1.32892144 -2.13062029 0.06347109
H  2.53835042 0.00020591 0.14018784
H  1.19611723 2.17193332 -0.01466971
H  -1.22899422 2.23569707 -0.03173404
H  -2.47994870 -0.17213061 0.06037172
12
MD Step 1298 Units = [Angstroms]
C  -0.68643002 -1.20776931 -0.01130731
C  0.74153512 -1.19988213 0.02623864
C  1.40137967 0.01222244 0.03109872
C  0.67674488 1.20231758 -0.03604623
C  -0.71230988 1.22594029 -0.01900698
C  -1.42895594 -0.02514004 -0.01293381
H  -1.25550935 -2.17777114 0.04742090
H  1.31851574 -2.11587801 0.06476624
H  2.54430635 -0.00251411 0.14941800
H  1.19899066 2.16395345 -0.02850970
H  -1.22463719 2.22915920 -0.02908792
H  -2.48590693 -0.18856960 0.05763242
12
MD Step 1299 Units = [Angstroms]
C  -0.68471345 -1.20656758 -0.01040842
C  0.74288839 -1.20150792 0.02554407
C  1.40022378 0.01568395 0.03099033
C  0.67691585 1.19952628 -0.03638198
C  -0.71086351 1.22439691 -0.01699354
C  -1.43174399 -0.02156993 -0.01409570
H  -1.25626709 -2.18483569 0.04461408
H  1.30824794 -2.10252432 0.06609839
H  2.54667749 -0.00456603 0.15787150
H  1.20248866 2.15639494 -0.04252153
H  -1.21990339 2.22012115 -0.02638520
H  -2.49434074 -0.20329406 0.05467316
12
MD Step 1300 Units = [Angstroms]
C  -0.68286966 -1.20546698 -0.00944998
C  0.74376136 -1.20294438 0.02482580
C  1.39940836 0.01905810 0.03093486
C  0.67704000 1.19682738 -0.03665762
C  -0.70970921 1.22257702 -0.01503961
C  -1.43401980 -0.01787943 -0.01521772
H  -1.25522255 -2.18984108 0.04137334
H  1.29906089 -2.09199921 0.06751710
H  2.54520589 -0.00587699 0.16544623
H  1.20665593 2.14953807 -0.05663858
H  -1.21505519 2.20918184 -0.02363110
H  -2.50451415 -0.21604092 0.05145397
12
MD Step 1301 Units = [Angstroms]
C  -0.68093169 -1.20447409 -0.00844098
C  0.74408598 -1.20406853 0.02408570
C  1.39895450 0.02227349 0.03094226
C  0.67712423 1.19424932 -0.03688351
C  -0.70886285 1.22044858 -0.01314918
C  -1.43582467 -0.01414192 -0.01628898
H  -1.25222941 -2.19241642 0.03771545
H  1.29179106 -2.08556706 0.06907063
H  2.53990700 -0.00638839 0.17207017
H  1.21148727 2.14358615 -0.07079659
H  -1.21042215 2.19708124 -0.02083194
H  -2.51553779 -0.22653800 0.04793162
12
MD Step 1302 Units = [Angstroms]
C  -0.67892713 -1.20358383 -0.00739154
C  0.74381816 -1.20478833 0.02332687
C  1.39886072 0.02526316 0.03101956
C  0.67717843 1.19182474 -0.03707028
C  -0.70832951 1.21797811 -0.01132594
C  -1.43720935 -0.01043221 -0.01729924
H  -1.24725997 -2.19238217 0.03367010
H  1.28704187 -2.08411380 0.07079484
H  2.53106974 -0.00606007 0.17770621
H  1.21692008 2.13865072 -0.08493074
H  -1.20637796 2.18465364 -0.01799437
H  -2.52647650 -0.23452261 0.04406720
12
MD Step 1303 Units = [Angstroms]
C  -0.67687740 -1.20277990 -0.00631265
C  0.74294611 -1.20505688 0.02255456
C  1.39910292 0.02796640 0.03117054
C  0.67721518 1.18959003 -0.03722888
C  -0.70810492 1.21513574 -0.00957332
C  -1.43822701 -0.00682403 -0.01823948
H  -1.24040620 -2.18975583 0.02927772
H  1.28508201 -2.08798097 0.07270159
H  2.51925252 -0.00487365 0.18235620
H  1.22283273 2.13474731 -0.09897239
H  -1.20330806 2.17276280 -0.01512460
H  -2.53644292 -0.23976190 0.03983195
12
MD Step 1304 Units = [Angstroms]
C  -0.67479753 -1.20203541 -0.00521595
C  0.74149407 -1.20487899 0.02177680
C  1.39963483 0.03033027 0.03139536
C  0.67724917 1.18758413 -0.03737073
C  -0.70817789 1.21190137 -0.00789454
C  -1.43892805 -0.00338769 -0.01910222
H  -1.23187728 -2.18475155 0.02458676
H  1.28580277 -2.09689206 0.07477046
H  2.50527162 -0.00283486 0.18606351
H  1.22904928 2.13180202 -0.11284645
H  -1.20156911 2.16222155 -0.01222768
H  -2.54466845 -0.24207078 0.03521064
12
MD Step 1305 Units = [Angstroms]
C  -0.67269639 -1.20131379 -0.00411338
C  0.73951996 -1.20430768 0.02100448
C  1.40038953 0.03231103 0.03169049
C  0.67729613 1.18584657 -0.03750757
C  -0.70853335 1.20827129 -0.00629270
C  -1.43935661 -0.00018819 -0.01988168
H  -1.22199327 -2.17777324 0.01965052
H  1.28874969 -2.10999882 0.07694705
H  2.49017430 0.00002585 0.18891310
H  1.23535006 2.12966770 -0.12646989
H  -1.20144476 2.15370461 -0.00930723
H  -2.55055118 -0.24132539 0.03020286
12
MD Step 1306 Units = [Angstroms]
C  -0.67057768 -1.20057017 -0.00301691
C  0.73710807 -1.20343218 0.02025088
C  1.40128306 0.03387494 0.03204893
C  0.67737170 1.18441512 -0.03765138
C  -0.70915525 1.20426410 -0.00477071
C  -1.43954835 0.00271617 -0.02057379
H  -1.21117331 -2.16939811 0.01452365
H  1.29321608 -2.12603069 0.07914857
H  2.47518652 0.00365506 0.19102696
H  1.24148682 2.12814681 -0.13975197
H  -1.20310497 2.14766896 -0.00636560
H  -2.55368514 -0.23747191 0.02482265
12
MD Step 1307 Units = [Angstroms]
C  -0.66844153 -1.19975373 -0.00193813
C  0.73435926 -1.20236145 0.01953078
C  1.40222082 0.03499880 0.03246098
C  0.67749014 1.18332323 -0.03781399
C  -0.71002883 1.19992458 -0.00333121
C  -1.43952922 0.00527478 -0.02117616
H  -1.19991597 -2.16034640 0.00925842
H  1.29836602 -2.14349615 0.08127456
H  2.46162592 0.00798064 0.19255339
H  1.24720044 2.12701768 -0.15259607
H  -1.20657763 2.14429852 -0.00340465
H  -2.55387639 -0.23053126 0.01909704
12
MD Step 1308 Units = [Angstroms]
C  -0.66628702 -1.19881120 -0.00088796
C  0.73138149 -1.20120830 0.01885944
C  1.40310724 0.03566990 0.03291558
C  0.67766323 1.18259763 -0.03800673
C  -0.71114141 1.19532448 -0.00197652
C  -1.43931469 0.00744513 -0.02168788
H  -1.18876945 -2.15143281 0.00390124
H  1.30335169 -2.16087879 0.08321932
H  2.45077694 0.01291833 0.19364882
H  1.25223922 2.12606064 -0.16490302
H  -1.21173958 2.14348621 -0.00042689
H  -2.55115056 -0.22060048 0.01306383
12
MD Step 1309 Units = [Angstroms]
C  -0.66411546 -1.19769198 0.00012363
C  0.72828247 -1.20007691 0.01825170
C  1.40385781 0.03588568 0.03340218
C  0.67789938 1.18225615 -0.03823990
C  -0.71248170 1.19055982 -0.00070844
C  -1.43890929 0.00919308 -0.02210936
H  -1.17829095 -2.14349748 -0.00151007
H  1.30740289 -2.17678966 0.08488266
H  2.44373777 0.01837884 0.19445364
H  1.25637587 2.12508158 -0.17657529
H  -1.21832945 2.14485785 0.00256311
H  -2.54575382 -0.20785122 0.00676882
12
MD Step 1310 Units = [Angstroms]
C  -0.66193412 -1.19635452 0.00108777
C  0.72516468 -1.19905517 0.01772136
C  1.40441156 0.03565325 0.03391277
C  0.67820297 1.18230614 -0.03852233
C  -0.71403778 1.18574522 0.00047183
C  -1.43830662 0.01049256 -0.02244207
H  -1.16899730 -2.13731944 -0.00694725
H  1.30988243 -2.19006394 0.08617766
H  2.44126456 0.02427331 0.19506642
H  1.25942215 2.12393130 -0.18752160
H  -1.22597937 2.14783142 0.00555771
H  -2.53814642 -0.19252485 0.00026268
12
MD Step 1311 Units = [Angstroms]
C  -0.65976011 -1.19477318 0.00199662
C  0.72212244 -1.19821088 0.01728076
C  1.40474088 0.03498907 0.03444349
C  0.67857402 1.18274328 -0.03886091
C  -0.71579440 1.18100651 0.00156375
C  -1.43749004 0.01132507 -0.02268832
H  -1.16131290 -2.13352269 -0.01239040
H  1.31031334 -2.19980985 0.08703518
H  2.44365029 0.03051472 0.19552315
H  1.26124015 2.12251969 -0.19766151
H  -1.23425778 2.15169746 0.00854550
H  -2.52898516 -0.17492354 -0.00640273
12
MD Step 1312 Units = [Angstroms]
C  -0.65762334 -1.19294443 0.00284316
C  0.71924004 -1.19759052 0.01694060
C  1.40485586 0.03391876 0.03499536
C  0.67900802 1.18355110 -0.03926026
C  -0.71773041 1.17647275 0.00256751
C  -1.43643457 0.01167882 -0.02285088
H  -1.15552423 -2.13249181 -0.01782440
H  1.30838784 -2.20542636 0.08740616
H  2.45067327 0.03701498 0.19578837
H  1.26175009 2.12082469 -0.20692933
H  -1.24271486 2.15570408 0.01151133
H  -2.51908855 -0.15539654 -0.01317808
12
MD Step 1313 Units = [Angstroms]
C  -0.65556794 -1.19089055 0.00362080
C  0.71659021 -1.19721938 0.01670974
C  1.40480168 0.03247712 0.03557380
C  0.67949606 1.18470097 -0.03972249
C  -0.71981677 1.17226891 0.00348393
C  -1.43511053 0.01154764 -0.02293276
H  -1.15175095 -2.13431604 -0.02323364
H  1.30396765 -2.20660537 0.08726239
H  2.46163184 0.04367912 0.19576133
H  1.26093437 2.11889594 -0.21527740
H  -1.25092317 2.15913325 0.01443691
H  -2.50937905 -0.13432166 -0.02002020
12
MD Step 1314 Units = [Angstroms]
C  -0.65365148 -1.18865999 0.00432297
C  0.71423257 -1.19710190 0.01659508
C  1.40464999 0.03070782 0.03618705
C  0.68002497 1.18615287 -0.04024703
C  -0.72201571 1.16850964 0.00431446
C  -1.43348920 0.01092996 -0.02293690
H  -1.14994040 -2.13877634 -0.02859664
H  1.29708230 -2.20333009 0.08659688
H  2.47545476 0.05039988 0.19529499
H  1.25883777 2.11685327 -0.22267803
H  -1.25850962 2.16136114 0.01730168
H  -2.50079908 -0.11208374 -0.02689459
12
MD Step 1315 Units = [Angstroms]
C  -0.65194198 -1.18632397 0.00494285
C  0.71221178 -1.19722172 0.01660146
C  1.40448689 0.02866276 0.03684419
C  0.68057780 1.18785661 -0.04083075
C  -0.72428087 1.16529429 0.00506101
C  -1.43155021 0.00982808 -0.02286612
H  -1.14988663 -2.14537889 -0.03388216
H  1.28792842 -2.19587543 0.08542399
H  2.49085486 0.05705538 0.19422186
H  1.25556381 2.11487972 -0.22912419
H  -1.26517780 2.16190065 0.02008405
H  -2.49420498 -0.08905409 -0.03377606
12
MD Step 1316 Units = [Angstroms]
C  -0.65051319 -1.18397022 0.00547332
C  0.71055564 -1.19754132 0.01673151
C  1.40440063 0.02640076 0.03755312
C  0.68113439 1.18975384 -0.04146811
C  -0.72655827 1.16270311 0.00572586
C  -1.42928949 0.00824831 -0.02272320
H  -1.15126840 -2.15342596 -0.03904789
H  1.27687031 -2.18481079 0.08377941
H  2.50648749 0.06351100 0.19237952
H  1.25126703 2.11320912 -0.23462846
H  -1.27072199 2.16042850 0.02276258
H  -2.49025325 -0.06557580 -0.04064670
12
MD Step 1317 Units = [Angstroms]
C  -0.64943895 -1.18169529 0.00590706
C  0.70927347 -1.19800165 0.01698559
C  1.40447143 0.02398581 0.03831909
C  0.68167223 1.19178065 -0.04215155
C  -0.72878798 1.16079429 0.00631150
C  -1.42672619 0.00620213 -0.02251120
H  -1.15369689 -2.16210685 -0.04404199
H  1.26443837 -2.17100026 0.08171966
H  2.52108471 0.06962473 0.18963069
H  1.24614137 2.11210802 -0.23922029
H  -1.27503470 2.15680022 0.02531725
H  -2.48930171 -0.04195961 -0.04749105
12
MD Step 1318 Units = [Angstroms]
C  -0.64878754 -1.17959696 0.00623689
C  0.70835531 -1.19852261 0.01736179
C  1.40476441 0.02148479 0.03914376
C  0.68216749 1.19387069 -0.04287196
C  -0.73090593 1.15960180 0.00682049
C  -1.42390625 0.00370840 -0.02223386
H  -1.15676326 -2.17059018 -0.04880665
H  1.25131925 -2.15558942 0.07932026
H  2.53355168 0.07525433 0.18587578
H  1.24040500 2.11185246 -0.24294130
H  -1.27810974 2.15105631 0.02773059
H  -2.49135086 -0.01849098 -0.05428976
12
MD Step 1319 Units = [Angstroms]
C  -0.64861678 -1.17776795 0.00645617
C  0.70777287 -1.19900569 0.01785625
C  1.40532548 0.01896515 0.04002492
C  0.68259628 1.19595880 -0.04361940
C  -0.73284584 1.15913395 0.00725527
C  -1.42090154 0.00079601 -0.02189599
H  -1.16007942 -2.17810344 -0.05328285
H  1.23832884 -2.13996280 0.07667152
H  2.54302619 0.08026473 0.18105871
H  1.23428251 2.11270073 -0.24583927
H  -1.28004172 2.14342102 0.02998880
H  -2.49604216 0.00455520 -0.06101334
12
MD Step 1320 Units = [Angstroms]
C  -0.64897012 -1.17629118 0.00655924
C  0.70748294 -1.19934042 0.01846363
C  1.40617963 0.01649240 0.04095655
C  0.68293597 1.19798469 -0.04438371
C  -0.73454105 1.15937292 0.00761808
C  -1.41780454 -0.00249366 -0.02150375
H  -1.16330851 -2.18399320 -0.05741512
H  1.22635861 -2.12565454 0.07387115
H  2.54891002 0.08453474 0.17516761
H  1.22798616 2.11486448 -0.24796111
H  -1.28102189 2.13429360 0.03208259
H  -2.50271435 0.02689907 -0.06761826
12
MD Step 1321 Units = [Angstroms]
C  -0.64987395 -1.17523683 0.00654174
C  0.70743374 -1.19941555 0.01917801
C  1.40733034 0.01412772 0.04192915
C  0.68316639 1.19989661 -0.04515527
C  -0.73592621 1.16027550 0.00791079
C  -1.41471966 -0.00610541 -0.02106455
H  -1.16618541 -2.18776561 -0.06115571
H  1.21629011 -2.11420107 0.07101369
H  2.55088259 0.08796280 0.16823242
H  1.22169839 2.11848133 -0.24934590
H  -1.28132908 2.12422971 0.03400778
H  -2.51050183 0.04824612 -0.07404638
12
MD Step 1322 Units = [Angstroms]
C  -0.65133598 -1.17466037 0.00640094
C  0.70757383 -1.19913447 0.01999383
C  1.40875986 0.01192581 0.04293017
C  0.68327089 1.20165434 -0.04592557
C  -0.73693911 1.16177556 0.00813492
C  -1.41175361 -0.00997030 -0.02058681
H  -1.16852895 -2.18911069 -0.06446799
H  1.20888328 -2.10694325 0.06817821
H  2.54890548 0.09047178 0.16032083
H  1.21555805 2.12359294 -0.25001922
H  -1.28131374 2.11390956 0.03576545
H  -2.51845026 0.06828669 -0.08022784
12
MD Step 1323 Units = [Angstroms]
C  -0.65334468 -1.17460140 0.00613597
C  0.70786163 -1.19843226 0.02090682
C  1.41042950 0.00993305 0.04394454
C  0.68323693 1.20323138 -0.04668753
C  -0.73752271 1.16378831 0.00829160
C  -1.40900641 -0.01400728 -0.02007944
H  -1.17024833 -2.18791482 -0.06732899
H  1.20465941 -2.10481296 0.06541762
H  2.54322257 0.09201313 0.15153311
H  1.20965235 2.13013205 -0.24998962
H  -1.28137279 2.10408979 0.03736126
H  -2.52562550 0.08670411 -0.08608616
12
MD Step 1324 Units = [Angstroms]
C  -0.65586948 -1.17508278 0.00574798
C  0.70827304 -1.19728944 0.02191442
C  1.41228025 0.00818618 0.04495517
C  0.68305635 1.20461586 -0.04743571
C  -0.73762779 1.16621663 0.00838179
C  -1.40656446 -0.01812596 -0.01955143
H  -1.17134539 -2.18426517 -0.06973118
H  1.20381125 -2.10816201 0.06275358
H  2.53435614 0.09257011 0.14199604
H  1.20401582 2.13792114 -0.24924818
H  -1.28191409 2.09553785 0.03880402
H  -2.53120080 0.10318827 -0.09154438
12
MD Step 1325 Units = [Angstroms]
C  -0.65886187 -1.17610986 0.00524024
C  0.70880440 -1.19573781 0.02301566
C  1.41423394 0.00671155 0.04594363
C  0.68272516 1.20581022 -0.04816607
C  -0.73721613 1.16895903 0.00840642
C  -1.40449581 -0.02223031 -0.01901128
H  -1.17191384 -2.17844749 -0.07168361
H  1.20617115 -2.11669117 0.06017915
H  2.52309493 0.09215988 0.13185550
H  1.19863617 2.14668316 -0.24777106
H  -1.28331172 2.08895273 0.04010319
H  -2.53451721 0.11745106 -0.09653083
12
MD Step 1326 Units = [Angstroms]
C  -0.66225719 -1.17766994 0.00461815
C  0.70946989 -1.19385615 0.02421037
C  1.41619546 0.00552519 0.04689092
C  0.68224324 1.20682966 -0.04887565
C  -0.73626401 1.17191819 0.00836671
C  -1.40284735 -0.02622265 -0.01846672
H  -1.17213512 -2.17093674 -0.07321218
H  1.21124894 -2.12950566 0.05766841
H  2.51046612 0.09083354 0.12126737
H  1.19346569 2.15606297 -0.24552460
H  -1.28585679 2.08488160 0.04126584
H  -2.53512006 0.12924107 -0.10098411
12
MD Step 1327 Units = [Angstroms]
C  -0.66597720 -1.17973238 0.00388919
C  0.71029460 -1.19175741 0.02549822
C  1.41805725 0.00463355 0.04777833
C  0.68161383 1.20769961 -0.04956208
C  -0.73476557 1.17500886 0.00826450
C  -1.40164346 -0.03000784 -0.01792435
H  -1.17226942 -2.16237746 -0.07435895
H  1.21832566 -2.14527643 0.05518911
H  2.49768055 0.08867286 0.11038662
H  1.18843616 2.16565638 -0.24247199
H  -1.28971199 2.08364722 0.04229332
H  -2.53277796 0.13835613 -0.10485704
12
MD Step 1328 Units = [Angstroms]
C  -0.66993334 -1.18224966 0.00306274
C  0.71130575 -1.18957190 0.02687782
C  1.41970640 0.00403496 0.04858847
C  0.68084332 1.20845265 -0.05022294
C  -0.73273515 1.17816359 0.00810244
C  -1.40088534 -0.03349729 -0.01738947
H  -1.17263994 -2.15354957 -0.07517994
H  1.22657119 -2.16245192 0.05271409
H  2.48604192 0.08578303 0.09935545
H  1.18347475 2.17504279 -0.23858033
H  -1.29487981 2.08530223 0.04317874
H  -2.52749059 0.14465356 -0.10811974
12
MD Step 1329 Units = [Angstroms]
C  -0.67403093 -1.18516014 0.00214974
C  0.71252486 -1.18743121 0.02834619
C  1.42103501 0.00372167 0.04930615
C  0.67994112 1.20912511 -0.05085537
C  -0.73020812 1.18133520 0.00788415
C  -1.40055094 -0.03661262 -0.01686587
H  -1.17360789 -2.14531544 -0.07574108
H  1.23515372 -2.17946070 0.05022861
H  2.47681717 0.08228119 0.08829235
H  1.17851892 2.18381762 -0.23382710
H  -1.30119254 2.08962179 0.04390580
H  -2.51948986 0.14805809 -0.11076196
12
MD Step 1330 Units = [Angstroms]
C  -0.67817394 -1.18839270 0.00116217
C  0.71396244 -1.18545613 0.02989849
C  1.42195264 0.00368207 0.04991902
C  0.67891986 1.20975381 -0.05145561
C  -0.72723974 1.18449579 0.00761415
C  -1.40059527 -0.03928882 -0.01635576
H  -1.17553740 -2.13854637 -0.07611227
H  1.24332112 -2.19486668 0.04773310
H  2.47107934 0.07828264 0.07728524
H  1.17352896 2.19162151 -0.22820515
H  -1.30832709 2.09613646 0.04444946
H  -2.50923566 0.14856738 -0.11279476
12
MD Step 1331 Units = [Angstroms]
C  -0.68227033 -1.19187314 0.00011245
C  0.71561543 -1.18374907 0.03152818
C  1.42239869 0.00390268 0.05041759
C  0.67779565 1.21037312 -0.05201879
C  -0.72390240 1.18763292 0.00729768
C  -1.40095133 -0.04147656 -0.01585973
H  -1.17875150 -2.13403257 -0.07635970
H  1.25045016 -2.20746610 0.04524247
H  2.46955033 0.07388809 0.06639116
H  1.16849725 2.19816437 -0.22172604
H  -1.31584133 2.10419697 0.04477824
H  -2.49740402 0.14625435 -0.11425134
12
MD Step 1332 Units = [Angstroms]
C  -0.68623747 -1.19553152 -0.00098729
C  0.71746681 -1.18239038 0.03322716
C  1.42235173 0.00436957 0.05079476
C  0.67658837 1.21101254 -0.05253883
C  -0.72028170 1.19074417 0.00694035
C  -1.40153218 -0.04314360 -0.01537673
H  -1.18348473 -2.13238740 -0.07653771
H  1.25606938 -2.21633591 0.04278352
H  2.47248215 0.06917587 0.05564372
H  1.16345421 2.20324320 -0.21442151
H  -1.32322356 2.11305562 0.04485768
H  -2.48486259 0.14126488 -0.11518635
12
MD Step 1333 Units = [Angstroms]
C  -0.69000672 -1.19930898 -0.00212583
C  0.71948663 -1.18143696 0.03498606
C  1.42183264 0.00506882 0.05104478
C  0.67532179 1.21169482 -0.05300852
C  -0.71647211 1.19383142 0.00654780
C  -1.40223479 -0.04427495 -0.01490439
H  -1.18984059 -2.13396371 -0.07668176
H  1.25986548 -2.22085067 0.04039172
H  2.47961181 0.06420174 0.04506608
H  1.15847096 2.20675360 -0.20634322
H  -1.32994531 2.12194823 0.04465411
H  -2.47262581 0.13380941 -0.11567302
12
MD Step 1334 Units = [Angstroms]
C  -0.69352663 -1.20316255 -0.00329328
C  0.72163343 -1.18092195 0.03679451
C  1.42090067 0.00598622 0.05116223
C  0.67402341 1.21243487 -0.05341969
C  -0.71257281 1.19689585 0.00612537
C  -1.40294629 -0.04487177 -0.01443940
H  -1.19776415 -2.13880119 -0.07680427
H  1.26168207 -2.22068444 0.03810794
H  2.49020423 0.05900589 0.03468511
H  1.15365898 2.20869472 -0.19756106
H  -1.33550925 2.13016471 0.04413798
H  -2.46178261 0.12414696 -0.11579706
12
MD Step 1335 Units = [Angstroms]
C  -0.69676401 -1.20706667 -0.00448117
C  0.72385577 -1.18085441 0.03864137
C  1.41964346 0.00710642 0.05114120
C  0.67272407 1.21323922 -0.05376342
C  -0.70868394 1.19993406 0.00567779
C  -1.40355274 -0.04494914 -0.01397835
H  -1.20703699 -2.14661844 -0.07689440
H  1.26151701 -2.21580914 0.03597546
H  2.50316961 0.05362370 0.02454205
H  1.14916689 2.20916779 -0.18816023
H  -1.33948763 2.13710254 0.04328657
H  -2.45339381 0.11256256 -0.11564710
12
MD Step 1336 Units = [Angstroms]
C  -0.69970280 -1.21101114 -0.00568226
C  0.72609326 -1.18121890 0.04051502
C  1.41816388 0.00841202 0.05097500
C  0.67145726 1.21410622 -0.05403038
C  -0.70490333 1.20293559 0.00520894
C  -1.40395019 -0.04453308 -0.01351864
H  -1.21729664 -2.15685193 -0.07692189
H  1.25952120 -2.20649514 0.03403716
H  2.51722080 0.04809634 0.01469677
H  1.14517440 2.20836806 -0.17823727
H  -1.34155003 2.14230284 0.04208565
H  -2.44836567 0.09934157 -0.11530207
12
MD Step 1337 Units = [Angstroms]
C  -0.70234122 -1.21499632 -0.00689010
C  0.72827735 -1.18197460 0.04240362
C  1.41656698 0.00988300 0.05065641
C  0.67025828 1.21502683 -0.05421114
C  -0.70132352 1.20588144 0.00472172
C  -1.40405609 -0.04365759 -0.01305959
H  -1.22807575 -2.16873149 -0.07684372
H  1.25599937 -2.19331427 0.03233271
H  2.53103174 0.04247767 0.00522603
H  1.14188348 2.20656981 -0.16789546
H  -1.34148170 2.14547203 0.04053045
H  -2.44731853 0.08474714 -0.11481767
12
MD Step 1338 Units = [Angstroms]
C  -0.70468778 -1.21902695 -0.00809858
C  0.73033177 -1.18305494 0.04429541
C  1.41494932 0.01149656 0.05017813
C  0.66916334 1.21598608 -0.05429653
C  -0.69802898 1.20874342 0.00421800
C  -1.40381894 -0.04236234 -0.01260330
H  -1.23885184 -2.18137442 -0.07661180
H  1.25140989 -2.17713980 0.03089579
H  2.54336871 0.03683681 -0.00378263
H  1.13950656 2.20410460 -0.15723985
H  -1.33919441 2.14649282 0.03862586
H  -2.45047967 0.06900791 -0.11421533
12
MD Step 1339 Units = [Angstroms]
C  -0.70675704 -1.22310615 -0.00930138
C  0.73217326 -1.18436829 0.04617900
C  1.41339175 0.01322743 0.04953346
C  0.66820877 1.21696512 -0.05427798
C  -0.69509346 1.21148420 0.00369850
C  -1.40322352 -0.04069160 -0.01215506
H  -1.24909765 -2.19387924 -0.07618011
H  1.24635817 -2.15913205 0.02975138
H  2.55318264 0.03125682 -0.01223853
H  1.13825229 2.20133320 -0.14637232
H  -1.33473172 2.14542782 0.03638613
H  -2.45763031 0.05231999 -0.11347699
12
MD Step 1340 Units = [Angstroms]
C  -0.70856581 -1.22723051 -0.01049170
C  0.73371317 -1.18580148 0.04804368
C  1.41195519 0.01504841 0.04871688
C  0.66743023 1.21794365 -0.05414774
C  -0.69257741 1.21405773 0.00316294
C  -1.40229032 -0.03869417 -0.01172313
H  -1.25832475 -2.20540559 -0.07551013
H  1.24157515 -2.14069324 0.02891370
H  2.55966477 0.02583090 -0.02005544
H  1.13830917 2.19861287 -0.13538727
H  -1.32826921 2.14251710 0.03383404
H  -2.46812417 0.03486161 -0.11254761
12
MD Step 1341 Units = [Angstroms]
C  -0.71012976 -1.23138694 -0.01166207
C  0.73486083 -1.18722740 0.04987954
C  1.41067890 0.01693109 0.04772449
C  0.66686203 1.21890269 -0.05389912
C  -0.69052580 1.21641029 0.00261005
C  -1.40106938 -0.03642388 -0.01131789
H  -1.26611657 -2.21523423 -0.07457440
H  1.23787107 -2.12337390 0.02838560
H  2.56227480 0.02065761 -0.02715796
H  1.13982851 2.19626281 -0.12436848
H  -1.32010915 2.13816913 0.03099968
H  -2.48097395 0.01681378 -0.11134501
12
MD Step 1342 Units = [Angstroms]
C  -0.71146084 -1.23555110 -0.01280422
C  0.73552936 -1.18851762 0.05167740
C  1.40958002 0.01884657 0.04655444
C  0.66653660 1.21982715 -0.05352658
C  -0.68896672 1.21848210 0.00203778
C  -1.39963050 -0.03393982 -0.01095072
H  -1.27215084 -2.22280711 -0.07335821
H  1.23605791 -2.10872048 0.02816049
H  2.56075243 0.01583571 -0.03348673
H  1.14290825 2.19453183 -0.11338744
H  -1.31066772 2.13294261 0.02791863
H  -2.49498209 -0.00162157 -0.10977376
12
MD Step 1343 Units = [Angstroms]
C  -0.71256520 -1.23968704 -0.01390921
C  0.73564386 -1.18955918 0.05342853
C  1.40865390 0.02076615 0.04520721
C  0.66648373 1.22070808 -0.05302566
C  -0.68791097 1.22020986 0.00144349
C  -1.39805243 -0.03130581 -0.01063278
H  -1.27621331 -2.22775133 -0.07185997
H  1.23684294 -2.09807360 0.02822721
H  2.55512045 0.01145910 -0.03900249
H  1.14757997 2.19357273 -0.10250349
H  -1.30045217 2.12751536 0.02462979
H  -2.50888364 -0.02021189 -0.10773974
12
MD Step 1344 Units = [Angstroms]
C  -0.71344169 -1.24374774 -0.01496744
C  0.73515059 -1.19027252 0.05512413
C  1.40787457 0.02266189 0.04368581
C  0.66672985 1.22154405 -0.05239291
C  -0.68735317 1.22153053 0.00082419
C  -1.39641331 -0.02858893 -0.01037406
H  -1.27820514 -2.22989159 -0.07009068
H  1.24071100 -2.09235460 0.02857723
H  2.54568380 0.00761186 -0.04368927
H  1.15380082 2.19342736 -0.09176560
H  -1.29002572 2.12263656 0.02117271
H  -2.52147340 -0.03869425 -0.10516204
12
MD Step 1345 Units = [Angstroms]
C  -0.71408086 -1.24767602 -0.01596888
C  0.73402494 -1.19062534 0.05675480
C  1.40719555 0.02450716 0.04199593
C  0.66729707 1.22234157 -0.05162563
C  -0.68727448 1.22238631 0.00017687
C  -1.39478351 -0.02585740 -0.01018269
H  -1.27814604 -2.22925462 -0.06807284
H  1.24782603 -2.09190032 0.02921190
H  2.53302456 0.00436345 -0.04755675
H  1.16145218 2.19402499 -0.08121516
H  -1.27995996 2.11906081 0.01758490
H  -2.53170183 -0.05678341 -0.10198091
12
MD Step 1346 Units = [Angstroms]
C  -0.71446465 -1.25140581 -0.01690321
C  0.73227532 -1.19063781 0.05831029
C  1.40655109 0.02627715 0.04014608
C  0.66820195 1.22311442 -0.05072171
C  -0.68764655 1.22273080 -0.00050126
C  -1.39322107 -0.02317805 -0.01006461
H  -1.27617396 -2.22606733 -0.06583892
H  1.25798483 -2.09640300 0.03014664
H  2.51798843 0.00176424 -0.05064136
H  1.17034525 2.19519411 -0.07088930
H  -1.27077808 2.11746723 0.01389944
H  -2.53873734 -0.07418424 -0.09816170
12
MD Step 1347 Units = [Angstroms]
C  -0.71456679 -1.25486373 -0.01776008
C  0.72994174 -1.19037712 0.05977962
C  1.40585872 0.02794932 0.03814744
C  0.66945437 1.22388205 -0.04967946
C  -0.68843623 1.22253545 -0.00121260
C  -1.39176925 -0.02061384 -0.01002351
H  -1.27254074 -2.22074792 -0.06342944
H  1.27064022 -2.10497801 0.03141022
H  2.50165472 -0.00015817 -0.05300533
H  1.18023310 2.19668540 -0.06082381
H  -1.26289700 2.11837330 0.01014356
H  -2.54200067 -0.09060536 -0.09369566
12
MD Step 1348 Units = [Angstroms]
C  -0.71435402 -1.25797120 -0.01852937
C  0.72708957 -1.18994358 0.06115157
C  1.40502382 0.02950385 0.03601357
C  0.67105632 1.22466732 -0.04849749
C  -0.68960994 1.22179517 -0.00195906
C  -1.39045537 -0.01822169 -0.01006082
H  -1.26760210 -2.21388685 -0.06089057
H  1.28498565 -2.11633371 0.03303943
H  2.48527913 -0.00140100 -0.05473281
H  1.19082758 2.19820221 -0.05105522
H  -1.25657937 2.12205870 0.00633855
H  -2.54118056 -0.10577230 -0.08859876
12
MD Step 1349 Units = [Angstroms]
C  -0.71378840 -1.26064758 -0.01920156
C  0.72380091 -1.18945303 0.06241537
C  1.40394704 0.03092387 0.03375979
C  0.67300095 1.22549392 -0.04717479
C  -0.69113661 1.22053185 -0.00274209
C  -1.38929040 -0.01605066 -0.01017595
H  -1.26179907 -2.20621360 -0.05827127
H  1.30007239 -2.12898528 0.03507148
H  2.47020043 -0.00198589 -0.05592199
H  1.20181888 2.19943389 -0.04162176
H  -1.25190704 2.12851661 0.00250105
H  -2.53623885 -0.11943942 -0.08290925
12
MD Step 1350 Units = [Angstroms]
C  -0.71283063 -1.26281440 -0.01976808
C  0.72016597 -1.18902058 0.06356134
C  1.40253473 0.03219544 0.03140217
C  0.67527202 1.22638378 -0.04571081
C  -0.69298865 1.21879456 -0.00356276
C  -1.38826872 -0.01414063 -0.01036646
H  -1.25562839 -2.19854466 -0.05561985
H  1.31492605 -2.14145293 0.03753693
H  2.45770933 -0.00195524 -0.05667333
H  1.21289562 2.20008791 -0.03256308
H  -1.24878246 2.13744493 -0.00135460
H  -2.52741052 -0.13140083 -0.07668459
12
MD Step 1351 Units = [Angstroms]
C  -0.71144457 -1.26440120 -0.02022171
C  0.71627657 -1.18874862 0.06458128
C  1.40071144 0.03330729 0.02895639
C  0.67784379 1.22735475 -0.04410563
C  -0.69514098 1.21665644 -0.00442200
C  -1.38736808 -0.01252151 -0.01062829
H  -1.24960098 -2.19171145 -0.05298031
H  1.32863909 -2.15240862 0.04045499
H  2.44889124 -0.00136577 -0.05707540
H  1.22376363 2.19991790 -0.02391914
H  -1.24695736 2.14828040 -0.00521384
H  -2.51519997 -0.14150023 -0.06999785
12
MD Step 1352 Units = [Angstroms]
C  -0.70960245 -1.26535234 -0.02055694
C  0.71222201 -1.18871975 0.06546872
C  1.39843229 0.03425045 0.02643655
C  0.68068131 1.22841866 -0.04236018
C  -0.69756849 1.21420885 -0.00532059
C  -1.38654989 -0.01121286 -0.01095610
H  -1.24419044 -2.18647198 -0.05038888
H  1.34043155 -2.16076349 0.04383162
H  2.44447114 -0.00028058 -0.05719130
H  1.23416219 2.19874570 -0.01572839
H  -1.24608065 2.16026716 -0.00905977
H  -2.50037137 -0.14963945 -0.06293337
12
MD Step 1353 Units = [Angstroms]
C  -0.70729048 -1.26563407 -0.02077025
C  0.70808700 -1.18899374 0.06621889
C  1.39569200 0.03501791 0.02385442
C  0.68374120 1.22957986 -0.04047649
C  -0.70024320 1.21155402 -0.00625929
C  -1.38576029 -0.01022403 -0.01134366
H  -1.23977846 -2.18341737 -0.04787136
H  1.34968388 -2.16570740 0.04765977
H  2.44469871 0.00123790 -0.05705000
H  1.24387693 2.19647691 -0.00802575
H  -1.24575372 2.17254385 -0.01287212
H  -2.48392680 -0.15578454 -0.05558163
12
MD Step 1354 Units = [Angstroms]
C  -0.70451373 -1.26524035 -0.02086023
C  0.70395090 -1.18960692 0.06682868
C  1.39252798 0.03560453 0.02121927
C  0.68697266 1.23083437 -0.03845782
C  -0.70313169 1.20879767 -0.00723877
C  -1.38493293 -0.00955491 -0.01178428
H  -1.23660720 -2.18289081 -0.04544192
H  1.35595146 -2.16671881 0.05192106
H  2.44930746 0.00313187 -0.05664531
H  1.25274908 2.19310993 -0.00084052
H  -1.24558232 2.18423215 -0.01662731
H  -2.46706323 -0.15996729 -0.04803305
12
MD Step 1355 Units = [Angstroms]
C  -0.70129948 -1.26419593 -0.02082760
C  0.69988730 -1.19057278 0.06729650
C  1.38901629 0.03600729 0.01853836
C  0.69031878 1.23216947 -0.03630890
C  -0.70619349 1.20604241 -0.00825951
C  -1.38399403 -0.00919721 -0.01227139
H  -1.23474976 -2.18493765 -0.04310356
H  1.35897009 -2.16356113 0.05658813
H  2.45756103 0.00534837 -0.05594306
H  1.26068096 2.18873853 0.00580541
H  -1.24521792 2.19451381 -0.02029934
H  -2.45109856 -0.16227993 -0.04037126
12
MD Step 1356 Units = [Angstroms]
C  -0.69769828 -1.26255564 -0.02067499
C  0.69596337 -1.19188278 0.06762217
C  1.38526171 0.03622583 0.01581790
C  0.69371793 1.23356397 -0.03403593
C  -0.70938055 1.20338255 -0.00932170
C  -1.38287045 -0.00913655 -0.01279907
H  -1.23410622 -2.18929962 -0.04085006
H  1.35865953 -2.15627677 0.06162738
H  2.46837203 0.00783635 -0.05489379
H  1.26763743 2.18354823 0.01189895
H  -1.24438619 2.20269005 -0.02386127
H  -2.43736135 -0.16286094 -0.03266679
12
MD Step 1357 Units = [Angstroms]
C  -0.69378247 -1.26039990 -0.02040666
C  0.69223880 -1.19350685 0.06780673
C  1.38138484 0.03626301 0.01306403
C  0.69710540 1.23498892 -0.03164669
C  -0.71263766 1.20090023 -0.01042509
C  -1.38150028 -0.00935488 -0.01336238
H  -1.23442613 -2.19545484 -0.03866888
H  1.35512910 -2.14518428 0.06700203
H  2.48045905 0.01054289 -0.05344684
H  1.27364323 2.17780635 0.01743654
H  -1.24290379 2.20822269 -0.02728681
H  -2.42704853 -0.16187268 -0.02497283
12
MD Step 1358 Units = [Angstroms]
C  -0.68964262 -1.25782734 -0.02002817
C  0.68876407 -1.19539358 0.06785223
C  1.37750929 0.03612529 0.01028373
C  0.70041503 1.23640905 -0.02915044
C  -0.71590350 1.19866262 -0.01156888
C  -1.37984459 -0.00983318 -0.01395751
H  -1.23535122 -2.20269284 -0.03654419
H  1.34868548 -2.13087885 0.07267567
H  2.49250365 0.01341003 -0.05156208
H  1.27877577 2.17184553 0.02242425
H  -1.24068616 2.21076019 -0.03055199
H  -2.42107027 -0.15947463 -0.01732502
12
MD Step 1359 Units = [Angstroms]
C  -0.68538261 -1.25494622 -0.01954600
C  0.68557844 -1.19747036 0.06776141
C  1.37375124 0.03582293 0.00748528
C  0.70358112 1.23778468 -0.02655781
C  -0.71911206 1.19671983 -0.01275162
C  -1.37789754 -0.01055345 -0.01458141
H  -1.23646777 -2.21020675 -0.03445947
H  1.33983979 -2.11423135 0.07861651
H  2.50327988 0.01637347 -0.04921751
H  1.28315341 2.16604064 0.02687700
H  -1.23774947 2.21015256 -0.03363659
H  -2.41991477 -0.15579956 -0.00974611
12
MD Step 1360 Units = [Angstroms]
C  -0.68111412 -1.25186614 -0.01896726
C  0.68270816 -1.19964437 0.06753727
C  1.37021224 0.03536974 0.00467844
C  0.70654028 1.23907431 -0.02388061
C  -0.72219415 1.19510340 -0.01397109
C  -1.37569206 -0.01149956 -0.01523121
H  -1.23735818 -2.21718426 -0.03239922
H  1.32930655 -2.09637621 0.08480227
H  2.51174536 0.01936294 -0.04641236
H  1.28691920 2.16077992 0.03081703
H  -1.23420869 2.20645829 -0.03652546
H  -2.42356923 -0.15094023 -0.00225479
12
MD Step 1361 Units = [Angstroms]
C  -0.67695103 -1.24869134 -0.01829936
C  0.68016597 -1.20180534 0.06718260
C  1.36697496 0.03478258 0.00187434
C  0.70923346 1.24023757 -0.02113157
C  -0.72507882 1.19382527 -0.01522429
C  -1.37329899 -0.01265655 -0.01590345
H  -1.23764429 -2.22288442 -0.03035000
H  1.31798311 -2.07867323 0.09122540
H  2.51709610 0.02230389 -0.04316690
H  1.29022128 2.15643170 0.03427170
H  -1.23027302 2.19994457 -0.03920960
H  -2.43152149 -0.14495088 0.00512415
12
MD Step 1362 Units = [Angstroms]
C  -0.67300426 -1.24551575 -0.01754986
C  0.67795308 -1.20383183 0.06669950
C  1.36410124 0.03408052 -0.00091469
C  0.71160778 1.24123843 -0.01832410
C  -0.72769478 1.19287741 -0.01650733
C  -1.37081990 -0.01400873 -0.01659350
H  -1.23701943 -2.22669468 -0.02830065
H  1.30689628 -2.06262692 0.09789711
H  2.51879445 0.02511975 -0.03952009
H  1.29319151 2.15330990 0.03727087
H  -1.22623815 2.19107973 -0.04168689
H  -2.44284216 -0.13786183 0.01235157
12
MD Step 1363 Units = [Angstroms]
C  -0.66937701 -1.24242002 -0.01672615
C  0.67606442 -1.20560164 0.06608917
C  1.36163135 0.03328369 -0.00367549
C  0.71361814 1.24204825 -0.01547195
C  -0.72997182 1.19223245 -0.01781545
C  -1.36837534 -0.01553717 -0.01729535
H  -1.23526937 -2.22816870 -0.02624220
H  1.29710605 -2.04975188 0.10484787
H  2.51658061 0.02773450 -0.03552609
H  1.29592521 2.15164210 0.03984432
H  -1.22247406 2.18051425 -0.04396246
H  -2.45632321 -0.12970066 0.01937029
12
MD Step 1364 Units = [Angstroms]
C  -0.66616045 -1.23946974 -0.01583534
C  0.67449732 -1.20700634 0.06535212
C  1.35958383 0.03241215 -0.00639426
C  0.71522830 1.24264831 -0.01258901
C  -0.73184249 1.19184590 -0.01914310
C  -1.36609187 -0.01721748 -0.01800178
H  -1.23228447 -2.22704848 -0.02416747
H  1.28956892 -2.04138894 0.11212160
H  2.51047581 0.03007521 -0.03125039
H  1.29846483 2.15154491 0.04201961
H  -1.21940611 2.16904557 -0.04604836
H  -2.47063605 -0.12051208 0.02610639
12
MD Step 1365 Units = [Angstroms]
C  -0.66343010 -1.23671465 -0.01488402
C  0.67326161 -1.20796741 0.06448907
C  1.35795560 0.03148459 -0.00905688
C  0.71641143 1.24303145 -0.00968915
C  -0.73324420 1.19166029 -0.02048405
C  -1.36409026 -0.01901848 -0.01870476
H  -1.22806534 -2.22327540 -0.02207062
H  1.28498420 -2.03850206 0.11976168
H  2.50078156 0.03207476 -0.02676560
H  1.30079073 2.15301051 0.04382083
H  -1.21748710 2.15756196 -0.04796240
H  -2.48447608 -0.11037132 0.03247430
12
MD Step 1366 Units = [Angstroms]
C  -0.66124266 -1.23418825 -0.01387817
C  0.67238784 -1.20844970 0.06350230
C  1.35672228 0.03051734 -0.01164919
C  0.71714984 1.24320250 -0.00678611
C  -0.73412201 1.19161143 -0.02183160
C  -1.36247661 -0.02090188 -0.01939604
H  -1.22272391 -2.21699338 -0.01994659
H  1.28366515 -2.04150911 0.12779051
H  2.48807483 0.03367444 -0.02214708
H  1.30282045 2.15590676 0.04526831
H  -1.21715920 2.14696370 -0.04972600
H  -2.49667406 -0.09938916 0.03838367
12
MD Step 1367 Units = [Angstroms]
C  -0.65963376 -1.23190770 -0.01282301
C  0.67192996 -1.20846789 0.06239716
C  1.35583903 0.02952357 -0.01415729
C  0.71743414 1.24317760 -0.00389349
C  -0.73443202 1.19163655 -0.02317892
C  -1.36133657 -0.02282304 -0.02006767
H  -1.21648048 -2.20854522 -0.01779059
H  1.28547967 -2.05020209 0.13618824
H  2.47319513 0.03482671 -0.01746824
H  1.30441688 2.15999090 0.04637944
H  -1.21880709 2.13806628 -0.05136113
H  -2.50626996 -0.08771012 0.04374634
12
MD Step 1368 Units = [Angstroms]
C  -0.65861662 -1.22987405 -0.01172292
C  0.67196060 -1.20808326 0.06118303
C  1.35524263 0.02851304 -0.01656789
C  0.71726205 1.24298236 -0.00102482
C  -0.73414504 1.19168302 -0.02451933
C  -1.36073214 -0.02473251 -0.02071249
H  -1.20965596 -2.19846104 -0.01559759
H  1.28988362 -2.06378609 0.14487849
H  2.45721526 0.03549779 -0.01279578
H  1.30540368 2.16493460 0.04717013
H  -1.22270746 2.13149888 -0.05288683
H  -2.51255514 -0.07550628 0.04848237
12
MD Step 1369 Units = [Angstroms]
C  -0.65818193 -1.22807310 -0.01058151
C  0.67256027 -1.20739240 0.05987323
C  1.35485571 0.02749222 -0.01886870
C  0.71663700 1.24264922 0.00180638
C  -0.73325000 1.19171603 -0.02584668
C  -1.36070015 -0.02657808 -0.02132439
H  -1.20265751 -2.18743529 -0.01336174
H  1.29603344 -2.08102215 0.15372665
H  2.44138566 0.03566983 -0.00818523
H  1.30558544 2.17035624 0.04765666
H  -1.22898361 2.12761790 -0.05431595
H  -2.51509271 -0.06296880 0.05252491
12
MD Step 1370 Units = [Angstroms]
C  -0.65829927 -1.22647730 -0.00940159
C  0.67380391 -1.20651146 0.05848417
C  1.35459370 0.02646476 -0.02104873
C  0.71556696 1.24221449 0.00458659
C  -0.73175624 1.19172344 -0.02715556
C  -1.36125162 -0.02830716 -0.02189867
H  -1.19595518 -2.17628781 -0.01107588
H  1.30293762 -2.10042456 0.16255072
H  2.42704321 0.03534212 -0.00367782
H  1.30476932 2.17585611 0.04785749
H  -1.23757518 2.12645694 -0.05565301
H  -2.51372560 -0.05029896 0.05582405
12
MD Step 1371 Units = [Angstroms]
C  -0.65892017 -1.22504916 -0.00818538
C  0.67574885 -1.20556090 0.05703375
C  1.35437480 0.02543230 -0.02309840
C  0.71406362 1.24171516 0.00730224
C  -0.72969413 1.19171653 -0.02844142
C  -1.36237157 -0.02986929 -0.02243217
H  -1.19004742 -2.16590499 -0.00873115
H  1.30960146 -2.12045578 0.17114030
H  2.41548264 0.03453128 0.00070017
H  1.30278562 2.18105033 0.04779455
H  -1.24823147 2.12772691 -0.05689374
H  -2.50857864 -0.03769902 0.05834981
12
MD Step 1372 Units = [Angstroms]
C  -0.65998276 -1.22374642 -0.00693466
C  0.67842648 -1.20465356 0.05553985
C  1.35413207 0.02439530 -0.02500942
C  0.71214206 1.24118605 0.00993983
C  -0.72711370 1.19172664 -0.02970051
C  -1.36401899 -0.03121866 -0.02292342
H  -1.18541557 -2.15716029 -0.00631675
H  1.31513583 -2.13967986 0.17927712
H  2.40780162 0.03327010 0.00493431
H  1.29950529 2.18560060 0.04749421
H  -1.26053062 2.13086641 -0.05802639
H  -2.50005707 -0.02536322 0.06009458
12
MD Step 1373 Units = [Angstroms]
C  -0.66141783 -1.22252853 -0.00565093
C  0.68183846 -1.20388716 0.05401908
C  1.35382539 0.02335390 -0.02677435
C  0.70982077 1.24065724 0.01248597
C  -0.72408172 1.19179872 -0.03092976
C  -1.36612731 -0.03231647 -0.02337284
H  -1.18247082 -2.15081981 -0.00382022
H  1.31882202 -2.15686176 0.18675290
H  2.40474677 0.03160558 0.00901538
H  1.29485332 2.18923819 0.04698743
H  -1.27392071 2.13512880 -0.05903439
H  -2.48883953 -0.01346882 0.06107471
12
MD Step 1374 Units = [Angstroms]
C  -0.66315522 -1.22136368 -0.00433560
C  0.68595660 -1.20334044 0.05248596
C  1.35345028 0.02230857 -0.02838598
C  0.70712202 1.24015205 0.01492762
C  -0.72067773 1.19198359 -0.03212658
C  -1.36860574 -0.03313293 -0.02378268
H  -1.18150140 -2.14744617 -0.00122811
H  1.32014008 -2.17101964 0.19338229
H  2.40659802 0.02959684 0.01293043
H  1.28881780 2.19178140 0.04630957
H  -1.28777356 2.13968433 -0.05989952
H  -2.47585974 -0.00216756 0.06133081
12
MD Step 1375 Units = [Angstroms]
C  -0.66512981 -1.22023471 -0.00299012
C  0.69072516 -1.20307155 0.05095251
C  1.35304084 0.02126053 -0.02983671
C  0.70407232 1.23968559 0.01725222
C  -0.71698998 1.19233051 -0.03328867
C  -1.37134241 -0.03364887 -0.02415696
H  -1.18263063 -2.14731976 0.00147271
H  1.31877380 -2.18144603 0.19901170
H  2.41312467 0.02731333 0.01665453
H  1.28145461 2.19314664 0.04549972
H  -1.30144085 2.14371710 -0.06060498
H  -2.46226733 0.00842171 0.06092603
12
MD Step 1376 Units = [Angstroms]
C  -0.66728587 -1.21914239 -0.00161600
C  0.69606441 -1.20311761 0.04942800
C  1.35266579 0.02021191 -0.03111830
C  0.70070289 1.23926396 0.01944793
C  -0.71311173 1.19288123 -0.03441388
C  -1.37421016 -0.03385651 -0.02450107
H  -1.18579614 -2.15039629 0.00429353
H  1.31460447 -2.18771333 0.20352504
H  2.42362699 0.02483342 0.02014599
H  1.27288802 2.19335298 0.04459965
H  -1.31430428 2.14650300 -0.06113773
H  -2.44935753 0.01821763 0.05994108
12
MD Step 1377 Units = [Angstroms]
C  -0.66957914 -1.21810526 -0.00021487
C  0.70187444 -1.20349420 0.04791882
C  1.35241858 0.01916574 -0.03222187
C  0.69705008 1.23888394 0.02150382
C  -0.70913827 1.19366577 -0.03550016
C  -1.37707557 -0.03375951 -0.02482115
H  -1.19075606 -2.15631205 0.00724209
H  1.30770181 -2.18967541 0.20684823
H  2.43705001 0.02224313 0.02334669
H  1.26330730 2.19252035 0.04365272
H  -1.32581560 2.14746428 -0.06149004
H  -2.43846260 0.02717597 0.05846569
12
MD Step 1378 Units = [Angstroms]
C  -0.67197672 -1.21715595 0.00121150
C  0.70803886 -1.20419459 0.04642828
C  1.35240456 0.01812588 -0.03313837
C  0.69315568 1.23853348 0.02341000
C  -0.70516457 1.19469999 -0.03654544
C  -1.37981104 -0.03337180 -0.02512309
H  -1.19712068 -2.16443549 0.01032133
H  1.29831583 -2.18747129 0.20895334
H  2.45213631 0.01963423 0.02618697
H  1.25295918 2.19086090 0.04270254
H  -1.33552574 2.14620217 -0.06166031
H  -2.43080777 0.03528298 0.05658664
12
MD Step 1379 Units = [Angstroms]
C  -0.67445519 -1.21633507 0.00266123
C  0.71442810 -1.20518856 0.04495633
C  1.35272808 0.01709694 -0.03385917
C  0.68906721 1.23819271 0.02515787
C  -0.70128332 1.19598428 -0.03754773
C  -1.38230852 -0.03271577 -0.02541156
H  -1.20440161 -2.17395172 0.01352874
H  1.28687033 -2.18153216 0.20986282
H  2.46758036 0.01710187 0.02859309
H  1.24213619 2.18866318 0.04179172
H  -1.34310481 2.14251303 -0.06165324
H  -2.42734992 0.04254228 0.05437445
12
MD Step 1380 Units = [Angstroms]
C  -0.67699781 -1.21568428 0.00413221
C  0.72090239 -1.20642125 0.04349929
C  1.35348201 0.01608421 -0.03437667
C  0.68483806 1.23783565 0.02674016
C  -0.69758315 1.19750329 -0.03850505
C  -1.38449195 -0.03181969 -0.02568905
H  -1.21206720 -2.18396028 0.01685645
H  1.27395472 -2.17258732 0.20965324
H  2.48215722 0.01474160 0.03049490
H  1.23116080 2.18626894 0.04096060
H  -1.34835543 2.13639346 -0.06147970
H  -2.42863210 0.04895833 0.05187196
12
MD Step 1381 Units = [Angstroms]
C  -0.67959150 -1.21523996 0.00562214
C  0.72731485 -1.20781299 0.04204968
C  1.35474042 0.01509360 -0.03468479
C  0.68052767 1.23743256 0.02815101
C  -0.69414670 1.19922611 -0.03941548
C  -1.38632546 -0.03071530 -0.02595543
H  -1.21959426 -2.19356787 0.02029198
H  1.26030872 -2.16165887 0.20845669
H  2.49481393 0.01264638 0.03183228
H  1.22036583 2.18404302 0.04024624
H  -1.35122127 2.12803834 -0.06115629
H  -2.43469263 0.05452129 0.04908865
12
MD Step 1382 Units = [Angstroms]
C  -0.68222419 -1.21502830 0.00712848
C  0.73351540 -1.20926138 0.04059642
C  1.35655435 0.01413164 -0.03477931
C  0.67620139 1.23695275 0.02938608
C  -0.69104848 1.20110707 -0.04027719
C  -1.38781482 -0.02943591 -0.02620811
H  -1.22650973 -2.20196430 0.02381946
H  1.24679152 -2.15002942 0.20645699
H  2.50472545 0.01090395 0.03255954
H  1.21007233 2.18233813 0.03968153
H  -1.35179169 2.11783369 -0.06070471
H  -2.44505648 0.05919864 0.04600262
12
MD Step 1383 Units = [Angstroms]
C  -0.68488255 -1.21506224 0.00864838
C  0.73935583 -1.21064738 0.03912571
C  1.35894994 0.01320531 -0.03465800
C  0.67193023 1.23636765 0.03044247
C  -0.68835262 1.20308695 -0.04108845
C  -1.38900195 -0.02801533 -0.02644280
H  -1.23242017 -2.20847739 0.02742102
H  1.23432750 -2.13916393 0.20387701
H  2.51132392 0.00959470 0.03264794
H  1.20056679 2.18145767 0.03929464
H  -1.35030149 2.10634372 -0.06015097
H  -2.45881163 0.06293619 0.04256958
12
MD Step 1384 Units = [Angstroms]
C  -0.68755018 -1.21533999 0.01017873
C  0.74469688 -1.21184642 0.03762296
C  1.36192791 0.01232198 -0.03432075
C  0.66778997 1.23565374 0.03131871
C  -0.68611084 1.20509508 -0.04184763
C  -1.38995446 -0.02648754 -0.02665453
H  -1.23703032 -2.21260845 0.03107833
H  1.22382412 -2.13057190 0.20095426
H  2.51431128 0.00879011 0.03208691
H  1.19208046 2.18162117 0.03910869
H  -1.34712312 2.09428909 -0.05952431
H  -2.47474693 0.06566720 0.03873588
12
MD Step 1385 Units = [Angstroms]
C  -0.69020605 -1.21584464 0.01171616
C  0.74941662 -1.21274444 0.03607550
C  1.36546379 0.01148908 -0.03376953
C  0.66385971 1.23479505 0.03201467
C  -0.68436112 1.20705228 -0.04255327
C  -1.39075320 -0.02488676 -0.02683869
H  -1.24015329 -2.21405260 0.03477406
H  1.21606763 -2.12561288 0.19790544
H  2.51366332 0.00855164 0.03088420
H  1.18477348 2.18293746 0.03914160
H  -1.34274760 2.08251225 -0.05885591
H  -2.49151366 0.06732557 0.03445145
12
MD Step 1386 Units = [Angstroms]
C  -0.69282328 -1.21654456 0.01325706
C  0.75341899 -1.21325610 0.03447579
C  1.36950855 0.01071391 -0.03300837
C  0.66021971 1.23378470 0.03253145
C  -0.68312747 1.20887524 -0.04320405
C  -1.39148075 -0.02324747 -0.02699187
H  -1.24171512 -2.21270868 0.03849333
H  1.21161486 -2.12527651 0.19488641
H  2.50962955 0.00892988 0.02906541
H  1.17872629 2.18538997 0.03940609
H  -1.33774978 2.07192544 -0.05817722
H  -2.50777524 0.06785852 0.02967974
12
MD Step 1387 Units = [Angstroms]
C  -0.69536806 -1.21739420 0.01479758
C  0.75664028 -1.21334048 0.03282411
C  1.37398938 0.01000326 -0.03204332
C  0.65694858 1.23262534 0.03287126
C  -0.68242148 1.21048229 -0.04379885
C  -1.39221259 -0.02160409 -0.02711226
H  -1.24175544 -2.20868175 0.04222503
H  1.21070972 -2.12999498 0.19195899
H  2.50272877 0.00996405 0.02667278
H  1.17393945 2.18883687 0.03990969
H  -1.33273597 2.06343935 -0.05751823
H  -2.52232382 0.06723580 0.02440343
12
MD Step 1388 Units = [Angstroms]
C  -0.69779920 -1.21833527 0.01633365
C  0.75905146 -1.21300893 0.03112966
C  1.37881109 0.00936315 -0.03088229
C  0.65411986 1.23132845 0.03303729
C  -0.68224534 1.21180043 -0.04433673
C  -1.39301127 -0.01999037 -0.02719981
H  -1.24042500 -2.20227931 0.04596312
H  1.21325068 -2.13955023 0.18907702
H  2.49373644 0.01168172 0.02376304
H  1.17034180 2.19302587 0.04065469
H  -1.32827600 2.05787526 -0.05690563
H  -2.53415794 0.06545442 0.01862617
12
MD Step 1389 Units = [Angstroms]
C  -0.70006815 -1.21929834 0.01786092
C  0.76065581 -1.21232213 0.02940960
C  1.38385874 0.00879849 -0.02953486
C  0.65179859 1.22991263 0.03303361
C  -0.68259594 1.21277271 -0.04481696
C  -1.39392324 -0.01843839 -0.02725615
H  -1.23797910 -2.19399949 0.04970767
H  1.21882012 -2.15311061 0.18609736
H  2.48365587 0.01409876 0.02040393
H  1.16780519 2.19762099 0.04163815
H  -1.32482837 2.05587087 -0.05636137
H  -2.54252708 0.06253951 0.01237144
12
MD Step 1390 Units = [Angstroms]
C  -0.70211995 -1.22020523 0.01937480
C  0.76148250 -1.21137762 0.02768649
C  1.38900219 0.00831290 -0.02801195
C  0.65003791 1.22840118 0.03286508
C  -0.68346890 1.21336490 -0.04523897
C  -1.39497737 -0.01697756 -0.02728435
H  -1.23476510 -2.18450772 0.05346555
H  1.22676420 -2.16938270 0.18281166
H  2.47366311 0.01721972 0.01666925
H  1.16616330 2.20223681 0.04285196
H  -1.32267337 2.05779602 -0.05590176
H  -2.54695320 0.05854267 0.00567966
12
MD Step 1391 Units = [Angstroms]
C  -0.70389512 -1.22097255 0.02087043
C  0.76157857 -1.21029224 0.02598491
C  1.39410360 0.00790850 -0.02632531
C  0.64887627 1.22681945 0.03253719
C  -0.68486119 1.21356971 -0.04560227
C  -1.39618440 -0.01563373 -0.02728867
H  -1.23120116 -2.17459706 0.05725046
H  1.23629670 -2.18682462 0.17898708
H  2.46501662 0.02103804 0.01263241
H  1.16523178 2.20647528 0.04428292
H  -1.32187041 2.06369741 -0.05553733
H  -2.54723916 0.05353875 -0.00139552
12
MD Step 1392 Units = [Angstroms]
C  -0.70533263 -1.22151681 0.02234282
C  0.76100126 -1.20918467 0.02432847
C  1.39902774 0.00758599 -0.02448705
C  0.64833540 1.22519208 0.03205603
C  -0.68677139 1.21340760 -0.04590635
C  -1.39753679 -0.01442839 -0.02727422
H  -1.22774411 -2.16512821 0.06108182
H  1.24659884 -2.20385740 0.17440350
H  2.45892989 0.02553569 0.00835960
H  1.16482740 2.20996055 0.04591320
H  -1.32225189 2.07328650 -0.05527346
H  -2.54347090 0.04762198 -0.00879153
12
MD Step 1393 Units = [Angstroms]
C  -0.70637389 -1.22176110 0.02378704
C  0.75981218 -1.20816191 0.02273759
C  1.40365461 0.00734479 -0.02250912
C  0.64841925 1.22354062 0.03142821
C  -0.68919746 1.21292393 -0.04615056
C  -1.39900879 -0.01337829 -0.02724665
H  -1.22484609 -2.15694912 0.06498229
H  1.25689691 -2.21903072 0.16887981
H  2.45641821 0.03068129 0.00390421
H  1.16478441 2.21236905 0.04772084
H  -1.32345515 2.08597409 -0.05511144
H  -2.53601593 0.04090152 -0.01644137
12
MD Step 1394 Units = [Angstroms]
C  -0.70696739 -1.22164276 0.02519859
C  0.75807360 -1.20731079 0.02122848
C  1.40789190 0.00718368 -0.02040312
C  0.64911397 1.22188145 0.03066073
C  -0.69213270 1.21218305 -0.04633409
C  -1.40055677 -0.01249519 -0.02721175
H  -1.22290322 -2.15080035 0.06897376
H  1.26651254 -2.23112834 0.16228740
H  2.45814690 0.03642620 -0.00069539
H  1.16496754 2.21345298 0.04968054
H  -1.32498335 2.10094289 -0.05504977
H  -2.52551667 0.03349645 -0.02427852
12
MD Step 1395 Units = [Angstroms]
C  -0.70707342 -1.22112104 0.02657382
C  0.75584634 -1.20669402 0.01981278
C  1.41168443 0.00710146 -0.01818042
C  0.65038870 1.22022431 0.02976102
C  -0.69556142 1.21126084 -0.04645590
C  -1.40212029 -0.01178577 -0.02717506
H  -1.22220374 -2.14722025 0.07307223
H  1.27488973 -2.23922090 0.15455390
H  2.46431818 0.04269904 -0.00541344
H  1.16528099 2.21305698 0.05176465
H  -1.32627921 2.11724072 -0.05508538
H  -2.51287272 0.02552986 -0.03224212
12
MD Step 1396 Units = [Angstroms]
C  -0.70666802 -1.22018305 0.02791035
C  0.75318877 -1.20634917 0.01849775
C  1.41501778 0.00709787 -0.01585259
C  0.65219727 1.21857137 0.02873683
C  -0.69945533 1.21023706 -0.04651474
C  -1.40362473 -0.01125165 -0.02714147
H  -1.22288632 -2.14646924 0.07728235
H  1.28160667 -2.24268374 0.14566054
H  2.47463026 0.04940047 -0.01023003
H  1.16567382 2.21112789 0.05394422
H  -1.32679552 2.13387562 -0.05521468
H  -2.49920304 0.01712206 -0.04028212
12
MD Step 1397 Units = [Angstroms]
C  -0.70574534 -1.21884642 0.02920748
C  0.75015614 -1.20628924 0.01728667
C  1.41791500 0.00717421 -0.01343205
C  0.65448042 1.21691687 0.02759628
C  -0.70377166 1.20918875 -0.04650928
C  -1.40498623 -0.01088937 -0.02711480
H  -1.22491855 -2.14849185 0.08159308
H  1.28638011 -2.24119703 0.13563666
H  2.48832175 0.05640050 -0.01512241
H  1.16614179 2.20771806 0.05619010
H  -1.32605167 2.14989887 -0.05543422
H  -2.48577766 0.00838327 -0.04836353
12
MD Step 1398 Units = [Angstroms]
C  -0.70431798 -1.21715799 0.03046634
C  0.74679992 -1.20650374 0.01617927
C  1.42042766 0.00733373 -0.01093256
C  0.65716847 1.21524740 0.02634782
C  -0.70845300 1.20818497 -0.04643815
C  -1.40611956 -0.01069042 -0.02709766
H  -1.22810150 -2.15292646 0.08597556
H  1.28906824 -2.23474080 0.12455329
H  2.50428785 0.06354044 -0.02005732
H  1.16672563 2.20298219 0.05847408
H  -1.32367209 2.16446904 -0.05574129
H  -2.47391202 -0.00059305 -0.05646849
12
MD Step 1399 Units = [Angstroms]
C  -0.70241538 -1.21518857 0.03168980
C  0.74316702 -1.20695954 0.01517221
C  1.42262370 0.00758140 -0.00836945
C  0.66018425 1.21354290 0.02500027
C  -0.71342873 1.20728309 -0.04630015
C  -1.40694881 -0.01064145 -0.02709148
H  -1.23209900 -2.15916025 0.09038384
H  1.28967518 -2.22359133 0.11251641
H  2.52123479 0.07063970 -0.02498667
H  1.16750604 2.19716746 0.06076974
H  -1.31940774 2.17689671 -0.05613428
H  -2.46482658 -0.00973436 -0.06459452
12
MD Step 1400 Units = [Angstroms]
C  -0.70008094 -1.21302514 0.03288216
C  0.73929866 -1.20760162 0.01425950
C  1.42457556 0.00792347 -0.00575952
C  0.66344618 1.21177822 0.02356288
C  -0.71861737 1.20652628 -0.04609435
C  -1.40741947 -0.01072478 -0.02709697
H  -1.23648395 -2.16641482 0.09475831
H  1.28835774 -2.20831989 0.09965994
H  2.53783481 0.07750592 -0.02984746
H  1.16859506 2.19059680 0.06305311
H  -1.31314496 2.18667333 -0.05661287
H  -2.45948911 -0.01898867 -0.07274798
12
MD Step 1401 Units = [Angstroms]
C  -0.69736854 -1.21076213 0.03404872
C  0.73522937 -1.20835374 0.01343309
C  1.42635035 0.00836675 -0.00312063
C  0.66687131 1.20992536 0.02204534
C  -0.72392932 1.20594174 -0.04582019
C  -1.40750921 -0.01091936 -0.02711492
H  -1.24079083 -2.17384273 0.09903086
H  1.28543243 -2.18978919 0.08613749
H  2.55285462 0.08394617 -0.03456499
H  1.17012406 2.18364502 0.06530283
H  -1.30490565 2.19348888 -0.05717837
H  -2.45847197 -0.02831882 -0.08093309
12
MD Step 1402 Units = [Angstroms]
C  -0.69433925 -1.20849329 0.03519527
C  0.73098632 -1.20912001 0.01268355
C  1.42800332 0.00891778 -0.00047119
C  0.67037829 1.20795638 0.02045786
C  -0.72926965 1.20553962 -0.04547765
C  -1.40723458 -0.01120200 -0.02714712
H  -1.24456481 -2.18061728 0.10313078
H  1.28137725 -2.16913768 0.07211211
H  2.56524590 0.08977722 -0.03905793
H  1.17222858 2.17670855 0.06749971
H  -1.29484237 2.19724219 -0.05783388
H  -2.46186185 -0.03769236 -0.08913912
12
MD Step 1403 Units = [Angstroms]
C  -0.69105856 -1.20630510 0.03632757
C  0.72658972 -1.20978842 0.01200101
C  1.42957415 0.00958197 0.00217047
C  0.67389000 1.20584663 0.01881123
C  -0.73454046 1.20531226 -0.04506724
C  -1.40665107 -0.01154877 -0.02719714
H  -1.24740135 -2.18600467 0.10699022
H  1.27681972 -2.14773772 0.05774351
H  2.57420006 0.09483362 -0.04324391
H  1.17503099 2.17017052 0.06962572
H  -1.28322996 2.19804594 -0.05858466
H  -2.46924917 -0.04707006 -0.09732971
12
MD Step 1404 Units = [Angstroms]
C  -0.68759425 -1.20427208 0.03745100
C  0.72205526 -1.21023755 0.01137626
C  1.43108536 0.01036270 0.00478662
C  0.67733591 1.20357815 0.01711694
C  -0.73964306 1.20523413 -0.04459009
C  -1.40584668 -0.01193622 -0.02727061
H  -1.24897451 -2.18941506 0.11054878
H  1.27250033 -2.12711189 0.04317349
H  2.57917617 0.09897340 -0.04704484
H  1.17862263 2.16436452 0.07166227
H  -1.27045387 2.19622577 -0.05943845
H  -2.47980017 -0.05639687 -0.10543770
12
MD Step 1405 Units = [Angstroms]
C  -0.68401472 -1.20245377 0.03857028
C  0.71739917 -1.21034735 0.01080180
C  1.43254203 0.01126040 0.00736066
C  0.68065381 1.20114289 0.01538721
C  -0.74447985 1.20526239 -0.04404785
C  -1.40493060 -0.01234214 -0.02737498
H  -1.24905505 -2.19043470 0.11375702
H  1.26920245 -2.10879809 0.02851234
H  2.57991249 0.10208186 -0.05039157
H  1.18304747 2.15954148 0.07358822
H  -1.25699376 2.19231053 -0.06040580
H  -2.49238925 -0.06559800 -0.11336711
12
MD Step 1406 Units = [Angstroms]
C  -0.68038753 -1.20089302 0.03968917
C  0.71264605 -1.21001343 0.01027252
C  1.43393194 0.01227150 0.00987748
C  0.68379087 1.19854517 0.01363507
C  -0.74895632 1.20533884 -0.04344270
C  -1.40402025 -0.01274590 -0.02751881
H  -1.24752082 -2.18884355 0.11657894
H  1.26764822 -2.09417004 0.01383088
H  2.57642975 0.10407398 -0.05322799
H  1.18828989 2.15584452 0.07537785
H  -1.24340063 2.18700824 -0.06150038
H  -2.50575492 -0.07458050 -0.12100117
12
MD Step 1407 Units = [Angstroms]
C  -0.67677811 -1.19961514 0.04081040
C  0.70783809 -1.20916254 0.00978553
C  1.43522594 0.01338750 0.01232391
C  0.68670394 1.19580316 0.01187429
C  -0.75298332 1.20539360 -0.04277728
C  -1.40322931 -0.01312852 -0.02771082
H  -1.24436190 -2.18462304 0.11899377
H  1.26837563 -2.08424331 -0.00083694
H  2.56903029 0.10489584 -0.05551462
H  1.19426865 2.15329614 0.07699931
H  -1.23026507 2.18116166 -0.06273887
H  -2.51864504 -0.08323884 -0.12821347
12
MD Step 1408 Units = [Angstroms]
C  -0.67324840 -1.19862770 0.04193544
C  0.70304311 -1.20776498 0.00933906
C  1.43637855 0.01459424 0.01468891
C  0.68935903 1.19294905 0.01011933
C  -0.75647984 1.20535087 -0.04205465
C  -1.40265857 -0.01347257 -0.02795900
H  -1.23968198 -2.17795679 0.12099703
H  1.27162782 -2.07951711 -0.01547889
H  2.55829303 0.10452536 -0.05723170
H  1.20083830 2.15179963 0.07841394
H  -1.21817638 2.17567877 -0.06414030
H  -2.52993023 -0.09146230 -0.13487944
12
MD Step 1409 Units = [Angstroms]
C  -0.66985550 -1.19792075 0.04306444
C  0.69835822 -1.20584013 0.00893062
C  1.43732899 0.01587155 0.01696381
C  0.69173022 1.19002790 0.00838506
C  -0.75937624 1.20513692 -0.04127833
C  -1.40238993 -0.01376217 -0.02826981
H  -1.23369648 -2.16922504 0.12260108
H  1.27729099 -2.07990245 -0.03008053
H  2.54505979 0.10297177 -0.05838137
H  1.20779789 2.15115472 0.07957680
H  -1.20767417 2.17143883 -0.06572452
H  -2.53868005 -0.09914237 -0.14088628
12
MD Step 1410 Units = [Angstroms]
C  -0.66665038 -1.19746770 0.04419614
C  0.69390712 -1.20345292 0.00855529
C  1.43800358 0.01719341 0.01914234
C  0.69379803 1.18709536 0.00668652
C  -0.76161758 1.20468932 -0.04045245
C  -1.40248304 -0.01398307 -0.02864764
H  -1.22672599 -2.15899136 0.12383484
H  1.28490447 -2.08476101 -0.04460118
H  2.53040476 0.10027348 -0.05898843
H  1.21490580 2.15108425 0.08043827
H  -1.19919805 2.16918312 -0.06750942
H  -2.54420704 -0.10617893 -0.14614040
12
MD Step 1411 Units = [Angstroms]
C  -0.66367682 -1.19722699 0.04532788
C  0.68983134 -1.20070271 0.00820463
C  1.43832022 0.01852890 0.02122052
C  0.69554776 1.18421467 0.00503846
C  -0.76316644 1.20396599 -0.03958189
C  -1.40297377 -0.01412289 -0.02909446
H  -1.21918310 -2.14797772 0.12474243
H  1.29373934 -2.09303938 -0.05895865
H  2.51557664 0.09649332 -0.05909846
H  1.22189827 2.15126761 0.08094663
H  -1.19304391 2.16940907 -0.06950735
H  -2.54608851 -0.11248532 -0.15057286
12
MD Step 1412 Units = [Angstroms]
C  -0.66097081 -1.19714505 0.04645573
C  0.68627773 -1.19770843 0.00786675
C  1.43819564 0.01984372 0.02319621
C  0.69696797 1.18145318 0.00345501
C  -0.76400470 1.20295202 -0.03867263
C  -1.40387358 -0.01417142 -0.02960957
H  -1.21154943 -2.13702374 0.12538018
H  1.30291759 -2.10345208 -0.07302726
H  2.50190466 0.09171110 -0.05877238
H  1.22850932 2.15137595 0.08105116
H  -1.18933570 2.17229165 -0.07172103
H  -2.54417551 -0.11799234 -0.15414301
12
MD Step 1413 Units = [Angstroms]
C  -0.65856080 -1.19716072 0.04757474
C  0.68338531 -1.19459414 0.00752725
C  1.43755576 0.02110220 0.02506839
C  0.69804929 1.17887882 0.00194926
C  -0.76413358 1.20166246 -0.03773186
C  -1.40516947 -0.01412096 -0.03018938
H  -1.20434090 -2.12702621 0.12581186
H  1.31153570 -2.11466173 -0.08664743
H  2.49066703 0.08601407 -0.05807684
H  1.23448969 2.15110516 0.08070531
H  -1.18801938 2.17765300 -0.07414010
H  -2.53859550 -0.12265168 -0.15684128
12
MD Step 1414 Units = [Angstroms]
C  -0.65646880 -1.19721137 0.04867941
C  0.68127419 -1.19147795 0.00717063
C  1.43634785 0.02226946 0.02683613
C  0.69878378 1.17655679 0.00053295
C  -0.76357215 1.20014041 -0.03676812
C  -1.40682396 -0.01396659 -0.03082737
H  -1.19806077 -2.11885903 0.12610180
H  1.31876520 -2.12542081 -0.09964145
H  2.48293419 0.07948770 -0.05707142
H  1.23962337 2.15020387 0.07986957
H  -1.18888000 2.18498856 -0.07673919
H  -2.52975109 -0.12643901 -0.15869095
12
MD Step 1415 Units = [Angstroms]
C  -0.65471250 -1.19724001 0.04976421
C  0.68003749 -1.18846515 0.00678178
C  1.43455241 0.02331336 0.02849761
C  0.69916479 1.17454658 -0.00078379
C  -0.76235451 1.19845097 -0.03579126
C  -1.40877566 -0.01370638 -0.03151391
H  -1.19314441 -2.11327956 0.12630695
H  1.32391926 -2.13466394 -0.11183020
H  2.47941536 0.07220987 -0.05579519
H  1.24374076 2.14849490 0.07851385
H  -1.19157725 2.19354250 -0.07947828
H  -2.51831308 -0.12935650 -0.15974907
12
MD Step 1416 Units = [Angstroms]
C  -0.65330767 -1.19720260 0.05082415
C  0.67973643 -1.18564472 0.00634714
C  1.43219156 0.02420581 0.03004929
C  0.69918713 1.17289952 -0.00199261
C  -0.76052632 1.19667270 -0.03481211
C  -1.41094054 -0.01334153 -0.03223643
H  -1.18990397 -2.11083522 0.12646877
H  1.32648794 -2.14155683 -0.12304741
H  2.48034654 0.06425137 -0.05425657
H  1.24672822 2.14589007 0.07661913
H  -1.19569083 2.20241203 -0.08230514
H  -2.50520187 -0.13143414 -0.16010545
12
MD Step 1417 Units = [Angstroms]
C  -0.65227039 -1.19707378 0.05185519
C  0.68039793 -1.18308822 0.00585562
C  1.42933116 0.02492344 0.03148573
C  0.69884758 1.17165674 -0.00308696
C  -0.75814149 1.19488866 -0.03384221
C  -1.41321507 -0.01287653 -0.03297961
H  -1.18848450 -2.11178865 0.12660707
H  1.32615150 -2.14551634 -0.13315069
H  2.48545325 0.05568276 -0.05243005
H  1.24853398 2.14239836 0.07417834
H  -1.20076679 2.21065701 -0.08515938
H  -2.49154789 -0.13272865 -0.15987887
12
MD Step 1418 Units = [Angstroms]
C  -0.65161816 -1.19684986 0.05285444
C  0.68201413 -1.18084958 0.00529924
C  1.42607581 0.02544775 0.03279995
C  0.69814553 1.17084771 -0.00406210
C  -0.75525922 1.19317844 -0.03289334
C  -1.41548179 -0.01231953 -0.03372609
H  -1.18884258 -2.11607959 0.12671737
H  1.32278168 -2.14621585 -0.14202970
H  2.49399988 0.04658513 -0.05026110
H  1.24917060 2.13812776 0.07119653
H  -1.20635829 2.21739590 -0.08797720
H  -2.47862089 -0.13331844 -0.15920894
12
MD Step 1419 Units = [Angstroms]
C  -0.65136945 -1.19654808 0.05381997
C  0.68454314 -1.17896496 0.00467361
C  1.42255795 0.02576513 0.03398444
C  0.69708369 1.17048940 -0.00491498
C  -0.75194185 1.19161213 -0.03197715
C  -1.41761818 -0.01168281 -0.03445748
H  -1.19075332 -2.12333336 0.12677241
H  1.31643820 -2.14358615 -0.14961271
H  2.50491056 0.03706028 -0.04767764
H  1.24871380 2.13328084 0.06769024
H  -1.21205746 2.22187839 -0.09069600
H  -2.46772142 -0.13329333 -0.15824299
12
MD Step 1420 Units = [Angstroms]
C  -0.65154194 -1.19620248 0.05475042
C  0.68791079 -1.17745220 0.00397834
C  1.41892405 0.02586691 0.03503220
C  0.69566891 1.17058596 -0.00564402
C  -0.74825327 1.19024630 -0.03110482
C  -1.41950842 -0.01098371 -0.03515587
H  -1.19384414 -2.13291358 0.12672759
H  1.30736437 -2.13781737 -0.15587239
H  2.51692632 0.02723639 -0.04460420
H  1.24729747 2.12814379 0.06368614
H  -1.21751823 2.22353347 -0.09325845
H  -2.46003784 -0.13273898 -0.15711838
12
MD Step 1421 Units = [Angstroms]
C  -0.65214978 -1.19585746 0.05564441
C  0.69201326 -1.17630976 0.00321743
C  1.41532090 0.02574976 0.03593781
C  0.69391305 1.17112924 -0.00624893
C  -0.74425774 1.18912166 -0.03028673
C  -1.42105667 -0.01024557 -0.03580541
H  -1.19764653 -2.14400563 0.12652868
H  1.29598212 -2.12936251 -0.16083102
H  2.52876089 0.01726787 -0.04097500
H  1.24510475 2.12306858 0.05921908
H  -1.22247186 2.22199699 -0.09561579
H  -2.45648736 -0.13171842 -0.15594313
12
MD Step 1422 Units = [Angstroms]
C  -0.65320098 -1.19556059 0.05649995
C  0.69672052 -1.17551561 0.00239953
C  1.41188451 0.02541600 0.03669809
C  0.69183407 1.17210005 -0.00673037
C  -0.74001898 1.18826188 -0.02953222
C  -1.42219903 -0.00949846 -0.03639378
H  -1.20165381 -2.15571188 0.12612001
H  1.28288334 -2.11893803 -0.16456469
H  2.53922836 0.00733024 -0.03674324
H  1.24235459 2.11844809 0.05432951
H  -1.22673719 2.21712444 -0.09773043
H  -2.45757445 -0.13025516 -0.15477915
12
MD Step 1423 Units = [Angstroms]
C  -0.65469523 -1.19535619 0.05731405
C  0.70188094 -1.17502686 0.00153805
C  1.40873212 0.02487395 0.03731236
C  0.68945708 1.17347020 -0.00708972
C  -0.73559923 1.18767328 -0.02884940
C  -1.42291111 -0.00877920 -0.03691308
H  -1.20537439 -2.16714156 0.12545164
H  1.26881190 -2.10751242 -0.16720465
H  2.54733228 -0.00238786 -0.03188609
H  1.23928434 2.11468485 0.04906064
H  -1.23022747 2.20899397 -0.09957802
H  -2.46330449 -0.12832361 -0.15363318
12
MD Step 1424 Units = [Angstroms]
C  -0.65662269 -1.19528038 0.05808238
C  0.70732739 -1.17478141 0.00065075
C  1.40595752 0.02413785 0.03778249
C  0.68681557 1.17520528 -0.00732878
C  -0.73105833 1.18734508 -0.02824492
C  -1.42320904 -0.00813032 -0.03735975
H  -1.20837391 -2.17748426 0.12448449
H  1.25462858 -2.09626869 -0.16893298
H  2.55231900 -0.01169337 -0.02640584
H  1.23612913 2.11215525 0.04345573
H  -1.23295474 2.19790200 -0.10114898
H  -2.47317911 -0.12585074 -0.15245831
12
MD Step 1425 Units = [Angstroms]
C  -0.65896349 -1.19535802 0.05879922
C  0.71288514 -1.17470304 -0.00024133
C  1.40362858 0.02322750 0.03811262
C  0.68395234 1.17726786 -0.00744962
C  -0.72645269 1.18725016 -0.02772382
C  -1.42314361 -0.00759798 -0.03773383
H  -1.21030459 -2.18606349 0.12319354
H  1.24125180 -2.08652576 -0.16996939
H  2.55370443 -0.02039693 -0.02032842
H  1.23309981 2.11117253 0.03755580
H  -1.23503141 2.18435174 -0.10244944
H  -2.48627491 -0.12272894 -0.15116561
12
MD Step 1426 Units = [Angstroms]
C  -0.66168784 -1.19560119 0.05945750
C  0.71838166 -1.17471081 -0.00111588
C  1.40178632 0.02216751 0.03830888
C  0.68092021 1.17962082 -0.00745449
C  -0.72183454 1.18734662 -0.02728946
C  -1.42278967 -0.00722914 -0.03803760
H  -1.21092275 -2.19237187 0.12156916
H  1.22957236 -2.07960909 -0.17054686
H  2.55128468 -0.02831983 -0.01370040
H  1.23036228 2.11195310 0.03139835
H  -1.23666744 2.16903182 -0.10350137
H  -2.50138136 -0.11883624 -0.14964200
12
MD Step 1427 Units = [Angstroms]
C  -0.66475629 -1.19600886 0.06004894
C  0.72365741 -1.17473235 -0.00195213
C  1.40044475 0.02098632 0.03837893
C  0.67778201 1.18223021 -0.00734583
C  -0.71725156 1.18758025 -0.02694350
C  -1.42223373 -0.00706853 -0.03827420
H  -1.21009763 -2.19609205 0.11961719
H  1.22034997 -2.07667672 -0.17087741
H  2.54513818 -0.03529995 -0.00658503
H  1.22802126 2.11459134 0.02501729
H  -1.23816038 2.15278120 -0.10434146
H  -2.51716045 -0.11405779 -0.14776923
12
MD Step 1428 Units = [Angstroms]
C  -0.66812017 -1.19656719 0.06056424
C  0.72857599 -1.17471878 -0.00273398
C  1.39959119 0.01971512 0.03833165
C  0.67460984 1.18506737 -0.00712646
C  -0.71274715 1.18788850 -0.02668607
C  -1.42156257 -0.00715583 -0.03844645
H  -1.20781404 -2.19710784 0.11735812
H  1.21411186 -2.07853010 -0.17111431
H  2.53562306 -0.04119688 0.00094225
H  1.22611117 2.11904706 0.01844404
H  -1.23987503 2.13653605 -0.10501824
H  -2.53229351 -0.10830371 -0.14543979
12
MD Step 1429 Units = [Angstroms]
C  -0.67172194 -1.19725038 0.06099330
C  0.73303153 -1.17465697 -0.00345254
C  1.39918702 0.01838674 0.03817662
C  0.67148334 1.18810989 -0.00679977
C  -0.70836187 1.18820587 -0.02651613
C  -1.42085458 -0.00752331 -0.03855610
H  -1.20417078 -2.19550813 0.11482574
H  1.21108067 -2.08545944 -0.17132166
H  2.52336927 -0.04589629 0.00879882
H  1.22459582 2.12514800 0.01170970
H  -1.24221000 2.12125681 -0.10558710
H  -2.54559485 -0.10152058 -0.14256770
12
MD Step 1430 Units = [Angstroms]
C  -0.67549576 -1.19802162 0.06132550
C  0.73695147 -1.17457507 -0.00410720
C  1.39916914 0.01703463 0.03792377
C  0.66848711 1.19134145 -0.00637001
C  -0.70413576 1.18847059 -0.02643196
C  -1.42017412 -0.00819408 -0.03860349
H  -1.19937549 -2.19158463 0.11206524
H  1.21115448 -2.09717376 -0.17146193
H  2.50926048 -0.04931339 0.01690054
H  1.22337700 2.13260702 0.00484745
H  -1.24555117 2.10783898 -0.10610324
H  -2.55608706 -0.09369667 -0.13909424
12
MD Step 1431 Units = [Angstroms]
C  -0.67936840 -1.19883461 0.06155000
C  0.74029453 -1.17453905 -0.00470487
C  1.39945296 0.01569183 0.03758285
C  0.66570747 1.19475061 -0.00584251
C  -0.70011139 1.18863188 -0.02643183
C  -1.41956840 -0.00918082 -0.03858745
H  -1.19373522 -2.18582137 0.10913095
H  1.21394454 -2.11284128 -0.17140623
H  2.49439747 -0.05139484 0.02516787
H  1.22231011 2.14105089 -0.00210510
H  -1.25021618 2.09701784 -0.10661341
H  -2.56304406 -0.08486203 -0.13498956
12
MD Step 1432 Units = [Angstroms]
C  -0.68326070 -1.19963566 0.06165608
C  0.74304503 -1.17464134 -0.00525767
C  1.39993752 0.01438990 0.03716303
C  0.66322870 1.19832889 -0.00522387
C  -0.69633681 1.18865627 -0.02651461
C  -1.41906608 -0.01048502 -0.03850547
H  -1.18764101 -2.17887252 0.10608343
H  1.21885648 -2.13122562 -0.17096312
H  2.48003304 -0.05211798 0.03353199
H  1.22122442 2.15005612 -0.00910442
H  -1.25639923 2.08928397 -0.10714793
H  -2.56601185 -0.07508548 -0.13025186
12
MD Step 1433 Units = [Angstroms]
C  -0.68708983 -1.20036705 0.06163354
C  0.74520583 -1.17498539 -0.00577995
C  1.40051346 0.01315775 0.03667248
C  0.66112939 1.20206846 -0.00452199
C  -0.69286736 1.18853185 -0.02668026
C  -1.41867689 -0.01209672 -0.03835388
H  -1.18154435 -2.17152315 0.10298603
H  1.22518868 -2.15087246 -0.16991562
H  2.46747078 -0.05148695 0.04193969
H  1.21994462 2.15918680 -0.01610054
H  -1.26412850 2.08482800 -0.10771489
H  -2.56481651 -0.06446963 -0.12490512
12
MD Step 1434 Units = [Angstroms]
C  -0.69077236 -1.20097172 0.06147311
C  0.74679181 -1.17567044 -0.00628558
C  1.40107388 0.01202036 0.03611824
C  0.65947877 1.20595985 -0.00374605
C  -0.68976545 1.18826903 -0.02692994
C  -1.41839154 -0.01399479 -0.03812806
H  -1.17592411 -2.16462937 0.09990087
H  1.23222282 -2.17029469 -0.16805547
H  2.45792870 -0.04952566 0.05035536
H  1.21831126 2.16803005 -0.02303758
H  -1.27324751 2.08352799 -0.10829819
H  -2.55956592 -0.05314473 -0.11899608
12
MD Step 1435 Units = [Angstroms]
C  -0.69422809 -1.20139966 0.06116690
C  0.74782514 -1.17677952 -0.00678591
C  1.40152688 0.01099758 0.03550637
C  0.65833364 1.20998975 -0.00290636
C  -0.68709787 1.18789806 -0.02726583
C  -1.41818207 -0.01614769 -0.03782274
H  -1.17124438 -2.15903711 0.09688463
H  1.23929192 -2.18811972 -0.16520801
H  2.45238278 -0.04626958 0.05875843
H  1.21619798 2.17622627 -0.02985527
H  -1.28342592 2.08498219 -0.10885996
H  -2.55064736 -0.04126171 -0.11259076
12
MD Step 1436 Units = [Angstroms]
C  -0.69738435 -1.20161518 0.06070877
C  0.74833216 -1.17837174 -0.00728868
C  1.40180732 0.01010338 0.03484254
C  0.65773575 1.21413927 -0.00201410
C  -0.68493095 1.18746369 -0.02769064
C  -1.41800252 -0.01851488 -0.03743224
H  -1.16790683 -2.15548613 0.09398465
H  1.24582310 -2.20318666 -0.16124596
H  2.45142056 -0.04175904 0.06713562
H  1.21352466 2.18349266 -0.03649111
H  -1.29419699 2.08857756 -0.10934661
H  -2.53871896 -0.02898413 -0.10577034
12
MD Step 1437 Units = [Angstroms]
C  -0.70018005 -1.20160421 0.06009454
C  0.74834173 -1.18047855 -0.00779763
C  1.40188487 0.00934574 0.03413282
C  0.65770988 1.21838251 -0.00108113
C  -0.68332459 1.18701868 -0.02820695
C  -1.41779055 -0.02104855 -0.03695080
H  -1.16620494 -2.15451347 0.09123592
H  1.25135957 -2.21459867 -0.15609434
H  2.45514263 -0.03603744 0.07546945
H  1.21026617 2.18963966 -0.04288288
H  -1.30501215 2.09357696 -0.10969685
H  -2.52468901 -0.01647923 -0.09862612
12
MD Step 1438 Units = [Angstroms]
C  -0.70256891 -1.20137977 0.05932219
C  0.74788402 -1.18310271 -0.00831250
C  1.40176594 0.00872740 0.03338460
C  0.65826271 1.22268569 -0.00011965
C  -0.68232631 1.18661725 -0.02881655
C  -1.41747069 -0.02369579 -0.03637303
H  -1.16628901 -2.15637598 0.08865970
H  1.25556979 -2.22174480 -0.14972956
H  2.46314155 -0.02915543 0.08372647
H  1.20645666 2.19458033 -0.04897134
H  -1.31530043 2.09920708 -0.10984987
H  -2.50967384 -0.00390862 -0.09125329
12
MD Step 1439 Units = [Angstroms]
C  -0.70452109 -1.20098421 0.05839168
C  0.74698960 -1.18621892 -0.00882938
C  1.40148885 0.00824723 0.03260709
C  0.65938242 1.22700674 0.00085803
C  -0.68196627 1.18630969 -0.02951993
C  -1.41695990 -0.02640074 -0.03569441
H  -1.16815027 -2.16101095 0.08626373
H  1.25825032 -2.22430551 -0.14217555
H  2.47456528 -0.02117953 0.09184902
H  1.20218966 2.19833314 -0.05470271
H  -1.32452244 2.10473376 -0.10975209
H  -2.49492524 0.00857997 -0.08374362
12
MD Step 1440 Units = [Angstroms]
C  -0.70602308 -1.20048732 0.05730485
C  0.74568822 -1.18977502 -0.00934106
C  1.40111391 0.00790199 0.03181147
C  0.66103928 1.23129555 0.00183977
C  -0.68225409 1.18613838 -0.03031588
C  -1.41617595 -0.02910641 -0.03491182
H  -1.17162783 -2.16804537 0.08404408
H  1.25932764 -2.22225227 -0.13349871
H  2.48824601 -0.01220144 0.09975342
H  1.19761399 2.20101789 -0.06003081
H  -1.33221295 2.10951886 -0.10936207
H  -2.48172191 0.02085736 -0.07617775
12
MD Step 1441 Units = [Angstroms]
C  -0.70707591 -1.19998054 0.05606504
C  0.74400735 -1.19369354 -0.00983748
C  1.40071130 0.00768794 0.03101040
C  0.66318706 1.23549482 0.00281372
C  -0.68317738 1.18613516 -0.03120136
C  -1.41504816 -0.03175600 -0.03402403
H  -1.17643618 -2.17685116 0.08198793
H  1.25886106 -2.21584676 -0.12380240
H  2.50285837 -0.00234428 0.10733438
H  1.19292547 2.20284476 -0.06491853
H  -1.33801066 2.11305846 -0.10865332
H  -2.47123046 0.03281135 -0.06861845
12
MD Step 1442 Units = [Angstroms]
C  -0.70769241 -1.19956850 0.05467679
C  0.74197059 -1.19787319 -0.01030624
C  1.40034960 0.00760212 0.03021726
C  0.66576540 1.23954167 0.00376849
C  -0.68470206 1.18631971 -0.03217138
C  -1.41352888 -0.03429341 -0.03303195
H  -1.18220615 -2.18663187 0.08007659
H  1.25704688 -2.20563941 -0.11322072
H  2.51707106 0.00823632 0.11447385
H  1.18835456 2.20409587 -0.06933848
H  -1.34167659 2.11500590 -0.10761556
H  -2.46435515 0.04433762 -0.06110685
12
MD Step 1443 Units = [Angstroms]
C  -0.70789407 -1.19935965 0.05314550
C  0.73959612 -1.20219093 -0.01073322
C  1.40008706 0.00764320 0.02944536
C  0.66870288 1.24336996 0.00469318
C  -0.68677382 1.18669865 -0.03321913
C  -1.41160311 -0.03666313 -0.03193853
H  -1.18852998 -2.19652075 0.07828832
H  1.25422128 -2.19246249 -0.10191090
H  2.52966808 0.01935615 0.12105151
H  1.18414988 2.20509934 -0.07327247
H  -1.34310372 2.11518403 -0.10625467
H  -2.46160872 0.05532454 -0.05366284
12
MD Step 1444 Units = [Angstroms]
C  -0.70770829 -1.19945740 0.05147715
C  0.73689586 -1.20650519 -0.01110340
C  1.39996595 0.00781193 0.02870702
C  0.67192074 1.24691329 0.00557728
C  -0.68932059 1.18726509 -0.03433604
C  -1.40929360 -0.03881001 -0.03074834
H  -1.19500283 -2.20567218 0.07660061
H  1.25085664 -2.17740738 -0.09004339
H  2.53963174 0.03080977 0.12695455
H  1.18055871 2.20619661 -0.07670985
H  -1.34232021 2.11359001 -0.10459201
H  -2.46303846 0.06563704 -0.04629000
12
MD Step 1445 Units = [Angstroms]
C  -0.70716608 -1.19995288 0.04967804
C  0.73387572 -1.21066130 -0.01140191
C  1.40000981 0.00811123 0.02801306
C  0.67533688 1.25010858 0.00641059
C  -0.69225545 1.18799853 -0.03551198
C  -1.40665955 -0.04067946 -0.02946688
H  -1.20125604 -2.21333519 0.07499174
H  1.24754359 -2.16177255 -0.07778911
H  2.54619128 0.04237918 0.13208574
H  1.17780563 2.20770524 -0.07964471
H  -1.33948757 2.11039459 -0.10266290
H  -2.46822907 0.07510617 -0.03898347
12
MD Step 1446 Units = [Angstroms]
C  -0.70630051 -1.20091948 0.04775465
C  0.73053802 -1.21450023 -0.01161526
C  1.40022252 0.00854596 0.02737221
C  0.67886978 1.25289975 0.00718301
C  -0.69547991 1.18886524 -0.03673550
C  -1.40378932 -0.04221858 -0.02809989
H  -1.20698103 -2.21890556 0.07344193
H  1.24495005 -2.14696929 -0.06530457
H  2.54884698 0.05384262 0.13636939
H  1.17607168 2.20988085 -0.08207225
H  -1.33489339 2.10593516 -0.10051468
H  -2.47638041 0.08352917 -0.03173834
12
MD Step 1447 Units = [Angstroms]
C  -0.70514562 -1.20240921 0.04571345
C  0.72688632 -1.21787096 -0.01173258
C  1.40058856 0.00912242 0.02679086
C  0.68244202 1.25524115 0.00788434
C  -0.69888740 1.18981938 -0.03799415
C  -1.40078904 -0.04337816 -0.02665279
H  -1.21194493 -2.22195835 0.07193400
H  1.24375171 -2.13438004 -0.05271739
H  2.54737951 0.06498271 0.13975575
H  1.17547667 2.21288342 -0.08398512
H  -1.32893731 2.10070037 -0.09820395
H  -2.48643599 0.09068078 -0.02455622
12
MD Step 1448 Units = [Angstroms]
C  -0.70373563 -1.20445041 0.04356085
C  0.72293251 -1.22064540 -0.01174643
C  1.40107361 0.00984748 0.02627278
C  0.68598309 1.25710032 0.00850414
C  -0.70236724 1.19080524 -0.03927476
C  -1.39777025 -0.04411526 -0.02513041
H  -1.21600009 -2.22226549 0.07045385
H  1.24453703 -2.12518185 -0.04011652
H  2.54185195 0.07559372 0.14222418
H  1.17606732 2.21675333 -0.08537030
H  -1.32210790 2.09530249 -0.09579311
H  -2.49722790 0.09633200 -0.01744856
12
MD Step 1449 Units = [Angstroms]
C  -0.70210437 -1.20704661 0.04130312
C  0.71870487 -1.22273323 -0.01165291
C  1.40162532 0.01072759 0.02581898
C  0.68943114 1.25845960 0.00903173
C  -0.70580893 1.19176077 -0.04056401
C  -1.39483882 -0.04439587 -0.02353697
H  -1.21908970 -2.21980276 0.06899081
H  1.24770283 -2.12016920 -0.02755160
H  2.53260793 0.08548843 0.14378543
H  1.17781316 2.22140140 -0.08620741
H  -1.31494815 2.09043353 -0.09334602
H  -2.50760804 0.10027082 -0.01043693
12
MD Step 1450 Units = [Angstroms]
C  -0.70028472 -1.21017625 0.03894640
C  0.71425467 -1.22409247 -0.01145089
C  1.40217433 0.01176752 0.02542762
C  0.69273381 1.25931636 0.00945628
C  -0.70910713 1.19262279 -0.04184879
C  -1.39208680 -0.04419702 -0.02187625
H  -1.22125050 -2.21474918 0.06753793
H  1.25336829 -2.11962439 -0.01504338
H  2.52026500 0.09450442 0.14448299
H  1.18061070 2.22661504 -0.08646888
H  -1.30800944 2.08680336 -0.09092308
H  -2.51654873 0.10232024 -0.00355104
12
MD Step 1451 Units = [Angstroms]
C  -0.69830810 -1.21379328 0.03649672
C  0.70965899 -1.22473265 -0.01114053
C  1.40263583 0.01296925 0.02509411
C  0.69584808 1.25968200 0.00976710
C  -0.71216683 1.19333349 -0.04311681
C  -1.38958727 -0.04350822 -0.02015185
H  -1.22261294 -2.20747930 0.06609221
H  1.26133566 -2.12327788 -0.00260228
H  2.50569840 0.10250965 0.14439285
H  1.18429511 2.23207926 -0.08612192
H  -1.30179672 2.08506253 -0.08857631
H  -2.52320925 0.10235096 0.00317441
12
MD Step 1452 Units = [Angstroms]
C  -0.69620408 -1.21782881 0.03396006
C  0.70501841 -1.22470926 -0.01072171
C  1.40291254 0.01433106 0.02481132
C  0.69873936 1.25957989 0.00995401
C  -0.71490839 1.19384759 -0.04435698
C  -1.38739174 -0.04233220 -0.01836749
H  -1.22339766 -2.19854701 0.06465471
H  1.27111225 -2.13037158 0.00975162
H  2.49000682 0.10940638 0.14362080
H  1.18865723 2.23740898 -0.08513210
H  -1.29671195 2.08571856 -0.08634528
H  -2.52697400 0.10028860 0.00970318
12
MD Step 1453 Units = [Angstroms]
C  -0.69400015 -1.22219394 0.03134244
C  0.70045004 -1.22411173 -0.01019290
C  1.40289981 0.01584696 0.02457017
C  0.70138027 1.25904269 0.01000780
C  -0.71727154 1.19413884 -0.04555968
C  -1.38552935 -0.04068492 -0.01652729
H  -1.22390589 -2.18865716 0.06323045
H  1.28198654 -2.13980223 0.02197427
H  2.47445012 0.11513192 0.14229597
H  1.19346342 2.24218741 -0.08346753
H  -1.29300618 2.08906072 -0.08425466
H  -2.52747104 0.09611628 0.01600091
12
MD Step 1454 Units = [Angstroms]
C  -0.69172198 -1.22678421 0.02864999
C  0.69607812 -1.22304860 -0.00955075
C  1.40249359 0.01750682 0.02436052
C  0.70374921 1.25810941 0.00992067
C  -0.71921765 1.19420449 -0.04671692
C  -1.38400706 -0.03859511 -0.01463604
H  -1.22450113 -2.17862126 0.06182768
H  1.29313295 -2.15029842 0.03399278
H  2.46035142 0.11965461 0.14055980
H  1.19847546 2.24600508 -0.08110324
H  -1.29075110 2.09511005 -0.08231415
H  -2.52457916 0.08987388 0.02203814
12
MD Step 1455 Units = [Angstroms]
C  -0.68939429 -1.23148577 0.02588907
C  0.69202437 -1.22163375 -0.00879041
C  1.40160120 0.01929700 0.02417247
C  0.70582905 1.25682267 0.00968655
C  -0.72072969 1.19406654 -0.04782218
C  -1.38281035 -0.03610340 -0.01269943
H  -1.22557944 -2.16929465 0.06045655
H  1.30371652 -2.16058552 0.04570929
H  2.44896368 0.12296430 0.13855055
H  1.20346873 2.24849537 -0.07802481
H  -1.28983683 2.10360759 -0.08052059
H  -2.51842868 0.08165480 0.02779314
12
MD Step 1456 Units = [Angstroms]
C  -0.68704249 -1.23618297 0.02306646
C  0.68840000 -1.21997603 -0.00790619
C  1.40015374 0.02120137 0.02399778
C  0.70760604 1.25522627 0.00930145
C  -0.72181004 1.19376961 -0.04887021
C  -1.38190426 -0.03326112 -0.01072419
H  -1.22752777 -2.16149653 0.05912682
H  1.31297695 -2.16951046 0.05701016
H  2.44131495 0.12505850 0.13638540
H  1.20824741 2.24936384 -0.07423105
H  -1.28999636 2.11404424 -0.07886175
H  -2.50939736 0.07160076 0.03325433
12
MD Step 1457 Units = [Angstroms]
C  -0.68469497 -1.24076691 0.02018954
C  0.68529996 -1.21817266 -0.00689237
C  1.39811789 0.02320253 0.02383123
C  0.70906894 1.25336320 0.00876354
C  -0.72247664 1.19337570 -0.04985672
C  -1.38123491 -0.03012878 -0.00871828
H  -1.23067329 -2.15592069 0.05784473
H  1.32028456 -2.17611994 0.06777690
H  2.43806113 0.12592820 0.13414406
H  1.21265608 2.24841027 -0.06973547
H  -1.29084993 2.12572479 -0.07732060
H  -2.49809921 0.05989425 0.03842231
12
MD Step 1458 Units = [Angstroms]
C  -0.68238553 -1.24514339 0.01726649
C  0.68279926 -1.21630583 -0.00574392
C  1.39550393 0.02528240 0.02367138
C  0.71020842 1.25127429 0.00807326
C  -0.72275856 1.19295737 -0.05077810
C  -1.38073175 -0.02677412 -0.00669092
H  -1.23523134 -2.15305087 0.05660941
H  1.32517140 -2.17970002 0.07789615
H  2.43938312 0.12554866 0.13185846
H  1.21658794 2.24554317 -0.06456654
H  -1.29195870 2.13785074 -0.07587926
H  -2.48536037 0.04674865 0.04331111
12
MD Step 1459 Units = [Angstroms]
C  -0.68015519 -1.24923916 0.01430654
C  0.68095083 -1.21444128 -0.00445708
C  1.39236765 0.02742221 0.02352068
C  0.71101662 1.24899728 0.00723318
C  -0.72269175 1.19259046 -0.05163121
C  -1.38031147 -0.02326994 -0.00465260
H  -1.24126253 -2.15309840 0.05540962
H  1.32734488 -2.17979090 0.08726809
H  2.44495840 0.12387942 0.12951194
H  1.21998960 2.24078727 -0.05876690
H  -1.29287711 2.14960549 -0.07452189
H  -2.47217462 0.03239590 0.04794817
12
MD Step 1460 Units = [Angstroms]
C  -0.67805264 -1.25300484 0.01131999
C  0.67978429 -1.21262786 -0.00302985
C  1.38880535 0.02960154 0.02338469
C  0.71148679 1.24656645 0.00624788
C  -0.72231556 1.19234758 -0.05241320
C  -1.37988385 -0.01969163 -0.00261481
H  -1.24865010 -2.15597691 0.05422163
H  1.32669228 -2.17618958 0.09581319
H  2.45401586 0.12087425 0.12704813
H  1.22286268 2.23428411 -0.05239163
H  -1.29319678 2.16022881 -0.07323643
H  -2.45963111 0.01707300 0.05237234
12
MD Step 1461 Units = [Angstroms]
C  -0.67613280 -1.25641420 0.00831824
C  0.67930521 -1.21089716 -0.00146243
C  1.38494334 0.03179695 0.02327079
C  0.71161323 1.24401269 0.00512366
C  -0.72167025 1.19229283 -0.05312151
C  -1.37936000 -0.01611480 -0.00058976
H  -1.25710418 -2.16132062 0.05300905
H  1.32328157 -2.16894909 0.10347788
H  2.46545710 0.11649737 0.12438651
H  1.22526221 2.22628578 -0.04550573
H  -1.29257879 2.16907430 -0.07201532
H  -2.44881203 0.00100976 0.05662951
12
MD Step 1462 Units = [Angstroms]
C  -0.67445361 -1.25946022 0.00531355
C  0.67949478 -1.20926304 0.00024242
C  1.38092479 0.03398068 0.02318675
C  0.71139133 1.24136400 0.00386820
C  -0.72079530 1.19247794 -0.05375375
C  -1.37866239 -0.01261334 0.00141028
H  -1.26619211 -2.16854074 0.05172474
H  1.31736149 -2.15837837 0.11023966
H  2.47801004 0.11074027 0.12143988
H  1.22729136 2.21714143 -0.03818110
H  -1.29077468 2.17564904 -0.07085537
H  -2.44066763 -0.01557866 0.06076581
12
MD Step 1463 Units = [Angstroms]
C  -0.67307165 -1.26214905 0.00231876
C  0.68030969 -1.20772101 0.00207890
C  1.37689681 0.03611992 0.02313949
C  0.71081798 1.23864638 0.00249026
C  -0.71972841 1.19293960 -0.05430775
C  -1.37773515 -0.00925816 0.00337366
H  -1.27538771 -2.17690605 0.05031446
H  1.30936054 -2.14504231 0.11611173
H  2.49037915 0.10363398 0.11812956
H  1.22909233 2.20727611 -0.03049319
H  -1.28763867 2.17963814 -0.06975737
H  -2.43588783 -0.03249119 0.06481932
12
MD Step 1464 Units = [Angstroms]
C  -0.67203747 -1.26449350 -0.00065307
C  0.68168289 -1.20624781 0.00403790
C  1.37299978 0.03817690 0.02313423
C  0.70989235 1.23588513 0.00099931
C  -0.71850471 1.19369780 -0.05478156
C  -1.37655225 -0.00611687 0.00529002
H  -1.28412819 -2.18562992 0.04872140
H  1.29988104 -2.12975657 0.12114655
H  2.50136803 0.09525463 0.11439600
H  1.23083313 2.19716182 -0.02251781
H  -1.28313355 2.18091810 -0.06872534
H  -2.43479904 -0.04953172 0.06881210
12
MD Step 1465 Units = [Angstroms]
C  -0.67139144 -1.26650724 -0.00358898
C  0.68352532 -1.20480219 0.00610674
C  1.36935976 0.04010967 0.02317403
C  0.70861698 1.23310640 -0.00059477
C  -0.71715615 1.19475490 -0.05517340
C  -1.37512153 -0.00325393 0.00715075
H  -1.29186847 -2.19394934 0.04689073
H  1.28968210 -2.11356757 0.12543694
H  2.50996516 0.08572256 0.11020429
H  1.23269029 2.18728197 -0.01432844
H  -1.27733231 2.17956198 -0.06776576
H  -2.43731408 -0.06649449 0.07274466
12
MD Step 1466 Units = [Angstroms]
C  -0.67116058 -1.26820040 -0.00647635
C  0.68572971 -1.20332791 0.00826941
C  1.36608359 0.04187355 0.02325974
C  0.70699926 1.23033899 -0.00228192
C  -0.71571091 1.19609533 -0.05548174
C  -1.37348311 -0.00073086 0.00894918
H  -1.29812590 -2.20118766 0.04477342
H  1.27964273 -2.09770443 0.12911269
H  2.51539579 0.07519680 0.10554581
H  1.23482874 2.17809149 -0.00599464
H  -1.27041635 2.17583789 -0.06688689
H  -2.44294991 -0.08315024 0.07659453
12
MD Step 1467 Units = [Angstroms]
C  -0.67135662 -1.26957683 -0.00930311
C  0.68817675 -1.20176007 0.01050728
C  1.36325597 0.04342285 0.02339003
C  0.70505290 1.22761590 -0.00405194
C  -0.71419292 1.19768597 -0.05570527
C  -1.37170280 0.00139406 0.01068034
H  -1.30251295 -2.20679896 0.04232919
H  1.27069731 -2.08349024 0.13233032
H  2.51714912 0.06386712 0.10043707
H  1.23738066 2.16997691 0.00241822
H  -1.26266988 2.17019965 -0.06609794
H  -2.45090789 -0.09923932 0.08031930
12
MD Step 1468 Units = [Angstroms]
C  -0.67197501 -1.27063274 -0.01205779
C  0.69074395 -1.20003532 0.01280052
C  1.36093785 0.04471275 0.02356169
C  0.70279939 1.22497553 -0.00589447
C  -0.71262175 1.19947749 -0.05584289
C  -1.36986241 0.00306698 0.01234049
H  -1.30475836 -2.21039620 0.03952832
H  1.26374144 -2.07220753 0.13525459
H  2.51499042 0.05194508 0.09491726
H  1.24042616 2.16322167 0.01084764
H  -1.25446868 2.16326710 -0.06540842
H  -2.46019332 -0.11447507 0.08386293
12
MD Step 1469 Units = [Angstroms]
C  -0.67299484 -1.27135628 -0.01472960
C  0.69331633 -1.19810504 0.01513014
C  1.35916533 0.04570125 0.02376984
C  0.70026893 1.22246202 -0.00779886
C  -0.71101298 1.20140685 -0.05589375
C  -1.36804931 0.00424033 0.01392657
H  -1.30471898 -2.21176721 0.03635266
H  1.25951724 -2.06492949 0.13803335
H  2.50896548 0.03965494 0.08904487
H  1.24397889 2.15798203 0.01923141
H  -1.24626110 2.15579161 -0.06482738
H  -2.46974482 -0.12855620 0.08716366
12
MD Step 1470 Units = [Angstroms]
C  -0.67437935 -1.27172787 -0.01730844
C  0.69579708 -1.19594885 0.01748016
C  1.35794895 0.04635100 0.02400827
C  0.69750070 1.22012456 -0.00975391
C  -0.70937945 1.20340143 -0.05585724
C  -1.36634735 0.00487512 0.01543560
H  -1.30238461 -2.21088192 0.03279591
H  1.25850086 -2.06234955 0.14077061
H  2.49940101 0.02722454 0.08289411
H  1.24797939 2.15427779 0.02750453
H  -1.23853886 2.14860300 -0.06436271
H  -2.47854893 -0.14118437 0.09016140
12
MD Step 1471 Units = [Angstroms]
C  -0.67607708 -1.27172087 -0.01978493
C  0.69811558 -1.19358444 0.01983935
C  1.35727326 0.04663110 0.02426971
C  0.69454239 1.21801559 -0.01174774
C  -0.70773343 1.20538484 -0.05573300
C  -1.36483005 0.00494311 0.01686431
H  -1.29787726 -2.20789302 0.02886321
H  1.26082344 -2.06465653 0.14350608
H  2.48690041 0.01487615 0.07655079
H  1.25229736 2.15199905 0.03559632
H  -1.23179707 2.14253680 -0.06402038
H  -2.48572667 -0.15208242 0.09280383
12
MD Step 1472 Units = [Angstroms]
C  -0.67802354 -1.27130258 -0.02215044
C  0.70023069 -1.19107047 0.02220186
C  1.35709722 0.04651865 0.02454619
C  0.69144885 1.21618810 -0.01376762
C  -0.70608948 1.20728403 -0.05552095
C  -1.36355628 0.00442871 0.01820889
H  -1.29144488 -2.20312995 0.02457023
H  1.26625088 -2.07149662 0.14620803
H  2.47233047 0.00281736 0.07010764
H  1.25674281 2.15092760 0.04342860
H  -1.22648550 2.13834590 -0.06380378
H  -2.49059039 -0.16101000 0.09505046
12
MD Step 1473 Units = [Angstroms]
C  -0.68014356 -1.27043587 -0.02439707
C  0.70212865 -1.18850115 0.02456663
C  1.35735600 0.04600010 0.02482944
C  0.68828012 1.21469239 -0.01580004
C  -0.70446767 1.20903699 -0.05522128
C  -1.36256795 0.00333022 0.01946479
H  -1.28344850 -2.19708423 0.01994144
H  1.27422948 -2.08203612 0.14878225
H  2.45679061 -0.00876731 0.06365890
H  1.26108404 2.15076878 0.05091555
H  -1.22295734 2.13660798 -0.06371300
H  -2.49267603 -0.16777529 0.09687513
12
MD Step 1474 Units = [Angstroms]
C  -0.68235438 -1.26908159 -0.02651768
C  0.70381702 -1.18599433 0.02693577
C  1.35796503 0.04507203 0.02511129
C  0.68509910 1.21357272 -0.01783080
C  -0.70289634 1.21059941 -0.05483451
C  -1.36188905 0.00166059 0.02062681
H  -1.27434070 -2.19038240 0.01500774
H  1.28398123 -2.09510315 0.15109319
H  2.44155466 -0.01972281 0.05729422
H  1.26506965 2.15118841 0.05796520
H  -1.22142470 2.13764593 -0.06374428
H  -2.49175841 -0.17224280 0.09826729
12
MD Step 1475 Units = [Angstroms]
C  -0.68456960 -1.26720209 -0.02850581
C  0.70531696 -1.18367686 0.02931262
C  1.35882719 0.04374133 0.02538416
C  0.68196904 1.21286429 -0.01984534
C  -0.70141341 1.21194899 -0.05436150
C  -1.36152542 -0.00055244 0.02168906
H  -1.26463360 -2.18374264 0.00980320
H  1.29461875 -2.10936347 0.15299001
H  2.42797644 -0.02992589 0.05109242
H  1.26845145 2.15184974 0.06448249
H  -1.22193101 2.14147951 -0.06388947
H  -2.48785619 -0.17433789 0.09923238
12
MD Step 1476 Units = [Angstroms]
C  -0.68670385 -1.26476626 -0.03035556
C  0.70665611 -1.18167087 0.03169997
C  1.35984310 0.04202444 0.02564144
C  0.67895109 1.21259073 -0.02182906
C  -0.70006596 1.21308633 -0.05380352
C  -1.36146515 -0.00326665 0.02264508
H  -1.25485586 -2.17791305 0.00436131
H  1.30525144 -2.12348521 0.15432989
H  2.41735818 -0.03928151 0.04511623
H  1.27100580 2.15244633 0.07037312
H  -1.22434724 2.14782079 -0.06413591
H  -2.48123031 -0.17404865 0.09979180
12
MD Step 1477 Units = [Angstroms]
C  -0.68867790 -1.26175560 -0.03206150
C  0.70786345 -1.18008328 0.03409890
C  1.36092362 0.03994584 0.02587773
C  0.67610211 1.21276241 -0.02376771
C  -0.69890765 1.21403212 -0.05316223
C  -1.36167925 -0.00642614 0.02348793
H  -1.24550165 -2.17359359 -0.00128873
H  1.31506543 -2.13626460 0.15499471
H  2.41079367 -0.04771290 0.03940938
H  1.27255160 2.15272870 0.07554789
H  -1.22839299 2.15611466 -0.06446646
H  -2.47237608 -0.17142510 0.09998229
12
MD Step 1478 Units = [Angstroms]
C  -0.69042367 -1.25817092 -0.03361862
C  0.70896616 -1.17899925 0.03650812
C  1.36200242 0.03753596 0.02608882
C  0.67347270 1.21337536 -0.02564776
C  -0.69799471 1.21482178 -0.05243970
C  -1.36212320 -0.00996270 0.02421041
H  -1.23697789 -2.17135015 -0.00712482
H  1.32337386 -2.14670569 0.15490016
H  2.40901423 -0.05514744 0.03399733
H  1.27296406 2.15252384 0.07992687
H  -1.23367696 2.16561385 -0.06486013
H  -2.46200602 -0.16657542 0.09985461
12
MD Step 1479 Units = [Angstroms]
C  -0.69188822 -1.25403829 -0.03502230
C  0.70998812 -1.17847888 0.03892382
C  1.36304537 0.03482911 0.02627137
C  0.67110556 1.21441093 -0.02745676
C  -0.69738116 1.21549861 -0.05163838
C  -1.36273956 -0.01379753 0.02480526
H  -1.22955963 -2.17153537 -0.01313303
H  1.32964287 -2.15406183 0.15399897
H  2.41227481 -0.06150316 0.02889161
H  1.27218410 2.15174768 0.08344303
H  -1.23974710 2.17547085 -0.06529296
H  -2.45101715 -0.15965843 0.09947106
12
MD Step 1480 Units = [Angstroms]
C  -0.69303614 -1.24941282 -0.03626854
C  0.71094916 -1.17855607 0.04133976
C  1.36405415 0.03186192 0.02642248
C  0.66903413 1.21583594 -0.02918365
C  -0.69711417 1.21610712 -0.05076103
C  -1.36346234 -0.01784359 0.02526555
H  -1.22336344 -2.17423343 -0.01930620
H  1.33350189 -2.15785209 0.15228048
H  2.42031299 -0.06668155 0.02409666
H  1.27022330 2.15041090 0.08604514
H  -1.24614074 2.18482860 -0.06573925
H  -2.44043569 -0.15087164 0.09890141
12
MD Step 1481 Units = [Angstroms]
C  -0.69384971 -1.24437910 -0.03735423
C  0.71186449 -1.17923860 0.04374742
C  1.36506313 0.02867280 0.02653919
C  0.66728166 1.21760351 -0.03081893
C  -0.69723010 1.21668744 -0.04981068
C  -1.36422357 -0.02200824 0.02558516
H  -1.21834534 -2.17924275 -0.02564049
H  1.33474650 -2.15786534 0.14976831
H  2.43239332 -0.07057002 0.01961668
H  1.26716444 2.14861846 0.08769964
H  -1.25242757 2.19289735 -0.06617285
H  -2.43133373 -0.14043552 0.09821689
12
MD Step 1482 Units = [Angstroms]
C  -0.69432705 -1.23904793 -0.03827754
C  0.71274383 -1.18050858 0.04613624
C  1.36613051 0.02530212 0.02661819
C  0.66586063 1.21965433 -0.03235480
C  -0.69775178 1.21727120 -0.04879055
C  -1.36496191 -0.02619612 0.02575942
H  -1.21432315 -2.18610144 -0.03213072
H  1.33333927 -2.15416060 0.14651750
H  2.44742296 -0.07305346 0.01546069
H  1.26315757 2.14656286 0.08839134
H  -1.25824205 2.19901204 -0.06656852
H  -2.42471884 -0.12857624 0.09748246
12
MD Step 1483 Units = [Angstroms]
C  -0.69447872 -1.23354975 -0.03903821
C  0.71359033 -1.18232289 0.04849381
C  1.36732660 0.02179301 0.02665579
C  0.66477277 1.22191856 -0.03378514
C  -0.69868675 1.21787882 -0.04770396
C  -1.36563239 -0.03031187 0.02578580
H  -1.21101693 -2.19414904 -0.03876581
H  1.32941136 -2.14706764 0.14261139
H  2.46410502 -0.07403046 0.01164442
H  1.25841116 2.14451069 0.08812270
H  -1.26330540 2.20267046 -0.06690305
H  -2.42140801 -0.11551090 0.09674807
12
MD Step 1484 Units = [Angstroms]
C  -0.69432384 -1.22802618 -0.03963770
C  0.71439921 -1.18461373 0.05080616
C  1.36872213 0.01819198 0.02664805
C  0.66400968 1.22431835 -0.03510540
C  -0.70002664 1.21851800 -0.04655426
C  -1.36621542 -0.03426228 0.02566443
H  -1.20809735 -2.20260974 -0.04552565
H  1.32326431 -2.13718705 0.13815812
H  2.48109295 -0.07342883 0.00818951
H  1.25317818 2.14278217 0.08691173
H  -1.26743894 2.20355580 -0.06715632
H  -2.42190878 -0.10143982 0.09604089
12
MD Step 1485 Units = [Angstroms]
C  -0.69388636 -1.22262094 -0.04007921
C  0.71515667 -1.18728953 0.05305803
C  1.37037885 0.01454919 0.02659112
C  0.66355414 1.22677099 -0.03631236
C  -0.70174727 1.21918293 -0.04534475
C  -1.36672264 -0.03795772 0.02539846
H  -1.20523218 -2.21067998 -0.05238000
H  1.31536846 -2.12538418 0.13328606
H  2.49711891 -0.07121653 0.00512089
H  1.24773710 2.14172347 0.08478835
H  -1.27057096 2.20154794 -0.06731212
H  -2.42633606 -0.08654866 0.09536020
12
MD Step 1486 Units = [Angstroms]
C  -0.69319213 -1.21747154 -0.04036744
C  0.71583965 -1.19023707 0.05523338
C  1.37234312 0.01091805 0.02648156
C  0.66338203 1.22919260 -0.03740379
C  -0.70380940 1.21985418 -0.04407862
C  -1.36719783 -0.04131304 0.02499401
H  -1.20212427 -2.21760645 -0.05928924
H  1.30635146 -2.11276668 0.12813741
H  2.51108543 -0.06740662 0.00246367
H  1.24236870 2.14167298 0.08178961
H  -1.27273890 2.19672669 -0.06735893
H  -2.43438868 -0.07101918 0.09467671
12
MD Step 1487 Units = [Angstroms]
C  -0.69226692 -1.21270215 -0.04050825
C  0.71641719 -1.19332602 0.05731614
C  1.37464240 0.00735437 0.02631670
C  0.66346473 1.23150219 -0.03837805
C  -0.70615991 1.22049903 -0.04275885
C  -1.36771216 -0.04424825 0.02445972
H  -1.19853843 -2.22274720 -0.06620681
H  1.29696765 -2.10063203 0.12285929
H  2.52212175 -0.06205674 0.00024010
H  1.23733035 2.14292368 0.07795418
H  -1.27408752 2.18936823 -0.06729044
H  -2.44539311 -0.05504369 0.09393660
12
MD Step 1488 Units = [Angstroms]
C  -0.69113534 -1.20841806 -0.04050828
C  0.71685420 -1.19641688 0.05929103
C  1.37728383 0.00391495 0.02609486
C  0.66377172 1.23362572 -0.03923371
C  -0.70873354 1.22107253 -0.04138822
C  -1.36835490 -0.04668961 0.02380598
H  -1.19431781 -2.22561427 -0.07308240
H  1.28803996 -2.09037214 0.11759230
H  2.52961388 -0.05526502 -0.00153278
H  1.23283093 2.14568586 0.07331724
H  -1.27486236 2.17993370 -0.06710598
H  -2.45840233 -0.03883672 0.09306919
12
MD Step 1489 Units = [Angstroms]
C  -0.68982032 -1.20470156 -0.04037449
C  0.71711788 -1.19937283 0.06114471
C  1.38025397 0.00065613 0.02581553
C  0.66427299 1.23549972 -0.03996929
C  -0.71145506 1.22151938 -0.03996928
C  -1.36922198 -0.04857136 0.02304404
H  -1.18939219 -2.22590014 -0.07986568
H  1.28037102 -2.08333026 0.11245790
H  2.53321815 -0.04716381 -0.00284489
H  1.22900989 2.15005529 0.06790655
H  -1.27539681 2.16904703 -0.06681051
H  -2.47232328 -0.02263945 0.09199627
12
MD Step 1490 Units = [Angstroms]
C  -0.68834305 -1.20160892 -0.04011376
C  0.71718612 -1.20207438 0.06286660
C  1.38351916 -0.00236796 0.02547954
C  0.66494093 1.23707401 -0.04058315
C  -0.71424222 1.22177710 -0.03850434
C  -1.37040457 -0.04983807 0.02218520
H  -1.18378057 -2.22349186 -0.08650994
H  1.27463193 -2.08062306 0.10754746
H  2.53286628 -0.03791243 -0.00369428
H  1.22592392 2.15599246 0.06174068
H  -1.27609035 2.15745795 -0.06641418
H  -2.48604437 -0.00671571 0.09064103
12
MD Step 1491 Units = [Angstroms]
C  -0.68672304 -1.19916854 -0.03973248
C  0.71705597 -1.20443417 0.06444949
C  1.38702598 -0.00510688 0.02508906
C  0.66575142 1.23831317 -0.04107359
C  -0.71700949 1.22178068 -0.03699564
C  -1.37197978 -0.05044718 0.02124011
H  -1.17759018 -2.21847592 -0.09297575
H  1.27125181 -2.08296268 0.10291632
H  2.52876613 -0.02768948 -0.00408780
H  1.22354375 2.16331674 0.05482998
H  -1.27737577 2.14598678 -0.06593112
H  -2.49854218 0.00865822 0.08893519
12
MD Step 1492 Units = [Angstroms]
C  -0.68497824 -1.19738012 -0.03923626
C  0.71674942 -1.20640772 0.06588936
C  1.39070195 -0.00751537 0.02464762
C  0.66668412 1.23919649 -0.04143917
C  -0.71967268 1.22146868 -0.03544542
C  -1.37400403 -0.05037132 0.02021834
H  -1.17101260 -2.21113533 -0.09923422
H  1.27034000 -2.09052759 0.09858514
H  2.52139847 -0.01668464 -0.00404128
H  1.22176158 2.17171716 0.04717981
H  -1.27967508 2.13545103 -0.06537742
H  -2.50895841 0.02320690 0.08682384
12
MD Step 1493 Units = [Angstroms]
C  -0.68312514 -1.19621513 -0.03862969
C  0.71631440 -1.20799688 0.06718483
C  1.39445665 -0.00955446 0.02416000
C  0.66772196 1.23971668 -0.04167910
C  -0.72215416 1.22079037 -0.03385622
C  -1.37650919 -0.04960001 0.01912813
H  -1.16431686 -2.20193830 -0.10526984
H  1.27166786 -2.10292478 0.09454816
H  2.51150574 -0.00508998 -0.00357920
H  1.22040750 2.18077789 0.03879555
H  -1.28334685 2.12657925 -0.06476826
H  -2.51664836 0.03666896 0.08426804
12
MD Step 1494 Units = [Angstroms]
C  -0.68117904 -1.19561866 -0.03791617
C  0.71582020 -1.20924472 0.06833616
C  1.39818409 -0.01119235 0.02363213
C  0.66885012 1.23987747 -0.04179371
C  -0.72438807 1.21971286 -0.03223110
C  -1.37950081 -0.04814056 0.01797636
H  -1.15783826 -2.19151576 -0.11108245
H  1.27471693 -2.11925635 0.09078517
H  2.50006535 0.00690913 -0.00273352
H  1.21927190 2.19001456 0.02968803
H  -1.28863223 2.11992453 -0.06411471
H  -2.52120731 0.04880869 0.08124580
12
MD Step 1495 Units = [Angstroms]
C  -0.67915442 -1.19551315 -0.03709796
C  0.71534884 -1.21022393 0.06934431
C  1.40176698 -0.01240492 0.02307078
C  0.67005489 1.23969061 -0.04178485
C  -0.72632480 1.21822682 -0.03057385
C  -1.38295794 -0.04601799 0.01676854
H  -1.15196092 -2.18062403 -0.11668769
H  1.27877637 -2.13826726 0.08727298
H  2.48823757 0.01914252 -0.00154162
H  1.21813021 2.19891541 0.01987837
H  -1.29560992 2.11579466 -0.06342059
H  -2.52248231 0.05942523 0.07775195
12
MD Step 1496 Units = [Angstroms]
C  -0.67706571 -1.19580412 -0.03617634
C  0.71498509 -1.21102247 0.07021033
C  1.40508376 -0.01317576 0.02248329
C  0.67132261 1.23917281 -0.04165615
C  -0.72793367 1.21634939 -0.02888918
C  -1.38683394 -0.04327430 0.01550900
H  -1.14709244 -2.17008933 -0.12211527
H  1.28305797 -2.15852735 0.08399349
H  2.47727961 0.03146157 -0.00004331
H  1.21676640 2.20698230 0.00940130
H  -1.30417095 2.11421548 -0.06268044
H  -2.52057543 0.06835948 0.07379722
12
MD Step 1497 Units = [Angstroms]
C  -0.67492860 -1.19638774 -0.03515206
C  0.71480734 -1.21173028 0.07093495
C  1.40801851 -0.01349576 0.02187718
C  0.67263894 1.23834270 -0.04141310
C  -0.72920338 1.21412357 -0.02718266
C  -1.39105800 -0.03996696 0.01420100
H  -1.14362997 -2.16073373 -0.12740419
H  1.28679948 -2.17860144 0.08093732
H  2.46842356 0.04374082 0.00172279
H  1.21499328 2.21376719 -0.00169328
H  -1.31402024 2.11493658 -0.06187898
H  -2.51584061 0.07549896 0.06940683
12
MD Step 1498 Units = [Angstroms]
C  -0.67276172 -1.19715996 -0.03402596
C  0.71488109 -1.21242926 0.07151857
C  1.41047293 -0.01336215 0.02125979
C  0.67398837 1.23721841 -0.04106299
C  -0.73014019 1.21161413 -0.02546064
C  -1.39553734 -0.03616699 0.01284698
H  -1.14191928 -2.15328766 -0.13259478
H  1.28933929 -2.19717910 0.07810403
H  2.46272867 0.05587308 0.00372278
H  1.21266794 2.21890184 -0.01334070
H  -1.32470509 2.11747777 -0.06099239
H  -2.50887334 0.08078032 0.06461835
12
MD Step 1499 Units = [Angstroms]
C  -0.67058856 -1.19802571 -0.03279989
C  0.71525503 -1.21318707 0.07196132
C  1.41237841 -0.01277705 0.02063801
C  0.67535419 1.23581561 -0.04061474
C  -0.73076439 1.20890118 -0.02372991
C  -1.40016035 -0.03195657 0.01144881
H  -1.14221184 -2.14830082 -0.13771809
H  1.29016017 -2.21315733 0.07550039
H  2.46093323 0.06775794 0.00592963
H  1.20970247 2.22211986 -0.02546350
H  -1.33566384 2.12120357 -0.05999095
H  -2.50048837 0.08418920 0.05947895
12
MD Step 1500 Units = [Angstroms]
C  -0.66843910 -1.19890695 -0.03147757
C  0.71595933 -1.21405390 0.07226321
C  1.41370521 -0.01174603 0.02001826
C  0.67671845 1.23414622 -0.04007856
C  -0.73110594 1.20607273 -0.02199738
C  -1.40480119 -0.02742635 0.01000809
H  -1.14462746 -2.14606842 -0.14278451
H  1.28890839 -2.22568398 0.07313789
H  2.46334112 0.07928672 0.00832328
H  1.20606994 2.22327125 -0.03797460
H  -1.34628383 2.12540877 -0.05884251
H  -2.49167821 0.08575645 0.05404154
12
MD Step 1501 Units = [Angstroms]
C  -0.66635058 -1.19974787 -0.03006539
C  0.71700532 -1.21506118 0.07242424
C  1.41446612 -0.01027706 0.01940660
C  0.67806220 1.23221786 -0.03946562
C  -0.73120018 1.20321763 -0.02026976
C  -1.40932643 -0.02267246 0.00852652
H  -1.14913093 -2.14658984 -0.14777413
H  1.28539769 -2.23417589 0.07103040
H  2.46977512 0.09032942 0.01088836
H  1.20180639 2.22232984 -0.05078139
H  -1.35595776 2.12939871 -0.05751590
H  -2.48354483 0.08555009 0.04836003
12
MD Step 1502 Units = [Angstroms]
C  -0.66436690 -1.20051638 -0.02857275
C  0.71838601 -1.21622099 0.07244457
C  1.41471365 -0.00838041 0.01880899
C  0.67936554 1.23003386 -0.03878760
C  -0.73108429 1.20041960 -0.01855320
C  -1.41360397 -0.01779336 0.00700632
H  -1.15552879 -2.14957038 -0.15263168
H  1.27960618 -2.23832436 0.06919216
H  2.47961080 0.10072913 0.01361030
H  1.19700901 2.21939409 -0.06379018
H  -1.36413116 2.13255449 -0.05598383
H  -2.47720027 0.08366320 0.04248399
12
MD Step 1503 Units = [Angstroms]
C  -0.66253668 -1.20120173 -0.02701199
C  0.72007684 -1.21752564 0.07232464
C  1.41453140 -0.00606953 0.01823164
C  0.68060778 1.22759407 -0.03805636
C  -0.73079452 1.19775287 -0.01685313
C  -1.41751391 -0.01288666 0.00545061
H  -1.16348770 -2.15446571 -0.15726737
H  1.27167138 -2.23809722 0.06763624
H  2.49187990 0.11030648 0.01647118
H  1.19183074 2.21468103 -0.07691074
H  -1.37033755 2.13437935 -0.05422497
H  -2.47364062 0.08019943 0.03645351
12
MD Step 1504 Units = [Angstroms]
C  -0.66091020 -1.20180941 -0.02539779
C  0.72203658 -1.21894692 0.07206528
C  1.41402235 -0.00336289 0.01768122
C  0.68176765 1.22489626 -0.03728355
C  -0.73036441 1.19527919 -0.01517410
C  -1.42096016 -0.00804632 0.00386364
H  -1.17257015 -2.16055748 -0.16156365
H  1.26188564 -2.23374158 0.06637329
H  2.50541289 0.11887257 0.01944679
H  1.18647121 2.20851285 -0.09006037
H  -1.37422185 2.13452789 -0.05222526
H  -2.47360996 0.07525998 0.03029578
12
MD Step 1505 Units = [Angstroms]
C  -0.65953575 -1.20235470 -0.02374633
C  0.72420830 -1.22043529 0.07166782
C  1.41329693 -0.00028602 0.01716491
C  0.68282355 1.22193816 -0.03648034
C  -0.72982347 1.19304589 -0.01351967
C  -1.42388033 -0.00336069 0.00225084
H  -1.18227971 -2.16704273 -0.16538600
H  1.25069116 -2.22578670 0.06541065
H  2.51898555 0.12624582 0.02250544
H  1.18116399 2.20129554 -0.10316705
H  -1.37555429 2.13282208 -0.04997846
H  -2.47748204 0.06893622 0.02402445
12
MD Step 1506 Units = [Angstroms]
C  -0.65845624 -1.20285632 -0.02207424
C  0.72652070 -1.22191952 0.07113424
C  1.41246287 0.00312660 0.01669038
C  0.68375409 1.21872011 -0.03565727
C  -0.72919629 1.19108489 -0.01189247
C  -1.42625159 0.00108858 0.00061855
H  -1.19210735 -2.17312032 -0.16859538
H  1.23867141 -2.21504128 0.06475181
H  2.53144317 0.13226810 0.02560858
H  1.17616008 2.19348934 -0.11617105
H  -1.37423733 2.12925806 -0.04748622
H  -2.48519080 0.06131088 0.01764238
12
MD Step 1507 Units = [Angstroms]
C  -0.65770616 -1.20333119 -0.02039770
C  0.72889013 -1.22330764 0.07046720
C  1.41161808 0.00683031 0.01626557
C  0.68453882 1.21524816 -0.03482426
C  -0.72850181 1.18941212 -0.01029423
C  -1.42809065 0.00522669 -0.00102644
H  -1.20157224 -2.17806261 -0.17106007
H  1.22653346 -2.20257424 0.06439630
H  2.54179046 0.13681667 0.02871262
H  1.17170837 2.18557175 -0.12902448
H  -1.37030781 2.12400656 -0.04475772
H  -2.49623048 0.05246747 0.01114706
12
MD Step 1508 Units = [Angstroms]
C  -0.65730949 -1.20379075 -0.01873166
C  0.73122383 -1.22449062 0.06967010
C  1.41084612 0.01076967 0.01589851
C  0.68515918 1.21153726 -0.03399076
C  -0.72775279 1.18802754 -0.00872584
C  -1.42944800 0.00898535 -0.00267746
H  -1.21025386 -2.18126810 -0.17266539
H  1.21507451 -2.18966444 0.06434017
H  2.54924784 0.13981132 0.03177136
H  1.16803439 2.17799580 -0.14168834
H  -1.36393472 2.11740786 -0.04180904
H  -2.50972636 0.04250374 0.00453712
12
MD Step 1509 Units = [Angstroms]
C  -0.65727820 -1.20423881 -0.01708928
C  0.73342498 -1.22535001 0.06874703
C  1.41021388 0.01487876 0.01559701
C  0.68559951 1.20761437 -0.03316619
C  -0.72695549 1.18691560 -0.00718749
C  -1.43039784 0.01230263 -0.00432840
H  -1.21781479 -2.18229577 -0.17332095
H  1.20512642 -2.17770476 0.06457720
H  2.55328185 0.14121692 0.03473859
H  1.16531951 2.17114780 -0.15412748
H  -1.35541195 2.10996019 -0.03866206
H  -2.52455636 0.03154375 -0.00218204
12
MD Step 1510 Units = [Angstroms]
C  -0.65761140 -1.20467046 -0.01548152
C  0.73539946 -1.22576997 0.06770269
C  1.40977037 0.01908204 0.01536843
C  0.68584792 1.20352074 -0.03236030
C  -0.72611002 1.18604648 -0.00567887
C  -1.43102652 0.01512314 -0.00597408
H  -1.22401558 -2.18088469 -0.17296546
H  1.19747746 -2.16805472 0.06510037
H  2.55361910 0.14104281 0.03757054
H  1.16368340 2.16531056 -0.16630375
H  -1.34514393 2.10229839 -0.03534308
H  -2.53949212 0.01974421 -0.00899490
12
MD Step 1511 Units = [Angstroms]
C  -0.65829497 -1.20507188 -0.01391698
C  0.73706395 -1.22565275 0.06654231
C  1.40954622 0.02329581 0.01521939
C  0.68589700 1.19931306 -0.03158373
C  -0.72521139 1.18537836 -0.00419935
C  -1.43142163 0.01739896 -0.00761027
H  -1.22872365 -2.17696341 -0.17156950
H  1.19277843 -2.16185425 0.06590312
H  2.55025115 0.13934027 0.04022811
H  1.16317234 2.16063784 -0.17816910
H  -1.33362154 2.09515903 -0.03188086
H  -2.55333078 0.00729356 -0.01587508
12
MD Step 1512 Units = [Angstroms]
C  -0.65930163 -1.20542050 -0.01240168
C  0.73835378 -1.22493457 0.06527170
C  1.40955317 0.02743021 0.01515555
C  0.68574399 1.19506297 -0.03084828
C  -0.72425171 1.18486110 -0.00274821
C  -1.43166350 0.01909099 -0.00923368
H  -1.23191757 -2.17065203 -0.16913670
H  1.19145161 -2.15983546 0.06697930
H  2.54343462 0.13619859 0.04267898
H  1.16375544 2.15714457 -0.18965976
H  -1.32138633 2.08932833 -0.02830444
H  -2.56499899 -0.00559477 -0.02278675
12
MD Step 1513 Units = [Angstroms]
C  -0.66059136 -1.20568561 -0.01093907
C  0.73922870 -1.22359734 0.06389733
C  1.40978383 0.03139159 0.01518136
C  0.68539066 1.19085494 -0.03016707
C  -0.72322344 1.18444141 -0.00132494
C  -1.43181931 0.02017048 -0.01084171
H  -1.23368751 -2.16225811 -0.16570344
H  1.19362617 -2.16218526 0.06832130
H  2.53368647 0.13174017 0.04489940
H  1.16532928 2.15471439 -0.20069317
H  -1.30898320 2.08557225 -0.02464058
H  -2.57362416 -0.01869260 -0.02968737
12
MD Step 1514 Units = [Angstroms]
C  -0.66211246 -1.20582927 -0.00953014
C  0.73967494 -1.22167256 0.06242663
C  1.41021175 0.03508539 0.01529981
C  0.68484286 1.18678251 -0.02955437
C  -0.72212330 1.18406924 0.00007051
C  -1.43193959 0.02062048 -0.01243222
H  -1.23423101 -2.15226560 -0.16133683
H  1.19912011 -2.16850517 0.06991649
H  2.52177104 0.12611436 0.04687564
H  1.16773015 2.15312278 -0.21116835
H  -1.29690565 2.08455299 -0.02091156
H  -2.57857692 -0.03176812 -0.03653119
12
MD Step 1515 Units = [Angstroms]
C  -0.66380328 -1.20580792 -0.00817365
C  0.73970312 -1.21923583 0.06086826
C  1.41079250 0.03841936 0.01551231
C  0.68410987 1.18294356 -0.02902508
C  -0.72095631 1.18370462 0.00143760
C  -1.43205640 0.02043690 -0.01400330
H  -1.23384246 -2.14131373 -0.15613069
H  1.20747426 -2.17788317 0.07174348
H  2.50867150 0.11948967 0.04860477
H  1.17075157 2.15207114 -0.22096969
H  -1.28554198 2.08674308 -0.01713366
H  -2.57949312 -0.04459652 -0.04327274
12
MD Step 1516 Units = [Angstroms]
C  -0.66559483 -1.20557485 -0.00686657
C  0.73934303 -1.21639428 0.05923228
C  1.41146658 0.04130694 0.01581857
C  0.68320389 1.17943493 -0.02859411
C  -0.71973879 1.18332353 0.00277505
C  -1.43218253 0.01962914 -0.01555297
H  -1.23289375 -2.13016200 -0.15019883
H  1.21802658 -2.18905233 0.07376959
H  2.49553687 0.11204431 0.05009440
H  1.17416445 2.15122598 -0.22997349
H  -1.27513371 2.09235318 -0.01331692
H  -2.57628326 -0.05696923 -0.04987036
12
MD Step 1517 Units = [Angstroms]
C  -0.66741436 -1.20508406 -0.00560480
C  0.73863702 -1.21327078 0.05753011
C  1.41216473 0.04367068 0.01621672
C  0.68213960 1.17634714 -0.02827555
C  -0.71849959 1.18292167 0.00408097
C  -1.43231138 0.01822009 -0.01707895
H  -1.23180378 -2.11963780 -0.14366555
H  1.23000426 -2.20058531 0.07595074
H  2.48359702 0.10395547 0.05136084
H  1.17773724 2.15025764 -0.23805600
H  -1.26575629 2.10129061 -0.00946627
H  -2.56913507 -0.06870192 -0.05628958
12
MD Step 1518 Units = [Angstroms]
C  -0.66918996 -1.20429537 -0.00438406
C  0.73763378 -1.20998947 0.05577427
C  1.41281613 0.04544533 0.01670348
C  0.68093401 1.17375959 -0.02808187
C  -0.71727897 1.18251493 0.00535293
C  -1.43241714 0.01624563 -0.01857846
H  -1.23099638 -2.11056593 -0.13665357
H  1.24261125 -2.21107436 0.07823360
H  2.47404421 0.09538896 0.05242558
H  1.18125410 2.14887443 -0.24510175
H  -1.25732738 2.11315974 -0.00558383
H  -2.55851065 -0.07964138 -0.06250633
12
MD Step 1519 Units = [Angstroms]
C  -0.67085570 -1.20318069 -0.00320090
C  0.73638363 -1.20666468 0.05397807
C  1.41335847 0.04658032 0.01727454
C  0.67960644 1.17173655 -0.02802322
C  -0.71612549 1.18213671 0.00658825
C  -1.43245576 0.01375366 -0.02004797
H  -1.23084925 -2.10368477 -0.12927100
H  1.25509704 -2.21926652 0.08055917
H  2.46789146 0.08649130 0.05331027
H  1.18452997 2.14684972 -0.25101121
H  -1.24963982 2.12730511 -0.00167171
H  -2.54513614 -0.08967095 -0.06850995
12
MD Step 1520 Units = [Angstroms]
C  -0.67235688 -1.20173030 -0.00205353
C  0.73493541 -1.20339419 0.05215516
C  1.41374831 0.04704137 0.01792496
C  0.67817847 1.17032416 -0.02810681
C  -0.71509145 1.18183268 0.00778415
C  -1.43236685 0.01080262 -0.02148305
H  -1.23164114 -2.09955984 -0.12159976
H  1.26680303 -2.22414706 0.08286684
H  2.46583173 0.07738655 0.05403130
H  1.18742212 2.14404124 -0.25570716
H  -1.24241050 2.14288672 0.00226547
H  -2.52997774 -0.09871426 -0.07430552
12
MD Step 1521 Units = [Angstroms]
C  -0.67365441 -1.19995807 -0.00094245
C  0.73333482 -1.20025593 0.05031920
C  1.41396911 0.04681123 0.01864950
C  0.67667386 1.16954842 -0.02833648
C  -0.71422802 1.18165436 0.00893792
C  -1.43207745 0.00745970 -0.02287835
H  -1.23350744 -2.09851109 -0.11368817
H  1.27718951 -2.22498066 0.08509816
H  2.46813089 0.06817865 0.05459543
H  1.18983816 2.14040294 -0.25913922
H  -1.23533318 2.15897103 0.00621889
H  -2.51419541 -0.10673572 -0.07991494
12
MD Step 1522 Units = [Angstroms]
C  -0.67472742 -1.19790416 0.00012952
C  0.73162342 -1.19730688 0.04848352
C  1.41403433 0.04588958 0.01944278
C  0.67511822 1.16941421 -0.02871243
C  -0.71358093 1.18165280 0.01004697
C  -1.43150829 0.00379858 -0.02422767
H  -1.23641510 -2.10057016 -0.10555007
H  1.28584984 -2.22132555 0.08720013
H  2.47458427 0.05895794 0.05499794
H  1.19174081 2.13598981 -0.26128674
H  -1.22812562 2.17462054 0.01017492
H  -2.49906562 -0.11373653 -0.08537564
12
MD Step 1523 Units = [Angstroms]
C  -0.67557372 -1.19563436 0.00115777
C  0.72983796 -1.19458317 0.04666086
C  1.41398483 0.04429254 0.02029920
C  0.67353850 1.16990529 -0.02923118
C  -0.71318702 1.18187326 0.01110886
C  -1.43058271 -0.00010312 -0.02552436
H  -1.24016359 -2.10547849 -0.09717074
H  1.29251808 -2.21303446 0.08912801
H  2.48454993 0.04980899 0.05522390
H  1.19314936 2.13095617 -0.26215960
H  -1.22056513 2.18897018 0.01411561
H  -2.48586913 -0.11974479 -0.09073615
12
MD Step 1524 Units = [Angstroms]
C  -0.67620784 -1.19323602 0.00213672
C  0.72800943 -1.19210050 0.04486309
C  1.41388121 0.04205196 0.02121259
C  0.67196219 1.17098528 -0.02988560
C  -0.71307199 1.18235116 0.01212117
C  -1.42923795 -0.00416657 -0.02676198
H  -1.24441191 -2.11272638 -0.08851791
H  1.29707483 -2.20025200 0.09084795
H  2.49704848 0.04081648 0.05525218
H  1.19413783 2.12554761 -0.26179706
H  -1.21251136 2.20128514 0.01801977
H  -2.47575013 -0.12480032 -0.09604781
12
MD Step 1525 Units = [Angstroms]
C  -0.67665745 -1.19081151 0.00306087
C  0.72616191 -1.18985450 0.04310098
C  1.41379351 0.03921467 0.02217589
C  0.67041658 1.17259960 -0.03066527
C  -0.71324917 1.18310936 0.01308142
C  -1.42743700 -0.00831450 -0.02793519
H  -1.24872462 -2.12162313 -0.07955489
H  1.29955353 -2.18341227 0.09233952
H  2.51090112 0.03206736 0.05506055
H  1.19482928 2.12008612 -0.26026454
H  -1.20391817 2.21100020 0.02186459
H  -2.46956701 -0.12893671 -0.10135348
12
MD Step 1526 Units = [Angstroms]
C  -0.67695892 -1.18847049 0.00392574
C  0.72431107 -1.18782119 0.04138390
C  1.41379077 0.03584169 0.02318077
C  0.66892803 1.17467836 -0.03155689
C  -0.71371901 1.18415647 0.01398695
C  -1.42517834 -0.01247337 -0.02904072
H  -1.25262605 -2.13138194 -0.07025255
H  1.30014708 -2.16323569 0.09359825
H  2.52487297 0.02364947 0.05463070
H  1.19538602 2.11494828 -0.25764811
H  -1.19483726 2.21774416 0.02562734
H  -2.46776719 -0.13216558 -0.10667531
12
MD Step 1527 Units = [Angstroms]
C  -0.67715291 -1.18632238 0.00472853
C  0.72246274 -1.18595773 0.03971960
C  1.41393261 0.03200717 0.02421744
C  0.66752156 1.17714015 -0.03254502
C  -0.71446915 1.18548579 0.01483477
C  -1.42250085 -0.01657478 -0.03007816
H  -1.25565221 -2.14120361 -0.06059794
H  1.29921167 -2.14071891 0.09463798
H  2.53779596 0.01564791 0.05395184
H  1.19599524 2.11053643 -0.25404704
H  -1.18541640 2.22135301 0.02928710
H  -2.47031913 -0.13446832 -0.11200481
12
MD Step 1528 Units = [Angstroms]
C  -0.67728054 -1.18446991 0.00546840
C  0.72061211 -1.18420452 0.03811398
C  1.41426358 0.02779693 0.02527459
C  0.66622066 1.17989663 -0.03361282
C  -0.71547494 1.18707486 0.01562145
C  -1.41948233 -0.02055579 -0.03105022
H  -1.25739322 -2.15034777 -0.05059880
H  1.29726136 -2.11710719 0.09549215
H  2.54865936 0.00814099 0.05302271
H  1.19685041 2.10724388 -0.24956473
H  -1.17589403 2.22187499 0.03282649
H  -2.47672210 -0.13579823 -0.11729835
12
MD Step 1529 Units = [Angstroms]
C  -0.67738041 -1.18300411 0.00614652
C  0.71874442 -1.18248945 0.03657110
C  1.41481023 0.02330650 0.02633950
C  0.66504763 1.18285758 -0.03474301
C  -0.71670020 1.18888543 0.01634299
C  -1.41623169 -0.02435853 -0.03196257
H  -1.25752373 -2.15818675 -0.04028433
H  1.29494441 -2.09383583 0.09621322
H  2.55666784 0.00119689 0.05185203
H  1.19812969 2.10541676 -0.24429914
H  -1.16659080 2.21956835 0.03623307
H  -2.48609047 -0.13609203 -0.12247938
12
MD Step 1530 Units = [Angstroms]
C  -0.67748642 -1.18200070 0.00676593
C  0.71683791 -1.18073548 0.03509336
C  1.41558010 0.01863868 0.02739826
C  0.66402398 1.18593601 -0.03591866
C  -0.71809844 1.19086418 0.01699478
C  -1.41287720 -0.02792933 -0.03282309
H  -1.25582184 -2.16424243 -0.02970316
H  1.29299173 -2.07242904 0.09686862
H  2.56127373 -0.00512848 0.05045791
H  1.19997341 2.10531638 -0.23833380
H  -1.15789771 2.21489044 0.03950069
H  -2.49728774 -0.13528630 -0.12744665
12
MD Step 1531 Units = [Angstroms]
C  -0.67762629 -1.18151756 0.00733115
C  0.71486962 -1.17887157 0.03368211
C  1.41656195 0.01390070 0.02843608
C  0.66317103 1.18905286 -0.03712392
C  -0.71961446 1.19294432 0.01757153
C  -1.40955337 -0.03121818 -0.03364091
H  -1.25217919 -2.16820919 -0.01891943
H  1.29213247 -2.05435377 0.09753222
H  2.56219231 -0.01079238 0.04886661
H  1.20246402 2.10708756 -0.23173122
H  -1.15025952 2.20847463 0.04263024
H  -2.50907568 -0.13333343 -0.13208579
12
MD Step 1532 Units = [Angstroms]
C  -0.67782052 -1.18159290 0.00784788
C  0.71282364 -1.17684600 0.03233858
C  1.41772644 0.00920115 0.02943763
C  0.66251017 1.19214072 -0.03834439
C  -0.72118652 1.19504877 0.01806732
C  -1.40638920 -0.03417866 -0.03442539
H  -1.24660469 -2.16996678 -0.00800801
H  1.29298287 -2.04084334 0.09827171
H  2.55940708 -0.01576520 0.04711092
H  1.20561164 2.11073793 -0.22452981
H  -1.14415206 2.20109028 0.04562982
H  -2.52024880 -0.13021305 -0.13628135
12
MD Step 1533 Units = [Angstroms]
C  -0.67808184 -1.18224399 0.00832256
C  0.71069980 -1.17463912 0.03106503
C  1.41902700 0.00464688 0.03038740
C  0.66206272 1.19514616 -0.03956722
C  -0.72274915 1.19709492 0.01847575
C  -1.40349912 -0.03676844 -0.03518530
H  -1.23922398 -2.16958581 0.00295091
H  1.29593027 -2.03272600 0.09913383
H  2.55316902 -0.02002987 0.04522831
H  1.20934829 2.11613213 -0.21674498
H  -1.14005223 2.19358203 0.04851391
H  -2.52973720 -0.12593762 -0.13992714
12
MD Step 1534 Units = [Angstroms]
C  -0.67841498 -1.18346630 0.00876193
C  0.70852041 -1.17227186 0.02986564
C  1.42040081 0.00034011 0.03127005
C  0.66184924 1.19803052 -0.04078086
C  -0.72423661 1.19900133 0.01879008
C  -1.40097683 -0.03895040 -0.03592814
H  -1.23027527 -2.16732700 0.01387742
H  1.30104508 -2.03030495 0.10013178
H  2.54398980 -0.02358089 0.04325901
H  1.21353192 2.12300229 -0.20837414
H  -1.13840079 2.18678787 0.05130118
H  -2.53667471 -0.12055279 -0.14293378
12
MD Step 1535 Units = [Angstroms]
C  -0.67881681 -1.18523333 0.00917255
C  0.70633218 -1.16980700 0.02874700
C  1.42177024 -0.00362412 0.03207082
C  0.66188832 1.20076925 -0.04197458
C  -0.72558676 1.20069564 0.01900370
C  -1.39889167 -0.04069388 -0.03665976
H  -1.22010096 -2.16363271 0.02469746
H  1.30805114 -2.03332724 0.10123902
H  2.53262538 -0.02642307 0.04124388
H  1.21795965 2.13097293 -0.19940447
H  -1.13956034 2.18144252 0.05401105
H  -2.54043812 -0.11413430 -0.14523382
12
MD Step 1536 Units = [Angstroms]
C  -0.67927703 -1.18749739 0.00956041
C  0.70420258 -1.16734254 0.02771784
C  1.42304539 -0.00715998 0.03277585
C  0.66219507 1.20334996 -0.04313791
C  -0.72674496 1.20212269 0.01911046
C  -1.39728672 -0.04197600 -0.03738407
H  -1.20913343 -2.15910775 0.03534805
H  1.31636609 -2.04105058 0.10239175
H  2.52004310 -0.02857010 0.03922234
H  1.22238798 2.13959619 -0.18982178
H  -1.14377340 2.17808000 0.05665909
H  -2.54066671 -0.10678312 -0.14678463
12
MD Step 1537 Units = [Angstroms]
C  -0.67977955 -1.19019182 0.00993047
C  0.70221164 -1.16499939 0.02678817
C  1.42412836 -0.01019231 0.03337243
C  0.66277963 1.20576984 -0.04426009
C  -0.72766757 1.20325106 0.01910518
C  -1.39617797 -0.04278277 -0.03810287
H  -1.19787270 -2.15448477 0.04578162
H  1.32519732 -2.05238350 0.10349912
H  2.50736399 -0.03004272 0.03723021
H  1.22655659 2.14839195 -0.17961887
H  -1.15112752 2.17695539 0.05925226
H  -2.53727008 -0.09861991 -0.14757004
12
MD Step 1538 Units = [Angstroms]
C  -0.68030453 -1.19323506 0.01028643
C  0.70044186 -1.16290695 0.02596813
C  1.42491995 -0.01265758 0.03384931
C  0.66364588 1.20803260 -0.04532968
C  -0.72832425 1.20407648 0.01898402
C  -1.39555422 -0.04310990 -0.03881574
H  -1.18685429 -2.15057030 0.05596833
H  1.33366192 -2.06605465 0.10445731
H  2.49577414 -0.03086667 0.03529813
H  1.23021246 2.15688771 -0.16880208
H  -1.16153482 2.17800500 0.06178485
H  -2.53042987 -0.08977960 -0.14760108
12
MD Step 1539 Units = [Angstroms]
C  -0.68083123 -1.19653674 0.01063069
C  0.69896903 -1.16119002 0.02526685
C  1.42532870 -0.01450435 0.03419674
C  0.66479069 1.21014561 -0.04633432
C  -0.72869891 1.20462122 0.01874476
C  -1.39537739 -0.04296323 -0.03952004
H  -1.17660733 -2.14817001 0.06589545
H  1.34089866 -2.08076937 0.10516346
H  2.48640535 -0.03107055 0.03345053
H  1.23313158 2.16465415 -0.15739542
H  -1.17473093 2.18085600 0.06423639
H  -2.52059636 -0.08040600 -0.14691584
12
MD Step 1540 Units = [Angstroms]
C  -0.68134138 -1.20000547 0.01096461
C  0.69785542 -1.15995913 0.02469169
C  1.42528141 -0.01569353 0.03440657
C  0.66620364 1.21211717 -0.04726076
C  -0.72878897 1.20492953 0.01838674
C  -1.39558371 -0.04235874 -0.04021089
H  -1.16760612 -2.14799794 0.07556278
H  1.34615198 -2.09532869 0.10552651
H  2.48019727 -0.03068382 0.03170579
H  1.23513667 2.17133431 -0.14544215
H  -1.19029410 2.18488316 0.06657204
H  -2.50847750 -0.07064643 -0.14557836
12
MD Step 1541 Units = [Angstroms]
C  -0.68182252 -1.20355724 0.01128911
C  0.69714588 -1.15930440 0.02424769
C  1.42473320 -0.01619833 0.03447211
C  0.66786718 1.21395438 -0.04809498
C  -0.72860351 1.20506041 0.01791078
C  -1.39608606 -0.04132224 -0.04088136
H  -1.16022206 -2.15058173 0.08497427
H  1.34882328 -2.10870549 0.10547401
H  2.47776547 -0.02973555 0.03007735
H  1.23611010 2.17666523 -0.13300416
H  -1.20768093 2.18929813 0.06874528
H  -2.49501372 -0.06064622 -0.14367574
12
MD Step 1542 Units = [Angstroms]
C  -0.68227068 -1.20712301 0.01160546
C  0.69686635 -1.15929239 0.02393745
C  1.42367453 -0.01600421 0.03438800
C  0.66975717 1.21566147 -0.04882251
C  -0.72816051 1.20507931 0.01731879
C  -1.39677833 -0.03988868 -0.04152285
H  -1.15468508 -2.15618195 0.09412699
H  1.34849506 -2.12008548 0.10495551
H  2.47930677 -0.02825390 0.02857566
H  1.23600205 2.18049245 -0.12015948
H  -1.22627145 2.19325033 0.07070235
H  -2.48132978 -0.05054308 -0.14131287
12
MD Step 1543 Units = [Angstroms]
C  -0.68269161 -1.21065372 0.01191609
C  0.69702387 -1.15996471 0.02376107
C  1.42213311 -0.01510881 0.03415004
C  0.67184359 1.21723879 -0.04942881
C  -0.72748404 1.20505045 0.01661339
C  -1.39754235 -0.03810108 -0.04212577
H  -1.15106370 -2.16474479 0.10300027
H  1.34493773 -2.12888550 0.10394359
H  2.48456831 -0.02626628 0.02720992
H  1.23483403 2.18277747 -0.10699851
H  -1.24541617 2.19592091 0.07238724
H  -2.46865496 -0.04046215 -0.13860390
12
MD Step 1544 Units = [Angstroms]
C  -0.68310031 -1.21412170 0.01222516
C  0.69760744 -1.16133745 0.02371630
C  1.42016998 -0.01352202 0.03375513
C  0.67409138 1.21868242 -0.04989974
C  -0.72660168 1.20503054 0.01579756
C  -1.39825772 -0.03600925 -0.04268041
H  -1.14926832 -2.17590075 0.11154793
H  1.33810780 -2.13476062 0.10243359
H  2.49288960 -0.02379989 0.02598930
H  1.23269811 2.18359870 -0.09361951
H  -1.26447895 2.19659744 0.07374647
H  -2.45820834 -0.03051263 -0.13566077
12
MD Step 1545 Units = [Angstroms]
C  -0.68351894 -1.21751823 0.01253875
C  0.69858900 -1.16340077 0.02379861
C  1.41787084 -0.01126613 0.03320127
C  0.67646136 1.21998444 -0.05022202
C  -0.72554245 1.20506447 0.01487429
C  -1.39881398 -0.03366811 -0.04317808
H  -1.14907648 -2.18900987 0.11969608
H  1.32814342 -2.13760807 0.10044287
H  2.50330477 -0.02088204 0.02492301
H  1.22975175 2.18314565 -0.08012354
H  -1.28287246 2.19472595 0.07473312
H  -2.45105676 -0.02078730 -0.13257995
12
MD Step 1546 Units = [Angstroms]
C  -0.68397349 -1.22084836 0.01286453
C  0.69992456 -1.16611833 0.02400131
C  1.41533493 -0.00837595 0.03248761
C  0.67891123 1.22113393 -0.05038367
C  -0.72433514 1.20518260 0.01384631
C  -1.39912315 -0.03113572 -0.04361217
H  -1.15017332 -2.20324204 0.12734682
H  1.31535985 -2.13757179 0.09800987
H  2.51467719 -0.01754004 0.02401952
H  1.22620828 2.18170581 -0.06660948
H  -1.30008549 2.18994199 0.07530978
H  -2.44796728 -0.01136560 -0.12943009
12
MD Step 1547 Units = [Angstroms]
C  -0.68449034 -1.22412420 0.01321116
C  0.70155509 -1.16942678 0.02431565
C  1.41266415 -0.00489898 0.03161459
C  0.68139674 1.22211857 -0.05037444
C  -0.72300709 1.20539952 0.01271595
C  -1.39913012 -0.02847134 -0.04397886
H  -1.15219760 -2.21767340 0.13438668
H  1.30024433 -2.13504713 0.09519292
H  2.52583530 -0.01380088 0.02328534
H  1.22232285 2.17964374 -0.05316962
H  -1.31570318 2.18208584 0.07545067
H  -2.44928753 -0.00231953 -0.12624383
12
MD Step 1548 Units = [Angstroms]
C  -0.68509284 -1.22735860 0.01358741
C  0.70340777 -1.17323569 0.02473092
C  1.40995407 -0.00089519 0.03058408
C  0.68387297 1.22292704 -0.05018608
C  -0.72158298 1.20571368 0.01148502
C  -1.39881799 -0.02573351 -0.04427734
H  -1.15478491 -2.23138021 0.14069741
H  1.28344669 -2.13068097 0.09206837
H  2.53568694 -0.00969078 0.02272390
H  1.21837397 2.17737210 -0.03988612
H  -1.32942180 2.17120668 0.07514291
H  -2.45488650 0.00627943 -0.12301654
12
MD Step 1549 Units = [Angstroms]
C  -0.68579879 -1.23055984 0.01400149
C  0.70539782 -1.17742885 0.02523470
C  1.40728783 0.00356347 0.02939941
C  0.68629590 1.22355175 -0.04981250
C  -0.72008371 1.20610782 0.01015475
C  -1.39820709 -0.02297856 -0.04450941
H  -1.15760260 -2.24351744 0.14616683
H  1.26576000 -2.12535766 0.08872728
H  2.54330225 -0.00523494 0.02233473
H  1.21464155 2.17531552 -0.02682919
H  -1.34105949 2.15755933 0.07438729
H  -2.46417407 0.01435521 -0.11971224
12
MD Step 1550 Units = [Angstroms]
C  -0.68661862 -1.23372818 0.01446031
C  0.70743159 -1.18186811 0.02581325
C  1.40473259 0.00839405 0.02806543
C  0.68862391 1.22399208 -0.04924975
C  -0.71852529 1.20654990 0.00872579
C  -1.39734793 -0.02025971 -0.04467867
H  -1.16037474 -2.25337646 0.15069807
H  1.24808391 -2.12015776 0.08527017
H  2.54796604 -0.00045780 0.02211324
H  1.21138313 2.17386987 -0.01405710
H  -1.35056333 2.14159483 0.07319835
H  -2.47619306 0.02182572 -0.11627503
12
MD Step 1551 Units = [Angstroms]
C  -0.68755424 -1.23685382 0.01496905
C  0.70941154 -1.18640081 0.02645213
C  1.40233796 0.01350395 0.02658848
C  0.69081937 1.22425730 -0.04849582
C  -0.71691776 1.20699475 0.00719830
C  -1.39631058 -0.01762657 -0.04478947
H  -1.16289797 -2.26042287 0.15421660
H  1.23136474 -2.11627610 0.08179916
H  2.54920638 0.00461625 0.02205090
H  1.20881066 2.17336125 -0.00161833
H  -1.35801206 2.12394403 0.07160399
H  -2.48975704 0.02860524 -0.11264238
12
MD Step 1552 Units = [Angstroms]
C  -0.68859848 -1.23991614 0.01553090
C  0.71124297 -1.19087150 0.02713700
C  1.40013555 0.01879287 0.02497630
C  0.69284987 1.22436902 -0.04755027
C  -0.71526468 1.20738635 0.00557202
C  -1.39517307 -0.01512506 -0.04484604
H  -1.16505025 -2.26431811 0.15667504
H  1.21651195 -2.11489230 0.07840810
H  2.54680768 0.00996174 0.02213571
H  1.20707128 2.17401045 0.01044465
H  -1.36361187 2.10539157 0.06964411
H  -2.50359889 0.03460953 -0.10875706
12
MD Step 1553 Units = [Angstroms]
C  -0.68973486 -1.24288372 0.01614680
C  0.71284211 -1.19513704 0.02785450
C  1.39813915 0.02415489 0.02323793
C  0.69468905 1.22436248 -0.04641385
C  -0.71356321 1.20766120 0.00384649
C  -1.39401132 -0.01279738 -0.04485183
H  -1.16679490 -2.26492976 0.15805601
H  1.20429975 -2.11700294 0.07517239
H  2.54081473 0.01555057 0.02235308
H  1.20623480 2.17590850 0.02209076
H  -1.36768193 2.08683686 0.06736824
H  -2.51650140 0.03976165 -0.10457555
12
MD Step 1554 Units = [Angstroms]
C  -0.69093773 -1.24571482 0.01681544
C  0.71414383 -1.19908245 0.02859296
C  1.39634494 0.02948104 0.02138348
C  0.69631684 1.22428639 -0.04508799
C  -0.71180560 1.20775282 0.00202138
C  -1.39289182 -0.01068192 -0.04480916
H  -1.16818114 -2.26233372 0.15837342
H  1.19527350 -2.12324624 0.07214104
H  2.53153088 0.02135050 0.02268672
H  1.20629007 2.17900791 0.03327591
H  -1.37062593 2.06923915 0.06483172
H  -2.52739500 0.04399687 -0.10007254
12
MD Step 1555 Units = [Angstroms]
C  -0.69217271 -1.24835825 0.01753325
C  0.71510710 -1.20263355 0.02934273
C  1.39473201 0.03466191 0.01942399
C  0.69771920 1.22420108 -0.04357459
C  -0.70998192 1.20759744 0.00009683
C  -1.39186693 -0.00881298 -0.04471914
H  -1.16934207 -2.25680964 0.15767232
H  1.18968546 -2.13376664 0.06933371
H  2.51951022 0.02732374 0.02311990
H  1.20715054 2.18313089 0.04395005
H  -1.37288767 2.05354667 0.06209062
H  -2.53542071 0.04726607 -0.09524215
12
MD Step 1556 Units = [Angstroms]
C  -0.69339752 -1.25075467 0.01829448
C  0.71571665 -1.20576254 0.03009608
C  1.39326314 0.03959044 0.01737109
C  0.69888741 1.22417521 -0.04187576
C  -0.70808432 1.20714055 -0.00192603
C  -1.39097248 -0.00722039 -0.04458170
H  -1.17048935 -2.24882849 0.15602711
H  1.18747884 -2.14816374 0.06674379
H  2.50553990 0.03342606 0.02363671
H  1.20866785 2.18799294 0.05405622
H  -1.37489236 2.04061436 0.05919557
H  -2.53996522 0.04953758 -0.09009686
12
MD Step 1557 Units = [Angstroms]
C  -0.69456350 -1.25283857 0.01909149
C  0.71598064 -1.20848488 0.03084664
C  1.39188675 0.04416456 0.01523681
C  0.69981726 1.22428144 -0.03999390
C  -0.70611187 1.20634342 -0.00404462
C  -1.39022672 -0.00592895 -0.04439581
H  -1.17190316 -2.23902910 0.15353770
H  1.18832360 -2.16554445 0.06434632
H  2.49060588 0.03960677 0.02422331
H  1.21065078 2.19323731 0.06353189
H  -1.37698117 2.03112025 0.05618544
H  -2.54067727 0.05079782 -0.08466519
12
MD Step 1558 Units = [Angstroms]
C  -0.69561777 -1.25454133 0.01991521
C  0.71592534 -1.21084889 0.03158874
C  1.39054041 0.04828979 0.01303327
C  0.70050816 1.22459140 -0.03793182
C  -0.70407518 1.20518854 -0.00625457
C  -1.38963004 -0.00495801 -0.04415958
H  -1.17391529 -2.22817952 0.15032320
H  1.19169044 -2.18466053 0.06210789
H  2.47583460 0.04580963 0.02486904
H  1.21288651 2.19847463 0.07231214
H  -1.37935140 2.02549477 0.05308226
H  -2.53747364 0.05105128 -0.07898879
12
MD Step 1559 Units = [Angstroms]
C  -0.69650625 -1.25579572 0.02075579
C  0.71558870 -1.21292178 0.03231678
C  1.38915672 0.05188146 0.01077251
C  0.70096262 1.22517081 -0.03569301
C  -0.70199943 1.20368288 -0.00854947
C  -1.38916497 -0.00432111 -0.04387060
H  -1.17688337 -2.21711960 0.14651288
H  1.19693969 -2.20408729 0.05999545
H  2.46240484 0.05197466 0.02556676
H  1.21516153 2.20332215 0.08033400
H  -1.38201690 2.02387763 0.04988835
H  -2.53053976 0.05032020 -0.07311919
12
MD Step 1560 Units = [Angstroms]
C  -0.69717750 -1.25654180 0.02160348
C  0.71501460 -1.21477595 0.03302490
C  1.38767134 0.05486669 0.00846640
C  0.70118583 1.22607486 -0.03328195
C  -0.69992483 1.20185809 -0.01092104
C  -1.38879653 -0.00402587 -0.04352608
H  -1.18115520 -2.20668474 0.14223481
H  1.20340385 -2.22239612 0.05798227
H  2.45143115 0.05804054 0.02631214
H  1.21727994 2.20743857 0.08754121
H  -1.38479933 2.02611160 0.04658673
H  -2.52032620 0.04864399 -0.06711440
12
MD Step 1561 Units = [Angstroms]
C  -0.69758712 -1.25673378 0.02244962
C  0.71424848 -1.21647820 0.03370679
C  1.38603253 0.05718588 0.00612675
C  0.70118556 1.22734440 -0.03070437
C  -0.69790438 1.19976780 -0.01335935
C  -1.38847292 -0.00407408 -0.04312318
H  -1.18702512 -2.19761670 0.13760362
H  1.21045112 -2.23828939 0.05605075
H  2.44383083 0.06394650 0.02710152
H  1.21907836 2.21055198 0.09388857
H  -1.38735302 2.03177396 0.04314453
H  -2.50753834 0.04607822 -0.06103527
12
MD Step 1562 Units = [Angstroms]
C  -0.69770234 -1.25634685 0.02328747
C  0.71333467 -1.21808279 0.03435577
C  1.38421025 0.05879406 0.00376543
C  0.70097209 1.22900293 -0.02796751
C  -0.69599929 1.19748263 -0.01585341
C  -1.38812741 -0.00446204 -0.04265930
H  -1.19468759 -2.19047437 0.13270972
H  1.21752727 -2.25068770 0.05419270
H  2.44019816 0.06963315 0.02792836
H  1.22043695 2.21248004 0.09934560
H  -1.38921643 2.04023716 0.03951849
H  -2.49311281 0.04269294 -0.05494157
12
MD Step 1563 Units = [Angstroms]
C  -0.69750587 -1.25538255 0.02411278
C  0.71231494 -1.21962779 0.03496496
C  1.38220250 0.05966188 0.00139476
C  0.70055810 1.23105466 -0.02508031
C  -0.69427331 1.19508394 -0.01839168
C  -1.38768175 -0.00518091 -0.04213239
H  -1.20419678 -2.18556221 0.12761251
H  1.22417954 -2.25877611 0.05240826
H  2.44071562 0.07504140 0.02877913
H  1.22128673 2.21314266 0.10389918
H  -1.38987732 2.05074493 0.03566129
H  -2.47817193 0.03856965 -0.04888810
12
MD Step 1564 Units = [Angstroms]
C  -0.69699846 -1.25387112 0.02492386
C  0.71122772 -1.22113374 0.03552741
C  1.38003703 0.05977642 -0.00097228
C  0.69995842 1.23348348 -0.02205354
C  -0.69278700 1.19265761 -0.02096259
C  -1.38705221 -0.00621710 -0.04154125
H  -1.21544157 -2.18289382 0.12233960
H  1.23006893 -2.26202269 0.05070415
H  2.44512639 0.08011011 0.02962969
H  1.22161350 2.21256739 0.10755497
H  -1.38883760 2.06248967 0.03152746
H  -2.46394764 0.03379697 -0.04292111
12
MD Step 1565 Units = [Angstroms]
C  -0.69619939 -1.25187027 0.02572117
C  0.71010755 -1.22260349 0.03603629
C  1.37776774 0.05914170 -0.00332184
C  0.69918957 1.23625301 -0.01889984
C  -0.69159290 1.19028846 -0.02355491
C  -1.38615824 -0.00755254 -0.04088572
H  -1.22814308 -2.18219982 0.11689214
H  1.23497652 -2.26018268 0.04909192
H  2.45277639 0.08477323 0.03044357
H  1.22145841 2.21088802 0.11033772
H  -1.38566784 2.07468078 0.02707781
H  -2.45167116 0.02846503 -0.03707609
12
MD Step 1566 Units = [Angstroms]
C  -0.69514485 -1.24946045 0.02650650
C  0.70898433 -1.22402252 0.03648507
C  1.37546679 0.05777867 -0.00563929
C  0.69826920 1.23930769 -0.01563372
C  -0.69073197 1.18805584 -0.02615804
C  -1.38493340 -0.00916485 -0.04016677
H  -1.24187625 -2.18297801 0.11125468
H  1.23880810 -2.25329779 0.04758634
H  2.46271351 0.08895801 0.03117268
H  1.22091506 2.20833613 0.11229014
H  -1.38004664 2.08659884 0.02228241
H  -2.44243509 0.02265961 -0.03137755
12
MD Step 1567 Units = [Angstroms]
C  -0.69388459 -1.24673775 0.02728211
C  0.70788235 -1.22535931 0.03686761
C  1.37321468 0.05572484 -0.00790937
C  0.69721539 1.24257493 -0.01227139
C  -0.69023134 1.18603024 -0.02876210
C  -1.38333681 -0.01102747 -0.03938622
H  -1.25611056 -2.18457252 0.10540669
H  1.24159933 -2.24169523 0.04620401
H  2.47381751 0.09258515 0.03176030
H  1.22012283 2.20522534 0.11347060
H  -1.37178486 2.09763525 0.01712195
H  -2.43704864 0.01645747 -0.02584156
12
MD Step 1568 Units = [Angstroms]
C  -0.69247744 -1.24380600 0.02804992
C  0.70681894 -1.22656575 0.03717832
C  1.37109046 0.05303319 -0.01011658
C  0.69604619 1.24596833 -0.00883061
C  -0.69010321 1.18427087 -0.03135797
C  -1.38136256 -0.01310985 -0.03854650
H  -1.27026106 -2.18626357 0.09933292
H  1.24352112 -2.22598596 0.04496217
H  2.48493113 0.09557089 0.03214544
H  1.21925592 2.20192780 0.11394939
H  -1.36083751 2.10731953 0.01158796
H  -2.43591757 0.00992437 -0.02048069
12
MD Step 1569 Units = [Angstroms]
C  -0.69098658 -1.24076949 0.02881094
C  0.70580317 -1.22757793 0.03741220
C  1.36916399 0.04977071 -0.01224551
C  0.69477942 1.24939187 -0.00533024
C  -0.69034455 1.18282388 -0.03393721
C  -1.37904438 -0.01537780 -0.03765006
H  -1.28373993 -2.18735131 0.09303084
H  1.24488303 -2.20705697 0.04387767
H  2.49497106 0.09783074 0.03226757
H  1.21850799 2.19884310 0.11380392
H  -1.34730649 2.11533732 0.00568209
H  -2.43898159 0.00311632 -0.01530986
12
MD Step 1570 Units = [Angstroms]
C  -0.68947511 -1.23772707 0.02956496
C  0.70483493 -1.22831819 0.03756501
C  1.36749070 0.04601644 -0.01428120
C  0.69343275 1.25274488 -0.00178987
C  -0.69093748 1.18172106 -0.03649199
C  -1.37645400 -0.01779388 -0.03669909
H  -1.29600152 -2.18722327 0.08651445
H  1.24612922 -2.18604745 0.04296598
H  2.50300917 0.09928388 0.03207073
H  1.21807285 2.19636097 0.11311310
H  -1.33143676 2.12154160 -0.00058516
H  -2.44572766 -0.00391640 -0.01035133
12
MD Step 1571 Units = [Angstroms]
C  -0.68800223 -1.23476798 0.03031058
C  0.70390512 -1.22869931 0.03763329
C  1.36610882 0.04185918 -0.01620945
C  0.69202426 1.25592748 0.00177071
C  -0.69185007 1.18097886 -0.03901494
C  -1.37369369 -0.02031787 -0.03569526
H  -1.30657730 -2.18540202 0.07981499
H  1.24781932 -2.16429623 0.04224036
H  2.50832449 0.09985762 0.03150680
H  1.21812259 2.19482074 0.11195160
H  -1.31360740 2.12595827 -0.00719630
H  -2.45527523 -0.01112426 -0.00563718
12
MD Step 1572 Units = [Angstroms]
C  -0.68662007 -1.23196910 0.03104527
C  0.70299784 -1.22863187 0.03761450
C  1.36503844 0.03739494 -0.01801703
C  0.69057316 1.25884595 0.00533198
C  -0.69303777 1.18059794 -0.04149900
C  -1.37088493 -0.02290716 -0.03463977
H  -1.31510064 -2.18157498 0.07297939
H  1.25058566 -2.14324849 0.04171113
H  2.51043250 0.09949166 0.03053766
H  1.21878567 2.19447240 0.11038492
H  -1.29431737 2.12878520 -0.01412897
H  -2.46650850 -0.01845410 -0.00120864
12
MD Step 1573 Units = [Angstroms]
C  -0.68537128 -1.22939328 0.03176567
C  0.70209487 -1.22803507 0.03750700
C  1.36428160 0.03272414 -0.01969193
C  0.68910043 1.26141746 0.00887510
C  -0.69444536 1.18056336 -0.04393726
C  -1.36815601 -0.02551709 -0.03353359
H  -1.32132291 -2.17561033 0.06606730
H  1.25506106 -2.12431850 0.04138515
H  2.50909930 0.09814206 0.02913661
H  1.22012834 2.19544486 0.10846595
H  -1.27416489 2.13038240 -0.02135859
H  -2.47822180 -0.02584675 0.00288703
12
MD Step 1574 Units = [Angstroms]
C  -0.68428706 -1.22708832 0.03246775
C  0.70118258 -1.22684988 0.03731014
C  1.36382296 0.02794890 -0.02122348
C  0.68762926 1.26357375 0.01238219
C  -0.69600961 1.18084576 -0.04632282
C  -1.36563104 -0.02810119 -0.03237772
H  -1.32512326 -2.16756345 0.05914738
H  1.26178074 -2.10872155 0.04126546
H  2.50434699 0.09578469 0.02728907
H  1.22214255 2.19772713 0.10623389
H  -1.25381903 2.13124943 -0.02886111
H  -2.48924967 -0.03323652 0.00660086
12
MD Step 1575 Units = [Angstroms]
C  -0.68338584 -1.22508630 0.03314718
C  0.70025961 -1.22505193 0.03702422
C  1.36363065 0.02317022 -0.02260250
C  0.68618492 1.26526316 0.01583637
C  -0.69766272 1.18140400 -0.04864852
C  -1.36342148 -0.03061164 -0.03117354
H  -1.32651355 -2.15767663 0.05229321
H  1.27107483 -2.09730798 0.04135091
H  2.49645327 0.09241849 0.02499275
H  1.22474298 2.20116582 0.10371542
H  -1.23398275 2.13198625 -0.03661591
H  -2.49856573 -0.04055239 0.00988656
12
MD Step 1576 Units = [Angstroms]
C  -0.68267249 -1.22340317 0.03379951
C  0.69934329 -1.22266053 0.03665056
C  1.36365738 0.01848559 -0.02382141
C  0.68479401 1.26645115 0.01922174
C  -0.69933629 1.18218940 -0.05090691
C  -1.36162045 -0.03299981 -0.02992297
H  -1.32563885 -2.14637273 0.04557917
H  1.28298007 -2.09044417 0.04163565
H  2.48594522 0.08806791 0.02225724
H  1.22777394 2.20547973 0.10092788
H  -1.21534811 2.13323526 -0.04460809
H  -2.50534788 -0.04771988 0.01270413
12
MD Step 1577 Units = [Angstroms]
C  -0.68213822 -1.22203876 0.03442050
C  0.69847207 -1.21974063 0.03619149
C  1.36384206 0.01398689 -0.02487427
C  0.68348318 1.26711920 0.02252320
C  -0.70096570 1.18315146 -0.05309011
C  -1.36029941 -0.03521712 -0.02862864
H  -1.32277235 -2.13424137 0.03907620
H  1.29720004 -2.08797752 0.04210834
H  2.47358345 0.08278415 0.01910292
H  1.23102491 2.21028891 0.09788369
H  -1.19854714 2.13560681 -0.05282968
H  -2.50901553 -0.05466325 0.01502246
12
MD Step 1578 Units = [Angstroms]
C  -0.68176146 -1.22097750 0.03500633
C  0.69770297 -1.21639713 0.03565040
C  1.36411247 0.00975893 -0.02575669
C  0.68227752 1.26726281 0.02572625
C  -0.70249437 1.18424451 -0.05518991
C  -1.35950622 -0.03721619 -0.02729394
H  -1.31830222 -2.12201438 0.03284790
H  1.31312933 -2.08929598 0.04275145
H  2.46032998 0.07664454 0.01555883
H  1.23425208 2.21515305 0.09459487
H  -1.18410446 2.13959634 -0.06127901
H  -2.50924779 -0.06130762 0.01682103
12
MD Step 1579 Units = [Angstroms]
C  -0.68150977 -1.22019026 0.03555383
C  0.69710451 -1.21276327 0.03503173
C  1.36438966 0.00587850 -0.02646570
C  0.68119883 1.26688869 0.02881680
C  -0.70387709 1.18543400 -0.05719801
C  -1.35926420 -0.03895213 -0.02592304
H  -1.31270706 -2.11052628 0.02694715
H  1.32993410 -2.09345959 0.04354091
H  2.44729207 0.06974918 0.01165946
H  1.23720254 2.21961343 0.09107697
H  -1.17239905 2.14550712 -0.06995789
H  -2.50599034 -0.06758108 0.01809087
12
MD Step 1580 Units = [Angstroms]
C  -0.68134315 -1.21963773 0.03606061
C  0.69674734 -1.20898664 0.03434088
C  1.36459456 0.00241413 -0.02699947
C  0.68026427 1.26601194 0.03178110
C  -0.70508228 1.18670120 -0.05910643
C  -1.35957160 -0.04038404 -0.02452085
H  -1.30651761 -2.10065632 0.02141398
H  1.34666335 -2.09936188 0.04444649
H  2.43563613 0.06221461 0.00744050
H  1.23963770 2.22323312 0.08735178
H  -1.16364207 2.15339530 -0.07886684
H  -2.49945602 -0.07341684 0.01883497
12
MD Step 1581 Units = [Angstroms]
C  -0.68121854 -1.21927539 0.03652508
C  0.69669515 -1.20521611 0.03358407
C  1.36465675 -0.00057386 -0.02735699
C  0.67948521 1.26465327 0.03460567
C  -0.70609247 1.18804501 -0.06090792
C  -1.36040150 -0.04147642 -0.02309307
H  -1.30026423 -2.09325207 0.01627530
H  1.36236023 -2.10588010 0.04543298
H  2.42647211 0.05416515 0.00293423
H  1.24135391 2.22563167 0.08344877
H  -1.15787436 2.16305054 -0.08799937
H  -2.49012010 -0.07875564 0.01906811
12
MD Step 1582 Units = [Angstroms]
C  -0.68109533 -1.21905974 0.03694629
C  0.69699768 -1.20159183 0.03276813
C  1.36452453 -0.00303310 -0.02753772
C  0.67886670 1.26283664 0.03727736
C  -0.70690358 1.18948053 -0.06259647
C  -1.36170229 -0.04220040 -0.02164602
H  -1.29441493 -2.08904000 0.01154689
H  1.37615181 -2.11198956 0.04646189
H  2.42072004 0.04572366 -0.00183440
H  1.24219862 2.22651252 0.07940511
H  -1.15498265 2.17401721 -0.09733659
H  -2.47870750 -0.08354824 0.01881616
12
MD Step 1583 Units = [Angstroms]
C  -0.68094079 -1.21895494 0.03732356
C  0.69768655 -1.19823844 0.03190030
C  1.36417441 -0.00491923 -0.02754147
C  0.67840740 1.26058741 0.03978347
C  -0.70752296 1.19103485 -0.06416756
C  -1.36339943 -0.04253476 -0.02018661
H  -1.28931355 -2.08853561 0.00723772
H  1.38730912 -2.11683623 0.04749329
H  2.41898214 0.03700444 -0.00684939
H  1.24208182 2.22568256 0.07526487
H  -1.15472967 2.18565043 -0.10684368
H  -2.46616568 -0.08775792 0.01811438
12
MD Step 1584 Units = [Angstroms]
C  -0.68073459 -1.21893836 0.03765615
C  0.69877359 -1.19526108 0.03098796
C  1.36361752 -0.00619642 -0.02736846
C  0.67809975 1.25793100 0.04211192
C  -0.70796711 1.19274101 -0.06561828
C  -1.36539909 -0.04246651 -0.01872215
H  -1.28513140 -2.09197064 0.00335547
H  1.39528020 -2.11977483 0.04848766
H  2.42145057 0.02811075 -0.01210206
H  1.24098287 2.22306427 0.07107732
H  -1.15679120 2.19719331 -0.11646893
H  -2.45361471 -0.09136221 0.01700476
12
MD Step 1585 Units = [Angstroms]
C  -0.68047117 -1.21900363 0.03794280
C  0.70025094 -1.19274306 0.03003845
C  1.36290100 -0.00683863 -0.02701961
C  0.67793051 1.25489206 0.04425144
C  -0.70825928 1.19463160 -0.06694724
C  -1.36759434 -0.04199118 -0.01726004
H  -1.28184495 -2.09925451 -0.00008802
H  1.39970428 -2.12038437 0.04940751
H  2.42787649 0.01913782 -0.01758627
H  1.23895284 2.21870086 0.06689491
H  -1.16079356 2.20785937 -0.12614544
H  -2.44226686 -0.09435313 0.01553209
12
MD Step 1586 Units = [Angstroms]
C  -0.68015942 -1.21916053 0.03818152
C  0.70209222 -1.19074433 0.02905883
C  1.36210357 -0.00683143 -0.02649704
C  0.67788141 1.25149431 0.04619182
C  -0.70842743 1.19673294 -0.06815433
C  -1.36987435 -0.04111282 -0.01580745
H  -1.27924585 -2.10998027 -0.00307329
H  1.40041569 -2.11847243 0.05021880
H  2.43760979 0.01017994 -0.02329173
H  1.23611257 2.21275468 0.06277101
H  -1.16634701 2.21690714 -0.13579476
H  -2.43331300 -0.09673479 0.01373935
12
MD Step 1587 Units = [Angstroms]
C  -0.67982004 -1.21943155 0.03836964
C  0.70425401 -1.18930006 0.02805570
C  1.36132645 -0.00617394 -0.02580447
C  0.67792991 1.24776085 0.04792412
C  -0.70850245 1.19906062 -0.06924035
C  -1.37213567 -0.03984382 -0.01437100
H  -1.27698051 -2.12347368 -0.00557263
H  1.39744359 -2.11407575 0.05089224
H  2.44969778 0.00133859 -0.02919762
H  1.23264632 2.20549870 0.05875760
H  -1.17307287 2.22369926 -0.14533197
H  -2.42778403 -0.09851813 0.01166307
12
MD Step 1588 Units = [Angstroms]
C  -0.67948112 -1.21984625 0.03850396
C  0.70667740 -1.18841933 0.02703500
C  1.36068182 -0.00488063 -0.02494748
C  0.67805009 1.24371515 0.04944087
C  -0.70851678 1.20161640 -0.07020667
C  -1.37429418 -0.03820460 -0.01295647
H  -1.27460861 -2.13887343 -0.00755219
H  1.39101063 -2.10746076 0.05140454
H  2.46301618 -0.00727153 -0.03526843
H  1.22879086 2.19730027 0.05490322
H  -1.18062430 2.22774441 -0.15467102
H  -2.42640914 -0.09971325 0.00933015
12
MD Step 1589 Units = [Angstroms]
C  -0.67917341 -1.22043476 0.03858117
C  0.70928946 -1.18808391 0.02600192
C  1.36028133 -0.00298245 -0.02393357
C  0.67821378 1.23938250 0.05073630
C  -0.70850313 1.20438655 -0.07105482
C  -1.37629479 -0.03622319 -0.01156875
H  -1.27166650 -2.15522453 -0.00897618
H  1.38153022 -2.09912329 0.05173964
H  2.47640224 -0.01552050 -0.04145287
H  1.22481970 2.18859675 0.05125117
H  -1.18870161 2.22872377 -0.16373018
H  -2.42950236 -0.10032128 0.00675726
12
MD Step 1590 Units = [Angstroms]
C  -0.67892589 -1.22122178 0.03859823
C  0.71200494 -1.18824770 0.02496074
C  1.36022674 -0.00052728 -0.02277192
C  0.67839187 1.23479215 0.05180638
C  -0.70849323 1.20734122 -0.07178617
C  -1.37811650 -0.03393450 -0.01021204
H  -1.26772385 -2.17156811 -0.00981149
H  1.36959854 -2.08978275 0.05188961
H  2.48876749 -0.02326519 -0.04768561
H  1.22102276 2.17986306 0.04783831
H  -1.19706352 2.22650526 -0.17243707
H  -2.43690867 -0.10032849 0.00395334
12
MD Step 1591 Units = [Angstroms]
C  -0.67876246 -1.22222197 0.03855278
C  0.71472855 -1.18883780 0.02391483
C  1.36060322 0.00242057 -0.02147310
C  0.67855578 1.22997958 0.05264887
C  -0.70851650 1.21043472 -0.07240161
C  -1.37977150 -0.03137930 -0.00889016
H  -1.26242654 -2.18701654 -0.01003199
H  1.35597485 -2.08036183 0.05185525
H  2.49918000 -0.03035424 -0.05389101
H  1.21768239 2.17157233 0.04469459
H  -1.20553527 2.22114853 -0.18073326
H  -2.44802579 -0.09970469 0.00092431
12
MD Step 1592 Units = [Angstroms]
C  -0.67869965 -1.22343693 0.03844336
C  0.71735876 -1.18975808 0.02286670
C  1.36147553 0.00578165 -0.02004867
C  0.67867910 1.22498905 0.05326328
C  -0.70859870 1.21360651 -0.07290129
C  -1.38129861 -0.02860282 -0.00760693
H  -1.25552464 -2.20080946 -0.00962166
H  1.34154171 -2.07194019 0.05164551
H  2.50691662 -0.03663476 -0.05998779
H  1.21504789 2.16415318 0.04184315
H  -1.21401425 2.21290220 -0.18857824
H  -2.46189523 -0.09840687 -0.00232135
12
MD Step 1593 Units = [Angstroms]
C  -0.67874526 -1.22485375 0.03826963
C  0.71979339 -1.19089630 0.02181818
C  1.36288611 0.00946338 -0.01851076
C  0.67873907 1.21987562 0.05365070
C  -0.70876059 1.21678292 -0.07328436
C  -1.38275334 -0.02565327 -0.00636653
H  -1.24688716 -2.21235180 -0.00857647
H  1.32723854 -2.06567079 0.05127558
H  2.51149170 -0.04195951 -0.06589404
H  1.21331125 2.15794837 0.03930122
H  -1.22247250 2.20219324 -0.19595253
H  -2.47733676 -0.09638651 -0.00576817
12
MD Step 1594 Units = [Angstroms]
C  -0.67889775 -1.22644464 0.03803245
C  0.72193738 -1.19213519 0.02077086
C  1.36485452 0.01336286 -0.01687173
C  0.67871787 1.21470645 0.05381363
C  -0.70901695 1.21987963 -0.07354888
C  -1.38419718 -0.02258018 -0.00517359
H  -1.23650740 -2.22123736 -0.00690510
H  1.31396791 -2.06265501 0.05076297
H  2.51267043 -0.04619396 -0.07153193
H  1.21258784 2.15318105 0.03708128
H  -1.23095501 2.18960657 -0.20285947
H  -2.49309290 -0.09359853 -0.00939125
12
MD Step 1595 Units = [Angstroms]
C  -0.67914608 -1.22816732 0.03773393
C  0.72371175 -1.19336633 0.01972651
C  1.36737749 0.01737021 -0.01514373
C  0.67860330 1.20956070 0.05375568
C  -0.70937599 1.22280513 -0.07369183
C  -1.38568829 -0.01943310 -0.00403319
H  -1.22450183 -2.22726204 -0.00462873
H  1.30248599 -2.06378736 0.05012208
H  2.51047333 -0.04922315 -0.07683229
H  1.21290499 2.14993428 0.03519225
H  -1.23957180 2.17585252 -0.20932504
H  -2.50795627 -0.09000939 -0.01315619
12
MD Step 1596 Units = [Angstroms]
C  -0.67946994 -1.22996581 0.03737735
C  0.72506196 -1.19450451 0.01868766
C  1.37042912 0.02137229 -0.01333834
C  0.67838901 1.20452791 0.05348144
C  -0.70983969 1.22546522 -0.07370935
C  -1.38727478 -0.01626047 -0.00295067
H  -1.21110472 -2.23042964 -0.00178008
H  1.29330016 -2.06959949 0.04935838
H  2.50517564 -0.05095792 -0.08173893
H  1.21420052 2.14814748 0.03364035
H  -1.24848146 2.16172001 -0.21539479
H  -2.52086547 -0.08560321 -0.01702071
12
MD Step 1597 Units = [Angstroms]
C  -0.67984040 -1.23177157 0.03696712
C  0.72596338 -1.19549874 0.01765796
C  1.37396124 0.02525680 -0.01146618
C  0.67807405 1.19970480 0.05299623
C  -0.71040511 1.22776865 -0.07359724
C  -1.38899049 -0.01310875 -0.00193144
H  -1.19665901 -2.23095076 0.00159828
H  1.28660279 -2.08014603 0.04846409
H  2.49730144 -0.05134054 -0.08621256
H  1.21633124 2.14763018 0.03242942
H  -1.25786494 2.14801539 -0.22112735
H  -2.53096769 -0.08038529 -0.02093731
12
MD Step 1598 Units = [Angstroms]
C  -0.68022109 -1.23350509 0.03650858
C  0.72642206 -1.19633679 0.01664230
C  1.37790416 0.02891626 -0.00953660
C  0.67766211 1.19519079 0.05230600
C  -0.71106656 1.22963333 -0.07335175
C  -1.39085294 -0.01002186 -0.00098072
H  -1.18160295 -2.22923347 0.00545624
H  1.28226241 -2.09496991 0.04741702
H  2.48760943 -0.05034887 -0.09023429
H  1.21908978 2.14809031 0.03156066
H  -1.26788997 2.13549129 -0.22658438
H  -2.53765433 -0.07438375 -0.02485629
12
MD Step 1599 Units = [Angstroms]
C  -0.68057006 -1.23507820 0.03600781
C  0.72647080 -1.19704192 0.01564657
C  1.38216838 0.03225175 -0.00755733
C  0.67716055 1.19108289 0.05141726
C  -0.71181867 1.23099273 -0.07297061
C  -1.39286257 -0.00704072 -0.00010334
H  -1.16645073 -2.22586178 0.00973926
H  1.27987402 -2.11316046 0.04618329
H  2.47706340 -0.04799828 -0.09380766
H  1.22222657 2.14917165 0.03103188
H  -1.27867005 2.12477375 -0.23181799
H  -2.54057830 -0.06764963 -0.02872886
12
MD Step 1600 Units = [Angstroms]
C  -0.68084236 -1.23639751 0.03547134
C  0.72616193 -1.19766336 0.01467718
C  1.38664807 0.03517597 -0.00553447
C  0.67657944 1.18747035 0.05033701
C  -0.71265930 1.23180116 -0.07245403
C  -1.39500259 -0.00420298 0.00069648
H  -1.15176568 -2.22155739 0.01439186
H  1.27885034 -2.13348566 0.04472295
H  2.46677941 -0.04433994 -0.09695845
H  1.22547378 2.15049448 0.03083673
H  -1.29022503 2.11630002 -0.23685763
H  -2.53966079 -0.06025613 -0.03251003
12
MD Step 1601 Units = [Angstroms]
C  -0.68099345 -1.23736943 0.03490582
C  0.72555912 -1.19826382 0.01374046
C  1.39122697 0.03761546 -0.00347266
C  0.67593085 1.18442985 0.04907274
C  -0.71359187 1.23203723 -0.07180559
C  -1.39723929 -0.00154287 0.00141530
H  -1.13812496 -2.21712034 0.01936137
H  1.27852547 -2.15455831 0.04299656
H  2.45794241 -0.03945482 -0.09973082
H  1.22856811 2.15169414 0.03096393
H  -1.30245213 2.11027913 -0.24169926
H  -2.53509201 -0.05229724 -0.03616141
12
MD Step 1602 Units = [Angstroms]
C  -0.68098315 -1.23790672 0.03431778
C  0.72473018 -1.19890743 0.01284215
C  1.39578705 0.03951180 -0.00137570
C  0.67522828 1.18202145 0.04763239
C  -0.71462628 1.23170464 -0.07103268
C  -1.39952249 0.00090876 0.00205067
H  -1.12607698 -2.21334863 0.02460113
H  1.27824598 -2.17499439 0.04097090
H  2.45169116 -0.03344332 -0.10217871
H  1.23127057 2.15245387 0.03139683
H  -1.31511524 2.10668345 -0.24629971
H  -2.52732707 -0.04388555 -0.03965388
12
MD Step 1603 Units = [Angstroms]
C  -0.68077988 -1.23793618 0.03371336
C  0.72374191 -1.19965035 0.01198700
C  1.40021915 0.04082184 0.00075248
C  0.67448628 1.18028563 0.04602439
C  -0.71577801 1.23083033 -0.07014639
C  -1.40178664 0.00312427 0.00260126
H  -1.11609528 -2.21094268 0.03007222
H  1.27743639 -2.19353664 0.03862279
H  2.44898116 -0.02641277 -0.10435286
H  1.23338207 2.15253011 0.03211340
H  -1.32785589 2.10527200 -0.25057742
H  -2.51707366 -0.03514929 -0.04296986
12
MD Step 1604 Units = [Angstroms]
C  -0.68036436 -1.23740628 0.03309839
C  0.72265697 -1.20053484 0.01117864
C  1.40443394 0.04151749 0.00290657
C  0.67372010 1.17924147 0.04425760
C  -0.71706575 1.22946060 -0.06916089
C  -1.40395289 0.00507881 0.00306701
H  -1.10853579 -2.21040913 0.03574296
H  1.27563774 -2.20913517 0.03594082
H  2.45044825 -0.01846608 -0.10628508
H  1.23475489 2.15177003 0.03308657
H  -1.34022380 2.10563887 -0.25441961
H  -2.50526545 -0.02622799 -0.04610497
12
MD Step 1605 Units = [Angstroms]
C  -0.67973246 -1.23629327 0.03247847
C  0.72153211 -1.20158625 0.01041946
C  1.40837059 0.04158532 0.00507871
C  0.67294535 1.17888579 0.04234132
C  -0.71850788 1.22765594 -0.06809247
C  -1.40593299 0.00674979 0.00344918
H  -1.10360510 -2.21198334 0.04158589
H  1.27252528 -2.22099133 0.03292533
H  2.45630450 -0.00969594 -0.10797382
H  1.23529997 2.15012160 0.03428494
H  -1.35172017 2.10727540 -0.25769391
H  -2.49301243 -0.01726695 -0.04906844
12
MD Step 1606 Units = [Angstroms]
C  -0.67889628 -1.23460405 0.03185934
C  0.72041739 -1.20281195 0.00971075
C  1.41200084 0.04102638 0.00725778
C  0.67217745 1.17919347 0.04028525
C  -0.72011882 1.22548572 -0.06695842
C  -1.40763556 0.00811631 0.00375026
H  -1.10134649 -2.21558958 0.04757294
H  1.26791336 -2.22857665 0.02958748
H  2.46629527 -0.00018684 -0.10937534
H  1.23499056 2.14763692 0.03567381
H  -1.36184476 2.10963410 -0.26026195
H  -2.48152062 -0.00841082 -0.05188132
12
MD Step 1607 Units = [Angstroms]
C  -0.67788352 -1.23237514 0.03124724
C  0.71935543 -1.20420138 0.00905279
C  1.41532728 0.03985633 0.00942937
C  0.67143103 1.18011848 0.03809953
C  -0.72190565 1.22302330 -0.06577588
C  -1.40897505 0.00915873 0.00397356
H  -1.10164634 -2.22084955 0.05367004
H  1.26175439 -2.23163883 0.02594762
H  2.47973109 0.00997583 -0.11040362
H  1.23386222 2.14446919 0.03721638
H  -1.37013927 2.11218527 -0.26199230
H  -2.47197897 0.00020260 -0.05457206
12
MD Step 1608 Units = [Angstroms]
C  -0.67673516 -1.22966788 0.03064912
C  0.71838076 -1.20572629 0.00844500
C  1.41837660 0.03810548 0.01157645
C  0.67071924 1.18159597 0.03579466
C  -0.72386566 1.22034201 -0.06456095
C  -1.40988251 0.00985844 0.00412271
H  -1.10425861 -2.22713671 0.05983308
H  1.25413629 -2.23020323 0.02203339
H  2.49558555 0.02069361 -0.11093920
H  1.23200919 2.14086322 0.03887507
H  -1.37622212 2.11446180 -0.26277143
H  -2.46542212 0.00844678 -0.05716919
12
MD Step 1609 Units = [Angstroms]
C  -0.67550207 -1.22656113 0.03007273
C  0.71751890 -1.20734107 0.00788614
C  1.42118980 0.03581852 0.01368055
C  0.67005316 1.18354505 0.03338150
C  -0.72598479 1.21751202 -0.06332801
C  -1.41031659 0.01019822 0.00420093
H  -1.10884133 -2.23366208 0.06600610
H  1.24528003 -2.22457365 0.01787759
H  2.51263216 0.03184444 -0.11084418
H  1.22957661 2.13713925 0.04061282
H  -1.37981315 2.11609115 -0.26251169
H  -2.46259085 0.01620775 -0.05969224
12
MD Step 1610 Units = [Angstroms]
C  -0.67424104 -1.22314320 0.02952650
C  0.71678543 -1.20898296 0.00737453
C  1.42381215 0.03305353 0.01572313
C  0.66944144 1.18587246 0.03087128
C  -0.72823702 1.21459791 -0.06208922
C  -1.41027204 0.01016302 0.00421023
H  -1.11499723 -2.23957169 0.07212231
H  1.23553681 -2.21533180 0.01351575
H  2.52958781 0.04327756 -0.10997926
H  1.22674846 2.13366959 0.04239425
H  -1.38074878 2.11681620 -0.26115664
H  -2.46382193 0.02338184 -0.06214289
12
MD Step 1611 Units = [Angstroms]
C  -0.67301074 -1.21950437 0.02901922
C  0.71618524 -1.21057268 0.00690827
C  1.42628476 0.02988029 0.01768680
C  0.66889025 1.18847693 0.02827555
C  -0.73058455 1.21165689 -0.06085423
C  -1.40978331 0.00974115 0.00415103
H  -1.12231214 -2.24403754 0.07810722
H  1.22538175 -2.20332967 0.00898333
H  2.54523678 0.05481451 -0.10821882
H  1.22373094 2.13084834 0.04418641
H  -1.37898926 2.11650740 -0.25868375
H  -2.46899716 0.02987114 -0.06449913
12
MD Step 1612 Units = [Angstroms]
C  -0.67186817 -1.21573111 0.02855964
C  0.71571253 -1.21201633 0.00648551
C  1.42863873 0.02637795 0.01955616
C  0.66840370 1.19125409 0.02560620
C  -0.73297857 1.20873737 -0.05963007
C  -1.40892204 0.00892568 0.00402194
H  -1.13038698 -2.24633100 0.08388313
H  1.21539907 -2.18966474 0.00431254
H  2.55852268 0.06625521 -0.10546208
H  1.22073224 2.12905531 0.04595906
H  -1.37461962 2.11516813 -0.25510529
H  -2.47756667 0.03557900 -0.06671428
12
MD Step 1613 Units = [Angstroms]
C  -0.67086536 -1.21190214 0.02815610
C  0.71535204 -1.21320950 0.00610470
C  1.43089197 0.02263230 0.02131842
C  0.66798458 1.19410167 0.02287548
C  -0.73536049 1.20587793 -0.05842115
C  -1.40778902 0.00771572 0.00382010
H  -1.13886213 -2.24587492 0.08937393
H  1.20625251 -2.17562506 -0.00047078
H  2.56860742 0.07738696 -0.10163971
H  1.21794002 2.12861719 0.04768424
H  -1.36784520 2.11293424 -0.25046718
H  -2.48863919 0.04040771 -0.06872128
12
MD Step 1614 Units = [Angstroms]
C  -0.67004682 -1.20808613 0.02781610
C  0.71508207 -1.21404473 0.00576482
C  1.43304781 0.01873283 0.02296365
C  0.66763533 1.19692450 0.02009602
C  -0.73766373 1.20310668 -0.05722938
C  -1.40650291 0.00611753 0.00354176
H  -1.14743465 -2.24227646 0.09450968
H  1.19863545 -2.16259241 -0.00534960
H  2.57490386 0.08799463 -0.09671666
H  1.21549958 2.12977009 0.04933520
H  -1.35898160 2.11006733 -0.24484615
H  -2.50111324 0.04425961 -0.07044070
12
MD Step 1615 Units = [Angstroms]
C  -0.66944720 -1.20434050 0.02754600
C  0.71487931 -1.21442258 0.00546542
C  1.43509488 0.01476973 0.02448483
C  0.66735892 1.19963886 0.01728087
C  -0.73981591 1.20044120 -0.05605448
C  -1.40518822 0.00414532 0.00318298
H  -1.15587021 -2.23534516 0.09923071
H  1.19319916 -2.15190056 -0.01031615
H  2.57709107 0.09787074 -0.09069229
H  1.21349597 2.13262913 0.05088477
H  -1.34843850 2.10694004 -0.23834474
H  -2.51381684 0.04704099 -0.07179027
12
MD Step 1616 Units = [Angstroms]
C  -0.66908958 -1.20071108 0.02735071
C  0.71472521 -1.21426524 0.00520645
C  1.43700750 0.01083112 0.02587784
C  0.66715944 1.20217575 0.01444351
C  -0.74174174 1.19788931 -0.05489446
C  -1.40396486 0.00182182 0.00274020
H  -1.16401106 -2.22510075 0.10349100
H  1.19046636 -2.14466268 -0.01536929
H  2.57511962 0.10682521 -0.08359866
H  1.21194321 2.13717000 0.05230370
H  -1.33669609 2.10401112 -0.23108403
H  -2.52562982 0.04866738 -0.07269353
12
MD Step 1617 Units = [Angstroms]
C  -0.66898405 -1.19723198 0.02723347
C  0.71461217 -1.21352985 0.00498779
C  1.43874622 0.00700037 0.02714128
C  0.66704210 1.20448260 0.01159783
C  -0.74336631 1.19545086 -0.05374629
C  -1.40294025 -0.00082134 0.00221070
H  -1.17178141 -2.21177381 0.10726109
H  1.19074669 -2.14160225 -0.02050836
H  2.56921162 0.11469459 -0.07549762
H  1.21078280 2.14322616 0.05355920
H  -1.32427381 2.10178824 -0.22319413
H  -2.53557531 0.04906883 -0.07308647
12
MD Step 1618 Units = [Angstroms]
C  -0.66912694 -1.19392581 0.02719562
C  0.71454795 -1.21221793 0.00480861
C  1.44025850 0.00335389 0.02827625
C  0.66701275 1.20652351 0.00875797
C  -0.74461900 1.19312070 -0.05260676
C  -1.40220413 -0.00374359 0.00159287
H  -1.17919027 -2.19579981 0.11053022
H  1.19407711 -2.14293366 -0.02572462
H  2.55985623 0.12135058 -0.06647670
H  1.20989196 2.15050234 0.05461430
H  -1.31169244 2.10077852 -0.21480288
H  -2.54287931 0.04819423 -0.07292162
12
MD Step 1619 Units = [Angstroms]
C  -0.66950054 -1.19080418 0.02723646
C  0.71455656 -1.21037768 0.00466676
C  1.44147977 -0.00004057 0.02928601
C  0.66707689 1.20827804 0.00593814
C  -0.74543750 1.19089261 -0.05147333
C  -1.40182539 -0.00689565 0.00088631
H  -1.18633103 -2.17780514 0.11330760
H  1.20020665 -2.14833069 -0.03099296
H  2.54779743 0.12670754 -0.05664370
H  1.20909999 2.15860205 0.05542811
H  -1.29943255 2.10142959 -0.20602414
H  -2.54700466 0.04601447 -0.07217021
12
MD Step 1620 Units = [Angstroms]
C  -0.67007375 -1.18786883 0.02735324
C  0.71467510 -1.20809824 0.00455836
C  1.44233548 -0.00312507 0.03017549
C  0.66723847 1.20973893 0.00315233
C  -0.74577163 1.18876363 -0.05034500
C  -1.40185038 -0.01022024 0.00009188
H  -1.19337564 -2.15858150 0.11562237
H  1.20863156 -2.15699347 -0.03626678
H  2.53400784 0.13072759 -0.04611950
H  1.20820977 2.16706448 0.05595712
H  -1.28789500 2.10406863 -0.19694768
H  -2.54766776 0.04252458 -0.07082272
12
MD Step 1621 Units = [Angstroms]
C  -0.67080370 -1.18511373 0.02754126
C  0.71494766 -1.20549800 0.00447787
C  1.44274483 -0.00585178 0.03095067
C  0.66749879 1.21090926 0.00041400
C  -0.74558640 1.18673804 -0.04922279
C  -1.40230191 -0.01365328 -0.00078833
H  -1.20056068 -2.13904443 0.11752166
H  1.21866966 -2.16779037 -0.04147791
H  2.51963954 0.13342168 -0.03502903
H  1.20702106 2.17540533 0.05615727
H  -1.27736971 2.10884952 -0.18763268
H  -2.54484551 0.03774511 -0.06888854
12
MD Step 1622 Units = [Angstroms]
C  -0.67163851 -1.18252839 0.02779421
C  0.71541791 -1.20271043 0.00441848
C  1.44262681 -0.00818246 0.03161778
C  0.66785565 1.21179940 -0.00226431
C  -0.74486383 1.18483005 -0.04810993
C  -1.40317873 -0.01712549 -0.00175093
H  -1.20816253 -2.12017292 0.11906624
H  1.22955213 -2.17943095 -0.04654119
H  2.50594389 0.13484425 -0.02349083
H  1.20535240 2.18315640 0.05598641
H  -1.26801879 2.11571949 -0.17810649
H  -2.53877644 0.03172296 -0.06639493
12
MD Step 1623 Units = [Angstroms]
C  -0.67252143 -1.18010265 0.02810473
C  0.71612240 -1.19987091 0.00437270
C  1.44190885 -0.01008708 0.03218257
C  0.66830309 1.21242408 -0.00487122
C  -0.74360343 1.18306445 -0.04701154
C  -1.40445534 -0.02056447 -0.00279130
H  -1.21646027 -2.10293060 0.12032354
H  1.24051014 -2.19062688 -0.05136197
H  2.49415767 0.13508049 -0.01160685
H  1.20305956 2.18990044 0.05540683
H  -1.25987675 2.12441322 -0.16836892
H  -2.52995669 0.02453130 -0.06338537
12
MD Step 1624 Units = [Angstroms]
C  -0.67339587 -1.17783216 0.02846508
C  0.71708564 -1.19710665 0.00433302
C  1.44053751 -0.01154182 0.03264968
C  0.66883144 1.21279987 -0.00739679
C  -0.74182130 1.18147502 -0.04593398
C  -1.40608241 -0.02389700 -0.00390360
H  -1.22568826 -2.08817513 0.12135849
H  1.25084242 -2.20021487 -0.05584414
H  2.48536320 0.13422671 0.00054498
H  1.20004944 2.19529904 0.05438754
H  -1.25286685 2.13447645 -0.15840103
H  -2.51912718 0.01626853 -0.05991706
12
MD Step 1625 Units = [Angstroms]
C  -0.67421102 -1.17572385 0.02886796
C  0.71831749 -1.19453011 0.00429248
C  1.43848931 -0.01252691 0.03302252
C  0.66942799 1.21294307 -0.00983265
C  -0.73954835 1.18010117 -0.04488405
C  -1.40798853 -0.02705137 -0.00508090
H  -1.23598483 -2.07656906 0.12222374
H  1.25995959 -2.20723526 -0.05989721
H  2.48034435 0.13236801 0.01291253
H  1.19628923 2.19911322 0.05290612
H  -1.24682908 2.14531399 -0.14817599
H  -2.50724521 0.00705537 -0.05605729
12
MD Step 1626 Units = [Angstroms]
C  -0.67492700 -1.17379997 0.02930717
C  0.71981222 -1.19223524 0.00424506
C  1.43577925 -0.01302497 0.03330366
C  0.67007776 1.21286824 -0.01217211
C  -0.73682804 1.17898338 -0.04386815
C  -1.41008383 -0.02995952 -0.00631541
H  -1.24734757 -2.06850926 0.12295121
H  1.26740858 -2.21097375 -0.06344169
H  2.47947035 0.12955960 0.02546394
H  1.19181103 2.20121661 0.05094995
H  -1.24155341 2.15625228 -0.13766977
H  -2.49543162 -0.00297001 -0.05187853
12
MD Step 1627 Units = [Angstroms]
C  -0.67551857 -1.17209939 0.02977800
C  0.72154904 -1.19029542 0.00418598
C  1.43246431 -0.01302057 0.03349576
C  0.67076445 1.21258718 -0.01441011
C  -0.73371406 1.17815848 -0.04289165
C  -1.41226641 -0.03255893 -0.00759881
H  -1.25960675 -2.06409107 0.12354715
H  1.27288371 -2.21097891 -0.06641293
H  2.48263897 0.12581844 0.03817560
H  1.18671249 2.20160192 0.04851682
H  -1.23681262 2.16660516 -0.12686955
H  -2.48488572 -0.01365861 -0.04745232
12
MD Step 1628 Units = [Angstroms]
C  -0.67597661 -1.17067567 0.03027722
C  0.72349321 -1.18876207 0.00411195
C  1.42864073 -0.01250116 0.03360263
C  0.67147147 1.21210868 -0.01654322
C  -0.73026830 1.17765545 -0.04195843
C  -1.41443152 -0.03479413 -0.00892272
H  -1.27242495 -2.06311526 0.12399205
H  1.27623064 -2.20706746 -0.06876389
H  2.48929620 0.12112830 0.05101731
H  1.18115355 2.20038069 0.04561488
H  -1.23239042 2.17573355 -0.11577902
H  -2.47676680 -0.02485789 -0.04284292
12
MD Step 1629 Units = [Angstroms]
C  -0.67630736 -1.16959216 0.03080270
C  0.72559740 -1.18766349 0.00402131
C  1.42443541 -0.01145937 0.03363025
C  0.67218276 1.21143872 -0.01856951
C  -0.72655898 1.17749213 -0.04107075
C  -1.41648291 -0.03661798 -0.01027898
H  -1.28532380 -2.06513462 0.12424524
H  1.27744794 -2.19932549 -0.07046724
H  2.49852641 0.11545623 0.06393945
H  1.17534950 2.19777610 0.04226195
H  -1.22810322 2.18309369 -0.10442053
H  -2.47205197 -0.03641754 -0.03810201
12
MD Step 1630 Units = [Angstroms]
C  -0.67652957 -1.16891526 0.03135280
C  0.72780301 -1.18700338 0.00391420
C  1.41999383 -0.00989589 0.03358714
C  0.67288368 1.21058151 -0.02048843
C  -0.72265907 1.17767314 -0.04022918
C  -1.41834432 -0.03799284 -0.01165992
H  -1.29773167 -2.06952766 0.12425270
H  1.27668821 -2.18810905 -0.07151711
H  2.50918725 0.10877439 0.07686590
H  1.16956019 2.19410826 0.03848411
H  -1.22381541 2.18827214 -0.09283449
H  -2.47139498 -0.04819135 -0.03326634
12
MD Step 1631 Units = [Angstroms]
C  -0.67667073 -1.16870729 0.03192567
C  0.73004132 -1.18675965 0.00379271
C  1.41546716 -0.00782222 0.03348435
C  0.67356176 1.20954101 -0.02230064
C  -0.71864462 1.17818870 -0.03943278
C  -1.41996841 -0.03889171 -0.01305817
H  -1.30904086 -2.07558220 0.12395611
H  1.27425859 -2.17404299 -0.07193044
H  2.52005534 0.10108021 0.08969388
H  1.16407529 2.18977132 0.03431368
H  -1.21944912 2.19100850 -0.08107686
H  -2.47501898 -0.06003430 -0.02835939
12
MD Step 1632 Units = [Angstroms]
C  -0.67676292 -1.16902013 0.03251859
C  0.73223471 -1.18688377 0.00366094
C  1.41100093 -0.00526282 0.03333486
C  0.67420752 1.20832315 -0.02400783
C  -0.71459308 1.17901451 -0.03867931
C  -1.42134070 -0.03929934 -0.01446636
H  -1.31866344 -2.08257394 0.12330103
H  1.27061726 -2.15801211 -0.07174740
H  2.52995527 0.09241016 0.10229966
H  1.15919586 2.18520241 0.02978672
H  -1.21498967 2.19120772 -0.06921545
H  -2.48267415 -0.07179571 -0.02339672
12
MD Step 1633 Units = [Angstroms]
C  -0.67683909 -1.16989050 0.03312755
C  0.73429827 -1.18730197 0.00352488
C  1.40672668 -0.00225616 0.03315282
C  0.67481520 1.20693846 -0.02561253
C  -0.71058148 1.18011226 -0.03796556
C  -1.42247726 -0.03921303 -0.01587655
H  -1.32607792 -2.08983063 0.12224331
H  1.26636048 -2.14113403 -0.07103001
H  2.53785660 0.08284564 0.11454755
H  1.15521296 2.18084341 0.02494031
H  -1.21048760 2.18894390 -0.05732536
H  -2.49367334 -0.08331198 -0.01839337
12
MD Step 1634 Units = [Angstroms]
C  -0.67692992 -1.17133700 0.03374695
C  0.73614249 -1.18791927 0.00339212
C  1.40275647 0.00114518 0.03295264
C  0.67538349 1.20540492 -0.02711796
C  -0.70668445 1.18143085 -0.03728761
C  -1.42341718 -0.03864284 -0.01727980
H  -1.33086335 -2.09677883 0.12075313
H  1.26219218 -2.12470065 -0.06985785
H  2.54293730 0.07251192 0.12629993
H  1.15238492 2.17709877 0.01980998
H  -1.20605748 2.18445605 -0.04548418
H  -2.50699538 -0.09440233 -0.01337063
12
MD Step 1635 Units = [Angstroms]
C  -0.67706130 -1.17335877 0.03436950
C  0.73767760 -1.18862752 0.00327119
C  1.39917990 0.00487539 0.03274827
C  0.67591603 1.20375058 -0.02852785
C  -0.70297237 1.18290823 -0.03664126
C  -1.42421210 -0.03761104 -0.01866596
H  -1.33272154 -2.10297495 0.11881712
H  1.25886944 -2.11007664 -0.06831982
H  2.54461951 0.06157242 0.13742673
H  1.15091558 2.17429402 0.01442764
H  -1.20187330 2.17813575 -0.03376708
H  -2.52142683 -0.10487006 -0.00836033
12
MD Step 1636 Units = [Angstroms]
C  -0.67725232 -1.17593536 0.03498623
C  0.73881994 -1.18931758 0.00317053
C  1.39606280 0.00885705 0.03255242
C  0.67642162 1.20201547 -0.02984638
C  -0.69950969 1.18447391 -0.03602231
C  -1.42491558 -0.03615088 -0.02002367
H  -1.33148963 -2.10812403 0.11643888
H  1.25712134 -2.09855305 -0.06650210
H  2.54258659 0.05022020 0.14781392
H  1.15093630 2.17264095 0.00882062
H  -1.19815941 2.17050484 -0.02224233
H  -2.53570792 -0.11450883 -0.00340572
12
MD Step 1637 Units = [Angstroms]
C  -0.67751364 -1.17902742 0.03558658
C  0.73949967 -1.18989426 0.00309737
C  1.39344671 0.01300346 0.03237602
C  0.67691385 1.20025235 -0.03107817
C  -0.69635384 1.18605233 -0.03542693
C  -1.42557440 -0.03430477 -0.02134066
H  -1.32714580 -2.11209011 0.11363847
H  1.25754902 -2.09117188 -0.06447391
H  2.53678932 0.03866809 0.15737075
H  1.15249445 2.17221543 0.00301179
H  -1.19517590 2.16218160 -0.01096759
H  -2.54865649 -0.12311229 0.00144047
12
MD Step 1638 Units = [Angstroms]
C  -0.67784633 -1.18257794 0.03615860
C  0.73966862 -1.19029096 0.00305658
C  1.39134890 0.01722144 0.03222770
C  0.67741037 1.19852592 -0.03222827
C  -0.69355469 1.18756706 -0.03485186
C  -1.42622272 -0.03212231 -0.02260414
H  -1.31980986 -2.11490065 0.11045112
H  1.26052674 -2.08855857 -0.06227489
H  2.52744615 0.02713810 0.16603613
H  1.15555011 2.17295179 -0.00297916
H  -1.19319769 2.15383441 0.00001214
H  -2.55925799 -0.13048437 0.00611964
12
MD Step 1639 Units = [Angstroms]
C  -0.67824117 -1.18651388 0.03668918
C  0.73930578 -1.19047993 0.00305013
C  1.38976243 0.02141458 0.03211326
C  0.67793153 1.19691049 -0.03330229
C  -0.69115481 1.18894576 -0.03429444
C  -1.42687893 -0.02965813 -0.02380124
H  -1.30973938 -2.11674553 0.10692533
H  1.26613100 -2.09080987 -0.05990826
H  2.51503866 0.01585046 0.17378409
H  1.15998145 2.17465464 -0.00913367
H  -1.19248735 2.14612414 0.01066453
H  -2.56672179 -0.13644871 0.01057171
12
MD Step 1640 Units = [Angstroms]
C  -0.67867879 -1.19074827 0.03716435
C  0.73841900 -1.19047492 0.00307712
C  1.38865679 0.02548681 0.03203536
C  0.67849872 1.19548628 -0.03430634
C  -0.68919040 1.19012558 -0.03375253
C  -1.42754449 -0.02696995 -0.02491949
H  -1.29732024 -2.11796936 0.10312029
H  1.27412091 -2.09747484 -0.05734268
H  2.50029982 0.00501230 0.18062805
H  1.16559781 2.17702596 -0.01543205
H  -1.19326378 2.13964007 0.02096719
H  -2.57051127 -0.14085636 0.01473926
12
MD Step 1641 Units = [Angstroms]
C  -0.67913066 -1.19518287 0.03756974
C  0.73704205 -1.19032561 0.00313459
C  1.38797916 0.02934601 0.03199325
C  0.67913267 1.19433476 -0.03524711
C  -0.68769244 1.19105824 -0.03322414
C  -1.42820410 -0.02411681 -0.02594713
H  -1.28304957 -2.11905372 0.09910252
H  1.28397633 -2.10763595 -0.05452203
H  2.48418920 -0.00519324 0.18662279
H  1.17215811 2.17970210 -0.02185149
H  -1.19567059 2.13483759 0.03090254
H  -2.57035713 -0.14359198 0.01857141
12
MD Step 1642 Units = [Angstroms]
C  -0.67956132 -1.19971192 0.03789098
C  0.73522828 -1.19010586 0.00321863
C  1.38765739 0.03290751 0.03198281
C  0.67985173 1.19353379 -0.03613170
C  -0.68668785 1.19171415 -0.03270699
C  -1.42882628 -0.02115746 -0.02687352
H  -1.26750848 -2.12058507 0.09494165
H  1.29498072 -2.12006270 -0.05137980
H  2.46784714 -0.01461640 0.19186287
H  1.17939198 2.18229500 -0.02836481
H  -1.19974988 2.13198840 0.04045098
H  -2.56626142 -0.14457876 0.02202720
12
MD Step 1643 Units = [Angstroms]
C  -0.67993176 -1.20422713 0.03811432
C  0.73304287 -1.18989989 0.00332554
C  1.38760514 0.03609705 0.03199705
C  0.68067059 1.19315277 -0.03696743
C  -0.68619990 1.19208470 -0.03219806
C  -1.42936429 -0.01814909 -0.02768945
H  -1.25132325 -2.12320465 0.09070552
H  1.30632279 -2.13339111 -0.04785326
H  2.45252003 -0.02314682 0.19647527
H  1.18702102 2.18443197 -0.03494014
H  -1.20542704 2.13115293 0.04958406
H  -2.55849650 -0.14378257 0.02507853
12
MD Step 1644 Units = [Angstroms]
C  -0.68020391 -1.20862404 0.03822717
C  0.73055577 -1.18978961 0.00345272
C  1.38772971 0.03885289 0.03202710
C  0.68159925 1.19324852 -0.03776164
C  -0.68624779 1.19218224 -0.03169323
C  -1.42975713 -0.01514638 -0.02838739
H  -1.23511583 -2.12753943 0.08645492
H  1.31719162 -2.14628545 -0.04389409
H  2.43945357 -0.03071378 0.20060517
H  1.19477817 2.18579007 -0.04154145
H  -1.21251044 2.13218071 0.05825933
H  -2.54759911 -0.14121514 0.02771276
12
MD Step 1645 Units = [Angstroms]
C  -0.68034563 -1.21280938 0.03821861
C  0.72783636 -1.18984548 0.00359915
C  1.38794204 0.04112687 0.03206383
C  0.68264246 1.19386190 -0.03852135
C  -0.68684519 1.19203799 -0.03118716
C  -1.42993113 -0.01220085 -0.02896175
H  -1.21944895 -2.13411911 0.08223889
H  1.32684981 -2.15755779 -0.03947410
H  2.42975989 -0.03727959 0.20439470
H  1.20242418 2.18612317 -0.04812977
H  -1.22070680 2.13473826 0.06641830
H  -2.53435588 -0.13693557 0.02993449
12
MD Step 1646 Units = [Angstroms]
C  -0.68033544 -1.21670844 0.03807977
C  0.72495016 -1.19012096 0.00376562
C  1.38816762 0.04288446 0.03209974
C  0.68379946 1.19501537 -0.03925296
C  -0.68799798 1.19169820 -0.03067350
C  -1.42980252 -0.00936069 -0.02940897
H  -1.20477475 -2.14329103 0.07809145
H  1.33468077 -2.16624123 -0.03458678
H  2.42427748 -0.04282654 0.20795765
H  1.20976049 2.18528083 -0.05466494
H  -1.22964903 2.13835772 0.07398798
H  -2.51977295 -0.13104912 0.03176630
12
MD Step 1647 Units = [Angstroms]
C  -0.68016607 -1.22027106 0.03780405
C  0.72195710 -1.19065004 0.00395458
C  1.38835589 0.04410407 0.03213080
C  0.68506400 1.19671158 -0.03996200
C  -0.68970177 1.19121951 -0.03014523
C  -1.42928192 -0.00667109 -0.02972754
H  -1.19139766 -2.15515023 0.07403061
H  1.34021447 -2.17162582 -0.02924584
H  2.42345299 -0.04734095 0.21135533
H  1.21663863 2.18321950 -0.06110758
H  -1.23893143 2.14249632 0.08088547
H  -2.50502065 -0.12370166 0.03324741
12
MD Step 1648 Units = [Angstroms]
C  -0.67984601 -1.22347469 0.03738697
C  0.71891070 -1.19144662 0.00417004
C  1.38848561 0.04477617 0.03215771
C  0.68642449 1.19893273 -0.04065284
C  -0.69193963 1.19066421 -0.02959523
C  -1.42828130 -0.00417496 -0.02991770
H  -1.17946029 -2.16950233 0.07005992
H  1.34313919 -2.17327093 -0.02348220
H  2.42727520 -0.05079972 0.21458048
H  1.22296614 2.18000646 -0.06742109
H  -1.24814590 2.14659631 0.08702452
H  -2.49134531 -0.11506909 0.03442969
12
MD Step 1649 Units = [Angstroms]
C  -0.67939892 -1.22632390 0.03682602
C  0.71585755 -1.19250485 0.00441725
C  1.38856486 0.04490274 0.03218608
C  0.68786432 1.20164105 -0.04132856
C  -0.69468043 1.19009596 -0.02901680
C  -1.42672351 -0.00191413 -0.02998097
H  -1.16895486 -2.18586982 0.06617204
H  1.34330641 -2.17100618 -0.01734033
H  2.43527994 -0.05316421 0.21755405
H  1.22870889 2.17581683 -0.07357357
H  -1.25691472 2.15013785 0.09232255
H  -2.47994720 -0.10534205 0.03537062
12
MD Step 1650 Units = [Angstroms]
C  -0.67886113 -1.22884612 0.03612022
C  0.71283661 -1.19379979 0.00470240
C  1.38862568 0.04449721 0.03222553
C  0.68936237 1.20477997 -0.04199086
C  -0.69787812 1.18957624 -0.02840422
C  -1.42455359 0.00006955 -0.02991941
H  -1.15975587 -2.20354111 0.06235333
H  1.34073347 -2.16492899 -0.01087425
H  2.44662401 -0.05438351 0.22013578
H  1.23388969 2.17092367 -0.07953934
H  -1.26491660 2.15268075 0.09670730
H  -2.47183551 -0.09470882 0.03612365
12
MD Step 1651 Units = [Angstroms]
C  -0.67827792 -1.23108494 0.03526980
C  0.70987833 -1.19528795 0.00503227
C  1.38871516 0.04358473 0.03228804
C  0.69089361 1.20827644 -0.04263995
C  -0.70147195 1.18916149 -0.02775310
C  -1.42174964 0.00173350 -0.02973480
H  -1.15166450 -2.22165022 0.05858829
H  1.33560640 -2.15540222 -0.00414337
H  2.46020685 -0.05440530 0.22214530
H  1.23858266 2.16568071 -0.08529996
H  -1.27190555 2.15389432 0.10012218
H  -2.46768573 -0.08334095 0.03672806
12
MD Step 1652 Units = [Angstroms]
C  -0.67769956 -1.23309241 0.03427586
C  0.70700357 -1.19690791 0.00541387
C  1.38888538 0.04220240 0.03238593
C  0.69243011 1.21204410 -0.04327473
C  -0.70538750 1.18890089 -0.02706070
C  -1.41833057 0.00303462 -0.02942805
H  -1.14445420 -2.23926909 0.05486302
H  1.32828173 -2.14305034 0.00279203
H  2.47480900 -0.05318967 0.22338744
H  1.24290286 2.16049756 -0.09084460
H  -1.27772272 2.15357649 0.10253024
H  -2.46773373 -0.07138647 0.03720081
12
MD Step 1653 Units = [Angstroms]
C  -0.67717761 -1.23492177 0.03314019
C  0.70422272 -1.19858132 0.00585392
C  1.38918448 0.04039905 0.03253002
C  0.69394218 1.21598735 -0.04389287
C  -0.70953839 1.18883447 -0.02632612
C  -1.41435824 0.00393065 -0.02899890
H  -1.13790961 -2.25549537 0.05116724
H  1.31928377 -2.12874868 0.00987574
H  2.48922003 -0.05072169 0.22367597
H  1.24699099 2.15580761 -0.09616939
H  -1.28230242 2.15166401 0.10391663
H  -2.47173702 -0.05897297 0.03753323
12
MD Step 1654 Units = [Angstroms]
C  -0.67676174 -1.23662172 0.03186512
C  0.70153571 -1.20021503 0.00635848
C  1.38965009 0.03823424 0.03272833
C  0.69539990 1.22000627 -0.04449108
C  -0.71382854 1.18899159 -0.02555036
C  -1.40993289 0.00438250 -0.02844613
H  -1.13185499 -2.26952452 0.04749508
H  1.30929026 -2.11359562 0.01706082
H  2.50233918 -0.04701967 0.22285207
H  1.25099377 2.15203005 -0.10127585
H  -1.28567325 2.14823535 0.10428970
H  -2.47901556 -0.04621886 0.03769346
12
MD Step 1655 Units = [Angstroms]
C  -0.67649726 -1.23823230 0.03045349
C  0.69893355 -1.20170547 0.00693244
C  1.39030527 0.03577653 0.03298520
C  0.69677478 1.22400185 -0.04506547
C  -0.71815474 1.18938971 -0.02473633
C  -1.40518308 0.00435711 -0.02776815
H  -1.12617211 -2.28070208 0.04384489
H  1.29909812 -2.09885581 0.02431442
H  2.51324458 -0.04213845 0.22079631
H  1.25504134 2.14952936 -0.10616828
H  -1.28795471 2.14350662 0.10368071
H  -2.48856005 -0.03324775 0.03763390
12
MD Step 1656 Units = [Angstroms]
C  -0.67642308 -1.23978258 0.02890864
C  0.69640222 -1.20294600 0.00757926
C  1.39115667 0.03310107 0.03330097
C  0.69804141 1.22788127 -0.04561191
C  -0.72240941 1.19003354 -0.02388874
C  -1.40025262 0.00383027 -0.02696377
H  -1.12080956 -2.28855747 0.04021848
H  1.28956142 -2.08586372 0.03162078
H  2.52123507 -0.03616850 0.21743486
H  1.25922468 2.14857674 -0.11085051
H  -1.28934927 2.13782010 0.10214205
H  -2.49917682 -0.02020042 0.03730093
12
MD Step 1657 Units = [Angstroms]
C  -0.67657010 -1.24128937 0.02723446
C  0.69392893 -1.20383756 0.00830095
C  1.39219412 0.03028677 0.03367202
C  0.69917877 1.23156248 -0.04612642
C  -0.72648366 1.19091495 -0.02301381
C  -1.39528756 0.00278896 -0.02603287
H  -1.11578602 -2.29282330 0.03662005
H  1.28149993 -2.07588617 0.03898066
H  2.52585237 -0.02923204 0.21274137
H  1.26357639 2.14931920 -0.11532246
H  -1.29012895 2.13162394 0.09974382
H  -2.50963474 -0.00724079 0.03664438
12
MD Step 1658 Units = [Angstroms]
C  -0.67695984 -1.24275693 0.02543542
C  0.69151026 -1.20430142 0.00909849
C  1.39339091 0.02741331 0.03409095
C  0.70017107 1.23497777 -0.04660556
C  -0.73027050 1.19201374 -0.02211896
C  -1.39042526 0.00123298 -0.02497692
H  -1.11118983 -2.29344457 0.03305515
H  1.27558806 -2.06995840 0.04640567
H  2.52689096 -0.02147735 0.20673616
H  1.26805851 2.15176155 -0.11957714
H  -1.29061584 2.12544121 0.09656885
H  -2.51878814 0.00544460 0.03562463
12
MD Step 1659 Units = [Angstroms]
C  -0.67760338 -1.24417703 0.02351665
C  0.68915991 -1.20429147 0.00997260
C  1.39470441 0.02455819 0.03454698
C  0.70100765 1.23807572 -0.04704662
C  -0.73366818 1.19329968 -0.02121220
C  -1.38578669 -0.00082403 -0.02379923
H  -1.10717606 -2.29058051 0.02952953
H  1.27224735 -2.06872689 0.05390762
H  2.52440114 -0.01307213 0.19948342
H  1.27255990 2.15576455 -0.12359874
H  -1.29115573 2.11982754 0.09270602
H  -2.52566450 0.01765211 0.03421687
12
MD Step 1660 Units = [Angstroms]
C  -0.67850063 -1.24552948 0.02148399
C  0.68691376 -1.20380247 0.01092480
C  1.39607695 0.02179407 0.03502640
C  0.70168230 1.24082172 -0.04744777
C  -0.73658375 1.19473572 -0.02030157
C  -1.38147169 -0.00335436 -0.02250498
H  -1.10396137 -2.28459953 0.02604821
H  1.27157313 -2.07234223 0.06148519
H  2.51868680 -0.00419614 0.19108713
H  1.27690404 2.16105946 -0.12736232
H  -1.29208579 2.11531864 0.08824267
H  -2.52951792 0.02916924 0.03241262
12
MD Step 1661 Units = [Angstroms]
C  -0.67963998 -1.24678323 0.01934406
C  0.68483018 -1.20287167 0.01195822
C  1.39743686 0.01918650 0.03551317
C  0.70219179 1.24319685 -0.04780803
C  -0.73893650 1.19628218 -0.01939448
C  -1.37755659 -0.00631658 -0.02110111
H  -1.10181620 -2.27606552 0.02261456
H  1.27331995 -2.08043602 0.06911240
H  2.51029662 0.00496677 0.18168528
H  1.28086561 2.16727658 -0.13083502
H  -1.29369871 2.11237197 0.08325706
H  -2.52985657 0.03978390 0.03021942
12
MD Step 1662 Units = [Angstroms]
C  -0.68099860 -1.24789819 0.01710431
C  0.68298493 -1.20157306 0.01307798
C  1.39870041 0.01679226 0.03598960
C  0.70253413 1.24519590 -0.04812707
C  -0.74066110 1.19790129 -0.01849712
C  -1.37409332 -0.00965642 -0.01959610
H  -1.10105253 -2.26571141 0.01922954
H  1.27695088 -2.09218949 0.07673291
H  2.50000375 0.01423699 0.17144207
H  1.28419324 2.17398254 -0.13397867
H  -1.29620764 2.11131044 0.07781216
H  -2.52645363 0.04929358 0.02765940
12
MD Step 1663 Units = [Angstroms]
C  -0.68254348 -1.24882838 0.01477304
C  0.68146250 -1.20000626 0.01429099
C  1.39977501 0.01465813 0.03643732
C  0.70270689 1.24682463 -0.04840504
C  -0.74171004 1.19956136 -0.01761418
C  -1.37110931 -0.01330846 -0.01799978
H  -1.10200571 -2.25439509 0.01589117
H  1.28173375 -2.10647011 0.08426193
H  2.48876696 0.02344740 0.16053755
H  1.28663437 2.18072093 -0.13675321
H  -1.29971783 2.11227791 0.07195238
H  -2.51934923 0.05751434 0.02476713
12
MD Step 1664 Units = [Angstroms]
C  -0.68423331 -1.24952661 0.01235943
C  0.68034598 -1.19828347 0.01560515
C  1.40056438 0.01282036 0.03683830
C  0.70270577 1.24809687 -0.04864227
C  -0.74205501 1.20123957 -0.01674873
C  -1.36860781 -0.01719816 -0.01632303
H  -1.10500852 -2.24303434 0.01259417
H  1.28685435 -2.12199470 0.09159448
H  2.47766606 0.03245046 0.14915464
H  1.28795914 2.18705119 -0.13912048
H  -1.30421029 2.11521579 0.06570378
H  -2.50884792 0.06428951 0.02158721
12
MD Step 1665 Units = [Angstroms]
C  -0.68602142 -1.24995071 0.00987342
C  0.67970826 -1.19651760 0.01702843
C  1.40097603 0.01130466 0.03717612
C  0.70252381 1.24903171 -0.04883901
C  -0.74168705 1.20292293 -0.01590246
C  -1.36656852 -0.02124449 -0.01457758
H  -1.11035718 -2.23252128 0.00932996
H  1.29151873 -2.13747991 0.09861664
H  2.46780790 0.04112274 0.13746474
H  1.28798078 2.19258225 -0.14104772
H  -1.30954111 2.11986624 0.05907804
H  -2.49551189 0.06949803 0.01817150
12
MD Step 1666 Units = [Angstroms]
C  -0.68785935 -1.25007066 0.00732573
C  0.67960558 -1.19481338 0.01856788
C  1.40093066 0.01012685 0.03743702
C  0.70215117 1.24965099 -0.04899523
C  -0.74061553 1.20460740 -0.01507611
C  -1.36494872 -0.02536277 -0.01277569
H  -1.11827141 -2.22362446 0.00608705
H  1.29502881 -2.15175654 0.10521677
H  2.46020722 0.04936517 0.12561386
H  1.28657127 2.19699914 -0.14251062
H  -1.31545650 2.12580142 0.05207883
H  -2.48014671 0.07306204 0.01457593
12
MD Step 1667 Units = [Angstroms]
C  -0.68970090 -1.24987549 0.00472765
C  0.68007397 -1.19326175 0.02022891
C  1.40037229 0.00929403 0.03761078
C  0.70157558 1.24997717 -0.04911047
C  -0.73886627 1.20629526 -0.01427001
C  -1.36368551 -0.02946757 -0.01092984
H  -1.12885381 -2.21689407 0.00285178
H  1.29682826 -2.16384300 0.11129453
H  2.45565799 0.05709867 0.11371289
H  1.28367194 2.20008217 -0.14349554
H  -1.32162055 2.13247280 0.04470915
H  -2.46377287 0.07495245 0.01085692
12
MD Step 1668 Units = [Angstroms]
C  -0.69150586 -1.24937817 0.00209099
C  0.68112789 -1.19193685 0.02201473
C  1.39927699 0.00880608 0.03769090
C  0.70078320 1.25003166 -0.04918376
C  -0.73647917 1.20799178 -0.01348453
C  -1.36269981 -0.03347530 -0.00905237
H  -1.14205632 -2.21259062 -0.00039074
H  1.29652461 -2.17298498 0.11676728
H  2.45462058 0.06425602 0.10183451
H  1.27929927 2.20171895 -0.14400108
H  -1.32765011 2.13927074 0.03697796
H  -2.44757443 0.07519092 0.00706733
12
MD Step 1669 Units = [Angstroms]
C  -0.69324269 -1.24861716 -0.00057216
C  0.68276048 -1.19089462 0.02392604
C  1.39765801 0.00865717 0.03767420
C  0.69975993 1.24983355 -0.04921360
C  -0.73350595 1.20970153 -0.01272043
C  -1.36190275 -0.03730622 -0.00715512
H  -1.15766237 -2.21065509 -0.00365548
H  1.29389597 -2.17867333 0.12157438
H  2.45715269 0.07077286 0.09001838
H  1.27354624 2.20190971 -0.14403876
H  -1.33315125 2.14558442 0.02890486
H  -2.43281702 0.07384620 0.00325262
12
MD Step 1670 Units = [Angstroms]
C  -0.69488979 -1.24765386 -0.00324950
C  0.68494461 -1.19017201 0.02596078
C  1.39556571 0.00883696 0.03755991
C  0.69849287 1.24939890 -0.04919804
C  -0.73000807 1.21142514 -0.01197906
C  -1.36120479 -0.04088567 -0.00524912
H  -1.17529019 -2.21072869 -0.00695650
H  1.28889031 -2.18065110 0.12567996
H  2.46290324 0.07658134 0.07828265
H  1.26657947 2.20076631 -0.14363290
H  -1.33775261 2.15085478 0.02052243
H  -2.42073268 0.07102378 -0.00055218
12
MD Step 1671 Units = [Angstroms]
C  -0.69643499 -1.24656651 -0.00592867
C  0.68763432 -1.18978614 0.02811399
C  1.39308220 0.00933120 0.03734847
C  0.69697195 1.24874058 -0.04913479
C  -0.72605515 1.21315684 -0.01126235
C  -1.36052674 -0.04414459 -0.00334446
H  -1.19441805 -2.21221662 -0.01030620
H  1.28162207 -2.17891743 0.12907499
H  2.47117049 0.08160883 0.06663842
H  1.25863217 2.19850449 -0.14281977
H  -1.34113308 2.15461623 0.01187637
H  -2.41238014 0.06684971 -0.00432337
12
MD Step 1672 Units = [Angstroms]
C  -0.69787379 -1.24544183 -0.00859737
C  0.69076633 -1.18973341 0.03037766
C  1.39031207 0.01012173 0.03704049
C  0.69519172 1.24786864 -0.04902142
C  -0.72172360 1.21488267 -0.01057276
C  -1.35981113 -0.04701958 -0.00145033
H  -1.21442628 -2.21437934 -0.01371483
H  1.27236855 -2.17373160 0.13177904
H  2.48100765 0.08578199 0.05510255
H  1.24999273 2.19542909 -0.14164580
H  -1.34304287 2.15652630 0.00302381
H  -2.40850249 0.06145202 -0.00804671
12
MD Step 1673 Units = [Angstroms]
C  -0.69920692 -1.24436623 -0.01124340
C  0.69426160 -1.18998838 0.03274066
C  1.38737158 0.01118618 0.03663611
C  0.69315309 1.24679142 -0.04885555
C  -0.71709556 1.21657967 -0.00991310
C  -1.35903114 -0.04945312 0.00042465
H  -1.23464750 -2.21643055 -0.01719029
H  1.26156498 -2.16561624 0.13384155
H  2.49134872 0.08903433 0.04370593
H  1.24098881 2.19191146 -0.14016503
H  -1.34331853 2.15638457 -0.00596959
H  -2.40941431 0.05494526 -0.01171266
12
MD Step 1674 Units = [Angstroms]
C  -0.70043766 -1.24341800 -0.01385471
C  0.69802715 -1.19050329 0.03518878
C  1.38437833 0.01249746 0.03613471
C  0.69086511 1.24551708 -0.04863514
C  -0.71225765 1.21821566 -0.00928629
C  -1.35819469 -0.05139425 0.00227195
H  -1.25441651 -2.21762471 -0.02073827
H  1.24979523 -2.15535406 0.13534202
H  2.50112865 0.09131452 0.03249639
H  1.23196723 2.18835931 -0.13843571
H  -1.34189271 2.15414251 -0.01503328
H  -2.41494911 0.04742352 -0.01530996
12
MD Step 1675 Units = [Angstroms]
C  -0.70156958 -1.24266125 -0.01641939
C  0.70195855 -1.19120882 0.03770486
C  1.38144290 0.01402357 0.03553508
C  0.68834670 1.24405582 -0.04835877
C  -0.70729972 1.21974977 -0.00869514
C  -1.35734241 -0.05280020 0.00408274
H  -1.27311331 -2.21732445 -0.02436251
H  1.23777229 -2.14396790 0.13638807
H  2.50938081 0.09259319 0.02153698
H  1.22327047 2.18518005 -0.13651640
H  -1.33879930 2.14990598 -0.02409586
H  -2.42448330 0.03896398 -0.01881955
12
MD Step 1676 Units = [Angstroms]
C  -0.70260466 -1.24214181 -0.01892569
C  0.70594350 -1.19201758 0.04026932
C  1.37866289 0.01572753 0.03483569
C  0.68562808 1.24242217 -0.04802585
C  -0.70231331 1.22113350 -0.00814210
C  -1.35654001 -0.05363848 0.00584761
H  -1.29019655 -2.21504595 -0.02806520
H  1.22630182 -2.13267052 0.13710991
H  2.51530597 0.09286714 0.01090135
H  1.21521188 2.18274068 -0.13446186
H  -1.33417411 2.14393089 -0.03308918
H  -2.43702991 0.02963877 -0.02221087
12
MD Step 1677 Units = [Angstroms]
C  -0.70354188 -1.24188497 -0.02136189
C  0.70986713 -1.19283133 0.04286108
C  1.37611920 0.01756783 0.03403519
C  0.68275167 1.24063728 -0.04763687
C  -0.69739010 1.22231237 -0.00762902
C  -1.35586725 -0.05388901 0.00755650
H  -1.30522735 -2.21048520 -0.03184758
H  1.21622329 -2.12277137 0.13764986
H  2.51831544 0.09216068 0.00066788
H  1.20805208 2.18132885 -0.13231926
H  -1.32825037 2.13661169 -0.04195228
H  -2.45137576 0.01953010 -0.02544137
12
MD Step 1678 Units = [Angstroms]
C  -0.70437592 -1.24189447 -0.02371631
C  0.71361888 -1.19355230 0.04545883
C  1.37387380 0.01949911 0.03313280
C  0.67977230 1.23873063 -0.04719349
C  -0.69262041 1.22322819 -0.00715698
C  -1.35540643 -0.05354584 0.00919896
H  -1.31788529 -2.20353027 -0.03571045
H  1.20832835 -2.11553606 0.13814683
H  2.51805479 0.09052497 -0.00908644
H  1.20197988 2.18112068 -0.13012534
H  -1.32134772 2.12846101 -0.05063465
H  -2.46622862 0.00874298 -0.02845915
12
MD Step 1679 Units = [Angstroms]
C  -0.70509613 -1.24215263 -0.02597714
C  0.71710034 -1.19409765 0.04804267
C  1.37196868 0.02147312 0.03212870
C  0.67675639 1.23674077 -0.04669851
C  -0.68809198 1.22382205 -0.00672615
C  -1.35523240 -0.05261782 0.01076446
H  -1.32797866 -2.19426408 -0.03965494
H  1.20326560 -2.11201150 0.13871771
H  2.51441513 0.08803565 -0.01829181
H  1.19710049 2.18216086 -0.12790491
H  -1.31385315 2.12007906 -0.05909851
H  -2.48034678 -0.00258765 -0.03120733
12
MD Step 1680 Units = [Angstroms]
C  -0.70568546 -1.24262123 -0.02813241
C  0.72023270 -1.19441413 0.05059559
C  1.37042527 0.02343994 0.03102439
C  0.67378004 1.23471487 -0.04615571
C  -0.68388920 1.22403796 -0.00633582
C  -1.35540555 -0.05112845 0.01224272
H  -1.33545036 -2.18296051 -0.04368320
H  1.20145094 -2.11285164 0.13943974
H  2.50753653 0.08478958 -0.02689082
H  1.19343280 2.18435855 -0.12567091
H  -1.30619292 2.11211140 -0.06731928
H  -2.49263660 -0.01429611 -0.03362897
12
MD Step 1681 Units = [Angstroms]
C  -0.70611974 -1.24324307 -0.03016991
C  0.72296166 -1.19448878 0.05310453
C  1.36924431 0.02534935 0.02982297
C  0.67092608 1.23270693 -0.04556964
C  -0.68009290 1.22382723 -0.00598457
C  -1.35596757 -0.04911472 0.01362409
H  -1.34037959 -2.17007438 -0.04779931
H  1.20300747 -2.11819239 0.14033917
H  2.49780567 0.08090075 -0.03484309
H  1.19091588 2.18749980 -0.12342595
H  -1.29879584 2.10519614 -0.07528380
H  -2.50221630 -0.02619003 -0.03567161
12
MD Step 1682 Units = [Angstroms]
C  -0.70636734 -1.24394440 -0.03207719
C  0.72525874 -1.19435223 0.05556058
C  1.36840624 0.02715235 0.02852934
C  0.66828033 1.23077503 -0.04494523
C  -0.67678048 1.22315310 -0.00567066
C  -1.35693965 -0.04662534 0.01489977
H  -1.34297811 -2.15622366 -0.05201009
H  1.20775343 -2.12761719 0.14139013
H  2.48584585 0.07649547 -0.04212906
H  1.18942324 2.19127400 -0.12116493
H  -1.29205100 2.09990436 -0.08298611
H  -2.50845200 -0.03805763 -0.03729084
12
MD Step 1683 Units = [Angstroms]
C  -0.70638976 -1.24463844 -0.03384159
C  0.72711838 -1.19407348 0.05795832
C  1.36787244 0.02880276 0.02715032
C  0.66592726 1.22897777 -0.04428744
C  -0.67402601 1.22199519 -0.00539256
C  -1.35832211 -0.04371860 0.01606201
H  -1.34357804 -2.14216035 -0.05632577
H  1.21524141 -2.14022593 0.14252379
H  2.47249491 0.07170673 -0.04875253
H  1.18878214 2.19530962 -0.11887823
H  -1.28626543 2.09668099 -0.09042093
H  -2.51097501 -0.04967639 -0.03845303
12
MD Step 1684 Units = [Angstroms]
C  -0.70614330 -1.24523013 -0.03545040
C  0.72855241 -1.19374794 0.06029462
C  1.36758791 0.03025879 0.02569466
C  0.66394567 1.22737063 -0.04360092
C  -0.67189994 1.22035305 -0.00514961
C  -1.36009493 -0.04045995 0.01710431
H  -1.34260786 -2.12872648 -0.06076036
H  1.22483506 -2.15478330 0.14364456
H  2.45876435 0.06666783 -0.05474120
H  1.18879511 2.19921345 -0.11655483
H  -1.28162927 2.09579555 -0.09757615
H  -2.50968822 -0.06082261 -0.03913733
12
MD Step 1685 Units = [Angstroms]
C  -0.70558229 -1.24562234 -0.03689105
C  0.72958344 -1.19348273 0.06256733
C  1.36748599 0.03148451 0.02417272
C  0.66240447 1.22600247 -0.04288978
C  -0.67046773 1.21824804 -0.00494256
C  -1.36221867 -0.03691966 0.01802151
H  -1.34055374 -2.11679230 -0.06533115
H  1.23580028 -2.16990045 0.14464791
H  2.44577278 0.06150558 -0.06014427
H  1.18926082 2.20260853 -0.11418510
H  -1.27819558 2.09731217 -0.10442582
H  -2.50476643 -0.07128118 -0.03933698
12
MD Step 1686 Units = [Angstroms]
C  -0.70466354 -1.24572339 -0.03815150
C  0.73023899 -1.19338286 0.06477413
C  1.36749537 0.03245110 0.02259599
C  0.66135916 1.22491242 -0.04215729
C  -0.66978731 1.21572321 -0.00477396
C  -1.36463559 -0.03317049 0.01880995
H  -1.33790607 -2.10717810 -0.07005705
H  1.24738946 -2.18420378 0.14543552
H  2.43465072 0.05633391 -0.06502623
H  1.18999252 2.20516694 -0.11176285
H  -1.27587957 2.10108502 -0.11092550
H  -2.49665210 -0.08085586 -0.03906020
12
MD Step 1687 Units = [Angstroms]
C  -0.70335192 -1.24545521 -0.03922068
C  0.73054739 -1.19354074 0.06691182
C  1.36754917 0.03313773 0.02097625
C  0.66084900 1.22412754 -0.04140587
C  -0.66990549 1.21284117 -0.00464824
C  -1.36727118 -0.02928565 0.01946749
H  -1.33509634 -2.10056653 -0.07495547
H  1.25890597 -2.19646316 0.14592551
H  2.42642138 0.05124883 -0.06945688
H  1.19083298 2.20663563 -0.10928677
H  -1.27447720 2.10677981 -0.11701115
H  -2.48604389 -0.08937947 -0.03833037
12
MD Step 1688 Units = [Angstroms]
C  -0.70162586 -1.24476105 -0.04008907
C  0.73053536 -1.19402949 0.06897595
C  1.36759473 0.03353199 0.01932457
C  0.66089518 1.22366103 -0.04063701
C  -0.67085388 1.20968022 -0.00457149
C  -1.37003664 -0.02533698 0.01999354
H  -1.33243459 -2.09741900 -0.08003780
H  1.26974641 -2.20567265 0.14605784
H  2.42187322 0.04632591 -0.07349883
H  1.19166556 2.20685480 -0.10676112
H  -1.27369878 2.11391646 -0.12260184
H  -2.47387228 -0.09672365 -0.03718520
12
MD Step 1689 Units = [Angstroms]
C  -0.69948187 -1.24361122 -0.04074931
C  0.73022705 -1.19489954 0.07096075
C  1.36760227 0.03362991 0.01765029
C  0.66149996 1.22351113 -0.03985127
C  -0.67264492 1.20632971 -0.00455096
C  -1.37283270 -0.02139361 0.02038895
H  -1.33006150 -2.09791285 -0.08530406
H  1.27942431 -2.21109190 0.14579601
H  2.42144928 0.04162073 -0.07719494
H  1.19242139 2.20576898 -0.10419589
H  -1.27321034 2.12192422 -0.12760554
H  -2.46125396 -0.10280633 -0.03567449
12
MD Step 1690 Units = [Angstroms]
C  -0.69693673 -1.24200577 -0.04119675
C  0.72964387 -1.19617727 0.07285923
C  1.36757005 0.03343563 0.01596038
C  0.66264680 1.22366071 -0.03904847
C  -0.67526897 1.20288506 -0.00459444
C  -1.37555582 -0.01752107 0.02065573
H  -1.32792784 -2.10191449 -0.09073788
H  1.28758202 -2.21226160 0.14512670
H  2.42518069 0.03717185 -0.08055919
H  1.19308297 2.20343124 -0.10160650
H  -1.27267507 2.13019974 -0.13192666
H  -2.44941720 -0.10759502 -0.03385606
12
MD Step 1691 Units = [Angstroms]
C  -0.69402705 -1.23997336 -0.04142982
C  0.72880452 -1.19786493 0.07466334
C  1.36752462 0.03296082 0.01425916
C  0.66430155 1.22407756 -0.03822771
C  -0.67869274 1.19944325 -0.00470959
C  -1.37810670 -0.01378106 0.02079664
H  -1.32580697 -2.10899558 -0.09630327
H  1.29399671 -2.20900593 0.14405824
H  2.43268275 0.03300500 -0.08357367
H  1.19368398 2.20000059 -0.09901309
H  -1.27178925 2.13816046 -0.13547384
H  -2.43959435 -0.11110377 -0.03178984
12
MD Step 1692 Units = [Angstroms]
C  -0.69080634 -1.23756676 -0.04145019
C  0.72772492 -1.19994086 0.07636418
C  1.36751609 0.03222409 0.01254872
C  0.66641444 1.22471543 -0.03738769
C  -0.68285930 1.19609889 -0.00490331
C  -1.38040092 -0.01023181 0.02081468
H  -1.32333709 -2.11848824 -0.10194399
H  1.29858488 -2.20143030 0.14261897
H  2.44321461 0.02913704 -0.08619231
H  1.19430529 2.19573241 -0.09643946
H  -1.27030936 2.14528874 -0.13816701
H  -2.43288777 -0.11338255 -0.02953076
12
MD Step 1693 Units = [Angstroms]
C  -0.68734049 -1.23485609 -0.04126257
C  0.72641787 -1.20235998 0.07795217
C  1.36760980 0.03125028 0.01082962
C  0.66892283 1.22551590 -0.03652681
C  -0.68768969 1.19294102 -0.00518125
C  -1.38237994 -0.00692891 0.02071252
H  -1.32008152 -2.12956613 -0.10758591
H  1.30140729 -2.18991813 0.14085547
H  2.45578577 0.02557859 -0.08835014
H  1.19506690 2.19096132 -0.09391172
H  -1.26806995 2.15116530 -0.13994293
H  -2.43012784 -0.11450062 -0.02712189
12
MD Step 1694 Units = [Angstroms]
C  -0.68370273 -1.23192125 -0.04087434
C  0.72489244 -1.20505433 0.07941732
C  1.36787649 0.03006983 0.00910195
C  0.67175457 1.22641117 -0.03564351
C  -0.69308563 1.19005042 -0.00554741
C  -1.38402020 -0.00392612 0.02049219
H  -1.31559299 -2.14133426 -0.11314176
H  1.30267399 -2.17512540 0.13883063
H  2.46928260 0.02233515 -0.08997500
H  1.19611546 2.18607615 -0.09145655
H  -1.26499326 2.15549256 -0.14075921
H  -2.43175306 -0.11452805 -0.02458980
12
MD Step 1695 Units = [Angstroms]
C  -0.67996908 -1.22884487 -0.04029503
C  0.72315345 -1.20793441 0.08074942
C  1.36838320 0.02871798 0.00736615
C  0.67483169 1.22732772 -0.03473653
C  -0.69893309 1.18749733 -0.00600384
C  -1.38533771 -0.00127561 0.02015496
H  -1.30947017 -2.15291255 -0.11851736
H  1.30274589 -2.15796710 0.13662117
H  2.48258899 0.01940721 -0.09099879
H  1.19760765 2.18148724 -0.08909926
H  -1.26109200 2.15810932 -0.14059662
H  -2.43774319 -0.11352104 -0.02194372
12
MD Step 1696 Units = [Angstroms]
C  -0.67621459 -1.22570646 -0.03953576
C  0.72120147 -1.21089176 0.08193841
C  1.36918620 0.02723383 0.00562381
C  0.67807426 1.22819063 -0.03380515
C  -0.70510637 1.18533939 -0.00655048
C  -1.38638651 0.00097280 0.01970164
H  -1.30139998 -2.16350413 -0.12361807
H  1.30212703 -2.13958570 0.13431411
H  2.49468455 0.01678983 -0.09136644
H  1.19969030 2.17758793 -0.08686173
H  -1.25646709 2.15899831 -0.13946009
H  -2.44762477 -0.11151590 -0.01917883
12
MD Step 1697 Units = [Angstroms]
C  -0.67251069 -1.22257819 -0.03860865
C  0.71903428 -1.21380403 0.08297481
C  1.37032617 0.02565904 0.00387808
C  0.68140406 1.22892834 -0.03284952
C  -0.71147234 1.18361977 -0.00718508
C  -1.38725136 0.00277352 0.01913303
H  -1.29118469 -2.17244534 -0.12835493
H  1.30143886 -2.12128982 0.13200161
H  2.50471430 0.01447240 -0.09104158
H  1.20247905 2.17471354 -0.08476034
H  -1.25130106 2.15828700 -0.13737829
H  -2.46054720 -0.10853297 -0.01628266
12
MD Step 1698 Units = [Angstroms]
C  -0.66892317 -1.21952202 -0.03752631
C  0.71665029 -1.21654301 0.08385029
C  1.37182573 0.02403644 0.00213391
C  0.68474777 1.22947722 -0.03187081
C  -0.71789467 1.18236564 -0.00790319
C  -1.38803636 0.00408788 0.01845047
H  -1.27875599 -2.17923932 -0.13264983
H  1.30136826 -2.10445407 0.12977412
H  2.51203239 0.01243869 -0.09000943
H  1.20603839 2.17310313 -0.08280432
H  -1.24584762 2.15624139 -0.13440190
H  -2.47540740 -0.10458780 -0.01324239
12
MD Step 1699 Units = [Angstroms]
C  -0.66551085 -1.21658782 -0.03630142
C  0.71405442 -1.21898583 0.08455826
C  1.37368834 0.02240827 0.00039808
C  0.68803942 1.22978553 -0.03087142
C  -0.72423791 1.18158713 -0.00869837
C  -1.38885232 0.00488714 0.01765627
H  -1.26417961 -2.18357660 -0.13643992
H  1.30258562 -2.09038027 0.12771227
H  2.51622621 0.01066723 -0.08827754
H  1.21036627 2.17286988 -0.08099462
H  -1.24041716 2.15325127 -0.13060030
H  -2.49099132 -0.09970485 -0.01005120
12
MD Step 1700 Units = [Angstroms]
C  -0.66232454 -1.21381224 -0.03494629
C  0.71126586 -1.22102787 0.08509454
C  1.37589822 0.02081454 -0.00132083
C  0.69122182 1.22981619 -0.02985502
C  -0.73037146 1.18127725 -0.00956246
C  -1.38980526 0.00515519 0.01675396
H  -1.24765337 -2.18534669 -0.13968108
H  1.30563995 -2.08013661 0.12587888
H  2.51712767 0.00913195 -0.08587489
H  1.21538625 2.17398547 -0.07932363
H  -1.23535776 2.14980496 -0.12605689
H  -2.50610394 -0.09392921 -0.00671220
12
MD Step 1701 Units = [Angstroms]
C  -0.65940630 -1.21121805 -0.03347256
C  0.70832586 -1.22259480 0.08545774
C  1.37842072 0.01929132 -0.00301262
C  0.69424687 1.22954793 -0.02882649
C  -0.73617318 1.18141297 -0.01048602
C  -1.39098748 0.00489067 0.01574830
H  -1.22950066 -2.18464262 -0.14235068
H  1.31085157 -2.07440853 0.12431280
H  2.51481663 0.00780301 -0.08285026
H  1.22094884 2.17628140 -0.07777580
H  -1.23103142 2.14645186 -0.12086280
H  -2.51967096 -0.08733387 -0.00323997
12
MD Step 1702 Units = [Angstroms]
C  -0.65678898 -1.20881386 -0.03189082
C  0.70530321 -1.22365031 0.08564937
C  1.38120310 0.01786934 -0.00466566
C  0.69707494 1.22897501 -0.02779185
C  -0.74153289 1.18195780 -0.01145889
C  -1.39247146 0.00410809 0.01464515
H  -1.21015940 -2.18175885 -0.14444947
H  1.31823268 -2.07340217 0.12302640
H  2.50961823 0.00664775 -0.07926962
H  1.22684211 2.17946719 -0.07632895
H  -1.22778616 2.14375287 -0.11510973
H  -2.53080815 -0.08002214 0.00034002
12
MD Step 1703 Units = [Angstroms]
C  -0.65449617 -1.20659438 -0.03021046
C  0.70229483 -1.22419736 0.08567361
C  1.38417572 0.01657301 -0.00626720
C  0.69967338 1.22810551 -0.02675801
C  -0.74635533 1.18286576 -0.01247084
C  -1.39430646 0.00283805 0.01345124
H  -1.19016568 -2.17718042 -0.14600226
H  1.32746257 -2.07683012 0.12200721
H  2.50209290 0.00563168 -0.07521294
H  1.23280966 2.18316211 -0.07495629
H  -1.22592558 2.14222155 -0.10888259
H  -2.53886249 -0.07212615 0.00399324
12
MD Step 1704 Units = [Angstroms]
C  -0.65254257 -1.20454161 -0.02843947
C  0.69942080 -1.22427253 0.08553669
C  1.38725410 0.01541979 -0.00780375
C  0.70201469 1.22695871 -0.02573255
C  -0.75056269 1.18408628 -0.01351210
C  -1.39651685 0.00112642 0.01217394
H  -1.17013013 -2.17155917 -0.14705681
H  1.33792726 -2.08398265 0.12122302
H  2.49301459 0.00471980 -0.07076995
H  1.23857294 2.18693486 -0.07362860
H  -1.22567905 2.14226241 -0.10225333
H  -2.54343346 -0.06380262 0.00767864
12
MD Step 1705 Units = [Angstroms]
C  -0.65093504 -1.20262730 -0.02658453
C  0.69681481 -1.22393576 0.08524616
C  1.39034237 0.01442014 -0.00926161
C  0.70407459 1.22556206 -0.02472346
C  -0.75409630 1.18556928 -0.01457376
C  -1.39910166 -0.00096734 0.01082097
H  -1.15070571 -2.16567250 -0.14768000
H  1.34881026 -2.09385939 0.12062896
H  2.48333069 0.00387800 -0.06603487
H  1.24385465 2.19034551 -0.07231648
H  -1.22717656 2.14411634 -0.09527724
H  -2.54438201 -0.05522714 0.01135143
12
MD Step 1706 Units = [Angstroms]
C  -0.64967417 -1.20081704 -0.02465132
C  0.69461244 -1.22325859 0.08481013
C  1.39333868 0.01357774 -0.01062745
C  0.70583031 1.22394809 -0.02373888
C  -0.75691736 1.18726944 -0.01564796
C  -1.40203486 -0.00337261 0.00940021
H  -1.13254619 -2.16036082 -0.14795087
H  1.35920640 -2.10532167 0.12017449
H  2.47409717 0.00307484 -0.06110019
H  1.24840048 2.19298448 -0.07099226
H  -1.23043257 2.14782344 -0.08799268
H  -2.54183226 -0.04658733 0.01496602
12
MD Step 1707 Units = [Angstroms]
C  -0.64875656 -1.19907604 -0.02264506
C  0.69293984 -1.22231390 0.08423656
C  1.39614285 0.01289014 -0.01188898
C  0.70725940 1.22215154 -0.02278687
C  -0.75900659 1.18914893 -0.01672772
C  -1.40526616 -0.00601070 0.00791941
H  -1.11625778 -2.15644433 -0.14795008
H  1.36822953 -2.11723027 0.11980929
H  2.46638592 0.00228360 -0.05605002
H  1.25199716 2.19450530 -0.06963157
H  -1.23534180 2.15321178 -0.08042428
H  -2.53616773 -0.03807522 0.01847887
12
MD Step 1708 Units = [Angstroms]
C  -0.64817711 -1.19737601 -0.02057128
C  0.69190453 -1.22116848 0.08353276
C  1.39866582 0.01234943 -0.01303552
C  0.70833899 1.22020702 -0.02187519
C  -0.76036278 1.19117816 -0.01780666
C  -1.40872233 -0.00879826 0.00638606
H  -1.10234908 -2.15462658 -0.14774685
H  1.37509571 -2.12854862 0.11948741
H  2.46116874 0.00148450 -0.05095426
H  1.25448618 2.19464973 -0.06821445
H  -1.24168810 2.15991471 -0.07258886
H  -2.52801991 -0.02987896 0.02185138
12
MD Step 1709 Units = [Angstroms]
C  -0.64793119 -1.19570197 -0.01843674
C  0.69158887 -1.21987878 0.08270501
C  1.40083972 0.01194312 -0.01405849
C  0.70904559 1.21814705 -0.02101113
C  -0.76100055 1.19333455 -0.01887855
C  -1.41230969 -0.01165086 0.00480712
H  -1.09118746 -2.15539964 -0.14738537
H  1.37917671 -2.13840842 0.11916981
H  2.45919342 0.00066706 -0.04586487
H  1.25577292 2.19326482 -0.06672605
H  -1.24916455 2.16741324 -0.06450235
H  -2.51824396 -0.02217401 0.02505251
12
MD Step 1710 Units = [Angstroms]
C  -0.64801595 -1.19405746 -0.01625013
C  0.69204626 -1.21848891 0.08175837
C  1.40262664 0.01165487 -0.01495150
C  0.70935533 1.21600062 -0.02020136
C  -0.76094758 1.19560017 -0.01993693
C  -1.41591814 -0.01448646 0.00318891
H  -1.08297034 -2.15897084 -0.14687386
H  1.38002807 -2.14614493 0.11882585
H  2.46087607 -0.00016791 -0.04081541
H  1.25583165 2.19031250 -0.06515689
H  -1.25740120 2.17509467 -0.05618623
H  -2.50787397 -0.01511464 0.02806077
12
MD Step 1711 Units = [Angstroms]
C  -0.64843040 -1.19246662 -0.01402242
C  0.69329929 -1.21703014 0.08069663
C  1.40402367 0.01146543 -0.01571021
C  0.70924448 1.21379219 -0.01945180
C  -0.76024178 1.19795858 -0.02097482
C  -1.41942749 -0.01722844 0.00153704
H  -1.07771774 -2.16522887 -0.14617900
H  1.37739992 -2.15131297 0.11843388
H  2.46623642 -0.00100681 -0.03582418
H  1.25470661 2.18587216 -0.06350279
H  -1.26599611 2.18231660 -0.04767205
H  -2.49805053 -0.00882667 0.03086508
12
MD Step 1712 Units = [Angstroms]
C  -0.64917442 -1.19097252 -0.01176675
C  0.69533951 -1.21552091 0.07952233
C  1.40506308 0.01135336 -0.01633199
C  0.70869031 1.21154128 -0.01876756
C  -0.75892862 1.20039192 -0.02198465
C  -1.42271618 -0.01980804 -0.00014352
H  -1.07528684 -2.17375797 -0.14522764
H  1.37123833 -2.15369333 0.11798177
H  2.47489389 -0.00182290 -0.03089996
H  1.25250934 2.18013641 -0.06176450
H  -1.27454562 2.18846691 -0.03900360
H  -2.48991764 -0.00340324 0.03346362
12
MD Step 1713 Units = [Angstroms]
C  -0.65024702 -1.18963208 -0.00949782
C  0.69812835 -1.21396678 0.07823690
C  1.40580724 0.01129597 -0.01681542
C  0.70767213 1.20926246 -0.01815288
C  -0.75705888 1.20287846 -0.02295826
C  -1.42567215 -0.02216592 -0.00184814
H  -1.07540442 -2.18389621 -0.14391522
H  1.36168206 -2.15329609 0.11746714
H  2.48612564 -0.00257714 -0.02604847
H  1.24941218 2.17339975 -0.05994693
H  -1.28267094 2.19301346 -0.03023668
H  -2.48449508 0.00109537 0.03586028
12
MD Step 1714 Units = [Angstroms]
C  -0.65164434 -1.18850875 -0.00723102
C  0.70159890 -1.21236024 0.07684088
C  1.40633989 0.01127020 -0.01715987
C  0.70617263 1.20696599 -0.01761116
C  -0.75468686 1.20539089 -0.02388715
C  -1.42820411 -0.02425293 -0.00357211
H  -1.07770894 -2.19482228 -0.14211859
H  1.34905686 -2.15036316 0.11689779
H  2.49897031 -0.00322031 -0.02127789
H  1.24563761 2.16603980 -0.05805812
H  -1.29003994 2.19554103 -0.02143710
H  -2.48254432 0.00463741 0.03805887
12
MD Step 1715 Units = [Angstroms]
C  -0.65335808 -1.18766473 -0.00498147
C  0.70565863 -1.21068049 0.07533409
C  1.40675574 0.01125358 -0.01736531
C  0.70417951 1.20465899 -0.01714498
C  -0.75186898 1.20789538 -0.02476274
C  -1.43025121 -0.02603025 -0.00531009
H  -1.08179389 -2.20565145 -0.13971039
H  1.33386578 -2.14536838 0.11629200
H  2.51235135 -0.00369605 -0.01660202
H  1.24144322 2.15849058 -0.05610792
H  -1.29638380 2.19577565 -0.01267740
H  -2.48445575 0.00721220 0.04005612
12
MD Step 1716 Units = [Angstroms]
C  -0.65537460 -1.18715395 -0.00276323
C  0.71019304 -1.20889373 0.07371591
C  1.40715055 0.01122519 -0.01743218
C  0.70168740 1.20234722 -0.01675616
C  -0.74866272 1.21035129 -0.02557664
C  -1.43178849 -0.02746918 -0.00705561
H  -1.08724592 -2.21552378 -0.13657189
H  1.31677147 -2.13900926 0.11567859
H  2.52519501 -0.00394428 -0.01204110
H  1.23710250 2.15120850 -0.05410639
H  -1.30150913 2.19359841 -0.00403288
H  -2.49018636 0.00882242 0.04183545
12
MD Step 1717 Units = [Angstroms]
C  -0.65767468 -1.18701675 -0.00058867
C  0.71507064 -1.20695470 0.07198553
C  1.40761305 0.01116655 -0.01736147
C  0.69870003 1.20003724 -0.01644593
C  -0.74512577 1.21271143 -0.02632104
C  -1.43282685 -0.02855084 -0.00880084
H  -1.09367489 -2.22367454 -0.13260305
H  1.29856478 -2.13218087 0.11509626
H  2.53652631 -0.00390456 -0.00762077
H  1.23288240 2.14463275 -0.05206226
H  -1.30530609 2.18905028 0.00442255
H  -2.49926546 0.00947883 0.04336357
12
MD Step 1718 Units = [Angstroms]
C  -0.66023383 -1.18727631 0.00153179
C  0.72014939 -1.20481068 0.07014226
C  1.40821908 0.01106246 -0.01715485
C  0.69523252 1.19773872 -0.01621498
C  -0.74131542 1.21492282 -0.02698902
C  -1.43340755 -0.02926617 -0.01053663
H  -1.10073516 -2.22948436 -0.12772904
H  1.28011414 -2.12592037 0.11459157
H  2.54553738 -0.00351886 -0.00336983
H  1.22901953 2.13914385 -0.04998146
H  -1.30775290 2.18232966 0.01262048
H  -2.51086676 0.00919909 0.04459095
12
MD Step 1719 Units = [Angstroms]
C  -0.66302270 -1.18793683 0.00358986
C  0.72528458 -1.20240851 0.06818597
C  1.40902790 0.01090171 -0.01681476
C  0.69131350 1.19546662 -0.01606358
C  -0.73728816 1.21692792 -0.02757483
C  -1.43359301 -0.02961590 -0.01225294
H  -1.10813982 -2.23251116 -0.12190370
H  1.26229386 -2.12131351 0.11421493
H  2.55163036 -0.00273371 0.00068225
H  1.22569785 2.13502546 -0.04786608
H  -1.30891633 2.17378268 0.02050170
H  -2.52392629 0.00801016 0.04545617
12
MD Step 1720 Units = [Angstroms]
C  -0.66600757 -1.18898285 0.00557939
C  0.73033769 -1.19970482 0.06611765
C  1.41007998 0.01067767 -0.01634456
C  0.68698673 1.19324261 -0.01599161
C  -0.73309958 1.21866634 -0.02807421
C  -1.43345630 -0.02961058 -0.01393934
H  -1.11566984 -2.23250838 -0.11511055
H  1.24589722 -2.11936358 0.11401428
H  2.55444121 -0.00150163 0.00450789
H  1.22303110 2.13243536 -0.04571396
H  -1.30894753 2.16388553 0.02801925
H  -2.53727680 0.00595248 0.04589252
12
MD Step 1721 Units = [Angstroms]
C  -0.66915043 -1.19037956 0.00749623
C  0.73518478 -1.19667801 0.06394002
C  1.41139582 0.01038861 -0.01574863
C  0.68231203 1.19109562 -0.01599855
C  -0.72880475 1.22007719 -0.02848450
C  -1.43307151 -0.02927029 -0.01558563
H  -1.12317971 -2.22943359 -0.10736204
H  1.23154899 -2.12083961 0.11402687
H  2.55385091 0.00021813 0.00808367
H  1.22105286 2.13139059 -0.04351908
H  -1.30807157 2.15321764 0.03514026
H  -2.54977201 0.00308360 0.04583516
12
MD Step 1722 Units = [Angstroms]
C  -0.67240898 -1.19207366 0.00933815
C  0.73972291 -1.19333921 0.06165818
C  1.41297539 0.01003800 -0.01503240
C  0.67736516 1.18906111 -0.01608344
C  -0.72445911 1.22110204 -0.02880472
C  -1.43250625 -0.02862401 -0.01718239
H  -1.13060093 -2.22345005 -0.09869738
H  1.21963880 -2.12613697 0.11427055
H  2.54998880 0.00245927 0.01139228
H  1.21971604 2.13176944 -0.04127263
H  -1.30656964 2.14242444 0.04184637
H  -2.56038468 -0.00051987 0.04522746
12
MD Step 1723 Units = [Angstroms]
C  -0.67573637 -1.19399485 0.01110458
C  0.74387295 -1.18973901 0.05928011
C  1.41479804 0.00963444 -0.01420243
C  0.67223664 1.18717928 -0.01624476
C  -0.72011983 1.22168852 -0.02903543
C  -1.43181668 -0.02770850 -0.01872135
H  -1.13794329 -2.21492140 -0.08917912
H  1.21029387 -2.13519047 0.11473687
H  2.54322963 0.00524873 0.01442420
H  1.21890171 2.13332992 -0.03896453
H  -1.30475318 2.13216996 0.04813201
H  -2.56827426 -0.00476252 0.04402549
12
MD Step 1724 Units = [Angstroms]
C  -0.67908106 -1.19605811 0.01279636
C  0.74757857 -1.18596728 0.05681668
C  1.41682301 0.00919136 -0.01326638
C  0.66702957 1.18549237 -0.01648035
C  -0.71584764 1.22179438 -0.02917844
C  -1.43104465 -0.02656683 -0.02019566
H  -1.14529305 -2.20439743 -0.07888838
H  1.20339839 -2.14746872 0.11538815
H  2.53418269 0.00860718 0.01717892
H  1.21843561 2.13574099 -0.03658526
H  -1.30293100 2.12308180 0.05400061
H  -2.57282780 -0.00953234 0.04220095
12
MD Step 1725 Units = [Angstroms]
C  -0.68238711 -1.19816693 0.01441536
C  0.75080218 -1.18214598 0.05428143
C  1.41899084 0.00872645 -0.01223301
C  0.66185655 1.18404169 -0.01678726
C  -0.71170869 1.22139153 -0.02923633
C  -1.43021642 -0.02524672 -0.02159999
H  -1.15280609 -2.19258708 -0.06791859
H  1.19865058 -2.16205223 0.11615973
H  2.52366827 0.01254996 0.01966557
H  1.21810954 2.13862129 -0.03412749
H  -1.30137268 2.11569386 0.05945890
H  -2.57368171 -0.01470407 0.03974238
12
MD Step 1726 Units = [Angstroms]
C  -0.68559512 -1.20021794 0.01596390
C  0.75351949 -1.17841692 0.05168981
C  1.42122639 0.00826063 -0.01111207
C  0.65683605 1.18286458 -0.01716169
C  -0.70777579 1.22046951 -0.02921192
C  -1.42934220 -0.02379865 -0.02293065
H  -1.16069343 -2.18031421 -0.05636781
H  1.19563803 -2.17776987 0.11696650
H  2.51267475 0.01708807 0.02190274
H  1.21770443 2.14157948 -0.03158742
H  -1.30027367 2.11039484 0.06451026
H  -2.57073127 -0.02014350 0.03665543
12
MD Step 1727 Units = [Angstroms]
C  -0.68864416 -1.20210723 0.01744426
C  0.75571457 -1.17492772 0.04905836
C  1.42344384 0.00781692 -0.00991409
C  0.65208832 1.18199186 -0.01759901
C  -0.70412871 1.21903771 -0.02910771
C  -1.42841638 -0.02227406 -0.02418554
H  -1.16919672 -2.16845312 -0.04433040
H  1.19391088 -2.19335478 0.11771208
H  2.50228971 0.02222869 0.02391700
H  1.21701230 2.14425144 -0.02896557
H  -1.29972862 2.10739106 0.06914840
H  -2.56413285 -0.02571219 0.03296214
12
MD Step 1728 Units = [Angstroms]
C  -0.69147467 -1.20373800 0.01885805
C  0.75737633 -1.17181897 0.04640378
C  1.42555404 0.00741900 -0.00865006
C  0.64773101 1.18144579 -0.01809372
C  -0.70085279 1.21712586 -0.02892550
C  -1.42741799 -0.02072356 -0.02536412
H  -1.17855288 -2.15784550 -0.03188908
H  1.19303925 -2.20758458 0.11829814
H  2.49360268 0.02797476 0.02574010
H  1.21585529 2.14633131 -0.02626709
H  -1.29971876 2.10669066 0.07335293
H  -2.55430003 -0.03127279 0.02869953
12
MD Step 1729 Units = [Angstroms]
C  -0.69403225 -1.20502906 0.02020590
C  0.75849667 -1.16921416 0.04374224
C  1.42747376 0.00708995 -0.00733108
C  0.64387482 1.18123871 -0.01863953
C  -0.69803572 1.21478257 -0.02866627
C  -1.42631189 -0.01919544 -0.02646726
H  -1.18895032 -2.14920686 -0.01910958
H  1.19265076 -2.21938656 0.11863233
H  2.48758489 0.03432248 0.02740479
H  1.21410071 2.14759498 -0.02350161
H  -1.30011608 2.10811184 0.07708788
H  -2.54189177 -0.03669457 0.02391740
12
MD Step 1730 Units = [Angstroms]
C  -0.69627170 -1.20592281 0.02148740
C  0.75907005 -1.16721294 0.04108887
C  1.42913556 0.00685121 -0.00596786
C  0.64061919 1.18137229 -0.01922950
C  -0.69576283 1.21207226 -0.02833018
C  -1.42505076 -0.01773434 -0.02749706
H  -1.20048329 -2.14303784 -0.00603944
H  1.19245081 -2.22790472 0.11863415
H  2.48496299 0.04125631 0.02894009
H  1.21167184 2.14791596 -0.02068264
H  -1.30070346 2.11131292 0.08030349
H  -2.52778717 -0.04185903 0.01867508
12
MD Step 1731 Units = [Angstroms]
C  -0.69816049 -1.20639106 0.02270149
C  0.75909380 -1.16588699 0.03845738
C  1.43049622 0.00672189 -0.00457039
C  0.63804826 1.18183721 -0.01985610
C  -0.69411136 1.20907087 -0.02791701
C  -1.42357879 -0.01638023 -0.02845653
H  -1.21311411 -2.13955930 0.00728782
H  1.19223107 -2.23253588 0.11823885
H  2.48611225 0.04874167 0.03036682
H  1.20855445 2.14727419 -0.01782678
H  -1.30120598 2.11583753 0.08294080
H  -2.51303968 -0.04666503 0.01303720
12
MD Step 1732 Units = [Angstroms]
C  -0.69968087 -1.20643743 0.02384714
C  0.75856858 -1.16527786 0.03585990
C  1.43154151 0.00671860 -0.00314768
C  0.63622737 1.18261331 -0.02051139
C  -0.69314445 1.20586123 -0.02742651
C  -1.42183732 -0.01516773 -0.02934922
H  -1.22665344 -2.13868728 0.02084423
H  1.19187177 -2.23294593 0.11739993
H  2.49099643 0.05671689 0.03169490
H  1.20479926 2.14575816 -0.01495268
H  -1.30132737 2.12116682 0.08493782
H  -2.49880426 -0.05103234 0.00706848
12
MD Step 1733 Units = [Angstroms]
C  -0.70083002 -1.20609574 0.02492432
C  0.75749868 -1.16539602 0.03330683
C  1.43228602 0.00685530 -0.00170776
C  0.63520034 1.18367014 -0.02118715
C  -0.69290588 1.20252862 -0.02685892
C  -1.41977286 -0.01412578 -0.03017874
H  -1.24076477 -2.14005417 0.03459667
H  1.19134199 -2.22907534 0.11609074
H  2.49917143 0.06508689 0.03292286
H  1.20052014 2.14356068 -0.01207994
H  -1.30078531 2.12677066 0.08623603
H  -2.48623503 -0.05490264 0.00082832
12
MD Step 1734 Units = [Angstroms]
C  -0.70161825 -1.20542498 0.02593468
C  0.75589194 -1.16622070 0.03080681
C  1.43276802 0.00714344 -0.00025783
C  0.63498776 1.18496798 -0.02187495
C  -0.69341596 1.19915685 -0.02621538
C  -1.41734676 -0.01327768 -0.03094843
H  -1.25499271 -2.14307007 0.04849748
H  1.19070003 -2.22113994 0.11430563
H  2.50985171 0.07372099 0.03403983
H  1.19588779 2.14096781 -0.00922801
H  -1.29934126 2.13215239 0.08678617
H  -2.47636036 -0.05823729 -0.00563384
12
MD Step 1735 Units = [Angstroms]
C  -0.70206573 -1.20450210 0.02688212
C  0.75375915 -1.16770041 0.02836659
C  1.43304099 0.00759185 0.00119540
C  0.63558666 1.18645939 -0.02256636
C  -0.69466909 1.19582516 -0.02549829
C  -1.41454508 -0.01264136 -0.03166114
H  -1.26880817 -2.14700848 0.06247859
H  1.19009437 -2.20962795 0.11206073
H  2.52202142 0.08245598 0.03502914
H  1.19111863 2.13834027 -0.00641524
H  -1.29682273 2.13688462 0.08655276
H  -2.46995347 -0.06101212 -0.01228080
12
MD Step 1736 Units = [Angstroms]
C  -0.70219868 -1.20341426 0.02777279
C  0.75111320 -1.16975441 0.02599105
C  1.43316391 0.00820670 0.00264533
C  0.63697155 1.18809143 -0.02325290
C  -0.69663310 1.19260583 -0.02471149
C  -1.41138651 -0.01222978 -0.03231926
H  -1.28166018 -2.15109762 0.07645059
H  1.18976388 -2.19528971 0.10939400
H  2.53456246 0.09110404 0.03587238
H  1.18645856 2.13608689 -0.00365821
H  -1.29313761 2.14063540 0.08551694
H  -2.46742542 -0.06321086 -0.01908661
12
MD Step 1737 Units = [Angstroms]
C  -0.70204557 -1.20225175 0.02861483
C  0.74796827 -1.17227565 0.02368324
C  1.43319258 0.00899133 0.00408523
C  0.63909689 1.18980850 -0.02392618
C  -0.69925028 1.18956236 -0.02386043
C  -1.40792604 -0.01205111 -0.03292505
H  -1.29302479 -2.15460182 0.09030603
H  1.19003400 -2.17911242 0.10636404
H  2.54637438 0.09946354 0.03655307
H  1.18216208 2.13463011 -0.00097148
H  -1.28828126 2.14318580 0.08367794
H  -2.46876794 -0.06481970 -0.02603214
12
MD Step 1738 Units = [Angstroms]
C  -0.70163403 -1.20110242 0.02941787
C  0.74433961 -1.17513618 0.02144462
C  1.43317288 0.00994617 0.00550797
C  0.64190068 1.19155592 -0.02457779
C  -0.70243991 1.18674803 -0.02295213
C  -1.40425313 -0.01210859 -0.03348113
H  -1.30244507 -2.15688495 0.10392581
H  1.19130384 -2.16226932 0.10304648
H  2.55647008 0.10733064 0.03705928
H  1.17846811 2.13436522 0.00163201
H  -1.28233761 2.14444002 0.08105315
H  -2.47356170 -0.06582499 -0.03309862
12
MD Step 1739 Units = [Angstroms]
C  -0.70098856 -1.20004747 0.03019239
C  0.74024451 -1.17819534 0.01927551
C  1.43313666 0.01106870 0.00690599
C  0.64530889 1.19328368 -0.02519934
C  -0.70610191 1.18420482 -0.02199518
C  -1.40048459 -0.01240008 -0.03399094
H  -1.30955990 -2.15745412 0.11718695
H  1.19401835 -2.14603355 0.09952736
H  2.56404257 0.11450964 0.03738512
H  1.17557503 2.13561716 0.00414003
H  -1.27547504 2.14442881 0.07767702
H  -2.48104766 -0.06621482 -0.04026118
12
MD Step 1740 Units = [Angstroms]
C  -0.70012911 -1.19915858 0.03094906
C  0.73570497 -1.18131133 0.01717586
C  1.43309960 0.01235342 0.00827126
C  0.64924005 1.19495032 -0.02578229
C  -0.71012131 1.18196258 -0.02099951
C  -1.39675392 -0.01291726 -0.03445902
H  -1.31412274 -2.15598647 0.12997074
H  1.19862087 -2.13165378 0.09589299
H  2.56850576 0.12082157 0.03753139
H  1.17361857 2.13860010 0.00653969
H  -1.26793768 2.14330623 0.07359903
H  -2.49024100 -0.06598353 -0.04748431
12
MD Step 1741 Units = [Angstroms]
C  -0.69907030 -1.19849578 0.03169811
C  0.73075223 -1.18435476 0.01514616
C  1.43306060 0.01379173 0.00959538
C  0.65360942 1.19652603 -0.02631794
C  -0.71437325 1.18003868 -0.01997621
C  -1.39319947 -0.01364492 -0.03489112
H  -1.31601252 -2.15234358 0.14217054
H  1.20548652 -2.12020254 0.09221745
H  2.56951606 0.12611045 0.03750550
H  1.17265611 2.14338663 0.00881584
H  -1.26003213 2.14133897 0.06888053
H  -2.50005972 -0.06513721 -0.05472044
12
MD Step 1742 Units = [Angstroms]
C  -0.69782130 -1.19810580 0.03244878
C  0.72543245 -1.18722215 0.01318840
C  1.43300204 0.01537170 0.01086970
C  0.65833239 1.19799477 -0.02679732
C  -0.71872813 1.17843823 -0.01893719
C  -1.38995363 -0.01456053 -0.03529394
H  -1.31523905 -2.14657724 0.15369892
H  1.21484523 -2.11242502 0.08855024
H  2.56698143 0.13024780 0.03732102
H  1.17266067 2.14989208 0.01094984
H  -1.25210956 2.13888695 0.06359088
H  -2.50944273 -0.06369813 -0.06191132
12
MD Step 1743 Units = [Angstroms]
C  -0.69638627 -1.19802071 0.03320874
C  0.71981199 -1.18984588 0.01130667
C  1.43289048 0.01707781 0.01208544
C  0.66332669 1.19935478 -0.02721128
C  -0.72305685 1.17715514 -0.01789475
C  -1.38713406 -0.01563415 -0.03567478
H  -1.31194432 -2.13892896 0.16449404
H  1.22671230 -2.10862737 0.08490783
H  2.56106231 0.13313555 0.03699704
H  1.17352563 2.15787749 0.01291883
H  -1.24454334 2.13637413 0.05780286
H  -2.51744278 -0.06170713 -0.06899154
12
MD Step 1744 Units = [Angstroms]
C  -0.69476523 -1.19825686 0.03398368
C  0.71398060 -1.19219803 0.00950724
C  1.43267774 0.01889062 0.01323383
C  0.66851348 1.20061776 -0.02755053
C  -0.72723567 1.17617420 -0.01686123
C  -1.38483765 -0.01682909 -0.03604112
H  -1.30639950 -2.12982315 0.17452496
H  1.24084776 -2.10863847 0.08127201
H  2.55216599 0.13470772 0.03655733
H  1.17507924 2.16697091 0.01469608
H  -1.23770288 2.13424938 0.05158782
H  -2.52329030 -0.05922372 -0.07589301
12
MD Step 1745 Units = [Angstroms]
C  -0.69295555 -1.19881438 0.03477691
C  0.70805099 -1.19428693 0.00779797
C  1.43230249 0.02078668 0.01430626
C  0.67381746 1.20180659 -0.02780587
C  -0.73115068 1.17547407 -0.01584852
C  -1.38313660 -0.01810290 -0.03640007
H  -1.29899634 -2.11985188 0.18379536
H  1.25675972 -2.11185780 0.07759584
H  2.54093218 0.13493067 0.03602922
H  1.17710612 2.17670331 0.01625206
H  -1.23192534 2.13293948 0.04501122
H  -2.52643192 -0.05632444 -0.08254972
12
MD Step 1746 Units = [Angstroms]
C  -0.69095395 -1.19967757 0.03558921
C  0.70215451 -1.19614803 0.00618738
C  1.43169272 0.02273864 0.01529447
C  0.67916645 1.20295233 -0.02796839
C  -0.73470158 1.17503099 -0.01486777
C  -1.38207625 -0.01940900 -0.03675798
H  -1.29023016 -2.10974743 0.19234457
H  1.27375253 -2.11737256 0.07381520
H  2.52820520 0.13380144 0.03544243
H  1.17937190 2.18655292 0.01755639
H  -1.22748804 2.13279871 0.03812929
H  -2.52655069 -0.05310001 -0.08890206
12
MD Step 1747 Units = [Angstroms]
C  -0.68875921 -1.20081682 0.03641892
C  0.69643414 -1.19783205 0.00468351
C  1.43076969 0.02471581 0.01619066
C  0.68449072 1.20409077 -0.02802979
C  -0.73780449 1.17482259 -0.01392917
C  -1.38167400 -0.02069861 -0.03711998
H  -1.28067145 -2.10033837 0.20024465
H  1.29100577 -2.12410774 0.06986210
H  2.51498604 0.13134364 0.03482735
H  1.18164718 2.19599156 0.01858007
H  -1.22458500 2.13406232 0.03098748
H  -2.52357457 -0.04965177 -0.09490087
12
MD Step 1748 Units = [Angstroms]
C  -0.68637546 -1.20219217 0.03726248
C  0.69103612 -1.19939360 0.00329295
C  1.42945387 0.02668514 0.01698777
C  0.68972245 1.20525911 -0.02798258
C  -0.74039375 1.17483110 -0.01304192
C  -1.38191900 -0.02192292 -0.03748957
H  -1.27092423 -2.09248630 0.20759212
H  1.30766295 -2.13097079 0.06567630
H  2.50235862 0.12760066 0.03421326
H  1.18372837 2.20452763 0.01929772
H  -1.22331100 2.13681166 0.02362108
H  -2.51767749 -0.04608794 -0.10051089
12
MD Step 1749 Units = [Angstroms]
C  -0.68381599 -1.20375869 0.03811539
C  0.68610205 -1.20088246 0.00202030
C  1.42767280 0.02861255 0.01767958
C  0.69479542 1.20649285 -0.02782039
C  -0.74242257 1.17504542 -0.01221437
C  -1.38277245 -0.02303540 -0.03786831
H  -1.26157214 -2.08700474 0.21449386
H  1.32291125 -2.13696551 0.06121304
H  2.49138923 0.12262654 0.03362629
H  1.18545371 2.21174204 0.01968957
H  -1.22365588 2.14095820 0.01605797
H  -2.50927432 -0.04251949 -0.10571374
12
MD Step 1750 Units = [Angstroms]
C  -0.68110705 -1.20547300 0.03897354
C  0.68176218 -1.20233795 0.00086790
C  1.42537053 0.03046439 0.01826099
C  0.69964502 1.20782323 -0.02753809
C  -0.74386247 1.17546158 -0.01145430
C  -1.38416873 -0.02399385 -0.03825549
H  -1.25311788 -2.08456794 0.22104795
H  1.33604223 -2.14126689 0.05644683
H  2.48300630 0.11647641 0.03308750
H  1.18671442 2.21731588 0.01974299
H  -1.22550966 2.14624978 0.00832260
H  -2.49900734 -0.03905608 -0.11051015
12
MD Step 1751 Units = [Angstroms]
C  -0.67829076 -1.20729988 0.03983475
C  0.67813003 -1.20378614 -0.00016407
C  1.42251698 0.03220884 0.01872810
C  0.70420866 1.20927508 -0.02713192
C  -0.74470201 1.17608160 -0.01076916
C  -1.38601774 -0.02476235 -0.03864794
H  -1.24592600 -2.08562421 0.22732264
H  1.34649194 -2.14326178 0.05137185
H  2.47787883 0.10919936 0.03261142
H  1.18746112 2.22104955 0.01945343
H  -1.22867741 2.15229798 0.00044045
H  -2.48771940 -0.03580180 -0.11492104
12
MD Step 1752 Units = [Angstroms]
C  -0.67542639 -1.20921735 0.04070001
C  0.67529825 -1.20523882 -0.00107731
C  1.41911532 0.03381676 0.01907833
C  0.70842629 1.21086524 -0.02659962
C  -0.74494471 1.17691118 -0.01016633
C  -1.38820896 -0.02531273 -0.03904009
H  -1.24018172 -2.09033193 0.23333811
H  1.35386469 -2.14256615 0.04600040
H  2.47631895 0.10083669 0.03220532
H  1.18770648 2.22287398 0.01882486
H  -1.23290094 2.15862107 -0.00755838
H  -2.47640693 -0.03285117 -0.11898659
12
MD Step 1753 Units = [Angstroms]
C  -0.67258911 -1.21121905 0.04157418
C  0.67333530 -1.20669347 -0.00187513
C  1.41520510 0.03526212 0.01931043
C  0.71224111 1.21260134 -0.02594036
C  -0.74460689 1.17795665 -0.00965331
C  -1.39061789 -0.02562549 -0.03942412
H  -1.23587576 -2.09853411 0.23905581
H  1.35794632 -2.13902957 0.04036024
H  2.47823388 0.09142705 0.03186929
H  1.18752443 2.22285438 0.01786964
H  -1.23788391 2.16469486 -0.01563681
H  -2.46614674 -0.03028564 -0.12276265
12
MD Step 1754 Units = [Angstroms]
C  -0.66986615 -1.21331321 0.04246580
C  0.67228267 -1.20813352 -0.00256197
C  1.41086036 0.03652176 0.01942440
C  0.71560033 1.21448130 -0.02515476
C  -0.74371529 1.17922193 -0.00923770
C  -1.39311489 -0.02569023 -0.03979064
H  -1.23281918 -2.10977798 0.24437869
H  1.35871195 -2.13273476 0.03449144
H  2.48314092 0.08101713 0.03159710
H  1.18704631 2.22118655 0.01660787
H  -1.24331698 2.17000351 -0.02375031
H  -2.45799516 -0.02817093 -0.12631370
12
MD Step 1755 Units = [Angstroms]
C  -0.66735090 -1.21551870 0.04338609
C  0.67215255 -1.20952851 -0.00314308
C  1.40618281 0.03757506 0.01942142
C  0.71845606 1.21649335 -0.02424475
C  -0.74230493 1.18070581 -0.00892715
C  -1.39557592 -0.02550559 -0.04012947
H  -1.23068363 -2.12337452 0.24916188
H  1.35633081 -2.12399595 0.02844301
H  2.49024167 0.06967449 0.03137758
H  1.18645376 2.21818511 0.01506626
H  -1.24890069 2.17408441 -0.03184786
H  -2.45286676 -0.02655564 -0.12970255
12
MD Step 1756 Units = [Angstroms]
C  -0.66513604 -1.21785920 0.04434742
C  0.67292619 -1.21083426 -0.00362414
C  1.40129185 0.03840369 0.01930373
C  0.72076620 1.21861681 -0.02321347
C  -0.74041712 1.18240000 -0.00872916
C  -1.39789362 -0.02507871 -0.04043082
H  -1.22905646 -2.13848287 0.25323105
H  1.35116802 -2.11335579 0.02226928
H  2.49853531 0.05749819 0.03119606
H  1.18596808 2.21426265 0.01327654
H  -1.25436446 2.17656379 -0.03987414
H  -2.45141070 -0.02547086 -0.13297815
12
MD Step 1757 Units = [Angstroms]
C  -0.66330680 -1.22035705 0.04536159
C  0.67455331 -1.21199346 -0.00401086
C  1.39631380 0.03899165 0.01907447
C  0.72249555 1.22082381 -0.02206504
C  -0.73809766 1.18428788 -0.00865087
C  -1.39998669 -0.02442456 -0.04068627
H  -1.22749844 -2.15420159 0.25640340
H  1.34377935 -2.10157612 0.01602574
H  2.50694402 0.04462409 0.03103587
H  1.18583549 2.20989888 0.01127346
H  -1.25948162 2.17718193 -0.04777252
H  -2.45391104 -0.02493049 -0.13616402
12
MD Step 1758 Units = [Angstroms]
C  -0.66193536 -1.22302779 0.04643830
C  0.67695328 -1.21293716 -0.00430860
C  1.39137201 0.03932576 0.01873763
C  0.72361713 1.22308180 -0.02080437
C  -0.73539519 1.18634412 -0.00869878
C  -1.40180529 -0.02356510 -0.04088963
H  -1.22559420 -2.16965158 0.25850744
H  1.33489270 -2.08961430 0.00976452
H  2.51442720 0.03122411 0.03087945
H  1.18630839 2.20560007 0.00909268
H  -1.26408036 2.17580858 -0.05548820
H  -2.46023668 -0.02493155 -0.13925035
12
MD Step 1759 Units = [Angstroms]
C  -0.66107679 -1.22587626 0.04758400
C  0.68001870 -1.21358837 -0.00452199
C  1.38657933 0.03939637 0.01829791
C  0.72411359 1.22535688 -0.01943697
C  -0.73235968 1.18853484 -0.00887855
C  -1.40333120 -0.02252860 -0.04103720
H  -1.22299069 -2.18404199 0.25939855
H  1.32536745 -2.07857412 0.00352950
H  2.52007069 0.01750055 0.03070928
H  1.18762308 2.20185074 0.00676872
H  -1.26805110 2.17244969 -0.06297144
H  -2.46985547 -0.02545422 -0.14219219
12
MD Step 1760 Units = [Angstroms]
C  -0.66076672 -1.22889415 0.04880117
C  0.68362211 -1.21386848 -0.00465458
C  1.38203285 0.03919806 0.01776066
C  0.72397883 1.22761754 -0.01796876
C  -0.72904105 1.19081844 -0.00919465
C  -1.40457313 -0.02134891 -0.04112760
H  -1.21942254 -2.19671721 0.25896967
H  1.31612491 -2.06962114 -0.00264798
H  2.52314781 0.00367738 0.03050853
H  1.18997575 2.19906238 0.00433337
H  -1.27135037 2.16724634 -0.07018043
H  -2.48190885 -0.02646170 -0.14491419
12
MD Step 1761 Units = [Angstroms]
C  -0.66102039 -1.23205885 0.05008801
C  0.68762553 -1.21370689 -0.00470863
C  1.37781079 0.03873036 0.01713179
C  0.72321944 1.22983820 -0.01640597
C  -0.72548809 1.19314696 -0.00965024
C  -1.40555867 -0.02006489 -0.04116109
H  -1.21472671 -2.20718722 0.25715740
H  1.30804943 -2.06385940 -0.00875142
H  2.52315601 -0.01000956 0.03026152
H  1.19349950 2.19752619 0.00181489
H  -1.27400130 2.16046633 -0.07708362
H  -2.49532670 -0.02790049 -0.14732035
12
MD Step 1762 Units = [Angstroms]
C  -0.66183280 -1.23533325 0.05143840
C  0.69189198 -1.21305293 -0.00468527
C  1.37397091 0.03799819 0.01641770
C  0.72185576 1.23200210 -0.01475512
C  -0.72174763 1.19546782 -0.01024698
C  -1.40632514 -0.01871969 -0.04113879
H  -1.20884905 -2.21514555 0.25394458
H  1.30187196 -2.06218081 -0.01477809
H  2.51983585 -0.02332230 0.02995405
H  1.19824578 2.19737764 -0.00076172
H  -1.27609000 2.15248830 -0.08366127
H  -2.50895514 -0.02970171 -0.14930624
12
MD Step 1763 Units = [Angstroms]
C  -0.66317975 -1.23866598 0.05284202
C  0.69629660 -1.21188786 -0.00458491
C  1.37054986 0.03701227 0.01562519
C  0.71992235 1.23410272 -0.01302306
C  -0.71786430 1.19772610 -0.01098491
C  -1.40691120 -0.01735993 -0.04106180
H  -1.20184529 -2.22047849 0.24936016
H  1.29806121 -2.06511617 -0.02073347
H  2.51317859 -0.03602971 0.02957372
H  1.20417367 2.19858007 -0.00337369
H  -1.27775735 2.14377791 -0.08990595
H  -2.52167314 -0.03178352 -0.15077080
12
MD Step 1764 Units = [Angstroms]
C  -0.66501940 -1.24199210 0.05428471
C  0.70073465 -1.21023351 -0.00440797
C  1.36756312 0.03578930 0.01476141
C  0.71746768 1.23614362 -0.01121709
C  -0.71388081 1.19986728 -0.01186258
C  -1.40735044 -0.01603479 -0.04093065
H  -1.19387813 -2.22326808 0.24347700
H  1.29675345 -2.07272806 -0.02662224
H  2.50342643 -0.04791573 0.02911010
H  1.21114912 2.20093038 -0.00599865
H  -1.27918525 2.13485587 -0.09582165
H  -2.53248400 -0.03405472 -0.15162589
12
MD Step 1765 Units = [Angstroms]
C  -0.66729435 -1.24523412 0.05574892
C  0.70512458 -1.20815463 -0.00415569
C  1.36500543 0.03435215 0.01383374
C  0.71455287 1.23813669 -0.00934505
C  -0.70983892 1.20184030 -0.01287713
C  -1.40766703 -0.01479488 -0.04074481
H  -1.18521020 -2.22378860 0.23640767
H  1.29774400 -2.08458069 -0.03243844
H  2.49106631 -0.05878670 0.02855499
H  1.21895461 2.20408598 -0.00861287
H  -1.28057743 2.12625868 -0.10142156
H  -2.54057810 -0.03641883 -0.15180304
12
MD Step 1766 Units = [Angstroms]
C  -0.66993427 -1.24830365 0.05721433
C  0.70940576 -1.20575398 -0.00383071
C  1.36285182 0.03272983 0.01284975
C  0.71124981 1.24009922 -0.00741541
C  -0.70578090 1.20360090 -0.01402466
C  -1.40787333 -0.01369101 -0.04050252
H  -1.17619231 -2.22249443 0.22829810
H  1.30054256 -2.09979826 -0.03815816
H  2.47681500 -0.06847769 0.02790247
H  1.22730764 2.20760751 -0.01118975
H  -1.28213549 2.11849446 -0.10672430
H  -2.54537088 -0.03877829 -0.15125741
12
MD Step 1767 Units = [Angstroms]
C  -0.67285908 -1.25110397 0.05865874
C  0.71353272 -1.20316158 -0.00343726
C  1.36105961 0.03095725 0.01181713
C  0.70763868 1.24205032 -0.00543731
C  -0.70175133 1.20511475 -0.01530054
C  -1.40796870 -0.01277283 -0.04020076
H  -1.16724496 -2.21999512 0.21931839
H  1.30447257 -2.11719340 -0.04373711
H  2.46159061 -0.07685707 0.02714885
H  1.23588495 2.21100936 -0.01369913
H  -1.28403239 2.11199807 -0.11174914
H  -2.54652280 -0.04103846 -0.14996973
12
MD Step 1768 Units = [Angstroms]
C  -0.67598267 -1.25353417 0.06005918
C  0.71746829 -1.20052110 -0.00298094
C  1.35957185 0.02907458 0.01074367
C  0.70380520 1.24400751 -0.00342043
C  -0.69779885 1.20636009 -0.01669992
C  -1.40793911 -0.01208737 -0.03983525
H  -1.15883141 -2.21701286 0.20965094
H  1.30878343 -2.13542728 -0.04911345
H  2.44646381 -0.08382819 0.02629228
H  1.24434912 2.21381050 -0.01610737
H  -1.28638712 2.10709145 -0.11651094
H  -2.54394792 -0.04311115 -0.14794675
12
MD Step 1769 Units = [Angstroms]
C  -0.67921733 -1.25549495 0.06139323
C  0.72117798 -1.19797676 -0.00246821
C  1.35832283 0.02712594 0.00963724
C  0.69983793 1.24598359 -0.00137496
C  -0.69397751 1.20732937 -0.01821803
C  -1.40775720 -0.01167758 -0.03940061
H  -1.15142177 -2.21431912 0.19947611
H  1.31274839 -2.15316182 -0.05421396
H  2.43258315 -0.08932712 0.02533197
H  1.25237427 2.21557934 -0.01837823
H  -1.28924471 2.10395509 -0.12101563
H  -2.53781523 -0.04491771 -0.14522071
12
MD Step 1770 Units = [Angstroms]
C  -0.68247835 -1.25689616 0.06264041
C  0.72462655 -1.19566262 -0.00190584
C  1.35724553 0.02515761 0.00850584
C  0.69582553 1.24798436 0.00068864
C  -0.69034712 1.20802954 -0.01985052
C  -1.40738279 -0.01158080 -0.03889051
H  -1.14544970 -2.21265179 0.18895729
H  1.31573389 -2.16917883 -0.05896152
H  2.42107328 -0.09331564 0.02426694
H  1.25966886 2.21596945 -0.02047422
H  -1.29256562 2.10261548 -0.12525726
H  -2.52854388 -0.04639154 -0.14184790
12
MD Step 1771 Units = [Angstroms]
C  -0.68568868 -1.25766530 0.06378343
C  0.72777699 -1.19369508 -0.00130036
C  1.35628073 0.02321561 0.00735767
C  0.69185426 1.25000697 0.00275979
C  -0.68697259 1.20848094 -0.02159352
C  -1.40676394 -0.01182738 -0.03829796
H  -1.14126659 -2.21262106 0.17822792
H  1.31723921 -2.18245847 -0.06328200
H  2.41291325 -0.09577030 0.02309444
H  1.26599438 2.21474507 -0.02235829
H  -1.29622674 2.10295038 -0.12921734
H  -2.51678982 -0.04748000 -0.13790618
12
MD Step 1772 Units = [Angstroms]
C  -0.68878281 -1.25775562 0.06480899
C  0.73059091 -1.19216801 -0.00065767
C  1.35538629 0.02134311 0.00620121
C  0.68800557 1.25203902 0.00482801
C  -0.68392201 1.20871493 -0.02344353
C  -1.40583916 -0.01243945 -0.03761562
H  -1.13910112 -2.21461996 0.16738361
H  1.31691312 -2.19222297 -0.06710981
H  2.40881268 -0.09667011 0.02180830
H  1.27117963 2.21179714 -0.02399549
H  -1.30003404 2.10471052 -0.13286636
H  -2.50341887 -0.04814526 -0.13349104
12
MD Step 1773 Units = [Angstroms]
C  -0.69170924 -1.25715230 0.06570799
C  0.73302986 -1.19114979 0.00001721
C  1.35454450 0.01957811 0.00504525
C  0.68435381 1.25405818 0.00688307
C  -0.68126379 1.20877061 -0.02539722
C  -1.40454112 -0.01342990 -0.03683635
H  -1.13903277 -2.21875922 0.15648166
H  1.31455685 -2.19795695 -0.07039203
H  2.40911138 -0.09598698 0.02039775
H  1.27513070 2.20715084 -0.02535464
H  -1.30374430 2.10755328 -0.13616742
H  -2.48945913 -0.04836402 -0.12870969
12
MD Step 1774 Units = [Angstroms]
C  -0.69443117 -1.25587504 0.06647506
C  0.73505661 -1.19068139 0.00072031
C  1.35376567 0.01795185 0.00389887
C  0.68096413 1.25603240 0.00891517
C  -0.67906321 1.20869118 -0.02745102
C  -1.40280265 -0.01480158 -0.03595388
H  -1.14098551 -2.22484315 0.14554802
H  1.31012096 -2.19941560 -0.07309157
H  2.41372771 -0.09368288 0.01884732
H  1.27783657 2.20096582 -0.02640970
H  -1.30709210 2.11108247 -0.13908094
H  -2.47602676 -0.04812571 -0.12367307
12
MD Step 1775 Units = [Angstroms]
C  -0.69692529 -1.25397666 0.06710767
C  0.73663609 -1.19077505 0.00144887
C  1.35308674 0.01648812 0.00277136
C  0.67789055 1.25792055 0.01091501
C  -0.67737867 1.20852041 -0.02960073
C  -1.40056489 -0.01654692 -0.03496355
H  -1.14474324 -2.23239348 0.13458972
H  1.30370117 -2.19662870 -0.07518975
H  2.42216986 -0.08971536 0.01713783
H  1.27937020 2.19352929 -0.02714087
H  -1.30981784 2.11488860 -0.14156968
H  -2.46422381 -0.04742938 -0.11848617
12
MD Step 1776 Units = [Angstroms]
C  -0.69917909 -1.25153806 0.06760503
C  0.73773581 -1.19141316 0.00220142
C  1.35256532 0.01520354 0.00167195
C  0.67517445 1.25967367 0.01287385
C  -0.67625824 1.20829943 -0.03184122
C  -1.39778705 -0.01864759 -0.03386323
H  -1.14998261 -2.24071470 0.12360896
H  1.29553536 -2.18990420 -0.07668871
H  2.43360705 -0.08405000 0.01524855
H  1.27988414 2.18524173 -0.02753523
H  -1.31169325 2.11858515 -0.14360339
H  -2.45501586 -0.04628014 -0.11323779
12
MD Step 1777 Units = [Angstroms]
C  -0.70118738 -1.24866097 0.06796715
C  0.73832570 -1.19254773 0.00297789
C  1.35227064 0.01410850 0.00060966
C  0.67284366 1.26123687 0.01478350
C  -0.67573662 1.20806424 -0.03416604
C  -1.39445629 -0.02107437 -0.03265394
H  -1.15631535 -2.24898461 0.11261514
H  1.28600098 -2.17983031 -0.07761352
H  2.44698140 -0.07667573 0.01315984
H  1.27959993 2.17659408 -0.02758681
H  -1.31254226 2.12183848 -0.14516249
H  -2.44910802 -0.04468642 -0.10799186
12
MD Step 1778 Units = [Angstroms]
C  -0.70294879 -1.24546007 0.06819418
C  0.73837788 -1.19410078 0.00377971
C  1.35227373 0.01320826 -0.00040696
C  0.67091239 1.26255195 0.01663622
C  -0.67583287 1.20784373 -0.03656720
C  -1.39059535 -0.02378703 -0.03134025
H  -1.16333152 -2.25635030 0.10163278
H  1.27560977 -2.16727020 -0.07801368
H  2.46113372 -0.06761824 0.01085580
H  1.27879007 2.16813582 -0.02729592
H  -1.31225618 2.12439052 -0.14624063
H  -2.44684582 -0.04265945 -0.10278245
12
MD Step 1779 Units = [Angstroms]
C  -0.70446260 -1.24205573 0.06828615
C  0.73786669 -1.19596656 0.00460974
C  1.35263870 0.01250405 -0.00137003
C  0.66938214 1.26356080 0.01842457
C  -0.67654889 1.20765841 -0.03903506
C  -1.38626603 -0.02673421 -0.02993018
H  -1.17063711 -2.26201381 0.09070453
H  1.26499406 -2.15333850 -0.07796289
H  2.47491978 -0.05694857 0.00832618
H  1.27775239 2.16043379 -0.02666773
H  -1.31080315 2.12607426 -0.14684616
H  -2.44816653 -0.04021573 -0.09761397
12
MD Step 1780 Units = [Angstroms]
C  -0.70572645 -1.23856802 0.06824293
C  0.73676989 -1.19801675 0.00547207
C  1.35341612 0.01199383 -0.00227242
C  0.66824360 1.26420936 0.02014121
C  -0.67786878 1.20751968 -0.04155822
C  -1.38156717 -0.02985337 -0.02843472
H  -1.17788300 -2.26529874 0.07989015
H  1.25487721 -2.13934572 -0.07755591
H  2.48730296 -0.04478557 0.00556752
H  1.27677789 2.15402373 -0.02571008
H  -1.30823212 2.12682270 -0.14700238
H  -2.45261485 -0.03738180 -0.09246643
12
MD Step 1781 Units = [Angstroms]
C  -0.70673470 -1.23511222 0.06806439
C  0.73507149 -1.20010961 0.00637143
C  1.35463887 0.01167297 -0.00310786
C  0.66747931 1.26445190 0.02177867
C  -0.67975902 1.20742957 -0.04412355
C  -1.37662753 -0.03307118 -0.02686694
H  -1.18478488 -2.26569613 0.06926283
H  1.24602123 -2.12669771 -0.07690078
H  2.49741920 -0.03129325 0.00258342
H  1.27611520 2.14935894 -0.02443090
H  -1.30467169 2.12667177 -0.14674698
H  -2.45941816 -0.03419939 -0.08730421
12
MD Step 1782 Units = [Angstroms]
C  -0.70747757 -1.23179516 0.06775070
C  0.73276672 -1.20210338 0.00731217
C  1.35631995 0.01153460 -0.00387092
C  0.66706668 1.26425504 0.02332911
C  -0.68216959 1.20738102 -0.04671630
C  -1.37159537 -0.03630440 -0.02524105
H  -1.19113589 -2.26289267 0.05890412
H  1.23914906 -2.11674674 -0.07610603
H  2.50461791 -0.01667459 -0.00061582
H  1.27593672 2.14676251 -0.02283557
H  -1.30032400 2.12575683 -0.14613042
H  -2.46760087 -0.03072899 -0.08208592
12
MD Step 1783 Units = [Angstroms]
C  -0.70794093 -1.22871236 0.06730244
C  0.72986853 -1.20387243 0.00829701
C  1.35845181 0.01156987 -0.00455706
C  0.66698078 1.26360087 0.02478419
C  -0.68503577 1.20735867 -0.04932033
C  -1.36662691 -0.03946166 -0.02357149
H  -1.19681399 -2.25678562 0.04889824
H  1.23484858 -2.11060957 -0.07526376
H  2.50848518 -0.00116322 -0.00401420
H  1.27631247 2.14639102 -0.02092503
H  -1.29545343 2.12430255 -0.14521349
H  -2.47611013 -0.02705040 -0.07677305
12
MD Step 1784 Units = [Angstroms]
C  -0.70810651 -1.22594521 0.06672091
C  0.72641429 -1.20532316 0.00932563
C  1.36100634 0.01176807 -0.00516253
C  0.66719647 1.26248866 0.02613508
C  -0.68828084 1.20734033 -0.05191837
C  -1.36187560 -0.04244592 -0.02187215
H  -1.20178604 -2.24748826 0.03932652
H  1.23347687 -2.10899014 -0.07443250
H  2.50885567 0.01498558 -0.00759117
H  1.27719722 2.14821643 -0.01869500
H  -1.29036999 2.12260524 -0.14406409
H  -2.48392959 -0.02326001 -0.07133606
12
MD Step 1785 Units = [Angstroms]
C  -0.70795272 -1.22355840 0.06600819
C  0.72247036 -1.20640531 0.01039378
C  1.36393544 0.01211671 -0.00568433
C  0.66768942 1.26093479 0.02737254
C  -0.69181940 1.20729900 -0.05449245
C  -1.35748338 -0.04515777 -0.02015590
H  -1.20610939 -2.23532787 0.03026210
H  1.23509146 -2.11205693 -0.07362471
H  2.50581734 0.03150449 -0.01132325
H  1.27843377 2.15202984 -0.01613668
H  -1.28540759 2.12100711 -0.14275323
H  -2.49016764 -0.01946581 -0.06575767
12
MD Step 1786 Units = [Angstroms]
C  -0.70745588 -1.22159760 0.06516733
C  0.71813280 -1.20711527 0.01149303
C  1.36717187 0.01260158 -0.00612012
C  0.66843607 1.25897100 0.02848721
C  -0.69556121 1.20720575 -0.05702436
C  -1.35357423 -0.04749917 -0.01843419
H  -1.20993078 -2.22083555 0.02176521
H  1.23943150 -2.11941628 -0.07280386
H  2.49971034 0.04812391 -0.01518572
H  1.27977181 2.15746622 -0.01323879
H  -1.28089810 2.11986298 -0.14135072
H  -2.49411727 -0.01578112 -0.06003381
12
MD Step 1787 Units = [Angstroms]
C  -0.70659201 -1.22008772 0.06420236
C  0.71352328 -1.20749077 0.01261148
C  1.37063057 0.01320679 -0.00646807
C  0.66941280 1.25664119 0.02946997
C  -0.69941530 1.20703292 -0.05949615
C  -1.35024956 -0.04937752 -0.01671683
H  -1.21348121 -2.20472520 0.01387932
H  1.24595659 -2.13019054 -0.07189193
H  2.49111792 0.06458197 -0.01915462
H  1.28089836 2.16404533 -0.00999045
H  -1.27714292 2.11950157 -0.13992075
H  -2.49529184 -0.01231822 -0.05417283
12
MD Step 1788 Units = [Angstroms]
C  -0.70533912 -1.21903247 0.06311837
C  0.70878128 -1.20759900 0.01373504
C  1.37421092 0.01391488 -0.00672671
C  0.67059473 1.25399759 0.03031227
C  -0.70329402 1.20675771 -0.06189062
C  -1.34758525 -0.05070971 -0.01501192
H  -1.21706393 -2.18785725 0.00662873
H  1.25393077 -2.14317358 -0.07078477
H  2.48084463 0.08063437 -0.02320869
H  1.28147380 2.17122128 -0.00638423
H  -1.27438535 2.12018538 -0.13851804
H  -2.49344343 -0.00918246 -0.04819372
12
MD Step 1789 Units = [Angstroms]
C  -0.70367998 -1.21841583 0.06192133
C  0.70405458 -1.20752249 0.01484891
C  1.37780060 0.01470710 -0.00689483
C  0.67195449 1.25109664 0.03100654
C  -0.70711660 1.20636539 -0.06419175
C  -1.34562956 -0.05142600 -0.01332582
H  -1.22103284 -2.17118300 0.00001841
H  1.26252605 -2.15701470 -0.06937013
H  2.46987483 0.09606299 -0.02733117
H  1.28116765 2.17843322 -0.00241881
H  -1.27278738 2.12207492 -0.13718512
H  -2.48857032 -0.00646737 -0.04212386
12
MD Step 1790 Units = [Angstroms]
C  -0.70160567 -1.21820558 0.06061785
C  0.69949004 -1.20734623 0.01593896
C  1.38128137 0.01556384 -0.00697134
C  0.67346150 1.24799521 0.03154641
C  -0.71081204 1.20585180 -0.06638500
C  -1.34440198 -0.05147333 -0.01166320
H  -1.22575856 -2.15566837 -0.00596329
H  1.27092002 -2.17038501 -0.06754347
H  2.45930504 0.11068161 -0.03151083
H  1.27968957 2.18515131 0.00189922
H  -1.27241459 2.12520342 -0.13595101
H  -2.48091740 -0.00425075 -0.03599646
12
MD Step 1791 Units = [Angstroms]
C  -0.69911944 -1.21835903 0.05921470
C  0.69522604 -1.20714837 0.01699260
C  1.38453728 0.01646547 -0.00695532
C  0.67508173 1.24474735 0.03192694
C  -0.71432079 1.20522460 -0.06845750
C  -1.34389284 -0.05081792 -0.01002725
H  -1.23158271 -2.14220112 -0.01133883
H  1.27837107 -2.18210039 -0.06521897
H  2.45024771 0.12433642 -0.03574170
H  1.27681308 2.19091442 0.00655455
H  -1.27323167 2.12946703 -0.13483162
H  -2.47097020 -0.00259196 -0.02984779
12
MD Step 1792 Units = [Angstroms]
C  -0.69624081 -1.21882988 0.05771818
C  0.69138713 -1.20699464 0.01799933
C  1.38746462 0.01739357 -0.00684617
C  0.67677789 1.24140184 0.03214466
C  -0.71759548 1.20450307 -0.07039814
C  -1.34406399 -0.04944695 -0.00841987
H  -1.23876440 -2.13149347 -0.01613306
H  1.28426725 -2.19119652 -0.06233532
H  2.44371193 0.13689997 -0.04002076
H  1.27239167 2.19535851 0.01152325
H  -1.27510936 2.13463276 -0.13383155
H  -2.45943996 -0.00153069 -0.02371431
12
MD Step 1793 Units = [Angstroms]
C  -0.69300897 -1.21957492 0.05613348
C  0.68808032 -1.20693571 0.01895088
C  1.38998239 0.01833245 -0.00664395
C  0.67851012 1.23800024 0.03219763
C  -0.72060062 1.20371649 -0.07219749
C  -1.34485105 -0.04736921 -0.00684208
H  -1.24742811 -2.12399813 -0.02036406
H  1.28815287 -2.19696551 -0.05885760
H  2.44047765 0.14825886 -0.04434363
H  1.26636783 2.19823620 0.01677376
H  -1.27784106 2.14036261 -0.13294686
H  -2.44723410 -0.00108742 -0.01762970
12
MD Step 1794 Units = [Angstroms]
C  -0.68948475 -1.22055890 0.05446420
C  0.68539280 -1.20700621 0.01984126
C  1.39204119 0.01927068 -0.00634986
C  0.68023683 1.23457578 0.03208538
C  -0.72331147 1.20290146 -0.07384771
C  -1.34616770 -0.04461456 -0.00529432
H  -1.25752508 -2.11985688 -0.02403556
H  1.28974045 -2.19896861 -0.05477652
H  2.44098819 0.15829842 -0.04869857
H  1.25877617 2.19942849 0.02226841
H  -1.28116621 2.14624974 -0.13216825
H  -2.43540502 -0.00126597 -0.01162202
12
MD Step 1795 Units = [Angstroms]
C  -0.68575015 -1.22175631 0.05271221
C  0.68339023 -1.20722445 0.02066661
C  1.39362836 0.02020214 -0.00596671
C  0.68191557 1.23115271 0.03180871
C  -0.72571265 1.20209863 -0.07534244
C  -1.34791261 -0.04123245 -0.00377686
H  -1.26881873 -2.11889478 -0.02713336
H  1.28891516 -2.19703769 -0.05010651
H  2.44528756 0.16688977 -0.05306045
H  1.24974160 2.19894965 0.02796544
H  -1.28479662 2.15186033 -0.13148406
H  -2.42507115 -0.00205788 -0.00571141
12
MD Step 1796 Units = [Angstroms]
C  -0.68190518 -1.22315005 0.05087791
C  0.68211544 -1.20759207 0.02142511
C  1.39476801 0.02112615 -0.00549926
C  0.68350396 1.22774632 0.03136963
C  -0.72779645 1.20134924 -0.07667667
C  -1.34997897 -0.03728947 -0.00229012
H  -1.28089930 -2.12066070 -0.02962659
H  1.28573675 -2.19127383 -0.04488332
H  2.45301890 0.17388452 -0.05738625
H  1.23947322 2.19694553 0.03382125
H  -1.28844212 2.15677548 -0.13088280
H  -2.41730968 -0.00344800 0.00009112
12
MD Step 1797 Units = [Angstroms]
C  -0.67806231 -1.22472767 0.04896084
C  0.68158720 -1.20809344 0.02211685
C  1.39551600 0.02204653 -0.00495433
C  0.68496053 1.22436364 0.03077113
C  -0.72956129 1.20069195 -0.07784658
C  -1.35226587 -0.03286636 -0.00083481
H  -1.29322439 -2.12450287 -0.03147343
H  1.28044088 -2.18204669 -0.03916127
H  2.46348383 0.17911975 -0.06161380
H  1.22825387 2.19368471 0.03979278
H  -1.29183320 2.16062828 -0.13035499
H  -2.41302964 -0.00541955 0.00578298
12
MD Step 1798 Units = [Angstroms]
C  -0.67433937 -1.22647651 0.04696042
C  0.68179933 -1.20869493 0.02274364
C  1.39595136 0.02296967 -0.00434059
C  0.68624563 1.22100479 0.03001700
C  -0.73101024 1.20016015 -0.07884951
C  -1.35468974 -0.02805484 0.00058804
H  -1.30517570 -2.12966060 -0.03262907
H  1.27343889 -2.16999300 -0.03301011
H  2.47574535 0.18243191 -0.06566404
H  1.21642522 2.18954142 0.04583970
H  -1.29473917 2.16313363 -0.12989430
H  -2.41284599 -0.00795655 0.01136738
12
MD Step 1799 Units = [Angstroms]
C  -0.67085203 -1.22837925 0.04487675
C  0.68272026 -1.20934455 0.02330878
C  1.39616610 0.02390227 -0.00366809
C  0.68732245 1.21766517 0.02911167
C  -0.73214981 1.19977990 -0.07968380
C  -1.35719358 -0.02295464 0.00197730
H  -1.31612004 -2.13535356 -0.03305402
H  1.26531201 -2.15600798 -0.02651088
H  2.48874854 0.18367512 -0.06944617
H  1.20436815 2.18496876 0.05192616
H  -1.29698161 2.16410969 -0.12949816
H  -2.41698277 -0.01104203 0.01684882
12
MD Step 1800 Units = [Angstroms]
C  -0.66770677 -1.23041067 0.04271119
C  0.68429383 -1.20997310 0.02381668
C  1.39625563 0.02484891 -0.00294776
C  0.68815829 1.21433834 0.02806012
C  -0.73298883 1.19956853 -0.08034871
C  -1.35975167 -0.01767081 0.00333196
H  -1.32546434 -2.14085630 -0.03272078
H  1.25679296 -2.14121852 -0.01975042
H  2.50143505 0.18273880 -0.07286434
H  1.19247869 2.18046181 0.05802178
H  -1.29844307 2.16349110 -0.12916792
H  -2.42523152 -0.01465186 0.02222799
12
MD Step 1801 Units = [Angstroms]
C  -0.66499498 -1.23253590 0.04046675
C  0.68644210 -1.21049777 0.02427228
C  1.39631093 0.02581026 -0.00219076
C  0.68872589 1.21101967 0.02686783
C  -0.73353751 1.19953371 -0.08084437
C  -1.36236866 -0.01231144 0.00465137
H  -1.33269927 -2.14555261 -0.03161829
H  1.24872651 -2.12692435 -0.01281411
H  2.51283597 0.17956091 -0.07582448
H  1.18114085 2.17651173 0.06410128
H  -1.29907169 2.16133453 -0.12890867
H  -2.43697755 -0.01874641 0.02749744
12
MD Step 1802 Units = [Angstroms]
C  -0.66278845 -1.23471012 0.03814832
C  0.68907066 -1.21082962 0.02468040
C  1.39641278 0.02678174 -0.00140803
C  0.68900496 1.20771012 0.02554089
C  -0.73380665 1.19967324 -0.08117164
C  -1.36507355 -0.00698536 0.00593532
H  -1.33743020 -2.14897109 -0.02975390
H  1.24200156 -2.11449478 -0.00577760
H  2.52213815 0.17413553 -0.07824024
H  1.17069874 2.17355455 0.07014279
H  -1.29888181 2.15781695 -0.12872891
H  -2.45128709 -0.02326302 0.03263928
12
MD Step 1803 Units = [Angstroms]
C  -0.66113615 -1.23687901 0.03576271
C  0.69207679 -1.21088484 0.02504499
C  1.39662803 0.02775285 -0.00060980
C  0.68898345 1.20441997 0.02408609
C  -0.73380720 1.19997524 -0.08133200
C  -1.36791054 -0.00179989 0.00718394
H  -1.33939699 -2.15080578 -0.02715362
H  1.23745448 -2.10521875 0.00130104
H  2.52872645 0.16651503 -0.08003761
H  1.16143137 2.17192108 0.07612467
H  -1.29795060 2.15322641 -0.12863990
H  -2.46703163 -0.02811226 0.03762542
12
MD Step 1804 Units = [Angstroms]
C  -0.66006238 -1.23897980 0.03331853
C  0.69535937 -1.21059885 0.02536875
C  1.39700720 0.02870710 0.00019467
C  0.68865848 1.20117154 0.02251124
C  -0.73355005 1.20041891 -0.08132756
C  -1.37092899 0.00314161 0.00839749
H  -1.33848530 -2.15092656 -0.02386073
H  1.23575489 -2.10012500 0.00838599
H  2.53220799 0.15680822 -0.08115838
H  1.15353388 2.17179615 0.08202134
H  -1.29641043 2.14794525 -0.12865490
H  -2.48302052 -0.03317929 0.04241992
12
MD Step 1805 Units = [Angstroms]
C  -0.65956609 -1.24094233 0.03082607
C  0.69882858 -1.20993985 0.02565296
C  1.39758309 0.02962242 0.00099743
C  0.68803664 1.19800046 0.02082535
C  -0.73304633 1.20097591 -0.08116088
C  -1.37417444 0.00774230 0.00957603
H  -1.33473147 -2.14938279 -0.01993353
H  1.23729889 -2.09981103 0.01546280
H  2.53242455 0.14517595 -0.08156247
H  1.14710814 2.17319466 0.08779907
H  -1.29443671 2.14242493 -0.12878805
H  -2.49811787 -0.03832959 0.04698261
12
MD Step 1806 Units = [Angstroms]
C  -0.65962135 -1.24269014 0.02829711
C  0.70241286 -1.20891779 0.02589804
C  1.39836984 0.03047212 0.00179198
C  0.68713360 1.19495500 0.01903879
C  -0.73230818 1.20161238 -0.08083501
C  -1.37768186 0.01191423 0.01071909
H  -1.32832172 -2.14640140 -0.01544211
H  1.24214051 -2.10433057 0.02253117
H  2.52945751 0.13182479 -0.08122937
H  1.14216402 2.17595967 0.09341260
H  -1.29223085 2.13715290 -0.12905302
H  -2.51133121 -0.04341752 0.05127305
12
MD Step 1807 Units = [Angstroms]
C  -0.66017912 -1.24414161 0.02574454
C  0.70606109 -1.20758558 0.02610425
C  1.39936252 0.03122619 0.00257347
C  0.68597308 1.19209352 0.01716329
C  -0.73135001 1.20229155 -0.08035347
C  -1.38147105 0.01558037 0.01182542
H  -1.31958483 -2.14237848 -0.01046439
H  1.24998417 -2.11317841 0.02959358
H  2.52362648 0.11699939 -0.08015891
H  1.13863050 2.17978256 0.09880357
H  -1.28999922 2.13261252 -0.12946123
H  -2.52187052 -0.04829568 0.05525419
12
MD Step 1808 Units = [Angstroms]
C  -0.66117032 -1.24521154 0.02318207
C  0.70973997 -1.20603193 0.02627254
C  1.40053725 0.03185306 0.00333870
C  0.68458548 1.18948040 0.01521180
C  -0.73018999 1.20297673 -0.07972031
C  -1.38554393 0.01867628 0.01289275
H  -1.30897584 -2.13786089 -0.00508136
H  1.26024024 -2.12537841 0.03664376
H  2.51548024 0.10097341 -0.07837091
H  1.13637395 2.18424134 0.10390118
H  -1.28792943 2.12923922 -0.13001987
H  -2.52918260 -0.05282400 0.05889544
12
MD Step 1809 Units = [Angstroms]
C  -0.66251044 -1.24581366 0.02062372
C  0.71342806 -1.20436830 0.02640506
C  1.40185226 0.03232152 0.00408614
C  0.68300621 1.18718109 0.01319815
C  -0.72885171 1.20363446 -0.07894017
C  -1.38988314 0.02115112 0.01391768
H  -1.29704767 -2.13351346 0.00062808
H  1.27212395 -2.13964447 0.04365895
H  2.50577520 0.08403884 -0.07590362
H  1.13522017 2.18884937 0.10862495
H  -1.28616687 2.12737761 -0.13072976
H  -2.53296863 -0.05687751 0.06217501
12
MD Step 1810 Units = [Angstroms]
C  -0.66410549 -1.24586452 0.01808336
C  0.71710893 -1.20271390 0.02650524
C  1.40325045 0.03260274 0.00481565
C  0.68127418 1.18525712 0.01113663
C  -0.72736545 1.20423733 -0.07801844
C  -1.39445138 0.02296820 0.01489556
H  -1.28440832 -2.13006691 0.00659219
H  1.28476724 -2.15456526 0.05059776
H  2.49543529 0.06649410 -0.07281037
H  1.13497665 2.19310678 0.11288906
H  -1.28479499 2.12724547 -0.13158334
H  -2.53319141 -0.06035289 0.06508191
12
MD Step 1811 Units = [Angstroms]
C  -0.66585918 -1.24528898 0.01557432
C  0.72076554 -1.20118240 0.02657751
C  1.40466392 0.03267208 0.00552814
C  0.67943039 1.18376152 0.00904149
C  -0.72576887 1.20476601 -0.07696130
C  -1.39919136 0.02410501 0.01582053
H  -1.27166412 -2.12824520 0.01275027
H  1.29731716 -2.16876823 0.05740290
H  2.48548719 0.04863189 -0.06915417
H  1.13545274 2.19654751 0.11660744
H  -1.28382290 2.12891066 -0.13256313
H  -2.53007621 -0.06317352 0.06761734
12
MD Step 1812 Units = [Angstroms]
C  -0.66768058 -1.24402715 0.01310908
C  0.72437681 -1.19987226 0.02662684
C  1.40602068 0.03251044 0.00622499
C  0.67751671 1.18273518 0.00692651
C  -0.72410675 1.20521018 -0.07577582
C  -1.40402629 0.02455277 0.01668549
H  -1.25935465 -2.12867639 0.01905406
H  1.30900688 -2.18103906 0.06400678
H  2.47696917 0.03072897 -0.06500042
H  1.13647611 2.19877816 0.11969891
H  -1.28318284 2.13228479 -0.13364098
H  -2.52410549 -0.06529320 0.06979576
12
MD Step 1813 Units = [Angstroms]
C  -0.66949122 -1.24204173 0.01069936
C  0.72791630 -1.19886092 0.02665818
C  1.40725329 0.03210492 0.00690738
C  0.67557485 1.18220430 0.00480455
C  -0.72242978 1.20556822 -0.07446993
C  -1.40886121 0.02431569 0.01748224
H  -1.24789014 -2.13179952 0.02546569
H  1.31919822 -2.19039371 0.07033791
H  2.47081889 0.01304017 -0.06040868
H  1.13790543 2.19950668 0.12209186
H  -1.28273834 2.13713494 -0.13477835
H  -2.51600415 -0.06669789 0.07164534
12
MD Step 1814 Units = [Angstroms]
C  -0.67123040 -1.23932427 0.00835633
C  0.73135243 -1.19820196 0.02667609
C  1.40830797 0.03144868 0.00757570
C  0.67364536 1.18217878 0.00268725
C  -0.72079248 1.20584591 -0.07305236
C  -1.41358584 0.02340983 0.01820167
H  -1.23750548 -2.13778615 0.03195209
H  1.32740217 -2.19611328 0.07632682
H  2.46775582 -0.00420136 -0.05542518
H  1.13963920 2.19856128 0.12372804
H  -1.28230130 2.14311077 -0.13592767
H  -2.50670877 -0.06740507 0.07320735
12
MD Step 1815 Units = [Angstroms]
C  -0.67285757 -1.23589869 0.00609117
C  0.73464936 -1.19792410 0.02668431
C  1.40915254 0.03054001 0.00822915
C  0.67176666 1.18265163 0.00058477
C  -0.71925046 1.20605430 -0.07153247
C  -1.41807941 0.02186178 0.01883408
H  -1.22824284 -2.14649647 0.03847731
H  1.33328598 -2.19775624 0.08191118
H  2.46818180 -0.02077777 -0.05007821
H  1.14162139 2.19590032 0.12456535
H  -1.28165534 2.14978247 -0.13703465
H  -2.49731252 -0.06745966 0.07453412
12
MD Step 1816 Units = [Angstroms]
C  -0.67435168 -1.23182103 0.00391545
C  0.73776791 -1.19803122 0.02668554
C  1.40978102 0.02938114 0.00886566
C  0.66997403 1.18359917 -0.00149435
C  -0.71785751 1.20620720 -0.06992005
C  -1.42221833 0.01970708 0.01936967
H  -1.21996740 -2.15748273 0.04499490
H  1.33667439 -2.19516012 0.08704010
H  2.47212382 -0.03647699 -0.04437780
H  1.14384417 2.19161425 0.12457955
H  -1.28058111 2.15668312 -0.13804120
H  -2.48897921 -0.06692628 0.07568504
12
MD Step 1817 Units = [Angstroms]
C  -0.67570769 -1.22717544 0.00184146
C  0.74066616 -1.19850252 0.02668121
C  1.41021377 0.02797707 0.00948225
C  0.66829867 1.18498195 -0.00354325
C  -0.71666266 1.20631881 -0.06822502
C  -1.42588629 0.01698865 0.01979917
H  -1.21241121 -2.17003994 0.05144305
H  1.33754978 -2.18844102 0.09167794
H  2.47923415 -0.05108429 -0.03832003
H  1.14634772 2.18592009 0.12376486
H  -1.27888056 2.16335027 -0.13888866
H  -2.48282592 -0.06587806 0.07672034
12
MD Step 1818 Units = [Angstroms]
C  -0.67693161 -1.22206727 -0.00011789
C  0.74329953 -1.19929284 0.02667125
C  1.41049320 0.02633497 0.01007555
C  0.66676682 1.18674635 -0.00555670
C  -0.71570767 1.20640145 -0.06645725
C  -1.42898626 0.01375525 0.02011462
H  -1.20523237 -2.18329090 0.05774373
H  1.33605332 -2.17799375 0.09580809
H  2.48884717 -0.06437940 -0.03189455
H  1.14921688 2.17914810 0.12213320
H  -1.27639738 2.16936253 -0.13952097
H  -2.47978538 -0.06438418 0.07769324
12
MD Step 1819 Units = [Angstroms]
C  -0.67803514 -1.21661514 -0.00194940
C  0.74562043 -1.20033317 0.02665391
C  1.41067632 0.02446436 0.01064248
C  0.66539923 1.18882698 -0.00753099
C  -0.71502491 1.20646385 -0.06462624
C  -1.43145210 0.01006041 0.02031013
H  -1.19807525 -2.19628544 0.06380576
H  1.33248633 -2.16449089 0.09943642
H  2.50007665 -0.07614054 -0.02509297
H  1.15257396 2.17172021 0.11971209
H  -1.27303243 2.17436906 -0.13988748
H  -2.48047172 -0.06249935 0.07864181
12
MD Step 1820 Units = [Angstroms]
C  -0.67903106 -1.21094331 -0.00364013
C  0.74757800 -1.20153193 0.02662560
C  1.41082610 0.02237774 0.01118078
C  0.66421091 1.19114968 -0.00946359
C  -0.71463584 1.20650977 -0.06274096
C  -1.43325730 0.00596196 0.02038249
H  -1.19062059 -2.20809510 0.06953076
H  1.32730773 -2.14887399 0.10259428
H  2.51192934 -0.08615443 -0.01791597
H  1.15656706 2.16411967 0.11654109
H  -1.26875386 2.17811125 -0.13994537
H  -2.48508135 -0.06025881 0.07958238
12
MD Step 1821 Units = [Angstroms]
C  -0.67992968 -1.20517548 -0.00517806
C  0.74911839 -1.20277777 0.02658083
C  1.41100354 0.02009160 0.01168933
C  0.66321151 1.19363535 -0.01135287
C  -0.71455000 1.20653713 -0.06080964
C  -1.43441832 0.00152236 0.02033145
H  -1.18262057 -2.21789051 0.07482006
H  1.32112103 -2.13232565 0.10533976
H  2.52341256 -0.09422895 -0.01037762
H  1.16135349 2.15685220 0.11266682
H  -1.26360219 2.18043697 -0.13966143
H  -2.49335680 -0.05768075 0.08050636
12
MD Step 1822 Units = [Angstroms]
C  -0.68073650 -1.19943024 -0.00655265
C  0.75018665 -1.20394523 0.02651240
C  1.41126140 0.01762730 0.01216832
C  0.66240619 1.19620424 -0.01319756
C  -0.71476460 1.20653755 -0.05883967
C  -1.43499188 -0.00319056 0.02015965
H  -1.17391882 -2.22499741 0.07958152
H  1.31464163 -2.11620831 0.10775585
H  2.53362131 -0.10020518 -0.00250690
H  1.16707884 2.15040080 0.10813708
H  -1.25769073 2.18130761 -0.13901323
H  -2.50462466 -0.05477515 0.08138155
12
MD Step 1823 Units = [Angstroms]
C  -0.68145078 -1.19381792 -0.00775531
C  0.75073071 -1.20490390 0.02641194
C  1.41164007 0.01501158 0.01261911
C  0.66179695 1.19878048 -0.01499633
C  -0.71526460 1.20649632 -0.05683756
C  -1.43506673 -0.00810263 0.01987217
H  -1.16445865 -2.22893293 0.08373534
H  1.30863661 -2.10195803 0.10994356
H  2.54180020 -0.10396681 0.00565342
H  1.17385315 2.14517834 0.10299478
H  -1.25120165 2.18079846 -0.13798970
H  -2.51789668 -0.05155561 0.08215740
12
MD Step 1824 Units = [Angstroms]
C  -0.68206491 -1.18843837 -0.00877980
C  0.75070799 -1.20553144 0.02627104
C  1.41216525 0.01227668 0.01304411
C  0.66138423 1.20129631 -0.01674739
C  -0.71602332 1.20639285 -0.05480889
C  -1.43475240 -0.01313284 0.01947588
H  -1.15428347 -2.22942681 0.08721862
H  1.30383483 -2.09093168 0.11200893
H  2.54738239 -0.10544594 0.01404943
H  1.18172732 2.14148416 0.09727275
H  -1.24437797 2.17909209 -0.13659092
H  -2.53200599 -0.04804995 0.08277258
12
MD Step 1825 Units = [Angstroms]
C  -0.68256434 -1.18337918 -0.00962243
C  0.75009358 -1.20572881 0.02608265
C  1.41284694 0.00945996 0.01344650
C  0.66116838 1.20369545 -0.01844817
C  -0.71700376 1.20620168 -0.05275849
C  -1.43416749 -0.01819354 0.01897874
H  -1.14353268 -2.22643266 0.08998899
H  1.30081751 -2.08422536 0.11404484
H  2.55001131 -0.10462557 0.02261975
H  1.19067357 2.13947158 0.09099056
H  -1.23751119 2.17646429 -0.13482711
H  -2.54574662 -0.04430659 0.08316314
12
MD Step 1826 Units = [Angstroms]
C  -0.68292800 -1.17871391 -0.01028228
C  0.74888830 -1.20543468 0.02584270
C  1.41367925 0.00660329 0.01382999
C  0.66115073 1.20593513 -0.02009539
C  -0.71816030 1.20589403 -0.05069052
C  -1.43342935 -0.02319154 0.01838911
H  -1.13243519 -2.22013230 0.09202709
H  1.29991322 -2.08250307 0.11611131
H  2.54955074 -0.10153938 0.03129963
H  1.20057389 2.13913224 0.08415409
H  -1.23092478 2.17326186 -0.13271682
H  -2.55799218 -0.04039581 0.08326946
12
MD Step 1827 Units = [Angstroms]
C  -0.68312925 -1.17450038 -0.01076122
C  0.74712385 -1.20463470 0.02555136
C  1.41464062 0.00375209 0.01419848
C  0.66133398 1.20798652 -0.02168517
C  -0.71944106 1.20544014 -0.04860877
C  -1.43264616 -0.02803002 0.01771533
H  -1.12130113 -2.21093425 0.09333828
H  1.30112903 -2.08588496 0.11822017
H  2.54608750 -0.09626952 0.04002521
H  1.21121935 2.14030029 0.07675813
H  -1.22495358 2.16987227 -0.13028422
H  -2.56778257 -0.03640671 0.08304142
12
MD Step 1828 Units = [Angstroms]
C  -0.68313734 -1.17077909 -0.01106394
C  0.74486305 -1.20336293 0.02521344
C  1.41569450 0.00095437 0.01455579
C  0.66172174 1.20983358 -0.02321346
C  -0.72079061 1.20481203 -0.04651692
C  -1.43191125 -0.03261117 0.01696528
H  -1.11051127 -2.19946408 0.09395304
H  1.30414224 -2.09393210 0.12032944
H  2.53992792 -0.08894239 0.04873789
H  1.22232089 2.14267546 0.06879121
H  -1.21992032 2.16668620 -0.12755569
H  -2.57437923 -0.03244163 0.08244158
12
MD Step 1829 Units = [Angstroms]
C  -0.68291954 -1.16757236 -0.01119775
C  0.74219479 -1.20169476 0.02483793
C  1.41679038 -0.00174034 0.01490530
C  0.66231746 1.21147074 -0.02467658
C  -0.72215285 1.20398678 -0.04441889
C  -1.43129932 -0.03683926 0.01614621
H  -1.10050259 -2.18654210 0.09392577
H  1.30835656 -2.10573254 0.12234954
H  2.53158666 -0.07972280 0.05738842
H  1.23352988 2.14586037 0.06024180
H  -1.21611089 2.16405589 -0.12455608
H  -2.57729597 -0.02860934 0.08144683
12
MD Step 1830 Units = [Angstroms]
C  -0.68244378 -1.16488474 -0.01117228
C  0.73922521 -1.19973409 0.02443667
C  1.41786572 -0.00428217 0.01524971
C  0.66312289 1.21289989 -0.02607163
C  -0.72347390 1.20294975 -0.04231913
C  -1.43086368 -0.04062394 0.01526452
H  -1.09174801 -2.17314207 0.09333109
H  1.31300327 -2.12005842 0.12415879
H  2.52176381 -0.06880605 0.06594058
H  1.24446499 2.14940543 0.05110443
H  -1.21375087 2.16225408 -0.12130507
H  -2.57631384 -0.02501828 0.08004911
12
MD Step 1831 Units = [Angstroms]
C  -0.68168195 -1.16270560 -0.01099886
C  0.73606781 -1.19759865 0.02402288
C  1.41884915 -0.00662202 0.01559075
C  0.66413648 1.21412724 -0.02739697
C  -0.72470464 1.20169730 -0.04022287
C  -1.43063426 -0.04388356 0.01432577
H  -1.08472848 -2.16032519 0.09225719
H  1.31725611 -2.13554584 0.12562276
H  2.51130476 -0.05640841 0.07437359
H  1.25474131 2.15285451 0.04138464
H  -1.21298654 2.16143966 -0.11781436
H  -2.57148703 -0.02177026 0.07825536
12
MD Step 1832 Units = [Angstroms]
C  -0.68061370 -1.16101398 -0.01068976
C  0.73283456 -1.19540690 0.02360968
C  1.41966528 -0.00871283 0.01592918
C  0.66535206 1.21516042 -0.02865243
C  -0.72580261 1.20023860 -0.03813619
C  -1.43061605 -0.04654831 0.01333454
H  -1.07989656 -2.14914739 0.09079598
H  1.32033166 -2.15085482 0.12661216
H  2.50113818 -0.04275649 0.08268243
H  1.26399806 2.15578601 0.03110213
H  -1.21387297 2.16163591 -0.11408616
H  -2.56314340 -0.01895502 0.07608718
12
MD Step 1833 Units = [Angstroms]
C  -0.67923049 -1.15978564 -0.01025711
C  0.72962934 -1.19326863 0.02320910
C  1.42024148 -0.01051061 0.01626489
C  0.66675785 1.21600605 -0.02983943
C  -0.72673335 1.19859599 -0.03606602
C  -1.43078818 -0.04856287 0.01229449
H  -1.07763360 -2.14054612 0.08903104
H  1.32156085 -2.16478634 0.12701594
H  2.49219090 -0.02807751 0.09087503
H  1.27192221 2.15784636 0.02029195
H  -1.21637094 2.16272567 -0.11011339
H  -2.55187905 -0.01664570 0.07357999
12
MD Step 1834 Units = [Angstroms]
C  -0.67753937 -1.15900100 -0.00971193
C  0.72654389 -1.19127911 0.02283152
C  1.42051577 -0.01197520 0.01659745
C  0.66833610 1.21666800 -0.03096088
C  -0.72747079 1.19680391 -0.03401995
C  -1.43110409 -0.04988850 0.01120842
H  -1.07820520 -2.13522274 0.08702559
H  1.32043021 -2.17635388 0.12674907
H  2.48528602 -0.01259257 0.09896588
H  1.27826700 2.15877462 0.00900388
H  -1.22035319 2.16446443 -0.10588147
H  -2.53854263 -0.01489559 0.07078164
12
MD Step 1835 Units = [Angstroms]
C  -0.67556609 -1.15865203 -0.00906335
C  0.72365558 -1.18951616 0.02248540
C  1.42044509 -0.01307060 0.01692675
C  0.67006312 1.21714607 -0.03202102
C  -0.72799715 1.19490650 -0.03200588
C  -1.43149347 -0.05050426 0.01007844
H  -1.08172320 -2.13354500 0.08481331
H  1.31659998 -2.18481929 0.12575599
H  2.48103879 0.00348498 0.10696621
H  1.28286477 2.15841881 -0.00269973
H  -1.22561843 2.16650894 -0.10137143
H  -2.52420133 -0.01373669 0.06774990
12
MD Step 1836 Units = [Angstroms]
C  -0.67335650 -1.15874619 -0.00831829
C  0.72102639 -1.18803888 0.02217729
C  1.42001191 -0.01376487 0.01725394
C  0.67190983 1.21743535 -0.03302511
C  -0.72830236 1.19295429 -0.03003171
C  -1.43186674 -0.05040735 0.00890627
H  -1.08812274 -2.13549426 0.08239500
H  1.30990832 -2.18970697 0.12401127
H  2.47977149 0.01994535 0.11487285
H  1.28563461 2.15674450 -0.01474710
H  -1.23191097 2.16845610 -0.09656362
H  -2.51007897 -0.01318064 0.06454848
12
MD Step 1837 Units = [Angstroms]
C  -0.67097606 -1.15930603 -0.00748168
C  0.71870241 -1.18688696 0.02191184
C  1.41922762 -0.01402968 0.01758210
C  0.67384250 1.21752603 -0.03397911
C  -0.72838311 1.19100042 -0.02810493
C  -1.43212294 -0.04961245 0.00769367
H  -1.09716095 -2.14067257 0.07974204
H  1.30036935 -2.19080806 0.12151890
H  2.48146811 0.03657422 0.12265822
H  1.28658501 2.15383666 -0.02706096
H  -1.23894282 2.16988606 -0.09144134
H  -2.49745872 -0.01322231 0.06124148
12
MD Step 1838 Units = [Angstroms]
C  -0.66850714 -1.16036459 -0.00655719
C  0.71671362 -1.18607995 0.02169183
C  1.41813166 -0.01384010 0.01791673
C  0.67582379 1.21740377 -0.03488929
C  -0.72824201 1.18909701 -0.02623229
C  -1.43216066 -0.04815027 0.00644295
H  -1.10843837 -2.14836744 0.07680563
H  1.28816978 -2.18818259 0.11831106
H  2.48578109 0.05314452 0.13026461
H  1.28581154 2.14989491 -0.03956272
H  -1.24641581 2.17040360 -0.08599395
H  -2.48755094 -0.01384575 0.05788636
12
MD Step 1839 Units = [Angstroms]
C  -0.66604456 -1.16195817 -0.00554812
C  0.71507349 -1.18561633 0.02151821
C  1.41678665 -0.01317478 0.01826570
C  0.67781398 1.21705075 -0.03576188
C  -0.72788657 1.18729187 -0.02441960
C  -1.43189123 -0.04606548 0.00515763
H  -1.12143844 -2.15765635 0.07352905
H  1.27366554 -2.18216246 0.11444667
H  2.49208795 0.06941210 0.13760440
H  1.28348941 2.14522177 -0.05217669
H  -1.25404166 2.16967381 -0.08021910
H  -2.48134000 -0.01503088 0.05452673
12
MD Step 1840 Units = [Angstroms]
C  -0.66369011 -1.16411814 -0.00445834
C  0.71377887 -1.18547233 0.02139015
C  1.41527073 -0.01201687 0.01863870
C  0.67977233 1.21644737 -0.03660279
C  -0.72732830 1.18562597 -0.02267150
C  -1.43125143 -0.04341448 0.00384283
H  -1.13557653 -2.16752508 0.06985953
H  1.25737700 -2.17335335 0.11000940
H  2.49958267 0.08511774 0.14456600
H  1.27986040 2.14020330 -0.06483379
H  -1.26155896 2.16744991 -0.07412387
H  -2.47943888 -0.01675831 0.05118645
12
MD Step 1841 Units = [Angstroms]
C  -0.66154664 -1.16686408 -0.00329295
C  0.71281007 -1.18560134 0.02130505
C  1.41366883 -0.01035558 0.01904648
C  0.68165865 1.21557470 -0.03741733
C  -0.72658179 1.18413162 -0.02099146
C  -1.43021290 -0.04026343 0.00250552
H  -1.15024951 -2.17697676 0.06575749
H  1.23997854 -2.16262873 0.10510461
H  2.50738020 0.09999546 0.15102394
H  1.27521393 2.13528131 -0.07747424
H  -1.26874649 2.16359252 -0.06772500
H  -2.48198808 -0.01901012 0.04786708
12
MD Step 1842 Units = [Angstroms]
C  -0.65971252 -1.17019888 -0.00205862
C  0.71213197 -1.18593478 0.02125889
C  1.41206472 -0.00818811 0.01949995
C  0.68343510 1.21441764 -0.03821024
C  -0.72566375 1.18283149 -0.01938172
C  -1.42878554 -0.03668662 0.00115438
H  -1.16487912 -2.18511764 0.06120199
H  1.22227610 -2.15110422 0.09985400
H  2.51461426 0.11378470 0.15685038
H  1.26986260 2.13091737 -0.09004876
H  -1.27543307 2.15808081 -0.06104831
H  -2.48862888 -0.02176553 0.04454949
12
MD Step 1843 Units = [Angstroms]
C  -0.65827656 -1.17410626 -0.00076371
C  0.71169654 -1.18638591 0.02124674
C  1.41053461 -0.00552163 0.02000929
C  0.68506806 1.21296862 -0.03898567
C  -0.72459201 1.18173829 -0.01784342
C  -1.42701421 -0.03276525 -0.00020066
H  -1.17894616 -2.19121571 0.05619272
H  1.20516551 -2.14007747 0.09438735
H  2.52051624 0.12624355 0.16192600
H  1.26411382 2.12755046 -0.10251754
H  -1.28150384 2.15101611 -0.05412741
H  -2.49855971 -0.02499322 0.04119935
12
MD Step 1844 Units = [Angstroms]
C  -0.65731370 -1.17855028 0.00058188
C  0.71144735 -1.18685759 0.02126353
C  1.40914277 -0.00237501 0.02058334
C  0.68652983 1.21123144 -0.03974756
C  -0.72338456 1.18085509 -0.01637670
C  -1.42496996 -0.02858625 -0.00154908
H  -1.19201546 -2.19473576 0.05074939
H  1.18956677 -2.13092043 0.08883103
H  2.52447114 0.13716056 0.16614883
H  1.25824050 2.12555202 -0.11484714
H  -1.28690310 2.14261838 -0.04700198
H  -2.51065867 -0.02864330 0.03777490
12
MD Step 1845 Units = [Angstroms]
C  -0.65688146 -1.18347606 0.00196696
C  0.71132591 -1.18725448 0.02130511
C  1.40793886 0.00121991 0.02122906
C  0.68780006 1.20922477 -0.04050004
C  -0.72205868 1.18017619 -0.01498087
C  -1.42273855 -0.02424097 -0.00288041
H  -1.20375334 -2.19535728 0.04490938
H  1.17633616 -2.12492200 0.08329444
H  2.52605260 0.14636391 0.16944077
H  1.25245482 2.12518436 -0.12700528
H  -1.29163347 2.13321565 -0.03971562
H  -2.52363816 -0.03264229 0.03423479
12
MD Step 1846 Units = [Angstroms]
C  -0.65701697 -1.18881136 0.00337932
C  0.71127901 -1.18749812 0.02136925
C  1.40695661 0.00521768 0.02195125
C  0.68886648 1.20698465 -0.04124792
C  -0.72063039 1.17968849 -0.01365461
C  -1.42040921 -0.01982348 -0.00418479
H  -1.21393999 -2.19298169 0.03872440
H  1.16616808 -2.12309896 0.07785753
H  2.52504199 0.15372748 0.17175185
H  1.24688974 2.12656908 -0.13895466
H  -1.29575082 2.12322613 -0.03231361
H  -2.53619578 -0.03689262 0.03054435
12
MD Step 1847 Units = [Angstroms]
C  -0.65773478 -1.19446827 0.00480612
C  0.71126531 -1.18754159 0.02145626
C  1.40621325 0.00955931 0.02275231
C  0.68972476 1.20456545 -0.04199719
C  -0.71911428 1.17937334 -0.01239614
C  -1.41806547 -0.01542849 -0.00545332
H  -1.22247840 -2.18773323 0.03225662
H  1.15950858 -2.12601679 0.07256314
H  2.52143641 0.15917430 0.17306267
H  1.24159145 2.12967156 -0.15064719
H  -1.29935455 2.11313279 -0.02484068
H  -2.54713705 -0.04127634 0.02667944
12
MD Step 1848 Units = [Angstroms]
C  -0.65902554 -1.20034501 0.00623418
C  0.71125926 -1.18737929 0.02156903
C  1.40570957 0.01417297 0.02363216
C  0.69037753 1.20203899 -0.04275528
C  -0.71752386 1.17920873 -0.01120342
C  -1.41577879 -0.01114912 -0.00667824
H  -1.22940047 -2.17995521 0.02557434
H  1.15650464 -2.13367342 0.06741734
H  2.51544851 0.16267760 0.17338536
H  1.23652415 2.13430452 -0.16201993
H  -1.30257294 2.10345089 -0.01733905
H  -2.55546081 -0.04566175 0.02262807
12
MD Step 1849 Units = [Angstroms]
C  -0.66085563 -1.20632782 0.00765044
C  0.71125132 -1.18704844 0.02171239
C  1.40543035 0.01897553 0.02458818
C  0.69083272 1.19949178 -0.04353108
C  -0.71587248 1.17917195 -0.01007426
C  -1.41360485 -0.00707449 -0.00785299
H  -1.23486925 -2.17020015 0.01874734
H  1.15700445 -2.14548613 0.06239796
H  2.50749888 0.16425961 0.17276304
H  1.23158583 2.14015022 -0.17299394
H  -1.30554392 2.09468966 -0.00984718
H  -2.56041041 -0.04991125 0.01839017
12
MD Step 1850 Units = [Angstroms]
C  -0.66316822 -1.21229339 0.00904228
C  0.71124456 -1.18662193 0.02189211
C  1.40534537 0.02387471 0.02561534
C  0.69110163 1.19702071 -0.04433473
C  -0.71417464 1.17924215 -0.00900640
C  -1.41158149 -0.00328758 -0.00897211
H  -1.23917467 -2.15920963 0.01184183
H  1.16060633 -2.16038703 0.05746817
H  2.49819881 0.16398806 0.17126749
H  1.22663147 2.14679686 -0.18347642
H  -1.30839290 2.08731143 -0.00239927
H  -2.56149975 -0.05388910 0.01397632
12
MD Step 1851 Units = [Angstroms]
C  -0.66588589 -1.21811219 0.01039797
C  0.71124927 -1.18619494 0.02211380
C  1.40541126 0.02877194 0.02670646
C  0.69119707 1.19472784 -0.04517701
C  -0.71244752 1.17940295 -0.00799752
C  -1.40972776 0.00013680 -0.01003117
H  -1.24271834 -2.14787778 0.00491547
H  1.16673888 -2.17699398 0.05259055
H  2.48831930 0.16196988 0.16899455
H  1.22149928 2.15378299 -0.19336554
H  -1.31121008 2.08169226 0.00497410
H  -2.55852405 -0.05746871 0.00940584
12
MD Step 1852 Units = [Angstroms]
C  -0.66891502 -1.22365354 0.01170703
C  0.71127735 -1.18586974 0.02238216
C  1.40557468 0.03356571 0.02785263
C  0.69113189 1.19271469 -0.04606874
C  -0.71071241 1.17964440 -0.00704512
C  -1.40804344 0.00313367 -0.01102663
H  -1.24598286 -2.13719217 -0.00198677
H  1.17474820 -2.19380467 0.04773759
H  2.47874160 0.15834201 0.16605664
H  1.21603580 2.16064305 -0.20255721
H  -1.31403100 2.07808946 0.01224449
H  -2.55156261 -0.06053900 0.00470460
12
MD Step 1853 Units = [Angstroms]
C  -0.67215228 -1.22879247 0.01296043
C  0.71133794 -1.18574242 0.02270058
C  1.40577701 0.03815523 0.02904399
C  0.69091818 1.19107679 -0.04701991
C  -0.70899562 1.17996407 -0.00614641
C  -1.40650875 0.00564909 -0.01195564
H  -1.24948232 -2.12814925 -0.00883493
H  1.18397357 -2.20936742 0.04289736
H  2.47038597 0.15325962 0.16257243
H  1.21011708 2.16694892 -0.21095249
H  -1.31682374 2.07662074 0.01938341
H  -2.54097711 -0.06300998 -0.00009735
12
MD Step 1854 Units = [Angstroms]
C  -0.67549255 -1.23341835 0.01415064
C  0.71143501 -1.18589336 0.02307103
C  1.40596064 0.04244410 0.03027052
C  0.69056702 1.18989869 -0.04803899
C  -0.70732871 1.18036724 -0.00529815
C  -1.40508447 0.00764100 -0.01281590
H  -1.25369580 -2.12164845 -0.01561304
H  1.19380225 -2.22240428 0.03807449
H  2.46412026 0.14688314 0.15865430
H  1.20366439 2.17234406 -0.21846472
H  -1.31948570 2.07725831 0.02635999
H  -2.52740449 -0.06481733 -0.00496842
12
MD Step 1855 Units = [Angstroms]
C  -0.67883759 -1.23744396 0.01527124
C  0.71156648 -1.18638177 0.02349430
C  1.40607617 0.04634377 0.03152305
C  0.69008875 1.18924978 -0.04913224
C  -0.70574778 1.18086583 -0.00449659
C  -1.40371279 0.00907960 -0.01360547
H  -1.25899216 -2.11837918 -0.02231411
H  1.20370367 -2.23188415 0.03328833
H  2.46065715 0.13936642 0.15439544
H  1.19665453 2.17656910 -0.22502568
H  -1.32185082 2.07983835 0.03313920
H  -2.51173936 -0.06592556 -0.00987817
12
MD Step 1856 Units = [Angstroms]
C  -0.68210398 -1.24081338 0.01631635
C  0.71172457 -1.18724323 0.02397018
C  1.40608916 0.04977626 0.03279389
C  0.68949346 1.18918103 -0.05030314
C  -0.70429197 1.18147661 -0.00373738
C  -1.40231982 0.00994711 -0.01432252
H  -1.26556203 -2.11872324 -0.02893159
H  1.21324789 -2.23705722 0.02856954
H  2.46045673 0.13084897 0.14985944
H  1.18912517 2.17947886 -0.23059035
H  -1.32370610 2.08408395 0.03968082
H  -2.49509764 -0.06632889 -0.01480027
12
MD Step 1857 Units = [Angstroms]
C  -0.68522870 -1.24350650 0.01727988
C  0.71189657 -1.18848907 0.02449777
C  1.40598513 0.05267607 0.03407723
C  0.68879158 1.18972264 -0.05155201
C  -0.70300136 1.18221875 -0.00301568
C  -1.40082041 0.01023719 -0.01496516
H  -1.27337449 -2.12269730 -0.03544939
H  1.22211485 -2.23746577 0.02395638
H  2.46365540 0.12145427 0.14507502
H  1.18117600 2.18105156 -0.23514012
H  -1.32481452 2.08963721 0.04593968
H  -2.47875110 -0.06604879 -0.01971507
12
MD Step 1858 Units = [Angstroms]
C  -0.68817126 -1.24553900 0.01815496
C  0.71206566 -1.19010665 0.02507568
C  1.40577098 0.05499122 0.03536894
C  0.68799436 1.19088269 -0.05287577
C  -0.70191462 1.18311125 -0.00232628
C  -1.39912607 0.00995380 -0.01553134
H  -1.28217191 -2.12995138 -0.04183344
H  1.23009961 -2.23294447 0.01949104
H  2.47003907 0.11129414 0.14003763
H  1.17296638 2.18139051 -0.23868440
H  -1.32494070 2.09609552 0.05186689
H  -2.46402570 -0.06512749 -0.02461137
12
MD Step 1859 Units = [Angstroms]
C  -0.69091212 -1.24695775 0.01893360
C  0.71221134 -1.19205978 0.02570230
C  1.40547274 0.05668356 0.03666582
C  0.68711417 1.19264693 -0.05426786
C  -0.70106653 1.18417040 -0.00166385
C  -1.39715586 0.00910980 -0.01601883
H  -1.29150430 -2.13982378 -0.04802764
H  1.23711724 -2.22361806 0.01521610
H  2.47906827 0.10047728 0.13471756
H  1.16470960 2.18071841 -0.24126038
H  -1.32387575 2.10304753 0.05741199
H  -2.45216466 -0.06361753 -0.02948655
12
MD Step 1860 Units = [Angstroms]
C  -0.69344838 -1.24783288 0.01960692
C  0.71230936 -1.19428926 0.02637596
C  1.40512982 0.05772869 0.03796470
C  0.68616456 1.19497956 -0.05571843
C  -0.70048584 1.18540769 -0.00102321
C  -1.39484898 0.00772544 -0.01642539
H  -1.30079305 -2.15143666 -0.05395527
H  1.24320878 -2.20989951 0.01117116
H  2.48994895 0.08911824 0.12907211
H  1.15666374 2.17936350 -0.24293090
H  -1.32145865 2.11010548 0.06252552
H  -2.44417178 -0.06156969 -0.03434408
12
MD Step 1861 Units = [Angstroms]
C  -0.69578795 -1.24824863 0.02016564
C  0.71233134 -1.19671362 0.02709519
C  1.40478747 0.05811575 0.03926136
C  0.68516027 1.19782536 -0.05721462
C  -0.70019345 1.18682811 -0.00039961
C  -1.39217662 0.00582718 -0.01674921
H  -1.30940672 -2.16380806 -0.05952500
H  1.24854758 -2.19248624 0.00738942
H  2.50173151 0.07734387 0.12305867
H  1.14911874 2.17773668 -0.24378007
H  -1.31759264 2.11693182 0.06716177
H  -2.44066539 -0.05902266 -0.03918873
12
MD Step 1862 Units = [Angstroms]
C  -0.69794395 -1.24829485 0.02060073
C  0.71224423 -1.19923069 0.02785893
C  1.40448902 0.05784710 0.04054972
C  0.68411721 1.20111295 -0.05874118
C  -0.70020099 1.18842897 0.00021099
C  -1.38914986 0.00344714 -0.01698940
H  -1.31673225 -2.17595757 -0.06463949
H  1.25344262 -2.17234733 0.00389437
H  2.51341685 0.06529541 0.11664574
H  1.14237948 2.17629887 -0.24390674
H  -1.31225615 2.12325964 0.07128136
H  -2.44178030 -0.05599854 -0.04401999
12
MD Step 1863 Units = [Angstroms]
C  -0.69992984 -1.24806020 0.02090420
C  0.71201029 -1.20172092 0.02866672
C  1.40426939 0.05693805 0.04182144
C  0.68305247 1.20475936 -0.06028116
C  -0.70050983 1.19019916 0.00081162
C  -1.38582128 0.00062334 -0.01714647
H  -1.32223109 -2.18699140 -0.06920438
H  1.25833255 -2.15069004 0.00069700
H  2.52405179 0.05312642 0.10982024
H  1.13674514 2.17551906 -0.24341581
H  -1.30550821 2.12890660 0.07485347
H  -2.44714705 -0.05250611 -0.04882589
12
MD Step 1864 Units = [Angstroms]
C  -0.70175596 -1.24762751 0.02106962
C  0.71158842 -1.20405342 0.02951885
C  1.40415046 0.05541622 0.04306572
C  0.68198449 1.20867530 -0.06181690
C  -0.70111065 1.19211901 0.00140414
C  -1.38227965 -0.00259949 -0.01722261
H  -1.32547686 -2.19616219 -0.07313597
H  1.26376174 -2.12889267 -0.00220576
H  2.53280407 0.04099777 0.10259080
H  1.13248596 2.17582579 -0.24240830
H  -1.29748882 2.13378288 0.07785755
H  -2.45595521 -0.04855070 -0.05357905
12
MD Step 1865 Units = [Angstroms]
C  -0.70342720 -1.24707085 0.02109259
C  0.71093757 -1.20609551 0.03041624
C  1.40413850 0.05332069 0.04426953
C  0.68093331 1.21277105 -0.06333087
C  -0.70198328 1.19416044 0.00198910
C  -1.37863945 -0.00616890 -0.01722174
H  -1.32617679 -2.20290648 -0.07636720
H  1.27032936 -2.10839384 -0.00482994
H  2.53901449 0.02907126 0.09498775
H  1.12981948 2.17755683 -0.24097120
H  -1.28841440 2.13789286 0.08028429
H  -2.46708120 -0.04414670 -0.05823627
12
MD Step 1866 Units = [Angstroms]
C  -0.70494159 -1.24645376 0.02097102
C  0.71002283 -1.20772550 0.03136014
C  1.40422326 0.05070075 0.04541799
C  0.67992077 1.21696191 -0.06480661
C  -0.70309724 1.19628774 0.00256561
C  -1.37502792 -0.01002405 -0.01714922
H  -1.32418137 -2.20686567 -0.07885179
H  1.27860734 -2.09054066 -0.00720012
H  2.54222918 0.01750326 0.08706061
H  1.12888941 2.18091456 -0.23916886
H  -1.27856869 2.14133059 0.08213595
H  -2.47924506 -0.03932823 -0.06274142
12
MD Step 1867 Units = [Angstroms]
C  -0.70628957 -1.24582807 0.02070530
C  0.70882348 -1.20884711 0.03235148
C  1.40437822 0.04761426 0.04649488
C  0.67897051 1.22117272 -0.06622932
C  -0.70441270 1.19845886 0.00313148
C  -1.37157282 -0.01409574 -0.01701140
H  -1.31948685 -2.20789682 -0.08056692
H  1.28903441 -2.07641712 -0.00934126
H  2.54221690 0.00643896 0.07887423
H  1.12975048 2.18593467 -0.23703757
H  -1.26828894 2.14426822 0.08342569
H  -2.49116025 -0.03415501 -0.06703065
12
MD Step 1868 Units = [Angstroms]
C  -0.70745374 -1.24523279 0.02029835
C  0.70734139 -1.20940195 0.03339012
C  1.40456153 0.04412596 0.04748321
C  0.67810753 1.22534071 -0.06758613
C  -0.70588207 1.20062726 0.00368325
C  -1.36839261 -0.01830718 -0.01681518
H  -1.31223353 -2.20607742 -0.08151489
H  1.30180816 -2.06669244 -0.01126855
H  2.53897569 -0.00399234 0.07050407
H  1.13236194 2.19247461 -0.23458432
H  -1.25794790 2.14693723 0.08417599
H  -2.50165325 -0.02871283 -0.07103821
12
MD Step 1869 Units = [Angstroms]
C  -0.70840914 -1.24469306 0.01975570
C  0.70560693 -1.20937674 0.03447413
C  1.40471752 0.04030572 0.04836581
C  0.67735738 1.22941637 -0.06886610
C  -0.70745202 1.20274440 0.00421651
C  -1.36558972 -0.02257564 -0.01656755
H  -1.30270113 -2.20170566 -0.08172383
H  1.31680719 -2.06153400 -0.01297819
H  2.53273154 -0.01368094 0.06203106
H  1.13659121 2.20022438 -0.23179010
H  -1.24793195 2.14960231 0.08441621
H  -2.50974513 -0.02310967 -0.07470186
12
MD Step 1870 Units = [Angstroms]
C  -0.70912402 -1.24421917 0.01908532
C  0.70368014 -1.20880286 0.03559943
C  1.40477858 0.03622701 0.04912597
C  0.67674489 1.23336264 -0.07005984
C  -0.70906598 1.20476265 0.00472618
C  -1.36324650 -0.02681456 -0.01627519
H  -1.29130027 -2.19529470 -0.08124730
H  1.33357150 -2.06061270 -0.01444257
H  2.52392907 -0.02253933 0.05353636
H  1.14222691 2.20873763 -0.22861682
H  -1.23861697 2.15252933 0.08417940
H  -2.51469926 -0.01746932 -0.07796726
12
MD Step 1871 Units = [Angstroms]
C  -0.70956124 -1.24380627 0.01829752
C  0.70164616 -1.20774860 0.03675997
C  1.40466772 0.03196558 0.04974799
C  0.67629260 1.23715254 -0.07115896
C  -0.71066676 1.20663863 0.00520690
C  -1.36142303 -0.03093620 -0.01594424
H  -1.27855747 -2.18755634 -0.08016232
H  1.35134988 -2.06319653 -0.01561145
H  2.51321179 -0.03050366 0.04509613
H  1.14899914 2.21747725 -0.22501636
H  -1.23034372 2.15594982 0.08349867
H  -2.51604490 -0.01192402 -0.08079121
12
MD Step 1872 Units = [Angstroms]
C  -0.70968063 -1.24343515 0.01740451
C  0.69960640 -1.20630713 0.03794831
C  1.40430213 0.02759851 0.05021774
C  0.67601920 1.24076615 -0.07215557
C  -0.71219913 1.20833631 0.00565338
C  -1.36015592 -0.03485456 -0.01558008
H  -1.26508998 -2.17936730 -0.07856518
H  1.36919894 -2.06829858 -0.01641866
H  2.50138786 -0.03753367 0.03677693
H  1.15660366 2.22586739 -0.22093997
H  -1.22339548 2.16002648 0.08240391
H  -2.51358646 -0.00660695 -0.08314413
12
MD Step 1873 Units = [Angstroms]
C  -0.70944239 -1.24307506 0.01641985
C  0.69766775 -1.20458364 0.03915633
C  1.40359803 0.02320335 0.05052307
C  0.67593817 1.24418746 -0.07304173
C  -0.71361214 1.20982980 0.00606071
C  -1.35945761 -0.03848829 -0.01518716
H  -1.25156691 -2.17171124 -0.07656438
H  1.38610274 -2.07483519 -0.01679146
H  2.48937667 -0.04361067 0.02863208
H  1.16472665 2.23334459 -0.21634659
H  -1.21798066 2.16482466 0.08091903
H  -2.50740585 -0.00164516 -0.08501189
12
MD Step 1874 Units = [Angstroms]
C  -0.70881149 -1.24268892 0.01535761
C  0.69593261 -1.20268469 0.04037605
C  1.40247707 0.01885745 0.05065403
C  0.67605672 1.24740140 -0.07380915
C  -0.71486085 1.21110511 0.00642460
C  -1.35931579 -0.04176371 -0.01476886
H  -1.23865566 -2.16559244 -0.07427083
H  1.40108289 -2.08175905 -0.01665974
H  2.47813404 -0.04873341 0.02070011
H  1.17306761 2.23940236 -0.21120913
H  -1.21422251 2.17029495 0.07906062
H  -2.49786115 0.00284710 -0.08639735
12
MD Step 1875 Units = [Angstroms]
C  -0.70776293 -1.24224066 0.01423143
C  0.69449109 -1.20071092 0.04160008
C  1.40087398 0.01463729 0.05060292
C  0.67637520 1.25039156 -0.07444898
C  -0.71590751 1.21216068 0.00674143
C  -1.35969313 -0.04461745 -0.01432738
H  -1.22695705 -2.16192479 -0.07178600
H  1.41328120 -2.08815162 -0.01596307
H  2.46855876 -0.05291199 0.01300591
H  1.18135871 2.24362645 -0.20551843
H  -1.21215710 2.17627009 0.07683798
H  -2.48558099 0.00677432 -0.08732143
12
MD Step 1876 Units = [Angstroms]
C  -0.70628701 -1.24170379 0.01305352
C  0.69341597 -1.19875297 0.04282199
C  1.39874476 0.01061772 0.05036396
C  0.67688698 1.25313843 -0.07495183
C  -0.71672214 1.21300659 0.00700823
C  -1.36052778 -0.04699868 -0.01386368
H  -1.21693857 -2.16141060 -0.06919049
H  1.42201100 -2.09327616 -0.01465504
H  2.46139056 -0.05616075 0.00556495
H  1.18938001 2.24572000 -0.19928504
H  -1.21173937 2.18247704 0.07425454
H  -2.47144964 0.01006483 -0.08782344
12
MD Step 1877 Units = [Angstroms]
C  -0.70439352 -1.24106913 0.01183395
C  0.69275986 -1.19688953 0.04403636
C  1.39607389 0.00687132 0.04993282
C  0.67757857 1.25561829 -0.07530787
C  -0.71728261 1.21366263 0.00722254
C  -1.36173519 -0.04887068 -0.01337751
H  -1.20887981 -2.16443362 -0.06653557
H  1.42678301 -2.09660173 -0.01270519
H  2.45711662 -0.05849173 -0.00160993
H  1.19697058 2.24551953 -0.19253923
H  -1.21285552 2.18856214 0.07131036
H  -2.45657433 0.01267406 -0.08796011
12
MD Step 1878 Units = [Angstroms]
C  -0.70211379 -1.24034955 0.01058043
C  0.69255406 -1.19518665 0.04523884
C  1.39287903 0.00346765 0.04930598
C  0.67843019 1.25780268 -0.07550704
C  -0.71757441 1.21415540 0.00738223
C  -1.36321244 -0.05021155 -0.01286761
H  -1.20284379 -2.17099360 -0.06384053
H  1.42731491 -2.09781074 -0.01009940
H  2.45590685 -0.05991055 -0.00850085
H  1.20403581 2.24300263 -0.18532949
H  -1.21533966 2.19412491 0.06800499
H  -2.44222433 0.01458495 -0.08780237
12
MD Step 1879 Units = [Angstroms]
C  -0.69949992 -1.23958009 0.00929855
C  0.69280831 -1.19369724 0.04642604
C  1.38921186 0.00047264 0.04848025
C  0.67941643 1.25965846 -0.07553937
C  -0.71759032 1.21451502 0.00748528
C  -1.36484563 -0.05101392 -0.01233217
H  -1.19868230 -2.18070128 -0.06109630
H  1.42353304 -2.09679960 -0.00683928
H  2.45759378 -0.06041569 -0.01507848
H  1.21055093 2.23828835 -0.17772000
H  -1.21899219 2.19875546 0.06434041
H  -2.42973346 0.01580436 -0.08742916
12
MD Step 1880 Units = [Angstroms]
C  -0.69662143 -1.23881340 0.00799242
C  0.69351115 -1.19246020 0.04759546
C  1.38515473 -0.00205212 0.04745247
C  0.68050717 1.26114839 -0.07539533
C  -0.71733000 1.21477185 0.00752965
C  -1.36652051 -0.05128374 -0.01176952
H  -1.19607316 -2.19283531 -0.05827435
H  1.41557134 -2.09367863 -0.00294111
H  2.46170220 -0.06000137 -0.02129884
H  1.21656068 2.23163046 -0.16978723
H  -1.22359775 2.20207067 0.06032326
H  -2.42036517 0.01635503 -0.08691815
12
MD Step 1881 Units = [Angstroms]
C  -0.69356002 -1.23811184 0.00666558
C  0.69463052 -1.19149915 0.04874546
C  1.38081364 -0.00405029 0.04621962
C  0.68166858 1.26223247 -0.07506623
C  -0.71679959 1.21495340 0.00751314
C  -1.36813531 -0.05103821 -0.01117902
H  -1.19457869 -2.20644463 -0.05533779
H  1.40376942 -2.08877305 0.00156563
H  2.46752079 -0.05866267 -0.02710416
H  1.22217448 2.22340275 -0.16161581
H  -1.22894146 2.20374568 0.05596642
H  -2.41515394 0.01626431 -0.08633405
12
MD Step 1882 Units = [Angstroms]
C  -0.69040384 -1.23753829 0.00532179
C  0.69611492 -1.19082082 0.04987512
C  1.37630931 -0.00547206 0.04477910
C  0.68286453 1.26287000 -0.07454462
C  -0.71601134 1.21508191 0.00743336
C  -1.36961344 -0.05030347 -0.01056199
H  -1.19371062 -2.22046967 -0.05225179
H  1.38866789 -2.08262289 0.00664027
H  2.47419799 -0.05640106 -0.03242735
H  1.22755624 2.21407571 -0.15329396
H  -1.23482250 2.20353870 0.05128977
H  -2.41475217 0.01555272 -0.08571717
12
MD Step 1883 Units = [Angstroms]
C  -0.68724198 -1.23714783 0.00396554
C  0.69789516 -1.19041360 0.05098410
C  1.37176781 -0.00627584 0.04312929
C  0.68405811 1.26302247 -0.07382476
C  -0.71498308 1.21517257 0.00728774
C  -1.37091279 -0.04911243 -0.00992234
H  -1.19298875 -2.23385716 -0.04899119
H  1.37099568 -2.07597573 0.01223382
H  2.48084228 -0.05322882 -0.03719857
H  1.23290811 2.20418360 -0.14490859
H  -1.24106498 2.20130837 0.04632014
H  -2.41932137 0.01422644 -0.08507506
12
MD Step 1884 Units = [Angstroms]
C  -0.68415987 -1.23698151 0.00260244
C  0.69988756 -1.19024734 0.05207237
C  1.36731217 -0.00643031 0.04127008
C  0.68521361 1.26265723 -0.07290299
C  -0.71373766 1.21523242 0.00707360
C  -1.37202907 -0.04750319 -0.00926676
H  -1.19198640 -2.24565226 -0.04554469
H  1.35164167 -2.06976226 0.01829309
H  2.48661099 -0.04917149 -0.04135223
H  1.23844790 2.19428263 -0.13654061
H  -1.24752587 2.19702400 0.04109058
H  -2.42849984 0.01227695 -0.08438032
12
MD Step 1885 Units = [Angstroms]
C  -0.68123568 -1.23706258 0.00123923
C  0.70199887 -1.19027551 0.05313981
C  1.36305588 -0.00591671 0.03920333
C  0.68629867 1.26175165 -0.07177806
C  -0.71230220 1.21526015 0.00678825
C  -1.37299211 -0.04551816 -0.00860436
H  -1.19036083 -2.25506295 -0.04191603
H  1.33160249 -2.06504230 0.02476614
H  2.49077926 -0.04426826 -0.04483310
H  1.24438131 2.18490256 -0.12826091
H  -1.25410019 2.19076878 0.03563923
H  -2.44145767 0.00968817 -0.08357517
12
MD Step 1886 Units = [Angstroms]
C  -0.67853745 -1.23739489 -0.00011627
C  0.70413345 -1.19044071 0.05418575
C  1.35909814 -0.00473108 0.03693320
C  0.68728644 1.26029745 -0.07045133
C  -0.71070722 1.21524636 0.00642915
C  -1.37385677 -0.04320371 -0.00794589
H  -1.18787126 -2.26149954 -0.03812307
H  1.31190175 -2.06291119 0.03160835
H  2.49278775 -0.03857091 -0.04760090
H  1.25087166 2.17649697 -0.12012749
H  -1.26072346 2.18273643 0.03000773
H  -2.45702208 0.00644810 -0.08258155
12
MD Step 1887 Units = [Angstroms]
C  -0.67612092 -1.23796285 -0.00145535
C  0.70620210 -1.19068394 0.05520844
C  1.35552095 -0.00288617 0.03446645
C  0.68815750 1.25830445 -0.06892678
C  -0.70898584 1.21517464 0.00599407
C  -1.37469091 -0.04060994 -0.00730268
H  -1.18438786 -2.26459590 -0.03419564
H  1.29348558 -2.06436545 0.03878774
H  2.49227217 -0.03214188 -0.04963328
H  1.25801131 2.16939915 -0.11218440
H  -1.26737100 2.17322129 0.02423949
H  -2.47383759 0.00256076 -0.08131356
12
MD Step 1888 Units = [Angstroms]
C  -0.67402758 -1.23873226 -0.00276860
C  0.70813137 -1.19095644 0.05620485
C  1.35238739 -0.00041271 0.03181252
C  0.68890104 1.25580313 -0.06721088
C  -0.70717293 1.21502303 0.00548120
C  -1.37556390 -0.03779023 -0.00668577
H  -1.17989541 -2.26421905 -0.03017276
H  1.27711157 -2.07014418 0.04628722
H  2.48907934 -0.02505216 -0.05092726
H  1.26580001 2.16379114 -0.10446238
H  -1.27405381 2.16260171 0.01837790
H  -2.49052321 -0.00194539 -0.07968920
12
MD Step 1889 Units = [Angstroms]
C  -0.67228327 -1.23965162 -0.00404612
C  0.70987082 -1.19123124 0.05717073
C  1.34974088 0.00264004 0.02898358
C  0.68951509 1.25284555 -0.06531229
C  -0.70530468 1.21476612 0.00488935
C  -1.37653733 -0.03480042 -0.00610515
H  -1.17449358 -2.26047179 -0.02609967
H  1.26325872 -2.08058126 0.05410184
H  2.48327361 -0.01737924 -0.05149957
H  1.27413461 2.15969192 -0.09698096
H  -1.28081062 2.15131699 0.01246466
H  -2.50580056 -0.00701407 -0.07763926
12
MD Step 1890 Units = [Angstroms]
C  -0.67089716 -1.24065372 -0.00527774
C  0.71139629 -1.19151093 0.05810111
C  1.34760516 0.00620469 0.02599446
C  0.69000552 1.24950418 -0.06324146
C  -0.70341830 1.21437741 0.00421800
C  -1.37765896 -0.03169767 -0.00556935
H  -1.16839466 -2.25368978 -0.02202463
H  1.25208550 -2.09551240 0.06223092
H  2.47513587 -0.00920538 -0.05138593
H  1.28281246 2.15696679 -0.08975162
H  -1.28769594 2.13983844 0.00653839
H  -2.51858308 -0.01256246 -0.07511279
12
MD Step 1891 Units = [Angstroms]
C  -0.66986142 -1.24165750 -0.00645328
C  0.71270823 -1.19182871 0.05899108
C  1.34598483 0.01019700 0.02286248
C  0.69038414 1.24586902 -0.06101017
C  -0.70155211 1.21383197 0.00346735
C  -1.37895937 -0.02853908 -0.00508523
H  -1.16191756 -2.24443136 -0.01799567
H  1.24344852 -2.11427012 0.07066718
H  2.46515470 -0.00061600 -0.05063929
H  1.29154807 2.15535558 -0.08278086
H  -1.29476455 2.12863626 0.00063388
H  -2.52802952 -0.01848573 -0.07207949
12
MD Step 1892 Units = [Angstroms]
C  -0.66915188 -1.24257067 -0.00756277
C  0.71382581 -1.19224235 0.05983645
C  1.34486675 0.01451797 0.01960716
C  0.69066601 1.24204318 -0.05863113
C  -0.69974589 1.21310919 0.00263834
C  -1.38045062 -0.02538036 -0.00465791
H  -1.15547593 -2.23345528 -0.01405728
H  1.23697298 -2.13577009 0.07938669
H  2.45400701 0.00830173 -0.04932702
H  1.29999971 2.15451395 -0.07607294
H  -1.30205374 2.11814519 -0.00521819
H  -2.53357122 -0.02466323 -0.06852994
12
MD Step 1893 Units = [Angstroms]
C  -0.66872983 -1.24329360 -0.00859676
C  0.71477915 -1.19282332 0.06063418
C  1.34422238 0.01905660 0.01624972
C  0.69086662 1.23813765 -0.05611757
C  -0.69804125 1.21219521 0.00173252
C  -1.38212594 -0.02227446 -0.00429085
H  -1.14955690 -2.22167959 -0.01024726
H  1.23214943 -2.15866152 0.08834303
H  2.44252379 0.01746042 -0.04752680
H  1.30780108 2.15406009 -0.06963159
H  -1.30956561 2.10873248 -0.01099066
H  -2.53492371 -0.03096529 -0.06447453
12
MD Step 1894 Units = [Angstroms]
C  -0.66854538 -1.24372503 -0.00954658
C  0.71560185 -1.19364431 0.06138236
C  1.34401167 0.02369316 0.01281250
C  0.69099932 1.23426586 -0.05348298
C  -0.69648181 1.21108483 0.00075194
C  -1.38395998 -0.01927051 -0.00398591
H  -1.14468755 -2.21011525 -0.00659418
H  1.22842876 -2.18149751 0.09746692
H  2.43163647 0.02677379 -0.04532142
H  1.31459325 2.15361990 -0.06346079
H  -1.31725204 2.10067266 -0.01665890
H  -2.53209042 -0.03726001 -0.05994161
12
MD Step 1895 Units = [Angstroms]
C  -0.66854212 -1.24376975 -0.01040451
C  0.71632544 -1.19476853 0.06207991
C  1.34418836 0.02830282 0.00931825
C  0.69107338 1.23053826 -0.05074085
C  -0.69511304 1.20978267 -0.00030100
C  -1.38590913 -0.01641289 -0.00374357
H  -1.14138780 -2.19977219 -0.00311603
H  1.22529645 -2.20288640 0.10667054
H  2.42230172 0.03615791 -0.04279265
H  1.32005300 2.15286575 -0.05756478
H  -1.32500560 2.09413215 -0.02219936
H  -2.52536258 -0.04342009 -0.05497513
12
MD Step 1896 Units = [Angstroms]
C  -0.66866295 -1.24334800 -0.01116384
C  0.71697609 -1.19624218 0.06272607
C  1.34470677 0.03275957 0.00578933
C  0.69109275 1.22705745 -0.04790451
C  -0.69398141 1.20830328 -0.00142372
C  -1.38791215 -0.01374059 -0.00356301
H  -1.14011269 -2.19154409 0.00017919
H  1.22231985 -2.22160298 0.11585442
H  2.41540751 0.04553169 -0.04001531
H  1.32391543 2.15154635 -0.05194744
H  -1.33265816 2.08916596 -0.02758827
H  -2.51531492 -0.04932935 -0.04963181
12
MD Step 1897 Units = [Angstroms]
C  -0.66885628 -1.24240503 -0.01181882
C  0.71757325 -1.19809041 0.06331994
C  1.34552911 0.03694020 0.00224717
C  0.69105573 1.22391377 -0.04498701
C  -0.69313297 1.20667050 -0.00261358
C  -1.38989128 -0.01128680 -0.00344240
H  -1.14119198 -2.18608905 0.00329084
H  1.21917215 -2.23665686 0.12491507
H  2.41167091 0.05481650 -0.03705259
H  1.32599024 2.14950730 -0.04661146
H  -1.33998828 2.08572622 -0.03280059
H  -2.50279236 -0.05488911 -0.04397755
12
MD Step 1898 Units = [Angstroms]
C  -0.66908138 -1.24091876 -0.01236437
C  0.71812945 -1.20031579 0.06386010
C  1.34663196 0.04072834 -0.00128823
C  0.69095521 1.22118157 -0.04200106
C  -0.69261137 1.20491594 -0.00386796
C  -1.39175484 -0.00907868 -0.00337922
H  -1.14477963 -2.18373204 0.00622136
H  1.21564065 -2.24732710 0.13375206
H  2.41154471 0.06393460 -0.03395397
H  1.32617185 2.14670299 -0.04155745
H  -1.34673617 2.08368033 -0.03780964
H  -2.48887916 -0.06002363 -0.03808293
12
MD Step 1899 Units = [Angstroms]
C  -0.66931199 -1.23890358 -0.01279585
C  0.71865074 -1.20289840 0.06434424
C  1.34801048 0.04401833 -0.00479832
C  0.69077952 1.21891614 -0.03895899
C  -0.69245552 1.20307706 -0.00518427
C  -1.39340191 -0.00713749 -0.00337060
H  -1.15082563 -2.18441475 0.00897161
H  1.21162693 -2.25317601 0.14227436
H  2.41515328 0.07280666 -0.03075634
H  1.32444413 2.14320103 -0.03678312
H  -1.35262410 2.08283533 -0.04258732
H  -2.47483984 -0.06468344 -0.03201787
12
MD Step 1900 Units = [Angstroms]
C  -0.66953726 -1.23640886 -0.01310888
C  0.71913710 -1.20579643 0.06476900
C  1.34967896 0.04671892 -0.00826590
C  0.69051356 1.21715142 -0.03587281
C  -0.69269719 1.20119496 -0.00655990
C  -1.39473005 -0.00547904 -0.00341382
H  -1.15907849 -2.18770765 0.01153725
H  1.20714435 -2.25405298 0.15040600
H  2.42227331 0.08134900 -0.02748803
H  1.32088001 2.13917975 -0.03228267
H  -1.35737923 2.08296491 -0.04710491
H  -2.46202285 -0.06884522 -0.02584578
12
MD Step 1901 Units = [Angstroms]
C  -0.66976022 -1.23351275 -0.01329928
C  0.71958271 -1.20894703 0.06512967
C  1.35166751 0.04875632 -0.01167470
C  0.69014021 1.21589873 -0.03275425
C  -0.69335892 1.19931229 -0.00799215
C  -1.39564608 -0.00411444 -0.00350671
H  -1.16911730 -2.19288066 0.01390729
H  1.20231577 -2.25009574 0.15809150
H  2.43236476 0.08947165 -0.02417442
H  1.31563622 2.13491898 -0.02804643
H  -1.36075583 2.08383540 -0.05133438
H  -2.45172590 -0.07250666 -0.01961856
12
MD Step 1902 Units = [Angstroms]
C  -0.66999435 -1.23031281 -0.01336320
C  0.71997600 -1.21226695 0.06542000
C  1.35401563 0.05007678 -0.01500905
C  0.68964190 1.21514652 -0.02961488
C  -0.69445220 1.19747127 -0.00947812
C  -1.39607882 -0.00305133 -0.00364781
H  -1.18040484 -2.19901208 0.01606504
H  1.19737217 -2.24173078 0.16530128
H  2.44464373 0.09707776 -0.02084323
H  1.30894285 2.13078359 -0.02406077
H  -1.36255475 2.08522883 -0.05524974
H  -2.44503612 -0.07567630 -0.01337383
12
MD Step 1903 Units = [Angstroms]
C  -0.67025932 -1.22691577 -0.01329737
C  0.72029956 -1.21565354 0.06563194
C  1.35676419 0.05064811 -0.01825349
C  0.68900221 1.21486157 -0.02646623
C  -0.69597631 1.19571205 -0.01101463
C  -1.39599149 -0.00229511 -0.00383641
H  -1.19234852 -2.20510888 0.01799076
H  1.19265073 -2.22967001 0.17203694
H  2.45817979 0.10406487 -0.01752832
H  1.30108714 2.12719894 -0.02030832
H  -1.36263852 2.08696138 -0.05882852
H  -2.44267429 -0.07836038 -0.00713602
12
MD Step 1904 Units = [Angstroms]
C  -0.67057680 -1.22342847 -0.01309931
C  0.72053033 -1.21898651 0.06575545
C  1.35994755 0.05046041 -0.02139270
C  0.68820763 1.21499152 -0.02331993
C  -0.69791769 1.19407132 -0.01259805
C  -1.39539047 -0.00184997 -0.00407209
H  -1.20435742 -2.21021484 0.01966508
H  1.18858868 -2.21489572 0.17833563
H  2.47199766 0.11032779 -0.01427103
H  1.29239147 2.12461791 -0.01676845
H  -1.36094154 2.08889709 -0.06205295
H  -2.44488224 -0.08055063 -0.00092143
12
MD Step 1905 Units = [Angstroms]
C  -0.67096699 -1.21995093 -0.01276759
C  0.72064036 -1.22213160 0.06577845
C  1.36358704 0.04952569 -0.02441145
C  0.68724935 1.21546891 -0.02018784
C  -0.70024995 1.19258131 -0.01422428
C  -1.39432761 -0.00171924 -0.00435419
H  -1.21588809 -2.21349348 0.02107215
H  1.18570757 -2.19862116 0.18427165
H  2.48516737 0.11576242 -0.01111947
H  1.28318629 2.12348015 -0.01341807
H  -1.35747507 2.09095648 -0.06491100
H  -2.45138639 -0.08221750 0.00525392
12
MD Step 1906 Units = [Angstroms]
C  -0.67144585 -1.21657187 -0.01230190
C  0.72059895 -1.22494728 0.06568720
C  1.36768655 0.04787659 -0.02729475
C  0.68612489 1.21621633 -0.01708211
C  -0.70293439 1.19126894 -0.01588864
C  -1.39289543 -0.00190486 -0.00468118
H  -1.22647703 -2.21428329 0.02220212
H  1.18458130 -2.18221354 0.18995295
H  2.49687457 0.12027000 -0.00812623
H  1.27377994 2.12416623 -0.01023258
H  -1.35232731 2.09312041 -0.06739696
H  -2.46144888 -0.08331154 0.01136640
12
MD Step 1907 Units = [Angstroms]
C  -0.67202328 -1.21336612 -0.01170308
C  0.72037650 -1.22729505 0.06546728
C  1.37223015 0.04556414 -0.03002798
C  0.68483951 1.21715229 -0.01401526
C  -0.70592117 1.19015529 -0.01758587
C  -1.39121633 -0.00240608 -0.00505029
H  -1.23576145 -2.21212958 0.02305277
H  1.18578243 -2.16707054 0.19550956
H  2.50646949 0.12376121 -0.00534530
H  1.26442930 2.12695168 -0.00718693
H  -1.34565872 2.09542899 -0.06951167
H  -2.47398976 -0.08377208 0.01737943
12
MD Step 1908 Units = [Angstroms]
C  -0.67270164 -1.21039331 -0.01097312
C  0.71995024 -1.22905300 0.06510526
C  1.37718141 0.04265478 -0.03259716
C  0.68340694 1.21819698 -0.01100014
C  -0.70915091 1.18925541 -0.01931009
C  -1.38942883 -0.00321767 -0.00545746
H  -1.24349152 -2.20680020 0.02363044
H  1.18980677 -2.15445617 0.20107274
H  2.51349759 0.12615995 -0.00282889
H  1.25531558 2.13196753 -0.00425660
H  -1.33769275 2.09797551 -0.07126231
H  -2.48774477 -0.08353993 0.02324207
12
MD Step 1909 Units = [Angstroms]
C  -0.67347487 -1.20769719 -0.01011506
C  0.71931110 -1.23013043 0.06459102
C  1.38248396 0.03922689 -0.03498917
C  0.68184936 1.21927732 -0.00804990
C  -0.71255684 1.18857830 -0.02105491
C  -1.38767409 -0.00432820 -0.00589752
H  -1.24953739 -2.19829128 0.02395029
H  1.19698537 -2.14532228 0.20674663
H  2.51771648 0.12740689 -0.00062429
H  1.24652997 2.13917448 -0.00141844
H  -1.32870251 2.10089519 -0.07266173
H  -2.50142077 -0.08256973 0.02889124
12
MD Step 1910 Units = [Angstroms]
C  -0.67432780 -1.20530520 -0.00913294
C  0.71847001 -1.23047992 0.06392008
C  1.38806276 0.03536707 -0.03719191
C  0.68019630 1.22033051 -0.00517788
C  -0.71606724 1.18812736 -0.02281346
C  -1.38608476 -0.00571865 -0.00636463
H  -1.25389314 -2.18682724 0.02403632
H  1.20740359 -2.14016022 0.21257858
H  2.51910325 0.12746273 0.00122879
H  1.23807200 2.14835612 0.00134877
H  -1.31899384 2.10434872 -0.07372738
H  -2.51382250 -0.08083919 0.03425642
12
MD Step 1911 Units = [Angstroms]
C  -0.67523597 -1.20322816 -0.00803166
C  0.71746174 -1.23010303 0.06309536
C  1.39382595 0.03116645 -0.03919464
C  0.67848273 1.22130578 -0.00239748
C  -0.71960824 1.18790120 -0.02457853
C  -1.38477703 -0.00736170 -0.00685273
H  -1.25667821 -2.17285595 0.02392093
H  1.22085175 -2.13892908 0.21853735
H  2.51785426 0.12631107 0.00270052
H  1.22986082 2.15913304 0.00406396
H  -1.30888581 2.10850133 -0.07447989
H  -2.52394077 -0.07835384 0.03926511
12
MD Step 1912 Units = [Angstroms]
C  -0.67616579 -1.20146014 -0.00681697
C  0.71634458 -1.22904766 0.06212759
C  1.39966708 0.02671742 -0.04098808
C  0.67674639 1.22216438 0.00027802
C  -0.72310657 1.18789480 -0.02634274
C  -1.38384569 -0.00922160 -0.00735595
H  -1.25813521 -2.15703695 0.02364409
H  1.23682586 -2.14108477 0.22450695
H  2.51437720 0.12396095 0.00377266
H  1.22175695 2.17099546 0.00674371
H  -1.29869037 2.11349880 -0.07494146
H  -2.53100514 -0.07514801 0.04384807
12
MD Step 1913 Units = [Angstroms]
C  -0.67707546 -1.19997922 -0.00549534
C  0.71519559 -1.22739813 0.06103423
C  1.40546808 0.02211086 -0.04256471
C  0.67502500 1.22287822 0.00283557
C  -0.72649220 1.18810092 -0.02809864
C  -1.38336130 -0.01125477 -0.00786898
H  -1.25862097 -2.14021779 0.02325193
H  1.25458035 -2.14569894 0.23029846
H  2.50927292 0.12044811 0.00443943
H  1.21359014 2.18334880 0.00940225
H  -1.28869292 2.11944287 -0.07513427
H  -2.53451053 -0.07128299 0.04794382
12
MD Step 1914 Units = [Angstroms]
C  -0.67791685 -1.19874943 -0.00407380
C  0.71410277 -1.22526126 0.05983736
C  1.41110311 0.01743417 -0.04391883
C  0.67335357 1.22342756 0.00526264
C  -0.72970063 1.18851152 -0.02983886
C  -1.38336873 -0.01341100 -0.00838732
H  -1.25858674 -2.12339231 0.02279480
H  1.27321723 -2.15162746 0.23567546
H  2.50330259 0.11583470 0.00470741
H  1.20518818 2.19556477 0.01205164
H  -1.27913619 2.12636926 -0.07507921
H  -2.53422801 -0.06684358 0.05150226
12
MD Step 1915 Units = [Angstroms]
C  -0.67863861 -1.19772466 -0.00255979
C  0.71315618 -1.22275238 0.05856113
C  1.41644383 0.01277011 -0.04504664
C  0.67176230 1.22379836 0.00754728
C  -0.73267460 1.18911902 -0.03155625
C  -1.38388643 -0.01563508 -0.00890757
H  -1.25854298 -2.10763483 0.02232446
H  1.29178675 -2.15768036 0.24038470
H  2.49733563 0.11020631 0.00459399
H  1.19640291 2.20703110 0.01470190
H  -1.27020923 2.13423185 -0.07479503
H  -2.53020764 -0.06193381 0.05448774
12
MD Step 1916 Units = [Angstroms]
C  -0.67919066 -1.19685467 -0.00096092
C  0.71243982 -1.21998428 0.05722940
C  1.42136616 0.00819638 -0.04594609
C  0.67027513 1.22397979 0.00967841
C  -0.73536521 1.18991704 -0.03324388
C  -1.38490605 -0.01786899 -0.00942752
H  -1.25900658 -2.09400878 0.02189089
H  1.30937705 -2.16275863 0.24418408
H  2.49227588 0.10366620 0.00412416
H  1.18713074 2.21719505 0.01736125
H  -1.26204259 2.14289570 -0.07429810
H  -2.52277689 -0.05667210 0.05688147
12
MD Step 1917 Units = [Angstroms]
C  -0.67952999 -1.19609283 0.00071525
C  0.71202547 -1.21705989 0.05586407
C  1.42575841 0.00378596 -0.04661669
C  0.66890905 1.22396195 0.01164585
C  -0.73773238 1.19090057 -0.03489516
C  -1.38639250 -0.02005419 -0.00994637
H  -1.26043336 -2.08345616 0.02153904
H  1.32518078 -2.16594462 0.24686348
H  2.48896852 0.09632685 0.00332596
H  1.17732679 2.22559798 0.02003634
H  -1.25470994 2.15214069 -0.07360277
H  -2.51253436 -0.05118601 0.05868348
12
MD Step 1918 Units = [Angstroms]
C  -0.67962667 -1.19540427 0.00246146
C  0.71196856 -1.21406851 0.05448404
C  1.42952999 -0.00039219 -0.04705909
C  0.66767404 1.22373408 0.01344055
C  -0.73974492 1.19206545 -0.03650372
C  -1.38828482 -0.02213421 -0.01046476
H  -1.26314558 -2.07668388 0.02130625
H  1.33853689 -2.16655024 0.24825765
H  2.48809778 0.08830031 0.00222509
H  1.16701313 2.23190051 0.02273256
H  -1.24823509 2.16167524 -0.07272217
H  -2.50033397 -0.04560647 0.05991362
12
MD Step 1919 Units = [Angstroms]
C  -0.67946911 -1.19477261 0.00427082
C  0.71230585 -1.21108428 0.05310467
C  1.43261925 -0.00427238 -0.04727485
C  0.66657352 1.22328328 0.01505460
C  -0.74138019 1.19340730 -0.03806347
C  -1.39049851 -0.02405694 -0.01098478
H  -1.26727015 -2.07407118 0.02122095
H  1.34895291 -2.16413580 0.24825259
H  2.49009262 0.07968986 0.00084004
H  1.15628174 2.23589872 0.02545429
H  -1.24260277 2.17115832 -0.07166927
H  -2.48725155 -0.04006157 0.06061120
12
MD Step 1920 Units = [Angstroms]
C  -0.67906702 -1.19420333 0.00613679
C  0.71305434 -1.20816590 0.05173758
C  1.43499882 -0.00779160 -0.04726613
C  0.66560511 1.22259368 0.01648136
C  -0.74262360 1.19492004 -0.03956853
C  -1.39293018 -0.02577680 -0.01150974
H  -1.27270460 -2.07562112 0.02130303
H  1.35611493 -2.15851267 0.24678790
H  2.49506094 0.07058522 -0.00082091
H  1.14529317 2.23753245 0.02820538
H  -1.23777118 2.18022645 -0.07045794
H  -2.47452366 -0.03467039 0.06083220
12
MD Step 1921 Units = [Angstroms]
C  -0.67845121 -1.19372280 0.00805309
C  0.71421088 -1.20535656 0.05039057
C  1.43667709 -0.01088962 -0.04703573
C  0.66476160 1.22164614 0.01771550
C  -0.74346819 1.19659428 -0.04101321
C  -1.39546528 -0.02725630 -0.01204369
H  -1.27912123 -2.08096971 0.02156549
H  1.35989189 -2.14974002 0.24385705
H  2.50276885 0.06106307 -0.00275977
H  1.13427150 2.23688610 0.03098951
H  -1.23368458 2.18852217 -0.06910383
H  -2.46345092 -0.02953765 0.06064347
12
MD Step 1922 Units = [Angstroms]
C  -0.67767018 -1.19337316 0.01001351
C  0.71575216 -1.20268370 0.04906764
C  1.43769541 -0.01350965 -0.04658723
C  0.66403211 1.22041857 0.01875301
C  -0.74391413 1.19841582 -0.04239202
C  -1.39798882 -0.02846682 -0.01259076
H  -1.28600904 -2.08944900 0.02201678
H  1.36033806 -2.13812098 0.23950674
H  2.51267074 0.05119254 -0.00498600
H  1.12349589 2.23418197 0.03381070
H  -1.23028455 2.19572097 -0.06762490
H  -2.45526554 -0.02475042 0.06011372
12
MD Step 1923 Units = [Angstroms]
C  -0.67678461 -1.19320468 0.01201176
C  0.71763500 -1.20015848 0.04776894
C  1.43812163 -0.01559964 -0.04592532
C  0.66340323 1.21888695 0.01959124
C  -0.74396840 1.20036432 -0.04369965
C  -1.40039818 -0.02938879 -0.01315420
H  -1.29274138 -2.10018608 0.02266300
H  1.35769477 -2.12419925 0.23383555
H  2.52398256 0.04104370 -0.00751162
H  1.11328842 2.22976522 0.03667364
H  -1.22751907 2.20155414 -0.06604166
H  -2.45097675 -0.02037784 0.05930227
12
MD Step 1924 Units = [Angstroms]
C  -0.67586090 -1.19326748 0.01404138
C  0.71979711 -1.19777518 0.04649086
C  1.43804146 -0.01711382 -0.04505610
C  0.66286039 1.21702713 0.02022892
C  -0.74364435 1.20241251 -0.04493107
C  -1.40261561 -0.03001104 -0.01373551
H  -1.29865234 -2.11221360 0.02350948
H  1.35238910 -2.10875261 0.22699121
H  2.53578040 0.03069629 -0.01034568
H  1.10399840 2.22407948 0.03958401
H  -1.22534932 2.20582641 -0.06437699
H  -2.45122273 -0.01647403 0.05824796
12
MD Step 1925 Units = [Angstroms]
C  -0.67496517 -1.19360436 0.01609568
C  0.72215853 -1.19551117 0.04522630
C  1.43754939 -0.01801458 -0.04398731
C  0.66238918 1.21481752 0.02066620
C  -0.74296132 1.20452581 -0.04608149
C  -1.40459730 -0.03032972 -0.01433380
H  -1.30310639 -2.12457067 0.02456158
H  1.34502419 -2.09277569 0.21916495
H  2.54710400 0.02024627 -0.01348963
H  1.09598277 2.21763217 0.04254838
H  -1.22375391 2.20842756 -0.06265578
H  -2.45616613 -0.01308271 0.05696150
12
MD Step 1926 Units = [Angstroms]
C  -0.67415831 -1.19424560 0.01816776
C  0.72462465 -1.19332855 0.04396532
C  1.43674058 -0.01827412 -0.04272835
C  0.66197685 1.21224252 0.02090467
C  -0.74194404 1.20666254 -0.04714655
C  -1.40633658 -0.03034717 -0.01494563
H  -1.30555222 -2.13638206 0.02582483
H  1.33635305 -2.07744094 0.21058068
H  2.55704846 0.00980904 -0.01693438
H  1.08958348 2.21095035 0.04557372
H  -1.22273087 2.20933800 -0.06090429
H  -2.46546385 -0.01024164 0.05542367
12
MD Step 1927 Units = [Angstroms]
C  -0.67349235 -1.19520589 0.02025062
C  0.72709113 -1.19117834 0.04269636
C  1.43570443 -0.01787619 -0.04129012
C  0.66161375 1.20929655 0.02094743
C  -0.74062193 1.20877474 -0.04812229
C  -1.40786041 -0.03007087 -0.01556537
H  -1.30555859 -2.14691295 0.02730474
H  1.32722729 -2.06402547 0.20147745
H  2.56483547 -0.00048071 -0.02065926
H  1.08510305 2.20452995 0.04866633
H  -1.22229744 2.20862830 -0.05914940
H  -2.47832069 -0.00798458 0.05359021
12
MD Step 1928 Units = [Angstroms]
C  -0.67300797 -1.19648305 0.02233719
C  0.72945137 -1.18900817 0.04140808
C  1.43451997 -0.01681752 -0.03968486
C  0.66129458 1.20598815 0.02079922
C  -0.73902832 1.21080949 -0.04900530
C  -1.40922043 -0.02951280 -0.01618599
H  -1.30283471 -2.15560290 0.02900648
H  1.31851603 -2.05379629 0.19208489
H  2.56986237 -0.01047194 -0.02463259
H  1.08278056 2.19878368 0.05183013
H  -1.22248779 2.20645284 -0.05741788
H  -2.49361034 -0.00634028 0.05140161
12
MD Step 1929 Units = [Angstroms]
C  -0.67273278 -1.19805790 0.02442042
C  0.73160589 -1.18677316 0.04009156
C  1.43325298 -0.01510900 -0.03792572
C  0.66101935 1.20234346 0.02046648
C  -0.73719960 1.21271072 -0.04979276
C  -1.41048138 -0.02868900 -0.01679998
H  -1.29723967 -2.16208495 0.03093456
H  1.31099994 -2.04785828 0.18259455
H  2.57173213 -0.02000208 -0.02881350
H  1.08277106 2.19399557 0.05506445
H  -1.22334853 2.20303765 -0.05573562
H  -2.51002964 -0.00532922 0.04879471
12
MD Step 1930 Units = [Angstroms]
C  -0.67268021 -1.19989477 0.02649335
C  0.73347219 -1.18444820 0.03874238
C  1.43195422 -0.01277652 -0.03602649
C  0.66079367 1.19840853 0.01995749
C  -0.73517451 1.21442144 -0.05048250
C  -1.41170979 -0.02761933 -0.01740019
H  -1.28878501 -2.16619566 0.03309273
H  1.30525889 -2.04698828 0.17313380
H  2.57026923 -0.02890293 -0.03315441
H  1.08513126 2.19028985 0.05836168
H  -1.22493231 2.19866276 -0.05412697
H  -2.52625011 -0.00495971 0.04571319
12
MD Step 1931 Units = [Angstroms]
C  -0.67284887 -1.20194222 0.02854916
C  0.73499272 -1.18203843 0.03736185
C  1.43065858 -0.00986115 -0.03400128
C  0.66062850 1.19424981 0.01928236
C  -0.73299351 1.21588628 -0.05107304
C  -1.41296495 -0.02632724 -0.01798039
H  -1.27763301 -2.16797968 0.03548396
H  1.30158250 -2.05149545 0.16375049
H  2.56552557 -0.03700736 -0.03760400
H  1.08981394 2.18762060 0.06170516
H  -1.22728924 2.19363992 -0.05261431
H  -2.54104188 -0.00522503 0.04211497
12
MD Step 1932 Units = [Angstroms]
C  -0.67322245 -1.20413407 0.03058114
C  0.73613847 -1.17958443 0.03595704
C  1.42938491 -0.00641880 -0.03186426
C  0.66053907 1.18995258 0.01845305
C  -0.73069848 1.21705405 -0.05156356
C  -1.41429275 -0.02483938 -0.01853560
H  -1.26409142 -2.16768990 0.03811071
H  1.29993214 -2.06115095 0.15441452
H  2.55777881 -0.04415642 -0.04211037
H  1.09667178 2.18578402 0.06506783
H  -1.23045696 2.18828685 -0.05121776
H  -2.55336048 -0.00610216 0.03797619
12
MD Step 1933 Units = [Angstroms]
C  -0.67377026 -1.20639060 0.03258277
C  0.73690734 -1.17716004 0.03453932
C  1.42813640 -0.00251912 -0.02962940
C  0.66054331 1.18561767 0.01748318
C  -0.72833252 1.21788043 -0.05195394
C  -1.41572229 -0.02318524 -0.01906222
H  -1.24860319 -2.16578100 0.04097524
H  1.29996709 -2.07521198 0.14503624
H  2.54752308 -0.05020653 -0.04662430
H  1.10547019 2.18445088 0.06841207
H  -1.23444980 2.18290042 -0.04995510
H  -2.56239945 -0.00755227 0.03329231
12
MD Step 1934 Units = [Angstroms]
C  -0.67444881 -1.20862060 0.03454760
C  0.73731817 -1.17486333 0.03312219
C  1.42690180 0.00175620 -0.02731029
C  0.66065990 1.18135669 0.01638782
C  -0.72593997 1.21833020 -0.05224465
C  -1.41726438 -0.02139657 -0.01955794
H  -1.23172846 -2.16289156 0.04408014
H  1.30112481 -2.09253325 0.13549543
H  2.53544947 -0.05503639 -0.05110243
H  1.11590672 2.18321256 0.07169066
H  -1.23924851 2.17773142 -0.04884196
H  -2.56761765 -0.00952250 0.02807712
12
MD Step 1935 Units = [Angstroms]
C  -0.67520457 -1.21072472 0.03646934
C  0.73740257 -1.17280353 0.03171896
C  1.42565753 0.00631556 -0.02491997
C  0.66090626 1.17728666 0.01518307
C  -0.72356632 1.21837913 -0.05243675
C  -1.41891117 -0.01950690 -0.02002163
H  -1.21411515 -2.15980800 0.04742883
H  1.30272762 -2.11173054 0.12567131
H  2.52241216 -0.05855269 -0.05550992
H  1.12763435 2.18163262 0.07484899
H  -1.24479183 2.17296428 -0.04789211
H  -2.56875109 -0.01194856 0.02236064
12
MD Step 1936 Units = [Angstroms]
C  -0.67597800 -1.21260070 0.03834179
C  0.73719725 -1.17108773 0.03034097
C  1.42437135 0.01105984 -0.02247080
C  0.66129668 1.17352458 0.01388568
C  -0.72125803 1.21801500 -0.05253180
C  -1.42063621 -0.01755095 -0.02045317
H  -1.19645596 -2.15740368 0.05102576
H  1.30408591 -2.13135166 0.11546594
H  2.50937570 -0.06069366 -0.05982219
H  1.14028563 2.17929630 0.07782791
H  -1.25097175 2.16870427 -0.04711776
H  -2.56581670 -0.01475793 0.01618618
12
MD Step 1937 Units = [Angstroms]
C  -0.67670886 -1.21415087 0.04015897
C  0.73673821 -1.16980981 0.02899661
C  1.42300744 0.01588478 -0.01997443
C  0.66184097 1.17018235 0.01251261
C  -0.71906202 1.21723798 -0.05253179
C  -1.42239489 -0.01556414 -0.02085321
H  -1.17943208 -2.15655046 0.05487615
H  1.30457773 -2.15001997 0.10481751
H  2.49734103 -0.06142923 -0.06402483
H  1.15349533 2.17585277 0.08056703
H  -1.25763336 2.16497419 -0.04652991
H  -2.55911165 -0.01787342 0.00960708
12
MD Step 1938 Units = [Angstroms]
C  -0.67734214 -1.21529138 0.04191526
C  0.73605747 -1.16904319 0.02769105
C  1.42153295 0.02068328 -0.01744194
C  0.66254346 1.16736232 0.01108059
C  -0.71702468 1.21606009 -0.05243913
C  -1.42412508 -0.01358198 -0.02122292
H  -1.16364980 -2.15800827 0.05898479
H  1.30369878 -2.16653520 0.09370447
H  2.48725266 -0.06075723 -0.06811126
H  1.16692025 2.17104747 0.08300799
H  -1.26458022 2.16172052 -0.04613843
H  -2.54920745 -0.02121717 0.00268278
12
MD Step 1939 Units = [Angstroms]
C  -0.67783361 -1.21596178 0.04360564
C  0.73518168 -1.16883687 0.02642645
C  1.41992519 0.02534744 -0.01488417
C  0.66340255 1.16515354 0.00960571
C  -0.71519066 1.21450399 -0.05225659
C  -1.42574858 -0.01163959 -0.02156371
H  -1.14958085 -2.16230939 0.06335368
H  1.30108669 -2.17993309 0.08214304
H  2.47989660 -0.05869623 -0.07207762
H  1.18025540 2.16474400 0.08509742
H  -1.27158456 2.15882810 -0.04595218
H  -2.53693425 -0.02471480 -0.00452549
12
MD Step 1940 Units = [Angstroms]
C  -0.67815406 -1.21613305 0.04522606
C  0.73413200 -1.16921406 0.02520241
C  1.41817822 0.02977069 -0.01231215
C  0.66441076 1.16362875 0.00810310
C  -0.71360120 1.21260138 -0.05198733
C  -1.42717386 -0.00977117 -0.02187687
H  -1.13752011 -2.16966250 0.06797881
H  1.29652851 -2.18951466 0.07018123
H  2.47580539 -0.05527667 -0.07591579
H  1.19324659 2.15693651 0.08678960
H  -1.27840144 2.15614041 -0.04597882
H  -2.52334675 -0.02829969 -0.01195967
12
MD Step 1941 Units = [Angstroms]
C  -0.67829109 -1.21581166 0.04677377
C  0.73292453 -1.17017221 0.02401657
C  1.41630716 0.03384997 -0.00973764
C  0.66555504 1.16284190 0.00658664
C  -0.71229234 1.21039099 -0.05163480
C  -1.42830118 -0.00800956 -0.02216318
H  -1.12757130 -2.17990280 0.07284667
H  1.28995951 -2.19485792 0.05789138
H  2.47518995 -0.05053333 -0.07960562
H  1.20569956 2.14775353 0.08804841
H  -1.28478508 2.15348281 -0.04622461
H  -2.50966214 -0.03191646 -0.01956972
12
MD Step 1942 Units = [Angstroms]
C  -0.67824845 -1.21503858 0.04824757
C  0.73157066 -1.17168362 0.02286513
C  1.41434915 0.03748838 -0.00717349
C  0.66681747 1.16282637 0.00506880
C  -0.71129320 1.20791669 -0.05120283
C  -1.42903045 -0.00638590 -0.02242265
H  -1.11966362 -2.19250311 0.07793148
H  1.28145938 -2.19582214 0.04536245
H  2.47791443 -0.04450189 -0.08310884
H  1.21748553 2.13745431 0.08884880
H  -1.29050557 2.15068555 -0.04669425
H  -2.49716235 -0.03552286 -0.02731770
12
MD Step 1943 Units = [Angstroms]
C  -0.67804329 -1.21388342 0.04964801
C  0.73007723 -1.17369615 0.02174342
C  1.41236042 0.04059827 -0.00463384
C  0.66817614 1.16359382 0.00356050
C  -0.71062432 1.20522562 -0.05069558
C  -1.42927191 -0.00492967 -0.02265435
H  -1.11359277 -2.20664331 0.08319416
H  1.27124884 -2.19255079 0.03269214
H  2.48352018 -0.03722089 -0.08636624
H  1.22854320 2.12641767 0.08917751
H  -1.29536423 2.14760430 -0.04739067
H  -2.48706159 -0.03908880 -0.03517946
12
MD Step 1944 Units = [Angstroms]
C  -0.67770246 -1.21243522 0.05097725
C  0.72844644 -1.17613401 0.02064648
C  1.41041002 0.04310464 -0.00213388
C  0.66960624 1.16513387 0.00207114
C  -0.71029635 1.20236664 -0.05011753
C  -1.42895846 -0.00366881 -0.02285655
H  -1.10907414 -2.22131855 0.08858335
H  1.25968692 -2.18547420 0.01997888
H  2.49129255 -0.02873839 -0.08929915
H  1.23887620 2.11512328 0.08903284
H  -1.29920652 2.14413678 -0.04831499
H  -2.48035359 -0.04259209 -0.04314261
12
MD Step 1945 Units = [Angstroms]
C  -0.67725864 -1.21079230 0.05223890
C  0.72667560 -1.17889869 0.01956967
C  1.40857179 0.04494854 0.00031056
C  0.67108143 1.16741475 0.00060873
C  -0.71030906 1.19938900 -0.04947350
C  -1.42805714 -0.00263026 -0.02302725
H  -1.10579498 -2.23545931 0.09403828
H  1.24726670 -2.17530852 0.00731337
H  2.50035410 -0.01912084 -0.09181485
H  1.24854543 2.10412455 0.08842360
H  -1.30193153 2.14023457 -0.04946657
H  -2.47766793 -0.04601134 -0.05120007
12
MD Step 1946 Units = [Angstroms]
C  -0.67674729 -1.20905311 0.05343764
C  0.72475725 -1.18187097 0.01850931
C  1.40691610 0.04608995 0.00268369
C  0.67257528 1.17038505 -0.00081991
C  -0.71065082 1.19634134 -0.04876859
C  -1.42657680 -0.00184043 -0.02316494
H  -1.10345710 -2.24803997 0.09949281
H  1.23460494 -2.16304183 -0.00523032
H  2.50976501 -0.00846133 -0.09381436
H  1.25765514 2.09401323 0.08736678
H  -1.30349776 2.13590989 -0.05084321
H  -2.47917165 -0.04931822 -0.05934049
12
MD Step 1947 Units = [Angstroms]
C  -0.67620415 -1.20730914 0.05457887
C  0.72268020 -1.18491490 0.01746337
C  1.40550280 0.04650978 0.00497038
C  0.67406309 1.17397675 -0.00220878
C  -0.71129852 1.19327095 -0.04800819
C  -1.42456965 -0.00132536 -0.02326936
H  -1.10180633 -2.25816253 0.10487977
H  1.22241896 -2.14989460 -0.01760308
H  2.51861439 0.00311510 -0.09520095
H  1.26633276 2.08537646 0.08588429
H  -1.30392495 2.13123739 -0.05244139
H  -2.48454513 -0.05247177 -0.06753794
12
MD Step 1948 Units = [Angstroms]
C  -0.67566367 -1.20564019 0.05566830
C  0.72043194 -1.18788496 0.01643188
C  1.40437607 0.04621080 0.00715678
C  0.67552369 1.17810916 -0.00355229
C  -0.71221803 1.19022326 -0.04719792
C  -1.42212592 -0.00111047 -0.02334212
H  -1.10065005 -2.26511275 0.11013505
H  1.21148371 -2.13723986 -0.02978663
H  2.52609308 0.01545001 -0.09588792
H  1.27470321 2.07874927 0.08399884
H  -1.30329195 2.12635091 -0.05425668
H  -2.49303959 -0.05541720 -0.07574451
12
MD Step 1949 Units = [Angstroms]
C  -0.67515762 -1.20411171 0.05671167
C  0.71800314 -1.19063708 0.01541698
C  1.40356138 0.04521731 0.00923076
C  0.67694121 1.18269375 -0.00484482
C  -0.71336512 1.18724154 -0.04634360
C  -1.41936333 -0.00121954 -0.02338686
H  -1.09986562 -2.26839297 0.11520117
H  1.20256482 -2.12647416 -0.04179388
H  2.53154568 0.02835380 -0.09580467
H  1.28286055 2.07456708 0.08172968
H  -1.30173072 2.12143541 -0.05628400
H  -2.50359823 -0.05808943 -0.08388800
12
MD Step 1950 Units = [Angstroms]
C  -0.67471407 -1.20277338 0.05771438
C  0.71539377 -1.19304310 0.01442233
C  1.40306422 0.04357363 0.01118218
C  0.67830648 1.18763897 -0.00608041
C  -0.71468705 1.18436672 -0.04545121
C  -1.41641401 -0.00167335 -0.02340901
H  -1.09940346 -2.26773862 0.12003027
H  1.19633028 -2.11884560 -0.05366066
H  2.53450366 0.04161089 -0.09490108
H  1.29084106 2.07312472 0.07908882
H  -1.29941658 2.11671402 -0.05851795
H  -2.51500701 -0.06042030 -0.09187502
12
MD Step 1951 Units = [Angstroms]
C  -0.67435632 -1.20165859 0.05868124
C  0.71261992 -1.19500622 0.01345168
C  1.40287028 0.04134161 0.01300313
C  0.67961778 1.19285476 -0.00725243
C  -0.71612448 1.18163740 -0.04452683
C  -1.41341184 -0.00248787 -0.02341524
H  -1.09928723 -2.26312475 0.12458672
H  1.19325456 -2.11526699 -0.06542798
H  2.53470380 0.05498702 -0.09315002
H  1.29860282 2.07454832 0.07607873
H  -1.29655526 2.11243074 -0.06095296
H  -2.52604039 -0.06234668 -0.09959819
12
MD Step 1952 Units = [Angstroms]
C  -0.67410185 -1.20078426 0.05961614
C  0.70971942 -1.19647372 0.01250704
C  1.40294644 0.03859744 0.01468789
C  0.68088055 1.19825597 -0.00835365
C  -0.71761396 1.17909000 -0.04357661
C  -1.41048207 -0.00367253 -0.02341282
H  -1.09961290 -2.25476660 0.12884938
H  1.19353826 -2.11616199 -0.07711772
H  2.53209593 0.06823783 -0.09054847
H  1.30601638 2.07878488 0.07269198
H  -1.29336732 2.10882952 -0.06358314
H  -2.53557905 -0.06381780 -0.10694502
12
MD Step 1953 Units = [Angstroms]
C  -0.67396148 -1.20015091 0.06052184
C  0.70675407 -1.19744278 0.01158681
C  1.40324252 0.03542793 0.01623302
C  0.68210614 1.20376452 -0.00937633
C  -0.71909049 1.17675893 -0.04260676
C  -1.40773397 -0.00522858 -0.02340893
H  -1.10054675 -2.24311486 0.13281355
H  1.19706806 -2.12139242 -0.08870906
H  2.52684214 0.08111839 -0.08711735
H  1.31286872 2.08561114 0.06891303
H  -1.29007128 2.10613115 -0.06640198
H  -2.54269134 -0.06480019 -0.11380663
12
MD Step 1954 Units = [Angstroms]
C  -0.67393862 -1.19974327 0.06139971
C  0.70380747 -1.19795762 0.01068480
C  1.40369341 0.03192672 0.01763717
C  0.68330958 1.20931021 -0.01031260
C  -0.72049029 1.17467691 -0.04162352
C  -1.40525609 -0.00714782 -0.02341022
H  -1.10232156 -2.22884303 0.13649232
H  1.20343120 -2.13029222 -0.10012402
H  2.51930814 0.09339305 -0.08290008
H  1.31888028 2.09465973 0.06472180
H  -1.28686686 2.10451028 -0.06940163
H  -2.54668203 -0.06528033 -0.12008524
12
MD Step 1955 Units = [Angstroms]
C  -0.67402906 -1.19953172 0.06224966
C  0.70097865 -1.19809882 0.00979027
C  1.40422189 0.02819064 0.01890096
C  0.68450681 1.21483044 -0.01115489
C  -0.72175319 1.17287512 -0.04063327
C  -1.40311360 -0.00941171 -0.02342231
H  -1.10522856 -2.21282140 0.13991698
H  1.21198006 -2.14179492 -0.11122735
H  2.51004487 0.10484507 -0.07795987
H  1.32373151 2.10545750 0.06009819
H  -1.28392033 2.10407520 -0.07257196
H  -2.54711726 -0.06526528 -0.12570009
12
MD Step 1956 Units = [Angstroms]
C  -0.67422138 -1.19947532 0.06307015
C  0.69837315 -1.19796868 0.00888921
C  1.40474213 0.02431637 0.02002670
C  0.68571178 1.22026918 -0.01189642
C  -0.72282478 1.17138323 -0.03964247
C  -1.40134685 -0.01199106 -0.02344951
H  -1.10960217 -2.19607051 0.14313546
H  1.22192655 -2.15461169 -0.12183973
H  2.49975773 0.11528514 -0.07237547
H  1.32709443 2.11746971 0.05502669
H  -1.28135344 2.10485317 -0.07589951
H  -2.54383495 -0.06478173 -0.13059211
12
MD Step 1957 Units = [Angstroms]
C  -0.67449833 -1.19952677 0.06385846
C  0.69609380 -1.19767658 0.00796610
C  1.40516423 0.02039777 0.02101802
C  0.68693391 1.22557571 -0.01253155
C  -0.72365792 1.17022906 -0.03865777
C  -1.39997068 -0.01484622 -0.02349454
H  -1.11579390 -2.17968834 0.14620825
H  1.23244055 -2.16740965 -0.13175887
H  2.48925995 0.12455735 -0.06623546
H  1.32866407 2.13014414 0.04950027
H  -1.27923750 2.10678375 -0.07936642
H  -2.53694745 -0.06387406 -0.13472756
12
MD Step 1958 Units = [Angstroms]
C  -0.67483932 -1.19963962 0.06461122
C  0.69423284 -1.19732740 0.00700578
C  1.40539986 0.01652397 0.02187938
C  0.68817615 1.23070316 -0.01305621
C  -0.72421369 1.16943798 -0.03768602
C  -1.39897416 -0.01792792 -0.02355820
H  -1.12413349 -2.16475050 0.14920106
H  1.24273264 -2.17895458 -0.14078172
H  2.47940884 0.13254132 -0.05963124
H  1.32818608 2.14295069 0.04352313
H  -1.27759300 2.10972128 -0.08294969
H  -2.52683914 -0.06260154 -0.13810100
12
MD Step 1959 Units = [Angstroms]
C  -0.67522409 -1.19977684 0.06532516
C  0.69286617 -1.19701391 0.00599502
C  1.40536889 0.01277826 0.02261555
C  0.68943390 1.23560731 -0.01346797
C  -0.72446174 1.16903186 -0.03673428
C  -1.39832105 -0.02117866 -0.02363920
H  -1.13487856 -2.15219239 0.15217451
H  1.25211229 -2.18820518 -0.14872294
H  2.47102694 0.13914929 -0.05264961
H  1.32547838 2.15541420 0.03711202
H  -1.27639446 2.11344622 -0.08662081
H  -2.51415768 -0.06103470 -0.14073719
12
MD Step 1960 Units = [Angstroms]
C  -0.67563698 -1.19991933 0.06599801
C  0.69204980 -1.19681269 0.00492353
C  1.40500643 0.00923781 0.02323115
C  0.69069472 1.24024552 -0.01376621
C  -0.72438027 1.16902786 -0.03580975
C  -1.39795116 -0.02453466 -0.02373396
H  -1.14815929 -2.14269303 0.15517241
H  1.26002267 -2.19436372 -0.15542806
H  2.46481550 0.14431848 -0.04536601
H  1.32044594 2.16713949 0.03029638
H  -1.27557952 2.11768405 -0.09034605
H  -2.49979376 -0.05925083 -0.14269154
12
MD Step 1961 Units = [Angstroms]
C  -0.67607095 -1.20007212 0.06662922
C  0.69181797 -1.19678240 0.00378466
C  1.40426920 0.00597397 0.02373029
C  0.69193875 1.24457595 -0.01395207
C  -0.72395567 1.16943700 -0.03491975
C  -1.39778350 -0.02792810 -0.02383665
H  -1.16392998 -2.13658725 0.15821110
H  1.26605815 -2.19689655 -0.16078160
H  2.46127300 0.14800012 -0.03784008
H  1.31308912 2.17782918 0.02311727
H  -1.27506075 2.12212885 -0.09408728
H  -2.48484074 -0.05732866 -0.14404787
12
MD Step 1962 Units = [Angstroms]
C  -0.67653027 -1.20026644 0.06722043
C  0.69218256 -1.19696312 0.00257570
C  1.40314019 0.00305268 0.02411651
C  0.69313972 1.24855705 -0.01402826
C  -0.72318211 1.17026287 -0.03407153
C  -1.39772181 -0.03128964 -0.02393951
H  -1.18194082 -2.13383016 0.16127305
H  1.26997167 -2.19553861 -0.16471189
H  2.46063398 0.15014864 -0.03011455
H  1.30350602 2.18729469 0.01562553
H  -1.27473841 2.12646882 -0.09780330
H  -2.47052532 -0.05534243 -0.14491230
12
MD Step 1963 Units = [Angstroms]
C  -0.67703099 -1.20055668 0.06777537
C  0.69313317 -1.19737594 0.00129812
C  1.40163037 0.00053474 0.02439300
C  0.69426635 1.25214735 -0.01399895
C  -0.72206107 1.17150038 -0.03327222
C  -1.39766294 -0.03455080 -0.02403358
H  -1.20173994 -2.13402381 0.16430644
H  1.27167798 -2.19029212 -0.16719383
H  2.46284120 0.15071458 -0.02221793
H  1.29188966 2.19546096 0.00787931
H  -1.27451287 2.13041090 -0.10145165
H  -2.45810344 -0.05335626 -0.14540226
12
MD Step 1964 Units = [Angstroms]
C  -0.67759900 -1.20101323 0.06829928
C  0.69463758 -1.19802232 -0.00004236
C  1.39977717 -0.00152458 0.02456296
C  0.69528411 1.25530565 -0.01386944
C  -0.72060105 1.17313489 -0.03252861
C  -1.39750802 -0.03764612 -0.02410986
H  -1.22270671 -2.13649755 0.16723113
H  1.27125587 -2.18142539 -0.16825087
H  2.46755730 0.14964390 -0.01417013
H  1.27852001 2.20236469 -0.00005888
H  -1.27429561 2.13370239 -0.10499044
H  -2.44872493 -0.05141967 -0.14563086
12
MD Step 1965 Units = [Angstroms]
C  -0.67826633 -1.20171298 0.06879800
C  0.69664256 -1.19888316 -0.00143564
C  1.39763988 -0.00307656 0.02463017
C  0.69615714 1.25799183 -0.01364598
C  -0.71881726 1.17514161 -0.03184705
C  -1.39717468 -0.04051483 -0.02416063
H  -1.24410858 -2.14041893 0.16994903
H  1.26895030 -2.16947212 -0.16795621
H  2.47421274 0.14688405 -0.00598938
H  1.26375127 2.20814560 -0.00812514
H  -1.27401803 2.13614817 -0.10838036
H  -2.44328406 -0.04956577 -0.14568876
12
MD Step 1966 Units = [Angstroms]
C  -0.67906651 -1.20272975 0.06927698
C  0.69907499 -1.19991807 -0.00286730
C  1.39529311 -0.00408067 0.02459940
C  0.69685042 1.26016812 -0.01333541
C  -0.71673147 1.17748550 -0.03123325
C  -1.39660820 -0.04310199 -0.02418080
H  -1.26516802 -2.14490821 0.17235607
H  1.26517194 -2.15522726 -0.16643263
H  2.48207855 0.14239513 0.00230136
H  1.24799414 2.21302978 -0.01625713
H  -1.27363794 2.13762280 -0.11158642
H  -2.44228646 -0.04781240 -0.14562749
12
MD Step 1967 Units = [Angstroms]
C  -0.68003019 -1.20412642 0.06974030
C  0.70184364 -1.20106542 -0.00431885
C  1.39281940 -0.00450644 0.02447665
C  0.69733203 1.26180117 -0.01294501
C  -0.71437175 1.18012159 -0.03069219
C  -1.39578846 -0.04535906 -0.02416872
H  -1.28512632 -2.14913591 0.17435340
H  1.26048920 -2.13973046 -0.16384933
H  2.49034931 0.13616259 0.01066986
H  1.23169371 2.21730452 -0.02439642
H  -1.27314341 2.13807729 -0.11457945
H  -2.44576689 -0.04616586 -0.14544897
12
MD Step 1968 Units = [Angstroms]
C  -0.68118151 -1.20594939 0.07019007
C  0.70484226 -1.20224464 -0.00576838
C  1.39030228 -0.00433533 0.02426922
C  0.69757538 1.26286470 -0.01248233
C  -0.71177218 1.18299578 -0.03022799
C  -1.39473091 -0.04724432 -0.02412627
H  -1.30329593 -2.15239380 0.17585597
H  1.25560483 -2.12422424 -0.16041353
H  2.49822260 0.12820852 0.01907280
H  1.21530397 2.22128506 -0.03248995
H  -1.27255408 2.13754042 -0.11733718
H  -2.45328228 -0.04462583 -0.14510481
12
MD Step 1969 Units = [Angstroms]
C  -0.68253545 -1.20822541 0.07062595
C  0.70795447 -1.20336170 -0.00719185
C  1.38782042 -0.00356231 0.02398558
C  0.69756137 1.26334256 -0.01195510
C  -0.70897247 1.18604626 -0.02984383
C  -1.39348123 -0.04872307 -0.02405814
H  -1.31909814 -2.15413922 0.17679840
H  1.25130866 -2.11007304 -0.15635469
H  2.50496597 0.11859929 0.02745615
H  1.19926100 2.22527543 -0.04049030
H  -1.27191976 2.13611492 -0.11984484
H  -2.46398220 -0.04318949 -0.14450545
12
MD Step 1970 Units = [Angstroms]
C  -0.68409610 -1.21096023 0.07104497
C  0.71106096 -1.20431879 -0.00856500
C  1.38544336 -0.00219692 0.02363499
C  0.69728017 1.26323189 -0.01137131
C  -0.70601750 1.18920527 -0.02954193
C  -1.39210551 -0.04976796 -0.02397060
H  -1.33208765 -2.15401858 0.17713833
H  1.24840108 -2.09863485 -0.15190063
H  2.50996771 0.10744873 0.03575758
H  1.18395771 2.22952742 -0.04835447
H  -1.27131647 2.13396843 -0.12209515
H  -2.47673578 -0.04185363 -0.14353630
12
MD Step 1971 Units = [Angstroms]
C  -0.68585549 -1.21413830 0.07144150
C  0.71404866 -1.20502763 -0.00986580
C  1.38322847 -0.00026385 0.02322718
C  0.69673232 1.26254585 -0.01073938
C  -0.70295677 1.19240139 -0.02932357
C  -1.39067876 -0.05035936 -0.02387006
H  -1.34196729 -2.15187713 0.17685787
H  1.24759097 -2.09109210 -0.14724824
H  2.51277173 0.09491715 0.04390984
H  1.16972323 2.23420359 -0.05604143
H  -1.27083971 2.13131976 -0.12408775
H  -2.49028097 -0.04061478 -0.14207618
12
MD Step 1972 Units = [Angstroms]
C  -0.68779291 -1.21772319 0.07180730
C  0.71682046 -1.20542416 -0.01107684
C  1.38121930 0.00219717 0.02277195
C  0.69592921 1.26131530 -0.01006831
C  -0.69984393 1.19556217 -0.02918917
C  -1.38927423 -0.05048582 -0.02376188
H  -1.34859662 -2.14776081 0.17596403
H  1.24938500 -2.08827005 -0.14253503
H  2.51309885 0.08120699 0.05184475
H  1.15680987 2.23935065 -0.06350897
H  -1.27059524 2.12842080 -0.12582787
H  -2.50336424 -0.03946777 -0.14001363
12
MD Step 1973 Units = [Angstroms]
C  -0.68987445 -1.22165832 0.07213167
C  0.71930333 -1.20548077 -0.01218691
C  1.37944466 0.00513209 0.02227880
C  0.69489251 1.25958918 -0.00936786
C  -0.69673627 1.19861687 -0.02913842
C  -1.38795530 -0.05014433 -0.02364944
H  -1.35199635 -2.14191367 0.17448823
H  1.25399651 -2.09048942 -0.13782053
H  2.51085764 0.06655590 0.05949723
H  1.14538872 2.24488818 -0.07071062
H  -1.27068780 2.12553531 -0.12732460
H  -2.51485085 -0.03840398 -0.13725875
12
MD Step 1974 Units = [Angstroms]
C  -0.69205300 -1.22586792 0.07240172
C  0.72145235 -1.20521214 -0.01319135
C  1.37791853 0.00847395 0.02175659
C  0.69365296 1.25743313 -0.00864868
C  -0.69369425 1.20149926 -0.02917047
C  -1.38677025 -0.04934048 -0.02353371
H  -1.35234918 -2.13477114 0.17248521
H  1.26130281 -2.09750054 -0.13308434
H  2.50614649 0.05122790 0.06680920
H  1.13555402 2.25061493 -0.07759338
H  -1.27120865 2.12291614 -0.12858863
H  -2.52379978 -0.03740976 -0.13375008
12
MD Step 1975 Units = [Angstroms]
C  -0.69426878 -1.23025863 0.07260270
C  0.72324960 -1.20467254 -0.01409089
C  1.37664049 0.01214488 0.02121333
C  0.69224850 1.25492671 -0.00792225
C  -0.69078099 1.20415025 -0.02928418
C  -1.38574964 -0.04808843 -0.02341315
H  -1.34999505 -2.12694674 0.17003081
H  1.27086581 -2.10852287 -0.12824193
H  2.49924777 0.03550331 0.07373298
H  1.12733423 2.25623132 -0.08409707
H  -1.27222305 2.12078304 -0.12962989
H  -2.52950797 -0.03646563 -0.12945723
12
MD Step 1976 Units = [Angstroms]
C  -0.69645087 -1.23472197 0.07271845
C  0.72469856 -1.20394589 -0.01488956
C  1.37559674 0.01605869 0.02065597
C  0.69072202 1.25215941 -0.00720067
C  -0.68806163 1.20652007 -0.02947824
C  -1.38490530 -0.04641059 -0.02328376
H  -1.34541681 -2.11920713 0.16721837
H  1.28200809 -2.12237663 -0.12317216
H  2.49061297 0.01966777 0.08023407
H  1.12070714 2.26137367 -0.09015527
H  -1.27375940 2.11930355 -0.13045538
H  -2.53153257 -0.03554621 -0.12438063
12
MD Step 1977 Units = [Angstroms]
C  -0.69852001 -1.23913841 0.07273209
C  0.72581621 -1.20313166 -0.01559242
C  1.37476191 0.02012375 0.02009030
C  0.68911913 1.24922600 -0.00649640
C  -0.68560233 1.20856991 -0.02975139
C  -1.38423051 -0.04433717 -0.02313932
H  -1.33921128 -2.11242916 0.16415302
H  1.29391878 -2.13766335 -0.11774712
H  2.48083716 0.00400121 0.08629293
H  1.11561646 2.26565426 -0.09569784
H  -1.27580163 2.11857940 -0.13106758
H  -2.52970001 -0.03462091 -0.11854951
12
MD Step 1978 Units = [Angstroms]
C  -0.70039310 -1.24338343 0.07262688
C  0.72662513 -1.20233104 -0.01620372
C  1.37410171 0.02424605 0.01952095
C  0.68748596 1.24622184 -0.00582186
C  -0.68346899 1.21027280 -0.03010252
C  -1.38370053 -0.04190557 -0.02297173
H  -1.33204130 -2.10753341 0.16094345
H  1.30575954 -2.15294595 -0.11185633
H  2.47062049 -0.01123232 0.09190520
H  1.11198738 2.26870129 -0.10065444
H  -1.27828616 2.11864010 -0.13146356
H  -2.52410792 -0.03365529 -0.11201877
12
MD Step 1979 Units = [Angstroms]
C  -0.70198936 -1.24733575 0.07238720
C  0.72714747 -1.20163585 -0.01672585
C  1.37357658 0.02833212 0.01895148
C  0.68586725 1.24323838 -0.00518899
C  -0.68172549 1.21161380 -0.03053063
C  -1.38327351 -0.03915959 -0.02277135
H  -1.32456810 -2.10539291 0.15769154
H  1.31674953 -2.16689286 -0.10542152
H  2.46071603 -0.02579257 0.09708020
H  1.10973991 2.27019438 -0.10495842
H  -1.28110415 2.11944438 -0.13163513
H  -2.51512243 -0.03261301 -0.10486520
12
MD Step 1980 Units = [Angstroms]
C  -0.70323747 -1.25088704 0.07199971
C  0.72740130 -1.20112154 -0.01715889
C  1.37314620 0.03229149 0.01838471
C  0.68430475 1.24035933 -0.00460896
C  -0.68043156 1.21258946 -0.03103484
C  -1.38289171 -0.03614864 -0.02252745
H  -1.31737081 -2.10672449 0.15448108
H  1.32622169 -2.17837363 -0.09840227
H  2.45186559 -0.03946731 0.10183719
H  1.10879944 2.26989284 -0.10855068
H  -1.28410902 2.12088911 -0.13156989
H  -2.50336903 -0.03145836 -0.09718271
12
MD Step 1981 Units = [Angstroms]
C  -0.70408271 -1.25395179 0.07145421
C  0.72739891 -1.20084347 -0.01750079
C  1.37277453 0.03603878 0.01782307
C  0.68283585 1.23765750 -0.00409174
C  -0.67964039 1.21320680 -0.03161420
C  -1.38248357 -0.03292671 -0.02222867
H  -1.31086729 -2.11197984 0.15136769
H  1.33365335 -2.18651073 -0.09079524
H  2.44472910 -0.05207223 0.10619976
H  1.10910442 2.26765590 -0.11138293
H  -1.28712818 2.12282397 -0.13125296
H  -2.48971200 -0.03015916 -0.08907660
12
MD Step 1982 Units = [Angstroms]
C  -0.70449222 -1.25647511 0.07074435
C  0.72714661 -1.20083572 -0.01774765
C  1.37243453 0.03949505 0.01726909
C  0.68149259 1.23519231 -0.00364592
C  -0.67939614 1.21348184 -0.03226758
C  -1.38196719 -0.02955140 -0.02186372
H  -1.30525608 -2.12126116 0.14837263
H  1.33867929 -2.19070108 -0.08262974
H  2.43981675 -0.06344642 0.11018893
H  1.11061152 2.26345484 -0.11342031
H  -1.28997760 2.12506987 -0.13066912
H  -2.47521417 -0.02868996 -0.08065646
12
MD Step 1983 Units = [Angstroms]
C  -0.70445730 -1.25843662 0.06986774
C  0.72664516 -1.20111106 -0.01789421
C  1.37211188 0.04258885 0.01672589
C  0.68030082 1.23300819 -0.00327856
C  -0.67973157 1.21343810 -0.03299349
C  -1.38125597 -0.02608281 -0.02142208
H  -1.30049622 -2.13428461 0.14548219
H  1.34109544 -2.19062111 -0.07396182
H  2.43743508 -0.07344534 0.11381636
H  1.11329850 2.25737757 -0.11464298
H  -1.29247729 2.12743843 -0.12980509
H  -2.46106864 -0.02703493 -0.07202802
12
MD Step 1984 Units = [Angstroms]
C  -0.70399199 -1.25984934 0.06882555
C  0.72589030 -1.20166128 -0.01793432
C  1.37180679 0.04525701 0.01619755
C  0.67927973 1.23113366 -0.00299507
C  -0.68066597 1.21310501 -0.03378990
C  -1.38026680 -0.02258254 -0.02089471
H  -1.29633096 -2.15040344 0.14265309
H  1.34085965 -2.18622588 -0.06486805
H  2.43765721 -0.08193377 0.11707900
H  1.11716484 2.24962581 -0.11504689
H  -1.29446618 2.12975073 -0.12865152
H  -2.44849733 -0.02519000 -0.06328476
12
MD Step 1985 Units = [Angstroms]
C  -0.70312875 -1.26075393 0.06762182
C  0.72487319 -1.20245765 -0.01786132
C  1.37153355 0.04744551 0.01568919
C  0.67844166 1.22958115 -0.00279929
C  -0.68220361 1.21251651 -0.03465419
C  -1.37893053 -0.01911272 -0.02027472
H  -1.29234773 -2.16868556 0.13982206
H  1.33809303 -2.17774787 -0.05543930
H  2.44032270 -0.08878154 0.11995653
H  1.12223014 2.24050493 -0.11464341
H  -1.29581486 2.13185351 -0.12720455
H  -2.43862059 -0.02316373 -0.05450083
12
MD Step 1986 Units = [Angstroms]
C  -0.70191264 -1.26121006 0.06626254
C  0.72358056 -1.20345112 -0.01766856
C  1.37131794 0.04911053 0.01520686
C  0.67779218 1.22834777 -0.00269356
C  -0.68433275 1.21170981 -0.03558300
C  -1.37720328 -0.01573526 -0.01955776
H  -1.28805625 -2.18802481 0.13691716
H  1.33308209 -2.16569624 -0.04577442
H  2.44506616 -0.09386399 0.12241210
H  1.12852978 2.23040613 -0.11345777
H  -1.29643540 2.13363198 -0.12546686
H  -2.43231455 -0.02097657 -0.04572737
12
MD Step 1987 Units = [Angstroms]
C  -0.70039557 -1.26128701 0.06475481
C  0.72199484 -1.20457297 -0.01734989
C  1.37119302 0.05021975 0.01475722
C  0.67733068 1.22741685 -0.00267901
C  -0.68702526 1.21072440 -0.03657226
C  -1.37507623 -0.01251116 -0.01874193
H  -1.28296560 -2.20726040 0.13386819
H  1.32627946 -2.15085224 -0.03597341
H  2.45136770 -0.09706724 0.12439604
H  1.13610748 2.21978059 -0.11152652
H  -1.29628770 2.13501855 -0.12344808
H  -2.43008544 -0.01865874 -0.03699354
12
MD Step 1988 Units = [Angstroms]
C  -0.69863163 -1.26105522 0.06310620
C  0.72009468 -1.20573633 -0.01690018
C  1.37119430 0.05075358 0.01434699
C  0.67705126 1.22676037 -0.00275580
C  -0.69023700 1.20960124 -0.03761716
C  -1.37258132 -0.00949995 -0.01782734
H  -1.27664621 -2.22528278 0.13061449
H  1.31829719 -2.13425206 -0.02613001
H  2.45861505 -0.09829686 0.12585161
H  1.14500440 2.20910624 -0.10889384
H  -1.29538216 2.13599753 -0.12116469
H  -2.43199307 -0.01624748 -0.02831249
12
MD Step 1989 Units = [Angstroms]
C  -0.69667395 -1.26057996 0.06132433
C  0.71785659 -1.20683964 -0.01631597
C  1.37135498 0.05070622 0.01398239
C  0.67694411 1.22634219 -0.00292351
C  -0.69390875 1.20838209 -0.03871225
C  -1.36979086 -0.00675908 -0.01681543
H  -1.26877157 -2.24111464 0.12710989
H  1.30988454 -2.11714424 -0.01632380
H  2.46616686 -0.09748793 0.12672156
H  1.15524498 2.19884876 -0.10560727
H  -1.29377874 2.13660550 -0.11863931
H  -2.43764585 -0.01378451 -0.01969039
12
MD Step 1990 Units = [Angstroms]
C  -0.69457288 -1.25991703 0.05941661
C  0.71525847 -1.20777323 -0.01559595
C  1.37170195 0.05008615 0.01366862
C  0.67699708 1.22612163 -0.00318149
C  -0.69796785 1.20710901 -0.03985149
C  -1.36681106 -0.00434306 -0.01570817
H  -1.25914114 -2.25396535 0.12332494
H  1.30188058 -2.10090855 -0.00661333
H  2.47340946 -0.09461401 0.12695435
H  1.16682033 2.18942040 -0.10171334
H  -1.29158250 2.13692763 -0.11589973
H  -2.44626854 -0.01131432 -0.01113565
12
MD Step 1991 Units = [Angstroms]
C  -0.69237499 -1.25911033 0.05739017
C  0.71228565 -1.20842940 -0.01474128
C  1.37225285 0.04891597 0.01340949
C  0.67719743 1.22605728 -0.00352916
C  -0.70233039 1.20582378 -0.04102837
C  -1.36377121 -0.00230242 -0.01450753
H  -1.24768931 -2.26326368 0.11924729
H  1.29513564 -2.08692909 0.00296784
H  2.47980287 -0.08969381 0.12650934
H  1.17967129 2.18114161 -0.09725383
H  -1.28893603 2.13708981 -0.11297741
H  -2.45682280 -0.00888358 -0.00266564
12
MD Step 1992 Units = [Angstroms]
C  -0.69012264 -1.25819051 0.05525183
C  0.70893907 -1.20871559 -0.01375543
C  1.37301419 0.04723154 0.01320706
C  0.67753342 1.22611027 -0.00396620
C  -0.70690391 1.20456743 -0.04223605
C  -1.36081108 -0.00068240 -0.01321522
H  -1.23448590 -2.26867566 0.11488103
H  1.29040457 -2.07642903 0.01240959
H  2.48491482 -0.08279463 0.12536053
H  1.19367380 2.17421131 -0.09226354
H  -1.28600917 2.13724701 -0.10990596
H  -2.46814836 -0.00654122 0.00569047
12
MD Step 1993 Units = [Angstroms]
C  -0.68785358 -1.25717437 0.05300813
C  0.70524443 -1.20856819 -0.01264349
C  1.37398045 0.04508047 0.01306159
C  0.67799542 1.22624666 -0.00449258
C  -0.71159047 1.20337965 -0.04346748
C  -1.35806902 0.00047864 -0.01183274
H  -1.21973211 -2.27011377 0.11024536
H  1.28822916 -2.07029564 0.02171673
H  2.48844373 -0.07403250 0.12349896
H  1.20862974 2.16869105 -0.08676996
H  -1.28298664 2.13756824 -0.10671941
H  -2.47909524 -0.00433880 0.01389256
12
MD Step 1994 Units = [Angstroms]
C  -0.68560074 -1.25606445 0.05066532
C  0.70125946 -1.20796345 -0.01141099
C  1.37513398 0.04252012 0.01297147
C  0.67857645 1.22643874 -0.00510843
C  -0.71628995 1.20229820 -0.04471553
C  -1.35567242 0.00115086 -0.01036160
H  -1.20375406 -2.26774111 0.10537298
H  1.28883959 -2.06894032 0.03089479
H  2.49023209 -0.06356942 0.12093367
H  1.22426586 2.16450576 -0.08079508
H  -1.28005453 2.13821919 -0.10345065
H  -2.48862806 -0.00233072 0.02189296
12
MD Step 1995 Units = [Angstroms]
C  -0.68339191 -1.25484898 0.04822944
C  0.69707696 -1.20692190 -0.01006261
C  1.37644552 0.03961537 0.01293332
C  0.67927186 1.22666503 -0.00581374
C  -0.72090333 1.20135829 -0.04597304
C  -1.35373087 0.00131457 -0.00880367
H  -1.18699374 -2.26197064 0.10030832
H  1.29210648 -2.07223760 0.03993451
H  2.49027155 -0.05160802 0.11769157
H  1.24024189 2.16146096 -0.07435869
H  -1.27738673 2.13934388 -0.10013005
H  -2.49589751 -0.00057406 0.02964096
12
MD Step 1996 Units = [Angstroms]
C  -0.68124975 -1.25350224 0.04570633
C  0.69282184 -1.20550474 -0.00860124
C  1.37787536 0.03643622 0.01294224
C  0.68007831 1.22690931 -0.00660805
C  -0.72533579 1.20059192 -0.04723291
C  -1.35233173 0.00096174 -0.00716154
H  -1.16999590 -2.25345635 0.09510516
H  1.29756097 -2.07956344 0.04880048
H  2.48870023 -0.03838410 0.11381618
H  1.25616725 2.15927291 -0.06748261
H  -1.27513259 2.14104724 -0.09678456
H  -2.50028263 0.00087198 0.03708751
12
MD Step 1997 Units = [Angstroms]
C  -0.67919198 -1.25198599 0.04310172
C  0.68864275 -1.20380340 -0.00702772
C  1.37937509 0.03305551 0.01299201
C  0.68099228 1.22715898 -0.00749010
C  -0.72949941 1.20002725 -0.04848809
C  -1.35153759 0.00009710 -0.00543881
H  -1.15338763 -2.24306961 0.08982379
H  1.30447577 -2.08991842 0.05742795
H  2.48579154 -0.02415754 0.10936533
H  1.27162398 2.15760626 -0.06019463
H  -1.27340700 2.14338086 -0.09343725
H  -2.50141242 0.00194713 0.04418946
12
MD Step 1998 Units = [Angstroms]
C  -0.67723225 -1.25025254 0.04042140
C  0.68470045 -1.20192582 -0.00534114
C  1.38089001 0.02954671 0.01307549
C  0.68200821 1.22740327 -0.00845760
C  -0.73331531 1.19968785 -0.04973156
C  -1.35138481 -0.00126123 -0.00364037
H  -1.13784754 -2.23185224 0.08452709
H  1.31198040 -2.10209448 0.06572795
H  2.48193373 -0.00920220 0.10440791
H  1.28619274 2.15611342 -0.05253164
H  -1.27228391 2.14633370 -0.09010736
H  -2.49917475 0.00259143 0.05091332
12
MD Step 1999 Units = [Angstroms]
C  -0.67538170 -1.24825025 0.03767132
C  0.68115571 -1.19998319 -0.00353969
C  1.38236229 0.02598200 0.01318498
C  0.68311682 1.22763154 -0.00950704
C  -0.73671513 1.19959204 -0.05095624
C  -1.35188281 -0.00308168 -0.00177270
H  -1.12406219 -2.22093866 0.07927575
H  1.31917809 -2.11483958 0.07359780
H  2.47759881 0.00620436 0.09901974
H  1.29947856 2.15447068 -0.04454126
H  -1.27179377 2.14982931 -0.08681088
H  -2.49371818 0.00274720 0.05723848
12
MD Step 2000 Units = [Angstroms]
C  -0.67365128 -1.24593152 0.03485797
C  0.67815866 -1.19807973 -0.00162146
C  1.38373481 0.02243061 0.01331263
C  0.68430363 1.22783193 -0.01063369
C  -0.73964189 1.19975212 -0.05215493
C  -1.35301395 -0.00531993 0.00015601
H  -1.11267034 -2.21144551 0.07412277
H  1.32524065 -2.12698855 0.08093299
H  2.47330123 0.02179030 0.09327886
H  1.31113376 2.15240809 -0.03628206
H  -1.27192499 2.15373003 -0.08356139
H  -2.48544883 0.00236137 0.06315992
