 Entering Gaussian System, Link 0=g16
 Initial command:
 /software/gaussian/g16-c01/avx2/g16/l1.exe "/local_scratch/28554362/Gau-2696.inp" -scrdir="/local_scratch/28554362/"
 Entering Link 1 = /software/gaussian/g16-c01/avx2/g16/l1.exe PID=      2715.
  
 Copyright (c) 1988-2019, Gaussian, Inc.  All Rights Reserved.
  
 This is part of the Gaussian(R) 16 program.  It is based on
 the Gaussian(R) 09 system (copyright 2009, Gaussian, Inc.),
 the Gaussian(R) 03 system (copyright 2003, Gaussian, Inc.),
 the Gaussian(R) 98 system (copyright 1998, Gaussian, Inc.),
 the Gaussian(R) 94 system (copyright 1995, Gaussian, Inc.),
 the Gaussian 92(TM) system (copyright 1992, Gaussian, Inc.),
 the Gaussian 90(TM) system (copyright 1990, Gaussian, Inc.),
 the Gaussian 88(TM) system (copyright 1988, Gaussian, Inc.),
 the Gaussian 86(TM) system (copyright 1986, Carnegie Mellon
 University), and the Gaussian 82(TM) system (copyright 1983,
 Carnegie Mellon University). Gaussian is a federally registered
 trademark of Gaussian, Inc.
  
 This software contains proprietary and confidential information,
 including trade secrets, belonging to Gaussian, Inc.
  
 This software is provided under written license and may be
 used, copied, transmitted, or stored only in accord with that
 written license.
  
 The following legend is applicable only to US Government
 contracts under FAR:
  
                    RESTRICTED RIGHTS LEGEND
  
 Use, reproduction and disclosure by the US Government is
 subject to restrictions as set forth in subparagraphs (a)
 and (c) of the Commercial Computer Software - Restricted
 Rights clause in FAR 52.227-19.
  
 Gaussian, Inc.
 340 Quinnipiac St., Bldg. 40, Wallingford CT 06492
  
  
 ---------------------------------------------------------------
 Warning -- This program may not be used in any manner that
 competes with the business of Gaussian, Inc. or will provide
 assistance to any competitor of Gaussian, Inc.  The licensee
 of this program is prohibited from giving any competitor of
 Gaussian, Inc. access to this program.  By using this program,
 the user acknowledges that Gaussian, Inc. is engaged in the
 business of creating and licensing software in the field of
 computational chemistry and represents and warrants to the
 licensee that it is not a competitor of Gaussian, Inc. and that
 it will not use this program in any manner prohibited above.
 ---------------------------------------------------------------
  

 Cite this work as:
 Gaussian 16, Revision C.01,
 M. J. Frisch, G. W. Trucks, H. B. Schlegel, G. E. Scuseria, 
 M. A. Robb, J. R. Cheeseman, G. Scalmani, V. Barone, 
 G. A. Petersson, H. Nakatsuji, X. Li, M. Caricato, A. V. Marenich, 
 J. Bloino, B. G. Janesko, R. Gomperts, B. Mennucci, H. P. Hratchian, 
 J. V. Ortiz, A. F. Izmaylov, J. L. Sonnenberg, D. Williams-Young, 
 F. Ding, F. Lipparini, F. Egidi, J. Goings, B. Peng, A. Petrone, 
 T. Henderson, D. Ranasinghe, V. G. Zakrzewski, J. Gao, N. Rega, 
 G. Zheng, W. Liang, M. Hada, M. Ehara, K. Toyota, R. Fukuda, 
 J. Hasegawa, M. Ishida, T. Nakajima, Y. Honda, O. Kitao, H. Nakai, 
 T. Vreven, K. Throssell, J. A. Montgomery, Jr., J. E. Peralta, 
 F. Ogliaro, M. J. Bearpark, J. J. Heyd, E. N. Brothers, K. N. Kudin, 
 V. N. Staroverov, T. A. Keith, R. Kobayashi, J. Normand, 
 K. Raghavachari, A. P. Rendell, J. C. Burant, S. S. Iyengar, 
 J. Tomasi, M. Cossi, J. M. Millam, M. Klene, C. Adamo, R. Cammi, 
 J. W. Ochterski, R. L. Martin, K. Morokuma, O. Farkas, 
 J. B. Foresman, and D. J. Fox, Gaussian, Inc., Wallingford CT, 2019.
 
 ******************************************
 Gaussian 16:  ES64L-G16RevC.01  3-Jul-2019
                21-Mar-2025 
 ******************************************
 %oldchk=../GS_OLD/geometry.chk
 %chk=geometry.chk
 %nprocshared=1
 Will use up to    1 processors via shared memory.
 %mem=2GB
 Copying data from "../GS_OLD/geometry.chk" to current chk file "geometry.chk"
 IOpt=  2 FromEx=T IUOpen= 4 IOptOp= 5 NList=   0 IFRang= 0 IUIn= 4 IUOut= 2.
 -------------------------------------------
 # AM1/STO-5G SCF=XQC FORCE nosym guess=read
 -------------------------------------------
 1/10=7,30=1,38=1/1,3;
 2/12=2,15=1,17=6,18=5,40=1/2;
 3/5=2,6=5,25=1,41=700000,71=1,116=-2/1,2,3;
 4/5=1,35=1/1;
 5/5=2,8=3,13=1,35=1,38=6/2,8;
 6/7=2,8=2,9=2,10=2,28=1/1;
 7/29=1,30=1/1,2,3,16;
 1/10=7,30=1/3;
 99//99;
 ----------
 MD Step 16
 ----------
 Symbolic Z-matrix:
 Charge =  0 Multiplicity = 1
 C                    -0.69567  -1.19792   0.05103 
 C                     0.71985  -1.1966   -0.04216 
 C                     1.38676  -0.01392   0.0196 
 C                     0.69051   1.20158   0.02364 
 C                    -0.71619   1.20829  -0.05193 
 C                    -1.38934   0.00824   0.02332 
 H                    -1.28975  -2.07891   0.01613 
 H                     1.24091  -2.15276  -0.21096 
 H                     2.46154   0.0451    0.18443 
 H                     1.28719   2.08113  -0.03696 
 H                    -1.27498   2.16267  -0.09679 
 H                    -2.47664  -0.00814  -0.05136 
 

 GradGradGradGradGradGradGradGradGradGradGradGradGradGradGradGradGradGrad
 Berny optimization.
 Initialization pass.
 Trust Radius=3.00D-01 FncErr=1.00D-07 GrdErr=1.00D-07 EigMax=2.50D+02 EigMin=1.00D-04
 Number of steps in this run=      2 maximum allowed number of steps=      2.
 GradGradGradGradGradGradGradGradGradGradGradGradGradGradGradGradGradGrad

                          Input orientation:                          
 ---------------------------------------------------------------------
 Center     Atomic      Atomic             Coordinates (Angstroms)
 Number     Number       Type             X           Y           Z
 ---------------------------------------------------------------------
      1          6           0       -0.695666   -1.197924    0.051026
      2          6           0        0.719847   -1.196600   -0.042158
      3          6           0        1.386756   -0.013920    0.019595
      4          6           0        0.690512    1.201577    0.023639
      5          6           0       -0.716187    1.208291   -0.051926
      6          6           0       -1.389336    0.008240    0.023324
      7          1           0       -1.289751   -2.078911    0.016130
      8          1           0        1.240905   -2.152762   -0.210959
      9          1           0        2.461540    0.045102    0.184432
     10          1           0        1.287195    2.081127   -0.036963
     11          1           0       -1.274980    2.162675   -0.096789
     12          1           0       -2.476635   -0.008137   -0.051355
 ---------------------------------------------------------------------
                    Distance matrix (angstroms):
                    1          2          3          4          5
     1  C    0.000000
     2  C    1.418578   0.000000
     3  C    2.395692   1.359159   0.000000
     4  C    2.771254   2.399259   1.400788   0.000000
     5  C    2.408504   2.801034   2.433369   1.408743   0.000000
     6  C    1.391682   2.429935   2.776184   2.397879   1.378011
     7  H    1.063152   2.195531   3.380517   3.831854   3.337559
     8  H    2.175009   1.101926   2.156171   3.407281   3.892580
     9  H    3.395713   2.150968   1.088952   2.121281   3.392171
    10  H    3.832970   3.326471   2.098174   1.064571   2.185316
    11  H    3.413368   3.907307   3.440342   2.191203   1.106848
    12  H    2.144277   3.410283   3.864047   3.391144   2.139831
                    6          7          8          9         10
     6  C    0.000000
     7  H    2.089538   0.000000
     8  H    3.412183   2.541898   0.000000
     9  H    3.854422   4.314156   2.544974   0.000000
    10  H    3.385899   4.893811   4.237716   2.360827   0.000000
    11  H    2.160808   4.243115   4.996570   4.304043   2.564171
    12  H    1.089983   2.387751   4.294764   4.944088   4.304840
                   11         12
    11  H    0.000000
    12  H    2.481625   0.000000
 Symmetry turned off by external request.
 Stoichiometry    C6H6
 Framework group  C1[X(C6H6)]
 Deg. of freedom    30
 Full point group                 C1      NOp   1
 Rotational constants (GHZ):           5.8077570           5.6343656           2.8661488
 Standard basis: VSTO-5G (5D, 7F)
    30 basis functions,   180 primitive gaussians,    30 cartesian basis functions
    15 alpha electrons       15 beta electrons
       nuclear repulsion energy       119.9145597292 Hartrees.
 Integral buffers will be    131072 words long.
 Regular integral format.
 Two-electron integral symmetry is turned off.
 Do NDO integrals.
 One-electron integrals computed using PRISM.
 NBasis=    30 RedAO= F EigKep=  0.00D+00  NBF=    30
 NBsUse=    30 1.00D-04 EigRej=  0.00D+00 NBFU=    30
 Initial guess from the checkpoint file:  "geometry.chk"
 B after Tr=     0.000724   -0.000799   -0.000480
         Rot=    1.000000    0.000224   -0.000146   -0.000087 Ang=   0.03 deg.
 Keep J ints in memory in canonical form, NReq=861816.
 Overlap will be assumed to be unity.
 Requested convergence on RMS density matrix=1.00D-08 within  32 cycles.
 Requested convergence on MAX density matrix=1.00D-06.
 Requested convergence on             energy=1.00D-06.
 No special actions if energy rises.
 SCF Done:  E(RAM1) =  0.449139471056E-01 A.U. after   12 cycles
            NFock= 11  Conv=0.47D-08     -V/T= 1.0009
 QCSCF skips out because SCF is already converged.

 **********************************************************************

            Population analysis using the SCF Density.

 **********************************************************************

 Alpha  occ. eigenvalues --   -1.44600  -1.16675  -1.14895  -0.85875  -0.84252
 Alpha  occ. eigenvalues --   -0.65939  -0.59676  -0.56704  -0.52511  -0.51947
 Alpha  occ. eigenvalues --   -0.49303  -0.44236  -0.43421  -0.35991  -0.35018
 Alpha virt. eigenvalues --    0.01560   0.02299   0.10704   0.14591   0.14855
 Alpha virt. eigenvalues --    0.15622   0.15758   0.16774   0.17230   0.18844
 Alpha virt. eigenvalues --    0.19035   0.20492   0.20841   0.20991   0.22560
          Condensed to atoms (all electrons):
               1          2          3          4          5          6
     1  C    4.130338   0.000000   0.000000   0.000000   0.000000   0.000000
     2  C    0.000000   4.121692   0.000000   0.000000   0.000000   0.000000
     3  C    0.000000   0.000000   4.132804   0.000000   0.000000   0.000000
     4  C    0.000000   0.000000   0.000000   4.131448   0.000000   0.000000
     5  C    0.000000   0.000000   0.000000   0.000000   4.126786   0.000000
     6  C    0.000000   0.000000   0.000000   0.000000   0.000000   4.134084
     7  H    0.000000   0.000000   0.000000   0.000000   0.000000   0.000000
     8  H    0.000000   0.000000   0.000000   0.000000   0.000000   0.000000
     9  H    0.000000   0.000000   0.000000   0.000000   0.000000   0.000000
    10  H    0.000000   0.000000   0.000000   0.000000   0.000000   0.000000
    11  H    0.000000   0.000000   0.000000   0.000000   0.000000   0.000000
    12  H    0.000000   0.000000   0.000000   0.000000   0.000000   0.000000
               7          8          9         10         11         12
     1  C    0.000000   0.000000   0.000000   0.000000   0.000000   0.000000
     2  C    0.000000   0.000000   0.000000   0.000000   0.000000   0.000000
     3  C    0.000000   0.000000   0.000000   0.000000   0.000000   0.000000
     4  C    0.000000   0.000000   0.000000   0.000000   0.000000   0.000000
     5  C    0.000000   0.000000   0.000000   0.000000   0.000000   0.000000
     6  C    0.000000   0.000000   0.000000   0.000000   0.000000   0.000000
     7  H    0.871615   0.000000   0.000000   0.000000   0.000000   0.000000
     8  H    0.000000   0.867796   0.000000   0.000000   0.000000   0.000000
     9  H    0.000000   0.000000   0.871081   0.000000   0.000000   0.000000
    10  H    0.000000   0.000000   0.000000   0.872182   0.000000   0.000000
    11  H    0.000000   0.000000   0.000000   0.000000   0.867409   0.000000
    12  H    0.000000   0.000000   0.000000   0.000000   0.000000   0.872765
 Mulliken charges:
               1
     1  C   -0.130338
     2  C   -0.121692
     3  C   -0.132804
     4  C   -0.131448
     5  C   -0.126786
     6  C   -0.134084
     7  H    0.128385
     8  H    0.132204
     9  H    0.128919
    10  H    0.127818
    11  H    0.132591
    12  H    0.127235
 Sum of Mulliken charges =   0.00000
 Mulliken charges with hydrogens summed into heavy atoms:
               1
     1  C   -0.001952
     2  C    0.010512
     3  C   -0.003885
     4  C   -0.003630
     5  C    0.005805
     6  C   -0.006849
 Charge=              0.0000 electrons
 Dipole moment (field-independent basis, Debye):
    X=             -0.0172    Y=              0.0041    Z=             -0.1581  Tot=              0.1591
 N-N= 1.199145597292D+02 E-N=-1.710378093508D+02  KE=-4.788059240931D+01
 Calling FoFJK, ICntrl=      2127 FMM=F ISym2X=0 I1Cent= 0 IOpClX= 0 NMat=1 NMatS=1 NMatT=0.
 -------------------------------------------------------------------
 Center     Atomic                   Forces (Hartrees/Bohr)
 Number     Number              X              Y              Z
 -------------------------------------------------------------------
      1        6           0.025964074    0.019357762   -0.013574935
      2        6          -0.039510349   -0.036380085    0.001538737
      3        6           0.009278524    0.032129684    0.011400393
      4        6          -0.025164533   -0.017215187   -0.011038935
      5        6           0.027050648    0.022265798    0.010460714
      6        6          -0.004726658   -0.012036444   -0.005811715
      7        1          -0.007123479   -0.027179359    0.002392973
      8        1           0.000416170    0.000801881    0.005528280
      9        1           0.010969594   -0.004046289   -0.006408160
     10        1           0.007574522    0.025901034    0.002817287
     11        1           0.004083918   -0.003829864   -0.001340910
     12        1          -0.008812432    0.000231069    0.004036271
 -------------------------------------------------------------------
 Cartesian Forces:  Max     0.039510349 RMS     0.016520620

 GradGradGradGradGradGradGradGradGradGradGradGradGradGradGradGradGradGrad
 Berny optimization.
 Search for a local minimum.
 Step number   1 out of a maximum of    2
 All quantities printed in internal units (Hartrees-Bohrs-Radians)
 Second derivative matrix not updated -- first step.
 ITU=  0
     Eigenvalues ---    0.01488   0.01772   0.03343   0.04326   0.06716
     Eigenvalues ---    0.06798   0.06945   0.07158   0.07438   0.09369
     Eigenvalues ---    0.09614   0.11363   0.12209   0.16405   0.18580
     Eigenvalues ---    0.27953   0.29632   0.30810   0.41238   0.42996
     Eigenvalues ---    0.45764   0.66675   0.69893   1.01808   1.08454
     Eigenvalues ---    1.21965   1.23611   1.50333   1.54525   1.65474
 Quadratic step=4.926D-01 exceeds max=3.000D-01 adjusted using Lamda=-2.530D-02.
 Angle between NR and scaled steps=  18.29 degrees.
 Angle between quadratic step and forces=  59.52 degrees.
 Linear search not attempted -- first point.
 B after Tr=    -0.001641    0.001260   -0.005914
         Rot=    0.999999   -0.000654    0.001097    0.000359 Ang=  -0.15 deg.
 Variable       Old X    -DE/DX   Delta X   Delta X   Delta X     New X
                                 (Linear)    (Quad)   (Total)
    X1       -1.31462   0.02596   0.00000  -0.00950  -0.01281  -1.32743
    Y1       -2.26375   0.01936   0.00000  -0.02669  -0.02449  -2.28824
    Z1        0.09643  -0.01357   0.00000  -0.07966  -0.09148   0.00494
    X2        1.36031  -0.03951   0.00000  -0.04663  -0.04982   1.31050
    Y2       -2.26125  -0.03638   0.00000  -0.03138  -0.03100  -2.29225
    Z2       -0.07967   0.00154   0.00000   0.03169   0.02565  -0.05402
    X3        2.62059   0.00928   0.00000  -0.00024  -0.00199   2.61859
    Y3       -0.02630   0.03213   0.00000   0.02384   0.02315  -0.00315
    Z3        0.03703   0.01140   0.00000   0.01277   0.01260   0.04963
    X4        1.30488  -0.02516   0.00000   0.00294   0.00292   1.30780
    Y4        2.27065  -0.01722   0.00000   0.03500   0.03530   2.30595
    Z4        0.04467  -0.01104   0.00000  -0.03258  -0.03261   0.01206
    X5       -1.35340   0.02705   0.00000   0.03683   0.03699  -1.31641
    Y5        2.28334   0.02227   0.00000   0.02373   0.02602   2.30935
    Z5       -0.09813   0.01046   0.00000   0.03516   0.02938  -0.06874
    X6       -2.62547  -0.00473   0.00000  -0.00248  -0.00412  -2.62959
    Y6        0.01557  -0.01204   0.00000  -0.00899  -0.00584   0.00973
    Z6        0.04408  -0.00581   0.00000  -0.03841  -0.05008  -0.00600
    X7       -2.43728  -0.00712   0.00000   0.02478   0.02019  -2.41708
    Y7       -3.92857  -0.02718   0.00000  -0.12875  -0.12578  -4.05435
    Z7        0.03048   0.00239   0.00000  -0.00963  -0.02615   0.00433
    X8        2.34497   0.00042   0.00000  -0.02303  -0.02702   2.31795
    Y8       -4.06813   0.00080   0.00000  -0.03108  -0.03113  -4.09926
    Z8       -0.39866   0.00553   0.00000   0.12714   0.12095  -0.27771
    X9        4.65164   0.01097   0.00000   0.04332   0.04112   4.69276
    Y9        0.08523  -0.00405   0.00000  -0.02715  -0.02961   0.05562
    Z9        0.34853  -0.00641   0.00000  -0.08387  -0.07941   0.26912
   X10        2.43245   0.00757   0.00000  -0.02601  -0.02463   2.40782
   Y10        3.93276   0.02590   0.00000   0.13172   0.13132   4.06408
   Z10       -0.06985   0.00282   0.00000   0.01524   0.01993  -0.04992
   X11       -2.40936   0.00408   0.00000   0.05015   0.05176  -2.35761
   Y11        4.08686  -0.00383   0.00000   0.01448   0.01761   4.10447
   Z11       -0.18290  -0.00134   0.00000   0.04519   0.03948  -0.14343
   X12       -4.68016  -0.00881   0.00000  -0.03107  -0.03259  -4.71276
   Y12       -0.01538   0.00023   0.00000   0.00975   0.01447  -0.00091
   Z12       -0.09705   0.00404   0.00000   0.04800   0.03174  -0.06530
         Item               Value     Threshold  Converged?
 Maximum Force            0.039510     0.000450     NO 
 RMS     Force            0.016521     0.000300     NO 
 Maximum Displacement     0.131316     0.001800     NO 
 RMS     Displacement     0.049695     0.001200     NO 
 Predicted change in Energy=-8.682468D-03
 GradGradGradGradGradGradGradGradGradGradGradGradGradGradGradGradGradGrad

 Unable to Open any file for archive entry.
 1\1\GINC-BHC0165\Force\RAM1\ZDO\C6H6\BWEIGHT\21-Mar-2025\0\\# AM1/STO-
 5G SCF=XQC FORCE nosym guess=read\\MD Step 16\\0,1\C,-0.69566647,-1.19
 792418,0.05102636\C,0.71984725,-1.19660016,-0.04215837\C,1.38675635,-0
 .01392,0.01959508\C,0.690512,1.20157733,0.02363942\C,-0.71618703,1.208
 29052,-0.05192552\C,-1.38933649,0.00824027,0.02332449\H,-1.28975101,-2
 .07891125,0.01613007\H,1.24090545,-2.15276233,-0.21095919\H,2.46154048
 ,0.04510191,0.18443229\H,1.28719477,2.08112741,-0.03696251\H,-1.274980
 37,2.1626748,-0.09678882\H,-2.4766353,-0.00813738,-0.05135541\\Version
 =ES64L-G16RevC.01\HF=0.0449139\RMSD=4.669e-09\RMSF=1.652e-02\Dipole=-0
 .006771,0.0016278,-0.062213\PG=C01 [X(C6H6)]\\@
 The archive entry for this job was punched.


 ABSOLUTISM, OBSOLETISM -- IF IT WORKS, IT'S OUT OF DATE

                          -- STAFFORD BEER
 Job cpu time:       0 days  0 hours  0 minutes  1.2 seconds.
 Elapsed time:       0 days  0 hours  0 minutes  0.9 seconds.
 File lengths (MBytes):  RWF=      6 Int=      0 D2E=      0 Chk=      2 Scr=      1
 Normal termination of Gaussian 16 at Fri Mar 21 15:21:47 2025.
