 Entering Gaussian System, Link 0=g16
 Initial command:
 /software/gaussian/g16-c01/avx2/g16/l1.exe "/local_scratch/28554158/Gau-25809.inp" -scrdir="/local_scratch/28554158/"
 Entering Link 1 = /software/gaussian/g16-c01/avx2/g16/l1.exe PID=     25823.
  
 Copyright (c) 1988-2019, Gaussian, Inc.  All Rights Reserved.
  
 This is part of the Gaussian(R) 16 program.  It is based on
 the Gaussian(R) 09 system (copyright 2009, Gaussian, Inc.),
 the Gaussian(R) 03 system (copyright 2003, Gaussian, Inc.),
 the Gaussian(R) 98 system (copyright 1998, Gaussian, Inc.),
 the Gaussian(R) 94 system (copyright 1995, Gaussian, Inc.),
 the Gaussian 92(TM) system (copyright 1992, Gaussian, Inc.),
 the Gaussian 90(TM) system (copyright 1990, Gaussian, Inc.),
 the Gaussian 88(TM) system (copyright 1988, Gaussian, Inc.),
 the Gaussian 86(TM) system (copyright 1986, Carnegie Mellon
 University), and the Gaussian 82(TM) system (copyright 1983,
 Carnegie Mellon University). Gaussian is a federally registered
 trademark of Gaussian, Inc.
  
 This software contains proprietary and confidential information,
 including trade secrets, belonging to Gaussian, Inc.
  
 This software is provided under written license and may be
 used, copied, transmitted, or stored only in accord with that
 written license.
  
 The following legend is applicable only to US Government
 contracts under FAR:
  
                    RESTRICTED RIGHTS LEGEND
  
 Use, reproduction and disclosure by the US Government is
 subject to restrictions as set forth in subparagraphs (a)
 and (c) of the Commercial Computer Software - Restricted
 Rights clause in FAR 52.227-19.
  
 Gaussian, Inc.
 340 Quinnipiac St., Bldg. 40, Wallingford CT 06492
  
  
 ---------------------------------------------------------------
 Warning -- This program may not be used in any manner that
 competes with the business of Gaussian, Inc. or will provide
 assistance to any competitor of Gaussian, Inc.  The licensee
 of this program is prohibited from giving any competitor of
 Gaussian, Inc. access to this program.  By using this program,
 the user acknowledges that Gaussian, Inc. is engaged in the
 business of creating and licensing software in the field of
 computational chemistry and represents and warrants to the
 licensee that it is not a competitor of Gaussian, Inc. and that
 it will not use this program in any manner prohibited above.
 ---------------------------------------------------------------
  

 Cite this work as:
 Gaussian 16, Revision C.01,
 M. J. Frisch, G. W. Trucks, H. B. Schlegel, G. E. Scuseria, 
 M. A. Robb, J. R. Cheeseman, G. Scalmani, V. Barone, 
 G. A. Petersson, H. Nakatsuji, X. Li, M. Caricato, A. V. Marenich, 
 J. Bloino, B. G. Janesko, R. Gomperts, B. Mennucci, H. P. Hratchian, 
 J. V. Ortiz, A. F. Izmaylov, J. L. Sonnenberg, D. Williams-Young, 
 F. Ding, F. Lipparini, F. Egidi, J. Goings, B. Peng, A. Petrone, 
 T. Henderson, D. Ranasinghe, V. G. Zakrzewski, J. Gao, N. Rega, 
 G. Zheng, W. Liang, M. Hada, M. Ehara, K. Toyota, R. Fukuda, 
 J. Hasegawa, M. Ishida, T. Nakajima, Y. Honda, O. Kitao, H. Nakai, 
 T. Vreven, K. Throssell, J. A. Montgomery, Jr., J. E. Peralta, 
 F. Ogliaro, M. J. Bearpark, J. J. Heyd, E. N. Brothers, K. N. Kudin, 
 V. N. Staroverov, T. A. Keith, R. Kobayashi, J. Normand, 
 K. Raghavachari, A. P. Rendell, J. C. Burant, S. S. Iyengar, 
 J. Tomasi, M. Cossi, J. M. Millam, M. Klene, C. Adamo, R. Cammi, 
 J. W. Ochterski, R. L. Martin, K. Morokuma, O. Farkas, 
 J. B. Foresman, and D. J. Fox, Gaussian, Inc., Wallingford CT, 2019.
 
 ******************************************
 Gaussian 16:  ES64L-G16RevC.01  3-Jul-2019
                21-Mar-2025 
 ******************************************
 %oldchk=../TD_OLD_S1/geometry.chk
 %chk=geometry.chk
 %nprocshared=1
 Will use up to    1 processors via shared memory.
 %mem=2GB
 Copying data from "../TD_OLD_S1/geometry.chk" to current chk file "geometry.chk"
 IOpt=  2 FromEx=T IUOpen= 4 IOptOp= 5 NList=   0 IFRang= 0 IUIn= 4 IUOut= 2.
 ----------------------------------------------------------------------
 # AM1/STO-5G SCF=XQC TD=(read,singlets,nstates=5,root=1) nosym IOp(9/4
 0=3) guess=read
 ----------------------------------------------------------------------
 1/38=1,172=1/1;
 2/12=2,15=1,17=6,18=5,40=1/2;
 3/5=2,6=5,25=1,41=700000,116=-2/1,2,3,8;
 4/5=1,35=1/1;
 5/5=2,8=3,13=1,35=1,38=6/2,8;
 8/6=1,10=90,107=1,108=5/1;
 9/8=1,40=3,41=5,42=1,48=1,49=13,70=2/14;
 6/7=2,8=2,9=2,10=2/1;
 99/5=1,9=1/99;
 ----------
 MD Step 24
 ----------
 Symbolic Z-matrix:
 Charge =  0 Multiplicity = 1
 C                    -0.72491  -1.20443   0.00345 
 C                     0.67579  -1.19579   0.01751 
 C                     1.38696   0.00946   0.01421 
 C                     0.70125   1.21643  -0.03878 
 C                    -0.6923    1.196     0.01233 
 C                    -1.39055  -0.00368  -0.03919 
 H                    -1.16681  -2.17426   0.08373 
 H                     1.28907  -2.12619   0.01347 
 H                     2.49623  -0.01453   0.17572 
 H                     1.37373   2.16155   0.01073 
 H                    -1.19269   2.17079   0.12094 
 H                    -2.49921  -0.10713   0.07332 
 
                          Input orientation:                          
 ---------------------------------------------------------------------
 Center     Atomic      Atomic             Coordinates (Angstroms)
 Number     Number       Type             X           Y           Z
 ---------------------------------------------------------------------
      1          6           0       -0.724905   -1.204430    0.003449
      2          6           0        0.675794   -1.195787    0.017510
      3          6           0        1.386965    0.009464    0.014213
      4          6           0        0.701253    1.216427   -0.038776
      5          6           0       -0.692303    1.196003    0.012335
      6          6           0       -1.390554   -0.003675   -0.039193
      7          1           0       -1.166806   -2.174262    0.083729
      8          1           0        1.289065   -2.126187    0.013466
      9          1           0        2.496231   -0.014533    0.175724
     10          1           0        1.373729    2.161553    0.010730
     11          1           0       -1.192690    2.170789    0.120935
     12          1           0       -2.499213   -0.107128    0.073323
 ---------------------------------------------------------------------
                    Distance matrix (angstroms):
                    1          2          3          4          5
     1  C    0.000000
     2  C    1.400797   0.000000
     3  C    2.435909   1.399430   0.000000
     4  C    2.810028   2.413004   1.389160   0.000000
     5  C    2.400671   2.755427   2.393999   1.394642   0.000000
     6  C    1.373579   2.386240   2.778063   2.421633   1.389042
     7  H    1.068782   2.087336   3.360838   3.873166   3.404253
     8  H    2.214907   1.114343   2.137894   3.394306   3.868174
     9  H    3.438205   2.175864   1.121220   2.187057   3.414505
    10  H    3.966632   3.429124   2.152133   1.161008   2.280522
    11  H    3.409506   3.851722   3.367095   2.126814   1.101085
    12  H    2.087372   3.356928   3.888376   3.465162   2.228631
                    6          7          8          9         10
     6  C    0.000000
     7  H    2.185548   0.000000
     8  H    3.418799   2.457346   0.000000
     9  H    3.892738   4.253320   2.437757   0.000000
    10  H    3.511691   5.025827   4.288577   2.454096   0.000000
    11  H    2.189312   4.345287   4.963331   4.287980   2.568801
    12  H    1.119146   2.459362   4.293161   4.997352   4.488933
                   11         12
    11  H    0.000000
    12  H    2.626438   0.000000
 Symmetry turned off by external request.
 Stoichiometry    C6H6
 Framework group  C1[X(C6H6)]
 Deg. of freedom    30
 Full point group                 C1      NOp   1
 Rotational constants (GHZ):           5.8181951           5.5968055           2.8557111
 Standard basis: VSTO-5G (5D, 7F)
    30 basis functions,   180 primitive gaussians,    30 cartesian basis functions
    15 alpha electrons       15 beta electrons
       nuclear repulsion energy       119.6336252755 Hartrees.
 Integral buffers will be    131072 words long.
 Regular integral format.
 Two-electron integral symmetry is turned off.
 Do NDO integrals.
 One-electron integrals computed using PRISM.
 NBasis=    30 RedAO= F EigKep=  0.00D+00  NBF=    30
 NBsUse=    30 1.00D-04 EigRej=  0.00D+00 NBFU=    30
 Initial guess from the checkpoint file:  "geometry.chk"
 B after Tr=     0.000794    0.000540    0.001232
         Rot=    1.000000   -0.000057    0.000387   -0.000055 Ang=  -0.05 deg.
 Keep J ints in memory in canonical form, NReq=861816.
 Overlap will be assumed to be unity.
 Requested convergence on RMS density matrix=1.00D-08 within  32 cycles.
 Requested convergence on MAX density matrix=1.00D-06.
 Requested convergence on             energy=1.00D-06.
 No special actions if energy rises.
 SCF Done:  E(RAM1) =  0.471275499553E-01 A.U. after   12 cycles
            NFock= 11  Conv=0.59D-08     -V/T= 1.0010
 QCSCF skips out because SCF is already converged.
 Range of M.O.s used for correlation:     1    30
 NBasis=    30 NAE=    15 NBE=    15 NFC=     0 NFV=     0
 NROrb=     30 NOA=    15 NOB=    15 NVA=    15 NVB=    15
 Keep J ints in memory in canonical form, NReq=862156.
 Generating guess from checkpoint file densities.
 Convergence on wavefunction:    0.001000000000000
 Iteration     1 Dimension    10 NMult     0 NNew     10
 CISAX will form    10 AO SS matrices at one time.
 Iteration     2 Dimension    20 NMult    10 NNew     10
 Iteration     3 Dimension    30 NMult    20 NNew     10
 Iteration     4 Dimension    38 NMult    30 NNew      8
 Iteration     5 Dimension    44 NMult    38 NNew      6
 Iteration     6 Dimension    50 NMult    44 NNew      6
 Iteration     7 Dimension    56 NMult    50 NNew      6
 Iteration     8 Dimension    58 NMult    56 NNew      2
 Iteration     9 Dimension    60 NMult    58 NNew      2
 Iteration    10 Dimension    62 NMult    60 NNew      2
 Iteration    11 Dimension    64 NMult    62 NNew      2
 ***********************************************************************
 Excited states from <AA,BB:AA,BB> singles matrix:
 ***********************************************************************
 
 Ground to excited state transition densities written to RWF  633
 Ground to excited state transition electric dipole moments (Au):
       state          X           Y           Z        Dip. S.      Osc.
         1         0.0446      0.0120      0.0002      0.0021      0.0002
         2         0.0745     -0.0856     -0.0649      0.0171      0.0017
         3        -1.5585      0.2409     -0.0250      2.4874      0.3308
         4         0.2541      1.5744     -0.0348      2.5445      0.3393
         5         0.0355     -0.3670     -0.1095      0.1480      0.0216
 Ground to excited state transition velocity dipole moments (Au):
       state          X           Y           Z        Dip. S.      Osc.
         1        -0.0081     -0.0024     -0.0001      0.0001      0.0003
         2        -0.0189      0.0208      0.0412      0.0025      0.0108
         3         0.4847     -0.0724     -0.0003      0.2402      0.8029
         4        -0.0830     -0.4892     -0.0079      0.2463      0.8210
         5        -0.0091      0.1214     -0.1122      0.0274      0.0834
 Ground to excited state transition magnetic dipole moments (Au):
       state          X           Y           Z
         1         0.0032     -0.0081     -0.0137
         2         0.0352      0.0282      0.0195
         3         0.0054      0.0889      0.0283
         4         0.0698     -0.0198      0.0045
         5         0.0195      0.0373      0.0166
 Ground to excited state transition velocity quadrupole moments (Au):
       state          XX          YY          ZZ          XY          XZ          YZ
         1         0.0020     -0.0012      0.0002      0.0101      0.0059      0.0025
         2         0.0189     -0.0325      0.0020      0.0094     -0.0141      0.0286
         3        -0.0006     -0.0386     -0.0083     -0.0034      0.0051     -0.0266
         4        -0.0114      0.0050     -0.0094     -0.0455      0.0223     -0.0053
         5         0.0252      0.0706     -0.0089     -0.0344     -0.0179      0.0146
 <0|del|b> * <b|rxdel|0> + <0|del|b> * <b|delr+rdel|0>
 Rotatory Strengths (R) in cgs (10**-40 erg-esu-cm/Gauss)
       state          XX          YY          ZZ    R(velocity)    E-M Angle
         1         0.0846     -0.1128     -0.0005     -0.0096       90.00
         2         4.7687     -1.8221      0.3900      1.1122       72.79
         3       -10.7691    -18.2686     15.4101     -4.5426       94.81
         4        36.9498    -10.1733    -13.1400      4.5455       83.86
         5        14.0136     -9.7440      3.7304      2.6666       70.67
 1/2[<0|r|b>*<b|rxdel|0> + (<0|rxdel|b>*<b|r|0>)*]
 Rotatory Strengths (R) in cgs (10**-40 erg-esu-cm/Gauss)
       state          XX          YY          ZZ     R(length)
         1        -0.1004      0.0686      0.0021     -0.0099
         2        -1.8519      1.7062      0.8961      0.2501
         3         5.9212    -15.1438      0.4992     -2.9078
         4       -12.5465     22.0513      0.1098      3.2049
         5        -0.4889      9.6764      1.2886      3.4920
  1/2[<0|del|b>*<b|r|0> + (<0|r|b>*<b|del|0>)*] (Au)
       state          X           Y           Z        Dip. S.   Osc.(frdel)
         1        -0.0004     -0.0000     -0.0000      0.0004      0.0003
         2        -0.0014     -0.0018     -0.0027      0.0059      0.0039
         3        -0.7554     -0.0174      0.0000      0.7729      0.5152
         4        -0.0211     -0.7702      0.0003      0.7910      0.5274
         5        -0.0003     -0.0445      0.0123      0.0326      0.0217

 Excitation energies and oscillator strengths:
 
 Excited state symmetry could not be determined.
 Excited State   1:      Singlet-?Sym    3.8400 eV  322.88 nm  f=0.0002  <S**2>=0.000
       2 -> 16        -0.00113
       2 -> 23         0.00289
       2 -> 24         0.00164
       2 -> 25        -0.00206
       3 -> 23         0.00136
       3 -> 24        -0.00258
       3 -> 26         0.00251
       4 -> 17         0.00297
       4 -> 27         0.00275
       5 -> 16        -0.00195
       5 -> 28        -0.00273
       7 -> 16         0.00128
       7 -> 29         0.00257
       8 -> 18         0.00696
       8 -> 19        -0.00123
       8 -> 22        -0.00133
       9 -> 18        -0.00261
       9 -> 19         0.00112
       9 -> 23        -0.00312
       9 -> 24        -0.00125
       9 -> 25         0.00323
      10 -> 18         0.00170
      10 -> 24         0.00238
      10 -> 26        -0.00255
      11 -> 16         0.00250
      11 -> 26         0.00165
      11 -> 27        -0.00310
      11 -> 29         0.00376
      12 -> 16        -0.00167
      12 -> 18         0.00231
      12 -> 19        -0.00109
      12 -> 28         0.00154
      13 -> 16        -0.00163
      13 -> 20         0.00116
      14 -> 16        -0.47891
      14 -> 17         0.10712
      14 -> 18         0.00203
      14 -> 19        -0.00375
      14 -> 21        -0.00183
      14 -> 22        -0.00140
      14 -> 23         0.00348
      14 -> 24         0.00112
      14 -> 25        -0.00101
      14 -> 28         0.00333
      15 -> 16        -0.12261
      15 -> 17        -0.50308
      15 -> 18        -0.00251
      15 -> 22         0.00264
      15 -> 23        -0.00496
      15 -> 24         0.00422
      15 -> 27         0.00224
      15 -> 29        -0.00125
       2 <- 23         0.00109
       4 <- 27         0.00206
       5 <- 28        -0.00218
       7 <- 29         0.00196
       8 <- 22        -0.00112
      10 <- 16         0.00104
      12 <- 16        -0.00199
      12 <- 17         0.00358
      13 <- 16        -0.00331
      13 <- 17        -0.00393
      14 <- 16        -0.06833
      14 <- 17         0.01671
      14 <- 21        -0.00196
      14 <- 28        -0.00136
      15 <- 16        -0.01389
      15 <- 17        -0.06382
      15 <- 20         0.00175
      15 <- 23        -0.00149
      15 <- 24         0.00194
      15 <- 27        -0.00134
 This state for optimization and/or second-order correction.
 Total Energy, E(TD-HF/TD-DFT) =  0.188243143117    
 Copying the excited state density for this state as the 1-particle RhoCI density.
 
 Excited state symmetry could not be determined.
 Excited State   2:      Singlet-?Sym    4.1756 eV  296.93 nm  f=0.0017  <S**2>=0.000
       1 -> 18        -0.00127
       1 -> 19        -0.00138
       1 -> 21        -0.00174
       1 -> 30        -0.00101
       2 -> 17         0.00219
       2 -> 23        -0.00167
       2 -> 24         0.00228
       2 -> 26         0.00193
       3 -> 23         0.00270
       3 -> 24         0.00168
       3 -> 25         0.00198
       4 -> 18         0.00124
       4 -> 21        -0.00218
       4 -> 28         0.00467
       5 -> 17        -0.00206
       5 -> 26        -0.00137
       5 -> 27         0.00444
       6 -> 18         0.00143
       6 -> 19         0.00110
       7 -> 16         0.00121
       7 -> 18        -0.00428
       7 -> 22         0.00106
       7 -> 23        -0.00164
       7 -> 27        -0.00105
       8 -> 19         0.00161
       8 -> 20         0.00118
       8 -> 21        -0.00165
       8 -> 23         0.00148
       8 -> 24        -0.00168
       8 -> 26         0.00197
       8 -> 29        -0.00216
       9 -> 17        -0.00193
       9 -> 18        -0.00172
       9 -> 22        -0.00120
       9 -> 23         0.00119
       9 -> 24        -0.00279
       9 -> 25         0.00171
       9 -> 26        -0.00747
       9 -> 27        -0.00214
       9 -> 28         0.00113
       9 -> 29        -0.00191
      10 -> 16        -0.00275
      10 -> 17         0.00171
      10 -> 18        -0.00807
      10 -> 22        -0.00102
      10 -> 23        -0.00389
      10 -> 24        -0.00268
      10 -> 25        -0.00551
      10 -> 27         0.00111
      11 -> 18        -0.11030
      11 -> 19         0.00942
      11 -> 20        -0.00652
      11 -> 21         0.00919
      11 -> 22        -0.00702
      11 -> 23        -0.00131
      11 -> 28         0.00209
      11 -> 30        -0.00101
      12 -> 16        -0.00640
      12 -> 17        -0.00127
      12 -> 18         0.00508
      12 -> 19        -0.00806
      12 -> 20        -0.00434
      12 -> 21         0.00778
      12 -> 22         0.00389
      12 -> 23        -0.00144
      12 -> 24        -0.00276
      12 -> 27        -0.00412
      12 -> 29        -0.00321
      12 -> 30        -0.00134
      13 -> 16         0.00852
      13 -> 17        -0.00403
      13 -> 18         0.00977
      13 -> 19         0.00380
      13 -> 20        -0.01018
      13 -> 21        -0.00865
      13 -> 22        -0.00431
      13 -> 24         0.00168
      13 -> 27        -0.00348
      13 -> 28         0.00161
      13 -> 30         0.00199
      14 -> 16         0.10533
      14 -> 17         0.44444
      14 -> 18        -0.00350
      14 -> 20         0.00103
      14 -> 22        -0.00275
      14 -> 23         0.00638
      14 -> 24        -0.00556
      14 -> 26         0.00104
      14 -> 27         0.00327
      15 -> 16        -0.51432
      15 -> 17         0.11984
      15 -> 18        -0.00288
      15 -> 19        -0.00551
      15 -> 22        -0.00165
      15 -> 23         0.00213
      15 -> 25        -0.00183
      15 -> 28        -0.00157
       1 <- 18        -0.00117
       1 <- 19        -0.00291
       1 <- 21        -0.00419
       1 <- 22         0.00166
       1 <- 30         0.00234
       2 <- 17         0.00138
       2 <- 19        -0.00129
       2 <- 23        -0.00302
       2 <- 24         0.00506
       2 <- 26        -0.00176
       3 <- 19        -0.00146
       3 <- 23         0.00604
       3 <- 24         0.00362
       3 <- 25        -0.00129
       4 <- 28         0.00537
       5 <- 26        -0.00127
       5 <- 27         0.00543
       5 <- 29         0.00110
       6 <- 30        -0.00159
       7 <- 18        -0.00124
       8 <- 23         0.00116
       8 <- 24        -0.00104
       8 <- 26         0.00111
       8 <- 27         0.00158
       8 <- 29        -0.00492
       9 <- 23         0.00123
       9 <- 24        -0.00378
      10 <- 18         0.00148
      10 <- 23        -0.00472
      10 <- 24        -0.00252
      11 <- 18         0.01388
      12 <- 16         0.00133
      12 <- 17         0.00121
      12 <- 19        -0.00231
      12 <- 20        -0.00125
      12 <- 21         0.00273
      12 <- 27        -0.00395
      12 <- 28        -0.00114
      12 <- 29        -0.00235
      13 <- 16        -0.00126
      13 <- 17         0.00165
      13 <- 18        -0.00112
      13 <- 19         0.00115
      13 <- 20        -0.00311
      13 <- 21        -0.00285
      13 <- 22        -0.00190
      13 <- 27        -0.00297
      13 <- 28         0.00301
      14 <- 16         0.00507
      14 <- 17         0.02178
      14 <- 18         0.00152
      14 <- 20        -0.00180
      14 <- 23         0.00155
      14 <- 24        -0.00215
      14 <- 27         0.00202
      15 <- 16        -0.00796
      15 <- 17         0.00230
      15 <- 21        -0.00167
      15 <- 28        -0.00169
 
 Excited state symmetry could not be determined.
 Excited State   3:      Singlet-?Sym    5.4275 eV  228.44 nm  f=0.3308  <S**2>=0.000
       1 -> 17         0.00151
       1 -> 27         0.00185
       1 -> 28        -0.00155
       2 -> 16        -0.00109
       2 -> 17         0.00193
       2 -> 18        -0.00304
       2 -> 19         0.00319
       2 -> 22         0.00418
       2 -> 23        -0.00205
       2 -> 25         0.00199
       2 -> 29        -0.00168
       3 -> 17        -0.00148
       3 -> 18         0.00330
       3 -> 19        -0.00289
       3 -> 22        -0.00498
       3 -> 24        -0.00226
       3 -> 26         0.00235
       3 -> 29        -0.00140
       4 -> 16        -0.00607
       4 -> 17        -0.00608
       4 -> 18         0.00256
       4 -> 20        -0.00365
       4 -> 21         0.00988
       4 -> 25        -0.00148
       4 -> 27        -0.00111
       4 -> 28        -0.00116
       4 -> 30        -0.00462
       5 -> 17         0.00394
       5 -> 18        -0.00330
       5 -> 19        -0.00768
       5 -> 20         0.00666
       5 -> 21        -0.00685
       5 -> 22         0.00513
       5 -> 24        -0.00265
       5 -> 26        -0.00128
       5 -> 28        -0.00154
       5 -> 30         0.00665
       6 -> 16         0.00389
       6 -> 17        -0.00801
       6 -> 19        -0.00399
       6 -> 20         0.01540
       6 -> 21         0.00221
       6 -> 23        -0.00153
       6 -> 26         0.00274
       6 -> 27        -0.00450
       6 -> 28         0.00357
       7 -> 17        -0.00366
       7 -> 18         0.00508
       7 -> 19        -0.00231
       7 -> 20        -0.00337
       7 -> 23         0.02566
       7 -> 24        -0.00823
       7 -> 25        -0.00988
       7 -> 26         0.01226
       7 -> 30        -0.00160
       8 -> 16         0.00562
       8 -> 17         0.00455
       8 -> 18        -0.00717
       8 -> 19        -0.00966
       8 -> 21         0.00102
       8 -> 22         0.00185
       8 -> 23         0.01443
       8 -> 24         0.02751
       8 -> 25        -0.01569
       8 -> 26        -0.02232
       8 -> 27        -0.00132
       8 -> 28         0.00318
       9 -> 16         0.00593
       9 -> 17        -0.00924
       9 -> 18         0.02093
       9 -> 19        -0.00827
       9 -> 20        -0.00328
       9 -> 23         0.01107
       9 -> 24         0.00313
       9 -> 25        -0.02562
       9 -> 26         0.00121
       9 -> 27        -0.00456
       9 -> 28        -0.00198
       9 -> 29         0.01970
       9 -> 30        -0.00186
      10 -> 16         0.00748
      10 -> 17         0.01275
      10 -> 18        -0.03374
      10 -> 19         0.00374
      10 -> 20        -0.00172
      10 -> 21         0.00408
      10 -> 22         0.00653
      10 -> 23         0.00185
      10 -> 24         0.01339
      10 -> 25        -0.00265
      10 -> 26        -0.02807
      10 -> 27        -0.00711
      10 -> 28        -0.00159
      10 -> 29         0.01434
      11 -> 16        -0.00342
      11 -> 18        -0.00406
      11 -> 19        -0.00127
      11 -> 20        -0.00188
      11 -> 21        -0.00179
      11 -> 23         0.00943
      11 -> 24        -0.00535
      11 -> 25        -0.00572
      11 -> 26         0.00856
      11 -> 27         0.00444
      11 -> 28        -0.00120
      11 -> 29        -0.00157
      12 -> 16         0.08845
      12 -> 17        -0.00229
      12 -> 18         0.00228
      12 -> 19         0.03522
      12 -> 20        -0.02214
      12 -> 21        -0.01742
      12 -> 22        -0.01289
      12 -> 23         0.00202
      12 -> 24         0.01304
      12 -> 25        -0.00462
      12 -> 26        -0.01031
      12 -> 28        -0.04016
      12 -> 29        -0.00750
      12 -> 30        -0.00821
      13 -> 16        -0.06023
      13 -> 17        -0.09896
      13 -> 18         0.02267
      13 -> 19         0.00245
      13 -> 20        -0.04281
      13 -> 21         0.03171
      13 -> 22         0.00524
      13 -> 23         0.00415
      13 -> 24        -0.00417
      13 -> 25         0.00145
      13 -> 26        -0.00855
      13 -> 27         0.04232
      13 -> 28        -0.00226
      13 -> 29         0.01034
      13 -> 30        -0.03034
      14 -> 16        -0.29411
      14 -> 17         0.41880
      14 -> 18        -0.01094
      14 -> 20         0.01070
      14 -> 21         0.01197
      14 -> 22        -0.00211
      14 -> 23         0.00237
      14 -> 24         0.00282
      14 -> 25        -0.00199
      14 -> 27        -0.00494
      14 -> 28         0.00981
      14 -> 30        -0.00586
      15 -> 16         0.36721
      15 -> 17         0.27900
      15 -> 18        -0.00890
      15 -> 19         0.01455
      15 -> 20         0.00849
      15 -> 21        -0.00392
      15 -> 22        -0.00768
      15 -> 23        -0.00273
      15 -> 24         0.00175
      15 -> 25         0.00135
      15 -> 26         0.00165
      15 -> 27        -0.01098
      15 -> 28        -0.00854
      15 -> 29        -0.00344
      15 -> 30        -0.00152
       1 <- 20        -0.00145
       1 <- 27         0.00269
       1 <- 28        -0.00246
       2 <- 19         0.00226
       2 <- 22         0.00236
       2 <- 23        -0.00427
       2 <- 25         0.00297
       2 <- 26        -0.00103
       2 <- 29        -0.00227
       3 <- 22        -0.00341
       3 <- 24        -0.00394
       3 <- 26         0.00323
       3 <- 29        -0.00198
       4 <- 18         0.00126
       4 <- 20        -0.00185
       4 <- 21         0.00655
       4 <- 30        -0.00304
       5 <- 18        -0.00171
       5 <- 19        -0.00515
       5 <- 20         0.00357
       5 <- 21        -0.00503
       5 <- 22         0.00315
       5 <- 24        -0.00136
       5 <- 30         0.00423
       6 <- 19        -0.00126
       6 <- 20         0.00645
       6 <- 21         0.00109
       7 <- 20        -0.00118
       7 <- 23         0.01050
       7 <- 24        -0.00349
       7 <- 25        -0.00324
       7 <- 26         0.00468
       8 <- 19        -0.00434
       8 <- 22         0.00117
       8 <- 23         0.00602
       8 <- 24         0.01276
       8 <- 25        -0.00581
       8 <- 26        -0.00856
       8 <- 28         0.00184
       9 <- 19        -0.00207
       9 <- 20        -0.00125
       9 <- 23         0.00532
       9 <- 24         0.00135
       9 <- 25        -0.01047
       9 <- 29         0.00604
      10 <- 17         0.00121
      10 <- 22         0.00276
      10 <- 24         0.00619
      10 <- 26        -0.01155
      10 <- 27        -0.00257
      10 <- 29         0.00432
      11 <- 18         0.00131
      11 <- 23         0.00160
      11 <- 26         0.00134
      12 <- 16         0.00393
      12 <- 19         0.00950
      12 <- 20        -0.00601
      12 <- 21        -0.00436
      12 <- 22        -0.00395
      12 <- 24         0.00423
      12 <- 25        -0.00140
      12 <- 26        -0.00233
      12 <- 28        -0.01324
      12 <- 29        -0.00221
      12 <- 30        -0.00282
      13 <- 16        -0.00270
      13 <- 17        -0.00467
      13 <- 18         0.00286
      13 <- 19         0.00210
      13 <- 20        -0.01153
      13 <- 21         0.01107
      13 <- 23         0.00113
      13 <- 26        -0.00245
      13 <- 27         0.01375
      13 <- 29         0.00304
      13 <- 30        -0.01076
      14 <- 16         0.04732
      14 <- 17        -0.06627
      14 <- 20         0.00155
      14 <- 21         0.00209
      14 <- 27        -0.00103
      14 <- 28         0.00141
      15 <- 16        -0.06973
      15 <- 17        -0.05115
      15 <- 24         0.00181
 
 Excited state symmetry could not be determined.
 Excited State   4:      Singlet-?Sym    5.4421 eV  227.83 nm  f=0.3393  <S**2>=0.000
       1 -> 16        -0.00152
       1 -> 27        -0.00160
       1 -> 28        -0.00174
       2 -> 18         0.00330
       2 -> 19        -0.00376
       2 -> 22        -0.00450
       2 -> 24         0.00215
       2 -> 26        -0.00206
       2 -> 29        -0.00139
       3 -> 18         0.00280
       3 -> 19        -0.00282
       3 -> 22        -0.00446
       3 -> 23        -0.00225
       3 -> 25         0.00208
       3 -> 29         0.00188
       4 -> 16        -0.00413
       4 -> 17         0.00557
       4 -> 18         0.00148
       4 -> 19         0.00466
       4 -> 20         0.00614
       4 -> 21         0.01042
       4 -> 23         0.00156
       4 -> 27         0.00135
       4 -> 28        -0.00143
       4 -> 30        -0.00615
       5 -> 16         0.00388
       5 -> 17         0.00279
       5 -> 18         0.00107
       5 -> 19         0.00921
       5 -> 20         0.00364
       5 -> 21         0.00266
       5 -> 22        -0.00456
       5 -> 23         0.00220
       5 -> 24         0.00205
       5 -> 27         0.00231
       5 -> 30        -0.00516
       6 -> 16         0.00826
       6 -> 17         0.00410
       6 -> 19        -0.01035
       6 -> 20        -0.00347
       6 -> 21         0.00868
       6 -> 22         0.00388
       6 -> 24        -0.00406
       6 -> 25         0.00250
       6 -> 27         0.00463
       6 -> 28         0.00433
       7 -> 16         0.00152
       7 -> 18         0.00695
       7 -> 19        -0.01262
       7 -> 20        -0.00135
       7 -> 21         0.00187
       7 -> 22         0.00484
       7 -> 23         0.01042
       7 -> 24         0.02426
       7 -> 25        -0.00726
       7 -> 26        -0.01029
       8 -> 17         0.00761
       8 -> 18         0.00372
       8 -> 19         0.00197
       8 -> 20         0.00444
       8 -> 21         0.00187
       8 -> 22        -0.00103
       8 -> 23        -0.02917
       8 -> 24         0.00755
       8 -> 25         0.02491
       8 -> 26        -0.01703
       8 -> 27        -0.00395
       8 -> 29         0.00129
       8 -> 30        -0.00204
       9 -> 16        -0.00368
       9 -> 17        -0.00484
       9 -> 18        -0.03223
       9 -> 19         0.00511
       9 -> 20        -0.01060
       9 -> 21         0.00151
       9 -> 22         0.00856
       9 -> 24        -0.01285
       9 -> 25        -0.00232
       9 -> 26         0.02692
       9 -> 28        -0.00375
       9 -> 29         0.01413
       9 -> 30         0.00105
      10 -> 16         0.00663
      10 -> 18        -0.02177
      10 -> 19         0.00219
      10 -> 20        -0.00225
      10 -> 21        -0.00298
      10 -> 22         0.00386
      10 -> 23         0.01262
      10 -> 24         0.00551
      10 -> 25        -0.02155
      10 -> 26        -0.00167
      10 -> 27         0.00789
      10 -> 28         0.00333
      10 -> 29        -0.02211
      10 -> 30        -0.00136
      11 -> 17         0.00154
      11 -> 18        -0.00636
      11 -> 19        -0.00317
      11 -> 22        -0.00107
      11 -> 24         0.00981
      11 -> 26        -0.00911
      11 -> 27        -0.00346
      11 -> 29         0.00156
      12 -> 16        -0.00228
      12 -> 17        -0.07109
      12 -> 18        -0.00369
      12 -> 19        -0.02199
      12 -> 20        -0.03884
      12 -> 21        -0.00833
      12 -> 22         0.02108
      12 -> 23        -0.00756
      12 -> 24        -0.01550
      12 -> 25         0.01487
      12 -> 26        -0.01959
      12 -> 27         0.03673
      12 -> 28         0.00225
      12 -> 29         0.00940
      12 -> 30         0.03111
      13 -> 16        -0.11534
      13 -> 17         0.06019
      13 -> 18         0.00443
      13 -> 19        -0.03072
      13 -> 20         0.02387
      13 -> 21         0.02936
      13 -> 22         0.00821
      13 -> 23         0.00226
      13 -> 24        -0.01020
      13 -> 26         0.00138
      13 -> 28         0.04103
      13 -> 29         0.00528
      13 -> 30        -0.01065
      14 -> 16         0.40522
      14 -> 17         0.30946
      14 -> 18        -0.00243
      14 -> 19         0.00162
      14 -> 20         0.00516
      14 -> 21        -0.01310
      14 -> 22        -0.00133
      14 -> 23         0.00124
      14 -> 24         0.01014
      14 -> 25        -0.00208
      14 -> 26        -0.00800
      14 -> 27        -0.00666
      14 -> 28        -0.00626
      14 -> 29        -0.00578
      14 -> 30         0.00504
      15 -> 16         0.26083
      15 -> 17        -0.38295
      15 -> 18         0.00598
      15 -> 19         0.00979
      15 -> 20        -0.01581
      15 -> 22        -0.00286
      15 -> 24         0.00116
      15 -> 25        -0.00187
      15 -> 26        -0.00146
      15 -> 27         0.00993
      15 -> 28        -0.01151
      15 -> 29        -0.00248
      15 -> 30        -0.00161
       1 <- 21        -0.00110
       1 <- 27        -0.00246
       1 <- 28        -0.00276
       2 <- 19        -0.00262
       2 <- 22        -0.00265
       2 <- 24         0.00429
       2 <- 26        -0.00335
       2 <- 29        -0.00207
       3 <- 19        -0.00108
       3 <- 22        -0.00285
       3 <- 23        -0.00412
       3 <- 25         0.00253
       3 <- 29         0.00247
       4 <- 18         0.00116
       4 <- 19         0.00302
       4 <- 20         0.00349
       4 <- 21         0.00706
       4 <- 22        -0.00140
       4 <- 30        -0.00417
       5 <- 19         0.00549
       5 <- 20         0.00174
       5 <- 21         0.00248
       5 <- 22        -0.00292
       5 <- 24         0.00159
       5 <- 30        -0.00324
       6 <- 19        -0.00404
       6 <- 20        -0.00163
       6 <- 21         0.00387
       6 <- 22         0.00176
       6 <- 24        -0.00180
       7 <- 19        -0.00412
       7 <- 22         0.00161
       7 <- 23         0.00419
       7 <- 24         0.00997
       7 <- 25        -0.00256
       7 <- 26        -0.00336
       8 <- 17         0.00102
       8 <- 19         0.00122
       8 <- 20         0.00194
       8 <- 23        -0.01361
       8 <- 24         0.00342
       8 <- 25         0.00955
       8 <- 26        -0.00674
       8 <- 27        -0.00159
       8 <- 30        -0.00119
       9 <- 19         0.00142
       9 <- 20        -0.00259
       9 <- 22         0.00329
       9 <- 24        -0.00608
       9 <- 26         0.01124
       9 <- 28        -0.00159
       9 <- 29         0.00441
      10 <- 16         0.00121
      10 <- 21        -0.00114
      10 <- 22         0.00212
      10 <- 23         0.00536
      10 <- 24         0.00216
      10 <- 25        -0.00898
      10 <- 27         0.00273
      10 <- 28         0.00109
      10 <- 29        -0.00675
      11 <- 18         0.00121
      11 <- 24         0.00134
      11 <- 25         0.00145
      11 <- 28         0.00117
      12 <- 17        -0.00416
      12 <- 18        -0.00168
      12 <- 19        -0.00756
      12 <- 20        -0.01068
      12 <- 21        -0.00457
      12 <- 22         0.00635
      12 <- 23        -0.00244
      12 <- 24        -0.00455
      12 <- 25         0.00417
      12 <- 26        -0.00590
      12 <- 27         0.01173
      12 <- 29         0.00285
      12 <- 30         0.01117
      13 <- 16        -0.00445
      13 <- 17         0.00249
      13 <- 19        -0.00738
      13 <- 20         0.00634
      13 <- 21         0.00882
      13 <- 22         0.00223
      13 <- 24        -0.00249
      13 <- 28         0.01334
      13 <- 29         0.00169
      13 <- 30        -0.00368
      14 <- 16        -0.06690
      14 <- 17        -0.04832
      14 <- 20         0.00142
      14 <- 21        -0.00198
      14 <- 24         0.00147
      14 <- 27        -0.00172
      15 <- 16        -0.05083
      15 <- 17         0.06926
      15 <- 22        -0.00123
      15 <- 23         0.00189
 
 Excited state symmetry could not be determined.
 Excited State   5:      Singlet-?Sym    5.9630 eV  207.92 nm  f=0.0216  <S**2>=0.000
       1 -> 16        -0.00225
       1 -> 17        -0.00124
       2 -> 18         0.00454
       2 -> 22         0.00125
       3 -> 18         0.00391
       3 -> 22         0.00182
       4 -> 16        -0.00882
       4 -> 17         0.00180
       4 -> 19        -0.00126
       4 -> 20        -0.00120
       4 -> 21        -0.00305
       4 -> 28         0.00168
       4 -> 30         0.00119
       5 -> 16         0.01361
       5 -> 17         0.00148
       5 -> 19        -0.00164
       5 -> 20        -0.00142
       5 -> 22         0.00102
       6 -> 16         0.01889
       6 -> 17         0.00804
       6 -> 18        -0.00101
       6 -> 19         0.00315
       6 -> 21        -0.00145
       6 -> 24         0.00109
       6 -> 25        -0.00136
       7 -> 16         0.00472
       7 -> 17        -0.00354
       7 -> 18         0.09945
       7 -> 19        -0.00316
       7 -> 20         0.00448
       7 -> 21        -0.00920
       7 -> 22         0.00528
       7 -> 23        -0.00333
       7 -> 24        -0.00521
       7 -> 25         0.00225
       7 -> 26         0.00121
       7 -> 28        -0.00155
       8 -> 16         0.00239
       8 -> 18        -0.00473
       8 -> 20        -0.00204
       8 -> 23         0.00608
       8 -> 24        -0.00316
       8 -> 25        -0.00452
       8 -> 26         0.00449
       8 -> 27         0.00263
       8 -> 28         0.00117
       8 -> 29        -0.00237
       9 -> 17        -0.00158
       9 -> 18        -0.05394
       9 -> 19         0.00292
       9 -> 21         0.00449
       9 -> 22        -0.00542
       9 -> 24         0.00186
       9 -> 25         0.00179
       9 -> 26        -0.00580
       9 -> 27         0.00108
       9 -> 28         0.00111
       9 -> 29        -0.00345
      10 -> 16         0.00141
      10 -> 17         0.00390
      10 -> 18        -0.03502
      10 -> 19         0.00269
      10 -> 20        -0.00267
      10 -> 21         0.00572
      10 -> 22        -0.00183
      10 -> 23        -0.00438
      10 -> 25         0.00556
      10 -> 26         0.00156
      10 -> 27        -0.00171
      10 -> 28         0.00158
      10 -> 29         0.00384
      10 -> 30         0.00102
      11 -> 16        -0.00769
      11 -> 17         0.00214
      11 -> 18         0.00451
      11 -> 19         0.01111
      11 -> 20        -0.00207
      11 -> 21         0.00111
      11 -> 22         0.02086
      11 -> 23         0.00239
      11 -> 24         0.00895
      11 -> 25         0.00126
      11 -> 26         0.00141
      11 -> 28         0.00152
      11 -> 29         0.00115
      12 -> 16         0.22036
      12 -> 17         0.12018
      12 -> 18        -0.00185
      12 -> 19         0.00342
      12 -> 20         0.01057
      12 -> 21         0.00312
      12 -> 22        -0.00528
      12 -> 23         0.00173
      12 -> 24         0.00130
      12 -> 25        -0.00405
      12 -> 26         0.00520
      12 -> 27        -0.01003
      12 -> 28         0.00156
      12 -> 29        -0.00162
      12 -> 30        -0.00667
      13 -> 16        -0.53038
      13 -> 17         0.34840
      13 -> 18         0.00760
      13 -> 19         0.00526
      13 -> 20        -0.00412
      13 -> 21        -0.01068
      13 -> 22        -0.00373
      13 -> 23         0.00242
      13 -> 24         0.00159
      13 -> 27        -0.00222
      13 -> 28        -0.00871
      13 -> 29        -0.00205
      13 -> 30         0.00374
      14 -> 16        -0.05209
      14 -> 17        -0.05763
      14 -> 18         0.00752
      14 -> 19        -0.00467
      14 -> 20         0.03809
      14 -> 21        -0.01667
      14 -> 22         0.00560
      14 -> 23         0.00468
      14 -> 24        -0.00518
      14 -> 25         0.00156
      14 -> 26         0.00449
      14 -> 29         0.00129
      14 -> 30         0.00572
      15 -> 16        -0.06317
      15 -> 17         0.05332
      15 -> 18         0.00534
      15 -> 19        -0.02509
      15 -> 20         0.02687
      15 -> 21         0.05041
      15 -> 22         0.01215
      15 -> 23        -0.00104
      15 -> 24        -0.00514
      15 -> 25        -0.00185
      15 -> 26        -0.00122
      15 -> 27         0.00285
      15 -> 28        -0.00201
      15 -> 29         0.00133
      15 -> 30        -0.00784
       3 <- 23         0.00127
       4 <- 21        -0.00172
       7 <- 23        -0.00138
       7 <- 24        -0.00195
       8 <- 23         0.00264
       8 <- 24        -0.00147
       8 <- 25        -0.00170
       8 <- 26         0.00179
       9 <- 26        -0.00215
       9 <- 29        -0.00129
      10 <- 23        -0.00151
      10 <- 25         0.00194
      10 <- 29         0.00130
      11 <- 17         0.00122
      11 <- 19         0.00470
      11 <- 22         0.00797
      11 <- 26         0.00102
      12 <- 17         0.00157
      12 <- 19         0.00134
      12 <- 20         0.00283
      12 <- 22        -0.00155
      12 <- 26         0.00137
      12 <- 27        -0.00334
      12 <- 30        -0.00194
      13 <- 16         0.00231
      13 <- 21        -0.00186
      13 <- 28        -0.00181
      13 <- 30         0.00109
      14 <- 16         0.01129
      14 <- 17         0.01468
      14 <- 18        -0.00243
      14 <- 20         0.01470
      14 <- 21        -0.00351
      14 <- 22        -0.00106
      14 <- 26         0.00279
      14 <- 27        -0.00729
      14 <- 28         0.00170
      14 <- 29        -0.00115
      14 <- 30         0.00138
      15 <- 16         0.01133
      15 <- 17        -0.01126
      15 <- 18        -0.00122
      15 <- 19        -0.00993
      15 <- 20         0.00735
      15 <- 21         0.01331
      15 <- 22         0.00506
      15 <- 24        -0.00397
      15 <- 27         0.00163
      15 <- 28         0.00778
      15 <- 30        -0.00236
 SavETr:  write IOETrn=   770 NScale= 10 NData=  16 NLR=1 NState=    5 LETran=     100.

 **********************************************************************

            Population analysis using the SCF Density.

 **********************************************************************

 Alpha  occ. eigenvalues --   -1.44215  -1.15857  -1.14554  -0.84836  -0.84177
 Alpha  occ. eigenvalues --   -0.65425  -0.58659  -0.56702  -0.52096  -0.51547
 Alpha  occ. eigenvalues --   -0.49247  -0.43610  -0.43204  -0.35703  -0.35196
 Alpha virt. eigenvalues --    0.01974   0.02187   0.10892   0.13793   0.14467
 Alpha virt. eigenvalues --    0.14956   0.15356   0.16733   0.17045   0.18666
 Alpha virt. eigenvalues --    0.18744   0.20642   0.20711   0.21194   0.22516
          Condensed to atoms (all electrons):
               1          2          3          4          5          6
     1  C    4.129054   0.000000   0.000000   0.000000   0.000000   0.000000
     2  C    0.000000   4.142499   0.000000   0.000000   0.000000   0.000000
     3  C    0.000000   0.000000   4.142672   0.000000   0.000000   0.000000
     4  C    0.000000   0.000000   0.000000   4.134425   0.000000   0.000000
     5  C    0.000000   0.000000   0.000000   0.000000   4.117458   0.000000
     6  C    0.000000   0.000000   0.000000   0.000000   0.000000   4.121276
     7  H    0.000000   0.000000   0.000000   0.000000   0.000000   0.000000
     8  H    0.000000   0.000000   0.000000   0.000000   0.000000   0.000000
     9  H    0.000000   0.000000   0.000000   0.000000   0.000000   0.000000
    10  H    0.000000   0.000000   0.000000   0.000000   0.000000   0.000000
    11  H    0.000000   0.000000   0.000000   0.000000   0.000000   0.000000
    12  H    0.000000   0.000000   0.000000   0.000000   0.000000   0.000000
               7          8          9         10         11         12
     1  C    0.000000   0.000000   0.000000   0.000000   0.000000   0.000000
     2  C    0.000000   0.000000   0.000000   0.000000   0.000000   0.000000
     3  C    0.000000   0.000000   0.000000   0.000000   0.000000   0.000000
     4  C    0.000000   0.000000   0.000000   0.000000   0.000000   0.000000
     5  C    0.000000   0.000000   0.000000   0.000000   0.000000   0.000000
     6  C    0.000000   0.000000   0.000000   0.000000   0.000000   0.000000
     7  H    0.868734   0.000000   0.000000   0.000000   0.000000   0.000000
     8  H    0.000000   0.871923   0.000000   0.000000   0.000000   0.000000
     9  H    0.000000   0.000000   0.869558   0.000000   0.000000   0.000000
    10  H    0.000000   0.000000   0.000000   0.862697   0.000000   0.000000
    11  H    0.000000   0.000000   0.000000   0.000000   0.870549   0.000000
    12  H    0.000000   0.000000   0.000000   0.000000   0.000000   0.869156
 Mulliken charges:
               1
     1  C   -0.129054
     2  C   -0.142499
     3  C   -0.142672
     4  C   -0.134425
     5  C   -0.117458
     6  C   -0.121276
     7  H    0.131266
     8  H    0.128077
     9  H    0.130442
    10  H    0.137303
    11  H    0.129451
    12  H    0.130844
 Sum of Mulliken charges =   0.00000
 Mulliken charges with hydrogens summed into heavy atoms:
               1
     1  C    0.002212
     2  C   -0.014422
     3  C   -0.012229
     4  C    0.002879
     5  C    0.011992
     6  C    0.009568
 Charge=              0.0000 electrons
 Dipole moment (field-independent basis, Debye):
    X=              0.1256    Y=              0.0185    Z=              0.3459  Tot=              0.3685
 N-N= 1.196336252755D+02 E-N=-1.706351899906D+02  KE=-4.783725641900D+01

 Test job not archived.
 1\1\GINC-BHC0189\SP\RAM1 TD-Full\STO-5G\C6H6\BWEIGHT\21-Mar-2025\0\\# 
 AM1/STO-5G SCF=XQC TD=(read,singlets,nstates=5,root=1) nosym IOp(9/40=
 3) guess=read\\MD Step 24\\0,1\C,0,-0.72490547,-1.20443007,0.00344901\
 C,0,0.67579427,-1.19578676,0.01750971\C,0,1.3869646,0.00946444,0.01421
 296\C,0,0.70125299,1.21642651,-0.03877574\C,0,-0.69230294,1.19600347,0
 .01233455\C,0,-1.39055421,-0.00367511,-0.03919307\H,0,-1.16680567,-2.1
 7426172,0.08372856\H,0,1.28906503,-2.12618654,0.01346594\H,0,2.4962311
 4,-0.01453312,0.17572388\H,0,1.37372932,2.16155345,0.01073007\H,0,-1.1
 926901,2.17078898,0.12093513\H,0,-2.49921319,-0.10712816,0.07332331\\V
 ersion=ES64L-G16RevC.01\HF=0.0471275\RMSD=5.935e-09\PG=C01 [X(C6H6)]\\
 @


 IF I AM NOT FOR MYSELF, WHO WILL BE?
 BUT IF I AM ONLY FOR MYSELF, WHAT AM I?
 THOUGH A SEEKER SINCE MY BIRTH,
 HERE IS ALL I'VE LEARNED ON EARTH,
 THIS IS THE GIST OF WHAT I KNOW:
 GIVE ADVICE AND BUY A FOE.

 PRESSED FOR RULES AND VERITIES,
 ALL I RECOLLECT ARE THESE:
 FEED A COLD TO STARVE A FEVER,
 ARGUE WITH NO TRUE-BELIEVER.
 THINK-TOO-LONG IS NEVER-ACT,
 SCRATCH A MYTH AND FIND A FACT.

 STITCH IN TIME SAVES TWENTY STITCHES,
 GIVE THE RICH TO PLEASE THEM, RICHES.
 GIVE TO LOVE YOU HEARTH AND HALL,
 BUT DO NOT GIVE ADVICE AT ALL.

                                  -- HILLEL
 Job cpu time:       0 days  0 hours  0 minutes  1.1 seconds.
 Elapsed time:       0 days  0 hours  0 minutes  0.8 seconds.
 File lengths (MBytes):  RWF=     34 Int=      0 D2E=      0 Chk=      2 Scr=      1
 Normal termination of Gaussian 16 at Fri Mar 21 15:03:20 2025.
