 Entering Gaussian System, Link 0=g16
 Initial command:
 /software/gaussian/g16-c01/avx2/g16/l1.exe "/local_scratch/28554152/Gau-25785.inp" -scrdir="/local_scratch/28554152/"
 Entering Link 1 = /software/gaussian/g16-c01/avx2/g16/l1.exe PID=     25804.
  
 Copyright (c) 1988-2019, Gaussian, Inc.  All Rights Reserved.
  
 This is part of the Gaussian(R) 16 program.  It is based on
 the Gaussian(R) 09 system (copyright 2009, Gaussian, Inc.),
 the Gaussian(R) 03 system (copyright 2003, Gaussian, Inc.),
 the Gaussian(R) 98 system (copyright 1998, Gaussian, Inc.),
 the Gaussian(R) 94 system (copyright 1995, Gaussian, Inc.),
 the Gaussian 92(TM) system (copyright 1992, Gaussian, Inc.),
 the Gaussian 90(TM) system (copyright 1990, Gaussian, Inc.),
 the Gaussian 88(TM) system (copyright 1988, Gaussian, Inc.),
 the Gaussian 86(TM) system (copyright 1986, Carnegie Mellon
 University), and the Gaussian 82(TM) system (copyright 1983,
 Carnegie Mellon University). Gaussian is a federally registered
 trademark of Gaussian, Inc.
  
 This software contains proprietary and confidential information,
 including trade secrets, belonging to Gaussian, Inc.
  
 This software is provided under written license and may be
 used, copied, transmitted, or stored only in accord with that
 written license.
  
 The following legend is applicable only to US Government
 contracts under FAR:
  
                    RESTRICTED RIGHTS LEGEND
  
 Use, reproduction and disclosure by the US Government is
 subject to restrictions as set forth in subparagraphs (a)
 and (c) of the Commercial Computer Software - Restricted
 Rights clause in FAR 52.227-19.
  
 Gaussian, Inc.
 340 Quinnipiac St., Bldg. 40, Wallingford CT 06492
  
  
 ---------------------------------------------------------------
 Warning -- This program may not be used in any manner that
 competes with the business of Gaussian, Inc. or will provide
 assistance to any competitor of Gaussian, Inc.  The licensee
 of this program is prohibited from giving any competitor of
 Gaussian, Inc. access to this program.  By using this program,
 the user acknowledges that Gaussian, Inc. is engaged in the
 business of creating and licensing software in the field of
 computational chemistry and represents and warrants to the
 licensee that it is not a competitor of Gaussian, Inc. and that
 it will not use this program in any manner prohibited above.
 ---------------------------------------------------------------
  

 Cite this work as:
 Gaussian 16, Revision C.01,
 M. J. Frisch, G. W. Trucks, H. B. Schlegel, G. E. Scuseria, 
 M. A. Robb, J. R. Cheeseman, G. Scalmani, V. Barone, 
 G. A. Petersson, H. Nakatsuji, X. Li, M. Caricato, A. V. Marenich, 
 J. Bloino, B. G. Janesko, R. Gomperts, B. Mennucci, H. P. Hratchian, 
 J. V. Ortiz, A. F. Izmaylov, J. L. Sonnenberg, D. Williams-Young, 
 F. Ding, F. Lipparini, F. Egidi, J. Goings, B. Peng, A. Petrone, 
 T. Henderson, D. Ranasinghe, V. G. Zakrzewski, J. Gao, N. Rega, 
 G. Zheng, W. Liang, M. Hada, M. Ehara, K. Toyota, R. Fukuda, 
 J. Hasegawa, M. Ishida, T. Nakajima, Y. Honda, O. Kitao, H. Nakai, 
 T. Vreven, K. Throssell, J. A. Montgomery, Jr., J. E. Peralta, 
 F. Ogliaro, M. J. Bearpark, J. J. Heyd, E. N. Brothers, K. N. Kudin, 
 V. N. Staroverov, T. A. Keith, R. Kobayashi, J. Normand, 
 K. Raghavachari, A. P. Rendell, J. C. Burant, S. S. Iyengar, 
 J. Tomasi, M. Cossi, J. M. Millam, M. Klene, C. Adamo, R. Cammi, 
 J. W. Ochterski, R. L. Martin, K. Morokuma, O. Farkas, 
 J. B. Foresman, and D. J. Fox, Gaussian, Inc., Wallingford CT, 2019.
 
 ******************************************
 Gaussian 16:  ES64L-G16RevC.01  3-Jul-2019
                21-Mar-2025 
 ******************************************
 %oldchk=../TD_OLD_S1/geometry.chk
 %chk=geometry.chk
 %nprocshared=1
 Will use up to    1 processors via shared memory.
 %mem=2GB
 Copying data from "../TD_OLD_S1/geometry.chk" to current chk file "geometry.chk"
 IOpt=  2 FromEx=T IUOpen= 4 IOptOp= 5 NList=   0 IFRang= 0 IUIn= 4 IUOut= 2.
 ----------------------------------------------------------------------
 # AM1/STO-5G SCF=XQC TD=(read,singlets,nstates=5,root=1) nosym IOp(9/4
 0=3) guess=read
 ----------------------------------------------------------------------
 1/38=1,172=1/1;
 2/12=2,15=1,17=6,18=5,40=1/2;
 3/5=2,6=5,25=1,41=700000,116=-2/1,2,3,8;
 4/5=1,35=1/1;
 5/5=2,8=3,13=1,35=1,38=6/2,8;
 8/6=1,10=90,107=1,108=5/1;
 9/8=1,40=3,41=5,42=1,48=1,49=13,70=2/14;
 6/7=2,8=2,9=2,10=2/1;
 99/5=1,9=1/99;
 ----------
 MD Step 24
 ----------
 Symbolic Z-matrix:
 Charge =  0 Multiplicity = 1
 C                    -0.68137  -1.17738  -0.01261 
 C                     0.69953  -1.22576  -0.04105 
 C                     1.34561   0.00404   0.05749 
 C                     0.72366   1.20434  -0.03692 
 C                    -0.68353   1.21145  -0.06532 
 C                    -1.41374   0.00688   0.04407 
 H                    -1.12566  -2.20215   0.03748 
 H                     1.31363  -2.13695   0.01825 
 H                     2.53478  -0.07018   0.09139 
 H                     1.152     2.17696   0.1942 
 H                    -1.26728   2.14745  -0.04201 
 H                    -2.43838  -0.10731   0.16774 
 
                          Input orientation:                          
 ---------------------------------------------------------------------
 Center     Atomic      Atomic             Coordinates (Angstroms)
 Number     Number       Type             X           Y           Z
 ---------------------------------------------------------------------
      1          6           0       -0.681372   -1.177382   -0.012611
      2          6           0        0.699528   -1.225756   -0.041047
      3          6           0        1.345614    0.004036    0.057493
      4          6           0        0.723663    1.204344   -0.036918
      5          6           0       -0.683531    1.211454   -0.065324
      6          6           0       -1.413738    0.006884    0.044070
      7          1           0       -1.125657   -2.202153    0.037479
      8          1           0        1.313630   -2.136952    0.018255
      9          1           0        2.534782   -0.070184    0.091392
     10          1           0        1.151996    2.176958    0.194198
     11          1           0       -1.267284    2.147452   -0.042005
     12          1           0       -2.438379   -0.107313    0.167737
 ---------------------------------------------------------------------
                    Distance matrix (angstroms):
                    1          2          3          4          5
     1  C    0.000000
     2  C    1.382040   0.000000
     3  C    2.347198   1.392669   0.000000
     4  C    2.765381   2.430223   1.355166   0.000000
     5  C    2.389418   2.802398   2.364397   1.407499   0.000000
     6  C    1.393578   2.447966   2.759386   2.451316   1.412854
     7  H    1.118058   2.071429   3.312831   3.876821   3.443654
     8  H    2.213993   1.100417   2.141587   3.393430   3.899675
     9  H    3.402991   2.172796   1.191963   2.218340   3.467664
    10  H    3.828264   3.440717   2.185811   1.087595   2.090146
    11  H    3.376193   3.904726   3.381031   2.203033   1.103361
    12  H    2.065101   3.337808   3.787236   3.429408   2.207477
                    6          7          8          9         10
     6  C    0.000000
     7  H    2.227752   0.000000
     8  H    3.469184   2.440234   0.000000
     9  H    3.949555   4.236391   2.401685   0.000000
    10  H    3.363740   4.938510   4.320522   2.640514   0.000000
    11  H    2.147298   4.352637   5.002087   4.403568   2.430962
    12  H    1.038376   2.475593   4.268413   4.973885   4.255512
                   11         12
    11  H    0.000000
    12  H    2.549397   0.000000
 Symmetry turned off by external request.
 Stoichiometry    C6H6
 Framework group  C1[X(C6H6)]
 Deg. of freedom    30
 Full point group                 C1      NOp   1
 Rotational constants (GHZ):           5.7815226           5.6693228           2.8698168
 Standard basis: VSTO-5G (5D, 7F)
    30 basis functions,   180 primitive gaussians,    30 cartesian basis functions
    15 alpha electrons       15 beta electrons
       nuclear repulsion energy       119.8150629361 Hartrees.
 Integral buffers will be    131072 words long.
 Regular integral format.
 Two-electron integral symmetry is turned off.
 Do NDO integrals.
 One-electron integrals computed using PRISM.
 NBasis=    30 RedAO= F EigKep=  0.00D+00  NBF=    30
 NBsUse=    30 1.00D-04 EigRej=  0.00D+00 NBFU=    30
 Initial guess from the checkpoint file:  "geometry.chk"
 B after Tr=     0.000519   -0.000836    0.000276
         Rot=    1.000000    0.000031    0.000433   -0.000335 Ang=   0.06 deg.
 Keep J ints in memory in canonical form, NReq=861816.
 Overlap will be assumed to be unity.
 Requested convergence on RMS density matrix=1.00D-08 within  32 cycles.
 Requested convergence on MAX density matrix=1.00D-06.
 Requested convergence on             energy=1.00D-06.
 No special actions if energy rises.
 SCF Done:  E(RAM1) =  0.583391135920E-01 A.U. after   12 cycles
            NFock= 11  Conv=0.70D-08     -V/T= 1.0012
 QCSCF skips out because SCF is already converged.
 Range of M.O.s used for correlation:     1    30
 NBasis=    30 NAE=    15 NBE=    15 NFC=     0 NFV=     0
 NROrb=     30 NOA=    15 NOB=    15 NVA=    15 NVB=    15
 Keep J ints in memory in canonical form, NReq=862156.
 Generating guess from checkpoint file densities.
 Convergence on wavefunction:    0.001000000000000
 Iteration     1 Dimension    10 NMult     0 NNew     10
 CISAX will form    10 AO SS matrices at one time.
 Iteration     2 Dimension    20 NMult    10 NNew     10
 Iteration     3 Dimension    30 NMult    20 NNew     10
 Iteration     4 Dimension    40 NMult    30 NNew     10
 Iteration     5 Dimension    46 NMult    40 NNew      6
 Iteration     6 Dimension    52 NMult    46 NNew      6
 Iteration     7 Dimension    58 NMult    52 NNew      6
 Iteration     8 Dimension    62 NMult    58 NNew      4
 Iteration     9 Dimension    64 NMult    62 NNew      2
 Iteration    10 Dimension    66 NMult    64 NNew      2
 ***********************************************************************
 Excited states from <AA,BB:AA,BB> singles matrix:
 ***********************************************************************
 
 Ground to excited state transition densities written to RWF  633
 Ground to excited state transition electric dipole moments (Au):
       state          X           Y           Z        Dip. S.      Osc.
         1         0.0111     -0.0216      0.0013      0.0006      0.0001
         2         0.0716     -0.1903     -0.0608      0.0450      0.0046
         3         1.4692      0.5963     -0.0275      2.5148      0.3331
         4        -0.5904      1.4520     -0.0648      2.4611      0.3296
         5        -0.3594     -0.1517     -0.0390      0.1537      0.0216
 Ground to excited state transition velocity dipole moments (Au):
       state          X           Y           Z        Dip. S.      Osc.
         1        -0.0018      0.0041     -0.0007      0.0000      0.0001
         2        -0.0180      0.0483     -0.0023      0.0027      0.0116
         3        -0.4537     -0.1802     -0.0048      0.2384      0.7997
         4         0.1827     -0.4578     -0.0182      0.2433      0.8075
         5         0.1178      0.0482     -0.0182      0.0165      0.0524
 Ground to excited state transition magnetic dipole moments (Au):
       state          X           Y           Z
         1        -0.0344     -0.0048     -0.0344
         2        -0.0192     -0.1297     -0.0956
         3         0.0172     -0.0271     -0.0639
         4         0.1040      0.0157     -0.0226
         5        -0.0985      0.1591     -0.1598
 Ground to excited state transition velocity quadrupole moments (Au):
       state          XX          YY          ZZ          XY          XZ          YZ
         1        -0.0014      0.0016      0.0004     -0.0006     -0.0030     -0.0192
         2        -0.0884      0.0180     -0.0013     -0.0159      0.0869     -0.0260
         3         0.0787     -0.0618     -0.0018     -0.0020     -0.0867      0.0079
         4         0.0037     -0.0255     -0.0143      0.0592      0.0183      0.0883
         5        -0.0471      0.0769      0.0186     -0.0299      0.0335      0.0151
 <0|del|b> * <b|rxdel|0> + <0|del|b> * <b|delr+rdel|0>
 Rotatory Strengths (R) in cgs (10**-40 erg-esu-cm/Gauss)
       state          XX          YY          ZZ    R(velocity)    E-M Angle
         1         0.0462      0.3028     -0.0126      0.1121       90.00
         2       -23.5087      2.3097     -5.0407     -8.7466      132.83
         3       -18.5429    -19.6990     29.0067     -3.0784       94.26
         4         0.8958     64.4570    -22.3168     14.3453       76.68
         5        15.9823    -12.5304     -6.9053     -1.1511       91.86
 1/2[<0|r|b>*<b|rxdel|0> + (<0|rxdel|b>*<b|r|0>)*]
 Rotatory Strengths (R) in cgs (10**-40 erg-esu-cm/Gauss)
       state          XX          YY          ZZ     R(length)
         1         0.2700     -0.0736      0.0325      0.0763
         2         0.9740    -17.4518     -4.1090     -6.8622
         3       -17.8298     11.4270     -1.2452     -2.5493
         4        43.4224    -16.1164     -1.0381      8.7560
         5       -25.0465     17.0680     -4.4119     -4.1302
  1/2[<0|del|b>*<b|r|0> + (<0|r|b>*<b|del|0>)*] (Au)
       state          X           Y           Z        Dip. S.   Osc.(frdel)
         1        -0.0000     -0.0001     -0.0000      0.0001      0.0001
         2        -0.0013     -0.0092      0.0001      0.0103      0.0069
         3        -0.6666     -0.1075      0.0001      0.7739      0.5159
         4        -0.1078     -0.6648      0.0012      0.7714      0.5143
         5        -0.0423     -0.0073      0.0007      0.0489      0.0326

 Excitation energies and oscillator strengths:
 
 Excited state symmetry could not be determined.
 Excited State   1:      Singlet-?Sym    3.8444 eV  322.50 nm  f=0.0001  <S**2>=0.000
       2 -> 16        -0.00102
       2 -> 23         0.00322
       2 -> 26         0.00208
       3 -> 24        -0.00303
       3 -> 25        -0.00215
       4 -> 17         0.00118
       4 -> 27         0.00257
       4 -> 29         0.00115
       5 -> 16        -0.00256
       5 -> 18        -0.00196
       5 -> 28        -0.00275
       7 -> 16         0.00141
       7 -> 18         0.00134
       7 -> 29        -0.00218
       8 -> 16         0.00103
       8 -> 18         0.00433
       8 -> 22        -0.00103
       8 -> 29         0.00127
       9 -> 17         0.00159
       9 -> 23        -0.00264
       9 -> 24         0.00177
       9 -> 25         0.00124
       9 -> 26        -0.00245
      10 -> 18         0.00348
      10 -> 23        -0.00153
      10 -> 24        -0.00230
      10 -> 25        -0.00215
      10 -> 26        -0.00126
      11 -> 16        -0.00278
      11 -> 17         0.00399
      11 -> 20         0.00174
      11 -> 21         0.00148
      11 -> 22        -0.00142
      11 -> 23         0.00217
      11 -> 26         0.00146
      11 -> 27         0.00427
      11 -> 28        -0.00311
      11 -> 29         0.00277
      12 -> 17         0.00116
      12 -> 28        -0.00133
      13 -> 16         0.00173
      13 -> 17         0.00178
      13 -> 28        -0.00113
      14 -> 16         0.50159
      14 -> 17         0.06315
      14 -> 18        -0.00761
      14 -> 19        -0.00329
      14 -> 20        -0.00246
      14 -> 23        -0.00136
      14 -> 24        -0.00360
      14 -> 25         0.00248
      14 -> 26        -0.00244
      14 -> 27         0.00209
      14 -> 29        -0.00275
      14 -> 30         0.00162
      15 -> 16         0.07546
      15 -> 17        -0.49745
      15 -> 18         0.00223
      15 -> 19         0.00499
      15 -> 20        -0.00190
      15 -> 21         0.00108
      15 -> 22         0.00323
      15 -> 23         0.00335
      15 -> 24        -0.00606
      15 -> 25         0.00168
      15 -> 26         0.00129
      15 -> 27         0.00504
      15 -> 30         0.00108
       2 <- 23         0.00113
       4 <- 27         0.00198
       5 <- 28        -0.00215
       7 <- 29        -0.00160
       8 <- 17        -0.00121
      10 <- 16        -0.00209
      12 <- 17         0.00117
      13 <- 16         0.00398
      13 <- 17         0.00117
      14 <- 16         0.06668
      14 <- 17         0.01006
      14 <- 18        -0.00210
      14 <- 19        -0.00146
      14 <- 20        -0.00144
      14 <- 24        -0.00242
      15 <- 16         0.00762
      15 <- 17        -0.06724
      15 <- 19         0.00182
      15 <- 20        -0.00191
      15 <- 24        -0.00196
 This state for optimization and/or second-order correction.
 Total Energy, E(TD-HF/TD-DFT) =  0.199618877664    
 Copying the excited state density for this state as the 1-particle RhoCI density.
 
 Excited state symmetry could not be determined.
 Excited State   2:      Singlet-?Sym    4.1759 eV  296.90 nm  f=0.0046  <S**2>=0.000
       1 -> 18         0.00125
       1 -> 21        -0.00166
       2 -> 16         0.00218
       2 -> 17        -0.00188
       2 -> 19         0.00112
       2 -> 23        -0.00115
       2 -> 24         0.00220
       2 -> 25        -0.00175
       2 -> 26         0.00135
       3 -> 22         0.00112
       3 -> 23         0.00259
       3 -> 24         0.00177
       3 -> 25        -0.00103
       3 -> 26        -0.00164
       4 -> 18         0.00295
       4 -> 20        -0.00163
       4 -> 21        -0.00186
       4 -> 23         0.00185
       4 -> 24         0.00216
       4 -> 25         0.00146
       4 -> 28        -0.00430
       5 -> 17        -0.00217
       5 -> 18         0.00181
       5 -> 22         0.00109
       5 -> 24        -0.00137
       5 -> 27        -0.00451
       5 -> 29        -0.00171
       6 -> 16         0.00105
       6 -> 18         0.00127
       6 -> 20         0.00123
       6 -> 22        -0.00205
       6 -> 23         0.00215
       7 -> 16         0.00208
       7 -> 17         0.00277
       7 -> 18        -0.00101
       7 -> 22        -0.00166
       7 -> 23         0.00218
       7 -> 26         0.00157
       8 -> 16        -0.00176
       8 -> 17        -0.00212
       8 -> 19        -0.00155
       8 -> 23         0.00243
       8 -> 24        -0.00263
       8 -> 25        -0.00292
       8 -> 26         0.00334
       8 -> 27         0.00307
       8 -> 29        -0.00113
       9 -> 16        -0.00110
       9 -> 17         0.00218
       9 -> 18         0.01289
       9 -> 19        -0.00152
       9 -> 20        -0.00319
       9 -> 22         0.00140
       9 -> 23        -0.00238
       9 -> 24        -0.00372
       9 -> 25         0.00525
       9 -> 27         0.00113
       9 -> 28         0.00214
       9 -> 29        -0.00122
      10 -> 17         0.00346
      10 -> 18         0.00361
      10 -> 19         0.00178
      10 -> 21         0.00110
      10 -> 23         0.00371
      10 -> 24         0.00128
      10 -> 25         0.00158
      10 -> 26        -0.00683
      10 -> 27         0.00272
      10 -> 28         0.00359
      10 -> 29        -0.00341
      11 -> 16         0.00467
      11 -> 17         0.00172
      11 -> 18         0.10745
      11 -> 19         0.00388
      11 -> 20        -0.00619
      11 -> 21         0.00745
      11 -> 22         0.01139
      11 -> 23        -0.00197
      11 -> 24        -0.00153
      11 -> 27         0.00316
      11 -> 28         0.00321
      11 -> 29         0.00118
      12 -> 16         0.00332
      12 -> 17         0.00134
      12 -> 18         0.01443
      12 -> 19         0.00246
      12 -> 20         0.00654
      12 -> 21         0.01354
      12 -> 22        -0.00334
      12 -> 24        -0.00516
      12 -> 25        -0.00335
      12 -> 26        -0.00260
      12 -> 27        -0.00251
      12 -> 28        -0.00126
      12 -> 30        -0.00351
      13 -> 16         0.00134
      13 -> 18         0.00768
      13 -> 19        -0.00467
      13 -> 20         0.00210
      13 -> 21        -0.00190
      13 -> 22         0.00430
      13 -> 23        -0.00114
      13 -> 26         0.00231
      13 -> 27        -0.00781
      13 -> 28        -0.00354
      13 -> 29        -0.00257
      14 -> 16        -0.06457
      14 -> 17         0.44056
      14 -> 18         0.00426
      14 -> 19        -0.00517
      14 -> 20         0.00152
      14 -> 22        -0.00547
      14 -> 23         0.00120
      14 -> 24         0.00805
      14 -> 26        -0.00133
      14 -> 27        -0.00308
      14 -> 29        -0.00286
      15 -> 16         0.53331
      15 -> 17         0.07201
      15 -> 18         0.00410
      15 -> 19        -0.00322
      15 -> 20        -0.00282
      15 -> 21         0.00129
      15 -> 23         0.00108
      15 -> 24        -0.00611
      15 -> 25         0.00364
      15 -> 26        -0.00255
      15 -> 28        -0.00236
      15 -> 29         0.00156
       1 <- 18         0.00110
       1 <- 19         0.00168
       1 <- 20         0.00205
       1 <- 21        -0.00398
       1 <- 22        -0.00216
       1 <- 30         0.00225
       2 <- 16         0.00159
       2 <- 19         0.00132
       2 <- 23        -0.00178
       2 <- 24         0.00552
       2 <- 25         0.00141
       3 <- 20         0.00117
       3 <- 22         0.00139
       3 <- 23         0.00628
       3 <- 24         0.00249
       3 <- 26         0.00166
       4 <- 18         0.00106
       4 <- 23         0.00198
       4 <- 24         0.00117
       4 <- 28        -0.00505
       5 <- 20        -0.00165
       5 <- 24        -0.00129
       5 <- 27        -0.00516
       5 <- 29        -0.00218
       6 <- 22        -0.00133
       6 <- 23         0.00147
       6 <- 30         0.00162
       7 <- 16         0.00133
       7 <- 17         0.00155
       7 <- 23         0.00105
       7 <- 29        -0.00131
       8 <- 23         0.00156
       8 <- 24        -0.00105
       8 <- 25        -0.00140
       8 <- 26         0.00183
       8 <- 27         0.00316
       8 <- 29        -0.00376
       9 <- 16        -0.00162
       9 <- 18        -0.00211
       9 <- 19        -0.00129
       9 <- 20        -0.00167
       9 <- 21        -0.00116
       9 <- 23        -0.00254
       9 <- 24        -0.00410
       9 <- 26        -0.00175
      10 <- 17        -0.00171
      10 <- 23         0.00451
      10 <- 27         0.00193
      10 <- 28         0.00160
      10 <- 29        -0.00116
      11 <- 16        -0.00211
      11 <- 17        -0.00143
      11 <- 18        -0.01397
      12 <- 18        -0.00128
      12 <- 20         0.00220
      12 <- 21         0.00428
      12 <- 22        -0.00131
      12 <- 23        -0.00120
      12 <- 24        -0.00229
      12 <- 25        -0.00175
      12 <- 26        -0.00103
      12 <- 27        -0.00209
      12 <- 28         0.00179
      12 <- 30        -0.00145
      13 <- 17         0.00196
      13 <- 19        -0.00117
      13 <- 22         0.00124
      13 <- 27        -0.00561
      13 <- 28        -0.00253
      13 <- 29        -0.00211
      14 <- 16        -0.00315
      14 <- 17         0.02425
      14 <- 18        -0.00103
      14 <- 19        -0.00188
      14 <- 20         0.00171
      14 <- 22        -0.00172
      14 <- 24         0.00213
      14 <- 26         0.00112
      15 <- 16         0.00450
      15 <- 17         0.00188
      15 <- 18        -0.00284
      15 <- 19        -0.00164
      15 <- 20        -0.00156
      15 <- 24        -0.00212
      15 <- 25        -0.00100
 
 Excited state symmetry could not be determined.
 Excited State   3:      Singlet-?Sym    5.4070 eV  229.30 nm  f=0.3331  <S**2>=0.000
       1 -> 17        -0.00137
       1 -> 27        -0.00209
       2 -> 16         0.00256
       2 -> 18         0.00304
       2 -> 19        -0.00217
       2 -> 20        -0.00165
       2 -> 22        -0.00444
       2 -> 23         0.00174
       2 -> 24         0.00226
       2 -> 25         0.00209
       2 -> 27        -0.00122
       2 -> 29         0.00130
       3 -> 16        -0.00105
       3 -> 17        -0.00169
       3 -> 18        -0.00223
       3 -> 19         0.00265
       3 -> 20         0.00172
       3 -> 22         0.00357
       3 -> 23        -0.00276
       3 -> 26        -0.00198
       3 -> 27        -0.00129
       4 -> 16         0.00350
       4 -> 17        -0.00185
       4 -> 18         0.00179
       4 -> 19         0.00807
       4 -> 21        -0.00248
       4 -> 22        -0.00389
       4 -> 23         0.00205
       4 -> 26        -0.00131
       4 -> 28         0.00114
       4 -> 29         0.00231
       4 -> 30         0.00382
       5 -> 16         0.01115
       5 -> 18         0.00324
       5 -> 19         0.00455
       5 -> 20         0.01074
       5 -> 21        -0.00545
       5 -> 22        -0.00602
       5 -> 23         0.00239
       5 -> 24        -0.00127
       5 -> 25        -0.00102
       5 -> 27        -0.00139
       5 -> 30         0.00684
       6 -> 17        -0.00571
       6 -> 19         0.01212
       6 -> 20        -0.00970
       6 -> 21         0.00176
       6 -> 23         0.00285
       6 -> 24        -0.00297
       6 -> 25        -0.00144
       6 -> 26        -0.00174
       6 -> 27        -0.00486
       6 -> 28        -0.00223
       7 -> 16        -0.00850
       7 -> 17         0.00238
       7 -> 18        -0.00117
       7 -> 19        -0.01243
       7 -> 20        -0.00185
       7 -> 21        -0.00391
       7 -> 22         0.00683
       7 -> 23         0.01270
       7 -> 24        -0.02211
       7 -> 25        -0.01404
       7 -> 26         0.00419
       7 -> 27         0.00301
       7 -> 29         0.00119
       7 -> 30        -0.00215
       8 -> 16        -0.01083
       8 -> 17         0.00565
       8 -> 18        -0.01826
       8 -> 19        -0.00349
       8 -> 20        -0.00694
       8 -> 21        -0.00386
       8 -> 22        -0.00589
       8 -> 23        -0.02950
       8 -> 24        -0.01388
       8 -> 25        -0.01529
       8 -> 26        -0.01901
       8 -> 28        -0.00196
       9 -> 16        -0.01284
       9 -> 17         0.00531
       9 -> 18        -0.00972
       9 -> 20        -0.00820
       9 -> 21        -0.00410
       9 -> 22        -0.00583
       9 -> 24        -0.01469
       9 -> 25        -0.02495
       9 -> 26         0.00999
       9 -> 27         0.01264
       9 -> 28        -0.00440
       9 -> 29        -0.01938
       9 -> 30         0.00172
      10 -> 16        -0.02741
      10 -> 17        -0.00465
      10 -> 18        -0.03078
      10 -> 19        -0.00889
      10 -> 20        -0.00140
      10 -> 21        -0.00195
      10 -> 22         0.01148
      10 -> 23        -0.02432
      10 -> 25        -0.01277
      10 -> 26        -0.02018
      10 -> 27        -0.00363
      10 -> 28         0.00186
      10 -> 29         0.00282
      10 -> 30        -0.00571
      11 -> 17        -0.00798
      11 -> 18         0.00520
      11 -> 19         0.00293
      11 -> 20         0.00393
      11 -> 21        -0.00435
      11 -> 22        -0.00103
      11 -> 23         0.00697
      11 -> 25         0.00286
      11 -> 26         0.00376
      11 -> 27        -0.00385
      11 -> 29         0.00315
      11 -> 30         0.00179
      12 -> 16         0.02387
      12 -> 17        -0.01798
      12 -> 18        -0.00597
      12 -> 19        -0.03021
      12 -> 20         0.03588
      12 -> 21         0.00368
      12 -> 22         0.00185
      12 -> 23        -0.00989
      12 -> 24         0.00141
      12 -> 26         0.01004
      12 -> 27         0.03955
      12 -> 28         0.00530
      12 -> 29         0.01117
      13 -> 16         0.13003
      13 -> 17        -0.02347
      13 -> 18         0.02274
      13 -> 19         0.02578
      13 -> 20         0.02512
      13 -> 21         0.01115
      13 -> 22        -0.03196
      13 -> 23         0.02001
      13 -> 25        -0.00222
      13 -> 26        -0.01905
      13 -> 27         0.00642
      13 -> 28        -0.04186
      13 -> 29         0.01049
      13 -> 30         0.03110
      14 -> 16        -0.48655
      14 -> 17         0.00439
      14 -> 18        -0.01881
      14 -> 19        -0.00444
      14 -> 20        -0.00290
      14 -> 21        -0.01091
      14 -> 22         0.00402
      14 -> 24        -0.00622
      14 -> 25        -0.01051
      14 -> 26         0.00261
      14 -> 27        -0.00172
      14 -> 28         0.00591
      14 -> 29        -0.00126
      15 -> 16         0.00291
      15 -> 17        -0.48923
      15 -> 18        -0.00136
      15 -> 20         0.00989
      15 -> 21        -0.00185
      15 -> 23         0.01860
      15 -> 24         0.00126
      15 -> 25         0.00173
      15 -> 26         0.01552
      15 -> 27         0.00798
      15 -> 28        -0.00106
      15 -> 29         0.00400
      15 -> 30         0.00321
       1 <- 19         0.00113
       1 <- 20        -0.00126
       1 <- 27        -0.00289
       1 <- 28        -0.00162
       1 <- 29        -0.00143
       2 <- 22        -0.00246
       2 <- 23         0.00195
       2 <- 24         0.00394
       2 <- 25         0.00262
       2 <- 26         0.00126
       2 <- 27        -0.00147
       2 <- 28         0.00112
       2 <- 29         0.00174
       3 <- 19         0.00146
       3 <- 20         0.00103
       3 <- 22         0.00201
       3 <- 23        -0.00459
       3 <- 24         0.00144
       3 <- 25         0.00145
       3 <- 26        -0.00257
       3 <- 27        -0.00125
       3 <- 29         0.00145
       4 <- 19         0.00443
       4 <- 21        -0.00254
       4 <- 22        -0.00269
       4 <- 23         0.00150
       4 <- 26        -0.00118
       4 <- 30         0.00239
       5 <- 18         0.00198
       5 <- 19         0.00288
       5 <- 20         0.00601
       5 <- 21        -0.00403
       5 <- 22        -0.00429
       5 <- 23         0.00138
       5 <- 26        -0.00104
       5 <- 30         0.00426
       6 <- 19         0.00496
       6 <- 20        -0.00359
       6 <- 21         0.00102
       6 <- 23         0.00155
       6 <- 24        -0.00153
       6 <- 26        -0.00114
       7 <- 19        -0.00450
       7 <- 21        -0.00141
       7 <- 22         0.00265
       7 <- 23         0.00521
       7 <- 24        -0.00904
       7 <- 25        -0.00556
       7 <- 27         0.00136
       8 <- 17         0.00125
       8 <- 19        -0.00112
       8 <- 20        -0.00299
       8 <- 21        -0.00166
       8 <- 22        -0.00191
       8 <- 23        -0.01191
       8 <- 24        -0.00749
       8 <- 25        -0.00536
       8 <- 26        -0.00738
       8 <- 28        -0.00114
       9 <- 20        -0.00320
       9 <- 21        -0.00134
       9 <- 24        -0.00687
       9 <- 25        -0.01020
       9 <- 26         0.00345
       9 <- 27         0.00360
       9 <- 28        -0.00166
       9 <- 29        -0.00619
      10 <- 16        -0.00236
      10 <- 19        -0.00279
      10 <- 20        -0.00121
      10 <- 22         0.00445
      10 <- 23        -0.01003
      10 <- 24        -0.00103
      10 <- 25        -0.00440
      10 <- 26        -0.00846
      10 <- 30        -0.00270
      11 <- 16         0.00147
      11 <- 23         0.00122
      11 <- 25         0.00174
      11 <- 28         0.00137
      12 <- 16         0.00111
      12 <- 19        -0.00835
      12 <- 20         0.00971
      12 <- 21         0.00127
      12 <- 23        -0.00296
      12 <- 26         0.00273
      12 <- 27         0.01274
      12 <- 28         0.00163
      12 <- 29         0.00391
      13 <- 16         0.00403
      13 <- 18         0.00406
      13 <- 19         0.00748
      13 <- 20         0.00811
      13 <- 22        -0.00996
      13 <- 23         0.00522
      13 <- 25        -0.00109
      13 <- 26        -0.00646
      13 <- 27         0.00188
      13 <- 28        -0.01334
      13 <- 29         0.00306
      13 <- 30         0.01055
      14 <- 16         0.08485
      14 <- 23        -0.00143
      14 <- 24        -0.00187
      14 <- 26        -0.00145
      15 <- 17         0.08336
      15 <- 18         0.00215
      15 <- 19        -0.00340
      15 <- 20         0.00188
      15 <- 27         0.00139
 
 Excited state symmetry could not be determined.
 Excited State   4:      Singlet-?Sym    5.4656 eV  226.84 nm  f=0.3296  <S**2>=0.000
       1 -> 16         0.00136
       1 -> 27        -0.00101
       1 -> 28         0.00199
       2 -> 18         0.00229
       2 -> 19        -0.00219
       2 -> 20        -0.00179
       2 -> 22        -0.00423
       2 -> 23        -0.00135
       2 -> 26        -0.00151
       2 -> 29        -0.00126
       3 -> 18         0.00366
       3 -> 19        -0.00348
       3 -> 20        -0.00271
       3 -> 22        -0.00444
       3 -> 24        -0.00167
       3 -> 25        -0.00179
       3 -> 26        -0.00132
       3 -> 29         0.00163
       4 -> 16         0.00234
       4 -> 19        -0.00408
       4 -> 21         0.01285
       4 -> 22         0.00218
       4 -> 23        -0.00291
       4 -> 24        -0.00195
       4 -> 26         0.00114
       4 -> 27        -0.00129
       4 -> 28         0.00188
       4 -> 29        -0.00149
       4 -> 30        -0.00641
       5 -> 16        -0.00311
       5 -> 17        -0.00688
       5 -> 19        -0.00327
       5 -> 20         0.00484
       5 -> 21        -0.00738
       5 -> 27        -0.00139
       5 -> 28        -0.00203
       5 -> 30         0.00438
       6 -> 16         0.00701
       6 -> 17         0.00103
       6 -> 18         0.00125
       6 -> 19        -0.00356
       6 -> 20        -0.00897
       6 -> 21        -0.00969
       6 -> 22         0.00487
       6 -> 23        -0.00518
       6 -> 24        -0.00277
       6 -> 25        -0.00102
       6 -> 26         0.00163
       6 -> 27        -0.00291
       6 -> 28         0.00467
       6 -> 30        -0.00153
       7 -> 16        -0.00507
       7 -> 17         0.00388
       7 -> 18         0.01559
       7 -> 19        -0.00291
       7 -> 20        -0.00504
       7 -> 21        -0.00192
       7 -> 22        -0.00505
       7 -> 23        -0.02237
       7 -> 24        -0.01254
       7 -> 25        -0.00236
       7 -> 26        -0.01374
       7 -> 27         0.00110
       7 -> 28        -0.00205
       7 -> 30         0.00207
       8 -> 16         0.00985
       8 -> 19         0.00456
       8 -> 20         0.00402
       8 -> 21         0.00645
       8 -> 22        -0.00366
       8 -> 23        -0.01829
       8 -> 24         0.02753
       8 -> 25         0.01996
       8 -> 26        -0.01843
       8 -> 27        -0.00152
       8 -> 28         0.00299
       8 -> 29        -0.00433
       9 -> 16        -0.00412
       9 -> 17        -0.00162
       9 -> 18        -0.02776
       9 -> 19         0.01341
       9 -> 20         0.00717
       9 -> 22         0.00942
       9 -> 23         0.01493
       9 -> 24         0.00112
       9 -> 25         0.01641
       9 -> 26         0.01729
       9 -> 27        -0.00390
       9 -> 28        -0.00181
       9 -> 29         0.00428
       9 -> 30        -0.00416
      10 -> 17         0.00731
      10 -> 18         0.01198
      10 -> 20        -0.00964
      10 -> 21        -0.00514
      10 -> 22         0.00616
      10 -> 23        -0.00481
      10 -> 24        -0.01205
      10 -> 25        -0.01642
      10 -> 27        -0.01480
      10 -> 29         0.02201
      10 -> 30         0.00128
      11 -> 16        -0.00846
      11 -> 17         0.00682
      11 -> 18         0.01767
      11 -> 19        -0.00611
      11 -> 20        -0.00794
      11 -> 21         0.00179
      11 -> 22         0.00122
      11 -> 23        -0.01420
      11 -> 24        -0.00654
      11 -> 25        -0.00814
      11 -> 26        -0.00792
      11 -> 28         0.00266
      11 -> 29        -0.00292
      11 -> 30        -0.00285
      12 -> 16        -0.01880
      12 -> 17        -0.01437
      12 -> 18        -0.01256
      12 -> 19        -0.00641
      12 -> 21        -0.04712
      12 -> 22         0.01063
      12 -> 23        -0.00171
      12 -> 24        -0.00108
      12 -> 25        -0.00510
      12 -> 26         0.01169
      12 -> 27        -0.00769
      12 -> 28         0.03518
      12 -> 29         0.00229
      12 -> 30         0.03034
      13 -> 16        -0.01892
      13 -> 17        -0.15183
      13 -> 18         0.00791
      13 -> 19        -0.04505
      13 -> 20         0.04485
      13 -> 21        -0.00508
      13 -> 22        -0.00100
      13 -> 23        -0.01316
      13 -> 24        -0.00159
      13 -> 25        -0.00306
      13 -> 26         0.00343
      13 -> 27         0.03626
      13 -> 28         0.00608
      13 -> 29         0.02096
      14 -> 16         0.00139
      14 -> 17         0.52697
      14 -> 18         0.00754
      14 -> 19         0.01029
      14 -> 20        -0.01155
      14 -> 21         0.00193
      14 -> 23         0.00237
      14 -> 24         0.00190
      14 -> 25        -0.00193
      14 -> 26        -0.00188
      14 -> 27        -0.01770
      14 -> 28        -0.00423
      15 -> 16        -0.43890
      15 -> 18        -0.02067
      15 -> 19        -0.01243
      15 -> 20        -0.01635
      15 -> 21         0.00172
      15 -> 22         0.01044
      15 -> 23        -0.01610
      15 -> 24        -0.01416
      15 -> 25        -0.01468
      15 -> 26        -0.00250
      15 -> 27        -0.00256
      15 -> 28         0.00450
      15 -> 29        -0.00128
      15 -> 30        -0.00997
       1 <- 21        -0.00153
       1 <- 27        -0.00149
       1 <- 28         0.00324
       2 <- 19        -0.00113
       2 <- 22        -0.00341
       2 <- 23        -0.00390
       2 <- 24         0.00234
       2 <- 25         0.00136
       2 <- 26        -0.00208
       2 <- 29        -0.00243
       3 <- 19        -0.00269
       3 <- 20        -0.00202
       3 <- 22        -0.00248
       3 <- 24        -0.00341
       3 <- 25        -0.00245
       3 <- 26        -0.00124
       3 <- 29         0.00220
       4 <- 19        -0.00284
       4 <- 21         0.00844
       4 <- 22         0.00164
       4 <- 23        -0.00117
       4 <- 24        -0.00141
       4 <- 30        -0.00449
       5 <- 19        -0.00172
       5 <- 20         0.00342
       5 <- 21        -0.00491
       5 <- 30         0.00261
       6 <- 19        -0.00145
       6 <- 20        -0.00443
       6 <- 21        -0.00397
       6 <- 22         0.00189
       6 <- 23        -0.00177
       7 <- 21        -0.00129
       7 <- 22        -0.00242
       7 <- 23        -0.00925
       7 <- 24        -0.00530
       7 <- 26        -0.00547
       8 <- 16         0.00152
       8 <- 19         0.00196
       8 <- 20         0.00116
       8 <- 21         0.00216
       8 <- 22        -0.00216
       8 <- 23        -0.00906
       8 <- 24         0.01174
       8 <- 25         0.00780
       8 <- 26        -0.00684
       8 <- 29        -0.00261
       9 <- 19         0.00478
       9 <- 20         0.00219
       9 <- 21         0.00124
       9 <- 22         0.00357
       9 <- 23         0.00650
       9 <- 25         0.00552
       9 <- 26         0.00778
       9 <- 27        -0.00123
       9 <- 28        -0.00116
       9 <- 29         0.00145
       9 <- 30        -0.00152
      10 <- 17         0.00240
      10 <- 20        -0.00327
      10 <- 21        -0.00196
      10 <- 24        -0.00548
      10 <- 25        -0.00782
      10 <- 26         0.00151
      10 <- 27        -0.00474
      10 <- 29         0.00702
      11 <- 16         0.00102
      11 <- 17         0.00199
      11 <- 18        -0.00224
      11 <- 23        -0.00143
      11 <- 26        -0.00187
      11 <- 28        -0.00108
      12 <- 21        -0.01515
      12 <- 22         0.00221
      12 <- 25        -0.00103
      12 <- 26         0.00315
      12 <- 27        -0.00225
      12 <- 28         0.01191
      12 <- 30         0.01134
      13 <- 17        -0.00344
      13 <- 19        -0.01044
      13 <- 20         0.01140
      13 <- 21        -0.00152
      13 <- 23        -0.00323
      13 <- 25        -0.00124
      13 <- 26         0.00166
      13 <- 27         0.01151
      13 <- 28         0.00135
      13 <- 29         0.00578
      14 <- 17        -0.08108
      14 <- 18         0.00211
      14 <- 22         0.00119
      14 <- 24        -0.00158
      15 <- 16         0.08659
      15 <- 19        -0.00201
      15 <- 20        -0.00322
      15 <- 22         0.00304
      15 <- 24        -0.00268
      15 <- 28         0.00122
 
 Excited state symmetry could not be determined.
 Excited State   5:      Singlet-?Sym    5.7270 eV  216.49 nm  f=0.0216  <S**2>=0.000
       1 -> 17        -0.00417
       2 -> 16        -0.00321
       2 -> 17         0.00151
       2 -> 18         0.00876
       2 -> 22         0.00230
       3 -> 16         0.00182
       3 -> 17         0.00124
       3 -> 18        -0.00422
       3 -> 22        -0.00142
       4 -> 16         0.01706
       4 -> 17        -0.01441
       4 -> 18        -0.00335
       4 -> 19        -0.00120
       4 -> 22         0.00137
       4 -> 25         0.00128
       5 -> 16         0.04134
       5 -> 17         0.00367
       5 -> 18        -0.00538
       5 -> 19        -0.00114
       5 -> 20        -0.00239
       5 -> 21         0.00122
       5 -> 22         0.00225
       5 -> 25         0.00159
       5 -> 30        -0.00145
       6 -> 16         0.00353
       6 -> 17        -0.02755
       6 -> 18        -0.00145
       6 -> 19        -0.00292
       6 -> 20         0.00236
       6 -> 23        -0.00205
       6 -> 24         0.00164
       6 -> 29         0.00179
       7 -> 16        -0.00728
       7 -> 17         0.01708
       7 -> 18        -0.00861
       7 -> 19         0.00139
       7 -> 20         0.00181
       7 -> 22        -0.00279
       7 -> 23        -0.00374
       7 -> 24         0.00558
       7 -> 25         0.00232
       7 -> 27        -0.00330
       7 -> 29        -0.00231
       8 -> 16         0.01591
       8 -> 17        -0.01439
       8 -> 18        -0.07733
       8 -> 19        -0.00361
       8 -> 20         0.00584
       8 -> 21        -0.00272
       8 -> 22        -0.00496
       8 -> 23         0.00803
       8 -> 24         0.00463
       8 -> 25         0.00287
       8 -> 26         0.00482
       8 -> 30        -0.00143
       9 -> 16         0.01150
       9 -> 17        -0.02067
       9 -> 18        -0.05068
       9 -> 19        -0.00223
       9 -> 20         0.00499
       9 -> 22        -0.00149
       9 -> 23         0.00237
       9 -> 24         0.00378
       9 -> 25         0.00636
       9 -> 26        -0.00305
       9 -> 28         0.00114
       9 -> 29         0.00632
       9 -> 30        -0.00100
      10 -> 17         0.00333
      10 -> 18        -0.09097
      10 -> 20         0.00306
      10 -> 21        -0.00518
      10 -> 22        -0.01063
      10 -> 23         0.00745
      10 -> 24         0.00123
      10 -> 25         0.00128
      10 -> 26         0.00482
      10 -> 27        -0.00110
      10 -> 29        -0.00235
      10 -> 30         0.00122
      11 -> 16        -0.00625
      11 -> 18         0.01316
      11 -> 19        -0.00186
      11 -> 22         0.00630
      11 -> 23         0.00962
      11 -> 24        -0.00921
      11 -> 25        -0.00368
      11 -> 26        -0.00207
      11 -> 27         0.00205
      11 -> 28        -0.00229
      11 -> 29        -0.00683
      12 -> 16         0.05507
      12 -> 17        -0.02812
      12 -> 18        -0.00386
      12 -> 19         0.00593
      12 -> 20        -0.01013
      12 -> 21        -0.00139
      12 -> 22        -0.00229
      12 -> 23         0.00370
      12 -> 24        -0.00323
      12 -> 25        -0.00130
      12 -> 26        -0.00238
      12 -> 27        -0.00915
      12 -> 28        -0.00240
      12 -> 29        -0.00213
      13 -> 16         0.65924
      13 -> 17        -0.09995
      13 -> 18        -0.09133
      13 -> 19        -0.00785
      13 -> 20        -0.00398
      13 -> 21        -0.00726
      13 -> 22         0.00361
      13 -> 23        -0.00125
      13 -> 24        -0.00211
      13 -> 25         0.00474
      13 -> 26         0.00500
      13 -> 27        -0.00353
      13 -> 28         0.00973
      13 -> 29        -0.00129
      13 -> 30        -0.00757
      14 -> 16         0.09506
      14 -> 17        -0.00323
      14 -> 18        -0.00974
      14 -> 19         0.01293
      14 -> 20         0.02949
      14 -> 21        -0.02137
      14 -> 22        -0.02113
      14 -> 23         0.00109
      14 -> 24        -0.00343
      14 -> 25        -0.00136
      14 -> 26        -0.00880
      14 -> 27        -0.00236
      14 -> 28        -0.00748
      14 -> 30         0.01487
      15 -> 17         0.09505
      15 -> 18         0.02118
      15 -> 19         0.00487
      15 -> 20        -0.00114
      15 -> 21        -0.00191
      15 -> 23        -0.00448
      15 -> 24         0.00473
      15 -> 25         0.00297
      15 -> 26        -0.00125
      15 -> 27         0.01084
      15 -> 28         0.00282
      15 -> 29         0.00735
       2 <- 24        -0.00103
       4 <- 17         0.00146
       5 <- 17        -0.00114
       5 <- 20        -0.00151
       6 <- 17         0.00114
       7 <- 17        -0.00103
       7 <- 19         0.00100
       7 <- 23        -0.00121
       7 <- 24         0.00218
       7 <- 25         0.00135
       8 <- 18         0.00142
       8 <- 23         0.00263
       8 <- 24         0.00179
       8 <- 25         0.00133
       8 <- 26         0.00192
       9 <- 24         0.00163
       9 <- 25         0.00235
      10 <- 18         0.00173
      10 <- 23         0.00219
      10 <- 26         0.00205
      11 <- 16        -0.00208
      11 <- 26        -0.00110
      11 <- 27         0.00170
      11 <- 29        -0.00397
      12 <- 17         0.00118
      12 <- 19         0.00183
      12 <- 20        -0.00233
      12 <- 26        -0.00122
      12 <- 27        -0.00302
      12 <- 29        -0.00117
      13 <- 16        -0.00406
      13 <- 19        -0.00150
      13 <- 20        -0.00143
      13 <- 22         0.00236
      13 <- 26         0.00107
      13 <- 28         0.00274
      13 <- 30        -0.00227
      14 <- 16        -0.01710
      14 <- 18         0.00296
      14 <- 19         0.00377
      14 <- 20         0.01024
      14 <- 21         0.00116
      14 <- 22        -0.00558
      14 <- 23         0.00225
      14 <- 26        -0.00282
      14 <- 27         0.00153
      14 <- 28        -0.00662
      14 <- 29         0.00164
      14 <- 30         0.00370
      15 <- 17        -0.02216
      15 <- 18        -0.00267
      15 <- 19        -0.00379
      15 <- 20         0.00358
      15 <- 21        -0.00169
      15 <- 23        -0.00120
      15 <- 26         0.00119
      15 <- 27         0.00504
      15 <- 28         0.00201
      15 <- 29         0.00285
 SavETr:  write IOETrn=   770 NScale= 10 NData=  16 NLR=1 NState=    5 LETran=     100.

 **********************************************************************

            Population analysis using the SCF Density.

 **********************************************************************

 Alpha  occ. eigenvalues --   -1.44642  -1.15864  -1.15167  -0.84944  -0.84401
 Alpha  occ. eigenvalues --   -0.65840  -0.58959  -0.56390  -0.52102  -0.51999
 Alpha  occ. eigenvalues --   -0.49363  -0.44012  -0.42563  -0.35858  -0.35214
 Alpha virt. eigenvalues --    0.01665   0.02310   0.10754   0.13529   0.14669
 Alpha virt. eigenvalues --    0.14812   0.15613   0.16672   0.16998   0.18748
 Alpha virt. eigenvalues --    0.18995   0.20485   0.20861   0.21190   0.22493
          Condensed to atoms (all electrons):
               1          2          3          4          5          6
     1  C    4.135370   0.000000   0.000000   0.000000   0.000000   0.000000
     2  C    0.000000   4.138375   0.000000   0.000000   0.000000   0.000000
     3  C    0.000000   0.000000   4.131413   0.000000   0.000000   0.000000
     4  C    0.000000   0.000000   0.000000   4.123384   0.000000   0.000000
     5  C    0.000000   0.000000   0.000000   0.000000   4.127865   0.000000
     6  C    0.000000   0.000000   0.000000   0.000000   0.000000   4.126132
     7  H    0.000000   0.000000   0.000000   0.000000   0.000000   0.000000
     8  H    0.000000   0.000000   0.000000   0.000000   0.000000   0.000000
     9  H    0.000000   0.000000   0.000000   0.000000   0.000000   0.000000
    10  H    0.000000   0.000000   0.000000   0.000000   0.000000   0.000000
    11  H    0.000000   0.000000   0.000000   0.000000   0.000000   0.000000
    12  H    0.000000   0.000000   0.000000   0.000000   0.000000   0.000000
               7          8          9         10         11         12
     1  C    0.000000   0.000000   0.000000   0.000000   0.000000   0.000000
     2  C    0.000000   0.000000   0.000000   0.000000   0.000000   0.000000
     3  C    0.000000   0.000000   0.000000   0.000000   0.000000   0.000000
     4  C    0.000000   0.000000   0.000000   0.000000   0.000000   0.000000
     5  C    0.000000   0.000000   0.000000   0.000000   0.000000   0.000000
     6  C    0.000000   0.000000   0.000000   0.000000   0.000000   0.000000
     7  H    0.878548   0.000000   0.000000   0.000000   0.000000   0.000000
     8  H    0.000000   0.860079   0.000000   0.000000   0.000000   0.000000
     9  H    0.000000   0.000000   0.877788   0.000000   0.000000   0.000000
    10  H    0.000000   0.000000   0.000000   0.863493   0.000000   0.000000
    11  H    0.000000   0.000000   0.000000   0.000000   0.872226   0.000000
    12  H    0.000000   0.000000   0.000000   0.000000   0.000000   0.865326
 Mulliken charges:
               1
     1  C   -0.135370
     2  C   -0.138375
     3  C   -0.131413
     4  C   -0.123384
     5  C   -0.127865
     6  C   -0.126132
     7  H    0.121452
     8  H    0.139921
     9  H    0.122212
    10  H    0.136507
    11  H    0.127774
    12  H    0.134674
 Sum of Mulliken charges =  -0.00000
 Mulliken charges with hydrogens summed into heavy atoms:
               1
     1  C   -0.013918
     2  C    0.001546
     3  C   -0.009202
     4  C    0.013124
     5  C   -0.000092
     6  C    0.008541
 Charge=             -0.0000 electrons
 Dipole moment (field-independent basis, Debye):
    X=              0.0532    Y=             -0.0595    Z=              0.3703  Tot=              0.3788
 N-N= 1.198150629361D+02 E-N=-1.709186736389D+02  KE=-4.784841037328D+01

 Test job not archived.
 1\1\GINC-BHC0189\SP\RAM1 TD-Full\STO-5G\C6H6\BWEIGHT\21-Mar-2025\0\\# 
 AM1/STO-5G SCF=XQC TD=(read,singlets,nstates=5,root=1) nosym IOp(9/40=
 3) guess=read\\MD Step 24\\0,1\C,0,-0.68137227,-1.17738207,-0.01261051
 \C,0,0.69952804,-1.22575579,-0.04104682\C,0,1.34561441,0.00403615,0.05
 74927\C,0,0.72366336,1.20434364,-0.03691841\C,0,-0.68353116,1.21145379
 ,-0.06532396\C,0,-1.41373768,0.0068842,0.04406967\H,0,-1.12565652,-2.2
 0215319,0.03747858\H,0,1.31363034,-2.13695241,0.01825486\H,0,2.5347815
 7,-0.07018375,0.09139163\H,0,1.15199553,2.17695838,0.19419846\H,0,-1.2
 6728436,2.14745244,-0.04200526\H,0,-2.43837872,-0.10731335,0.16773726\
 \Version=ES64L-G16RevC.01\HF=0.0583391\RMSD=7.021e-09\PG=C01 [X(C6H6)]
 \\@


 IF I AM NOT FOR MYSELF, WHO WILL BE?
 BUT IF I AM ONLY FOR MYSELF, WHAT AM I?
 THOUGH A SEEKER SINCE MY BIRTH,
 HERE IS ALL I'VE LEARNED ON EARTH,
 THIS IS THE GIST OF WHAT I KNOW:
 GIVE ADVICE AND BUY A FOE.

 PRESSED FOR RULES AND VERITIES,
 ALL I RECOLLECT ARE THESE:
 FEED A COLD TO STARVE A FEVER,
 ARGUE WITH NO TRUE-BELIEVER.
 THINK-TOO-LONG IS NEVER-ACT,
 SCRATCH A MYTH AND FIND A FACT.

 STITCH IN TIME SAVES TWENTY STITCHES,
 GIVE THE RICH TO PLEASE THEM, RICHES.
 GIVE TO LOVE YOU HEARTH AND HALL,
 BUT DO NOT GIVE ADVICE AT ALL.

                                  -- HILLEL
 Job cpu time:       0 days  0 hours  0 minutes  1.1 seconds.
 Elapsed time:       0 days  0 hours  0 minutes  0.9 seconds.
 File lengths (MBytes):  RWF=     34 Int=      0 D2E=      0 Chk=      2 Scr=      1
 Normal termination of Gaussian 16 at Fri Mar 21 15:03:20 2025.
