 Entering Gaussian System, Link 0=g16
 Initial command:
 /software/gaussian/g16-c01/avx2/g16/l1.exe "/local_scratch/28554171/Gau-25296.inp" -scrdir="/local_scratch/28554171/"
 Entering Link 1 = /software/gaussian/g16-c01/avx2/g16/l1.exe PID=     25318.
  
 Copyright (c) 1988-2019, Gaussian, Inc.  All Rights Reserved.
  
 This is part of the Gaussian(R) 16 program.  It is based on
 the Gaussian(R) 09 system (copyright 2009, Gaussian, Inc.),
 the Gaussian(R) 03 system (copyright 2003, Gaussian, Inc.),
 the Gaussian(R) 98 system (copyright 1998, Gaussian, Inc.),
 the Gaussian(R) 94 system (copyright 1995, Gaussian, Inc.),
 the Gaussian 92(TM) system (copyright 1992, Gaussian, Inc.),
 the Gaussian 90(TM) system (copyright 1990, Gaussian, Inc.),
 the Gaussian 88(TM) system (copyright 1988, Gaussian, Inc.),
 the Gaussian 86(TM) system (copyright 1986, Carnegie Mellon
 University), and the Gaussian 82(TM) system (copyright 1983,
 Carnegie Mellon University). Gaussian is a federally registered
 trademark of Gaussian, Inc.
  
 This software contains proprietary and confidential information,
 including trade secrets, belonging to Gaussian, Inc.
  
 This software is provided under written license and may be
 used, copied, transmitted, or stored only in accord with that
 written license.
  
 The following legend is applicable only to US Government
 contracts under FAR:
  
                    RESTRICTED RIGHTS LEGEND
  
 Use, reproduction and disclosure by the US Government is
 subject to restrictions as set forth in subparagraphs (a)
 and (c) of the Commercial Computer Software - Restricted
 Rights clause in FAR 52.227-19.
  
 Gaussian, Inc.
 340 Quinnipiac St., Bldg. 40, Wallingford CT 06492
  
  
 ---------------------------------------------------------------
 Warning -- This program may not be used in any manner that
 competes with the business of Gaussian, Inc. or will provide
 assistance to any competitor of Gaussian, Inc.  The licensee
 of this program is prohibited from giving any competitor of
 Gaussian, Inc. access to this program.  By using this program,
 the user acknowledges that Gaussian, Inc. is engaged in the
 business of creating and licensing software in the field of
 computational chemistry and represents and warrants to the
 licensee that it is not a competitor of Gaussian, Inc. and that
 it will not use this program in any manner prohibited above.
 ---------------------------------------------------------------
  

 Cite this work as:
 Gaussian 16, Revision C.01,
 M. J. Frisch, G. W. Trucks, H. B. Schlegel, G. E. Scuseria, 
 M. A. Robb, J. R. Cheeseman, G. Scalmani, V. Barone, 
 G. A. Petersson, H. Nakatsuji, X. Li, M. Caricato, A. V. Marenich, 
 J. Bloino, B. G. Janesko, R. Gomperts, B. Mennucci, H. P. Hratchian, 
 J. V. Ortiz, A. F. Izmaylov, J. L. Sonnenberg, D. Williams-Young, 
 F. Ding, F. Lipparini, F. Egidi, J. Goings, B. Peng, A. Petrone, 
 T. Henderson, D. Ranasinghe, V. G. Zakrzewski, J. Gao, N. Rega, 
 G. Zheng, W. Liang, M. Hada, M. Ehara, K. Toyota, R. Fukuda, 
 J. Hasegawa, M. Ishida, T. Nakajima, Y. Honda, O. Kitao, H. Nakai, 
 T. Vreven, K. Throssell, J. A. Montgomery, Jr., J. E. Peralta, 
 F. Ogliaro, M. J. Bearpark, J. J. Heyd, E. N. Brothers, K. N. Kudin, 
 V. N. Staroverov, T. A. Keith, R. Kobayashi, J. Normand, 
 K. Raghavachari, A. P. Rendell, J. C. Burant, S. S. Iyengar, 
 J. Tomasi, M. Cossi, J. M. Millam, M. Klene, C. Adamo, R. Cammi, 
 J. W. Ochterski, R. L. Martin, K. Morokuma, O. Farkas, 
 J. B. Foresman, and D. J. Fox, Gaussian, Inc., Wallingford CT, 2019.
 
 ******************************************
 Gaussian 16:  ES64L-G16RevC.01  3-Jul-2019
                21-Mar-2025 
 ******************************************
 %oldchk=../GS_OLD/geometry.chk
 %chk=geometry.chk
 %nprocshared=1
 Will use up to    1 processors via shared memory.
 %mem=2GB
 Copying data from "../GS_OLD/geometry.chk" to current chk file "geometry.chk"
 IOpt=  2 FromEx=T IUOpen= 4 IOptOp= 5 NList=   0 IFRang= 0 IUIn= 4 IUOut= 2.
 -------------------------------------------
 # AM1/STO-5G SCF=XQC FORCE nosym guess=read
 -------------------------------------------
 1/10=7,30=1,38=1/1,3;
 2/12=2,15=1,17=6,18=5,40=1/2;
 3/5=2,6=5,25=1,41=700000,71=1,116=-2/1,2,3;
 4/5=1,35=1/1;
 5/5=2,8=3,13=1,35=1,38=6/2,8;
 6/7=2,8=2,9=2,10=2,28=1/1;
 7/29=1,30=1/1,2,3,16;
 1/10=7,30=1/3;
 99//99;
 ----------
 MD Step 23
 ----------
 Symbolic Z-matrix:
 Charge =  0 Multiplicity = 1
 C                    -0.71372  -1.2104   -0.01945 
 C                     0.66931  -1.21422   0.03141 
 C                     1.41028   0.01172  -0.01555 
 C                     0.6906    1.22176  -0.01018 
 C                    -0.6742    1.17788   0.01823 
 C                    -1.39083   0.00966   0.00655 
 H                    -1.17031  -2.22007  -0.08092 
 H                     1.20677  -2.18796   0.07016 
 H                     2.49889   0.03677   0.0013 
 H                     1.20308   2.2018    0.01107 
 H                    -1.19698   2.16126  -0.02827 
 H                    -2.45109  -0.06532  -0.09046 
 

 GradGradGradGradGradGradGradGradGradGradGradGradGradGradGradGradGradGrad
 Berny optimization.
 Initialization pass.
 Trust Radius=3.00D-01 FncErr=1.00D-07 GrdErr=1.00D-07 EigMax=2.50D+02 EigMin=1.00D-04
 Number of steps in this run=      2 maximum allowed number of steps=      2.
 GradGradGradGradGradGradGradGradGradGradGradGradGradGradGradGradGradGrad

                          Input orientation:                          
 ---------------------------------------------------------------------
 Center     Atomic      Atomic             Coordinates (Angstroms)
 Number     Number       Type             X           Y           Z
 ---------------------------------------------------------------------
      1          6           0       -0.713724   -1.210399   -0.019451
      2          6           0        0.669305   -1.214224    0.031408
      3          6           0        1.410280    0.011716   -0.015551
      4          6           0        0.690595    1.221760   -0.010175
      5          6           0       -0.674197    1.177884    0.018229
      6          6           0       -1.390833    0.009664    0.006548
      7          1           0       -1.170309   -2.220072   -0.080924
      8          1           0        1.206767   -2.187962    0.070163
      9          1           0        2.498894    0.036774    0.001304
     10          1           0        1.203079    2.201801    0.011075
     11          1           0       -1.196977    2.161263   -0.028265
     12          1           0       -2.451093   -0.065323   -0.090456
 ---------------------------------------------------------------------
                    Distance matrix (angstroms):
                    1          2          3          4          5
     1  C    0.000000
     2  C    1.383969   0.000000
     3  C    2.450504   1.433240   0.000000
     4  C    2.808486   2.436432   1.407900   0.000000
     5  C    2.388907   2.743602   2.388752   1.365793   0.000000
     6  C    1.395603   2.396391   2.801201   2.408692   1.370562
     7  H    1.109815   2.099650   3.412418   3.913333   3.435413
     8  H    2.156837   1.112894   2.210734   3.449506   3.856118
     9  H    3.446271   2.216596   1.089033   2.162005   3.372080
    10  H    3.913844   3.457536   2.200027   1.106152   2.138369
    11  H    3.406129   3.857522   3.379128   2.108535   1.114672
    12  H    2.081992   3.327417   3.862868   3.396061   2.171344
                    6          7          8          9         10
     6  C    0.000000
     7  H    2.242322   0.000000
     8  H    3.403107   2.382090   0.000000
     9  H    3.889825   4.308500   2.573672   0.000000
    10  H    3.396154   5.019402   4.390163   2.523207   0.000000
    11  H    2.160594   4.381733   4.970255   4.263072   2.400720
    12  H    1.067325   2.506679   4.232178   4.951890   4.301526
                   11         12
    11  H    0.000000
    12  H    2.556239   0.000000
 Symmetry turned off by external request.
 Stoichiometry    C6H6
 Framework group  C1[X(C6H6)]
 Deg. of freedom    30
 Full point group                 C1      NOp   1
 Rotational constants (GHZ):           5.8148813           5.5996607           2.8540666
 Standard basis: VSTO-5G (5D, 7F)
    30 basis functions,   180 primitive gaussians,    30 cartesian basis functions
    15 alpha electrons       15 beta electrons
       nuclear repulsion energy       119.7244091108 Hartrees.
 Integral buffers will be    131072 words long.
 Regular integral format.
 Two-electron integral symmetry is turned off.
 Do NDO integrals.
 One-electron integrals computed using PRISM.
 NBasis=    30 RedAO= F EigKep=  0.00D+00  NBF=    30
 NBsUse=    30 1.00D-04 EigRej=  0.00D+00 NBFU=    30
 Initial guess from the checkpoint file:  "geometry.chk"
 B after Tr=    -0.000954   -0.000534    0.000736
         Rot=    1.000000    0.000375   -0.000205   -0.000025 Ang=   0.05 deg.
 Keep J ints in memory in canonical form, NReq=861816.
 Overlap will be assumed to be unity.
 Requested convergence on RMS density matrix=1.00D-08 within  32 cycles.
 Requested convergence on MAX density matrix=1.00D-06.
 Requested convergence on             energy=1.00D-06.
 No special actions if energy rises.
 SCF Done:  E(RAM1) =  0.441826583091E-01 A.U. after   12 cycles
            NFock= 11  Conv=0.75D-08     -V/T= 1.0009
 QCSCF skips out because SCF is already converged.

 **********************************************************************

            Population analysis using the SCF Density.

 **********************************************************************

 Alpha  occ. eigenvalues --   -1.44329  -1.16151  -1.14697  -0.85770  -0.83760
 Alpha  occ. eigenvalues --   -0.65703  -0.59280  -0.56609  -0.52367  -0.51670
 Alpha  occ. eigenvalues --   -0.49239  -0.44029  -0.43192  -0.35842  -0.35156
 Alpha virt. eigenvalues --    0.01739   0.02328   0.10953   0.14367   0.14559
 Alpha virt. eigenvalues --    0.15266   0.15412   0.16774   0.17068   0.18724
 Alpha virt. eigenvalues --    0.18922   0.20366   0.20949   0.21144   0.22538
          Condensed to atoms (all electrons):
               1          2          3          4          5          6
     1  C    4.137073   0.000000   0.000000   0.000000   0.000000   0.000000
     2  C    0.000000   4.139829   0.000000   0.000000   0.000000   0.000000
     3  C    0.000000   0.000000   4.127524   0.000000   0.000000   0.000000
     4  C    0.000000   0.000000   0.000000   4.133213   0.000000   0.000000
     5  C    0.000000   0.000000   0.000000   0.000000   4.126910   0.000000
     6  C    0.000000   0.000000   0.000000   0.000000   0.000000   4.116576
     7  H    0.000000   0.000000   0.000000   0.000000   0.000000   0.000000
     8  H    0.000000   0.000000   0.000000   0.000000   0.000000   0.000000
     9  H    0.000000   0.000000   0.000000   0.000000   0.000000   0.000000
    10  H    0.000000   0.000000   0.000000   0.000000   0.000000   0.000000
    11  H    0.000000   0.000000   0.000000   0.000000   0.000000   0.000000
    12  H    0.000000   0.000000   0.000000   0.000000   0.000000   0.000000
               7          8          9         10         11         12
     1  C    0.000000   0.000000   0.000000   0.000000   0.000000   0.000000
     2  C    0.000000   0.000000   0.000000   0.000000   0.000000   0.000000
     3  C    0.000000   0.000000   0.000000   0.000000   0.000000   0.000000
     4  C    0.000000   0.000000   0.000000   0.000000   0.000000   0.000000
     5  C    0.000000   0.000000   0.000000   0.000000   0.000000   0.000000
     6  C    0.000000   0.000000   0.000000   0.000000   0.000000   0.000000
     7  H    0.866461   0.000000   0.000000   0.000000   0.000000   0.000000
     8  H    0.000000   0.871529   0.000000   0.000000   0.000000   0.000000
     9  H    0.000000   0.000000   0.866961   0.000000   0.000000   0.000000
    10  H    0.000000   0.000000   0.000000   0.866843   0.000000   0.000000
    11  H    0.000000   0.000000   0.000000   0.000000   0.876322   0.000000
    12  H    0.000000   0.000000   0.000000   0.000000   0.000000   0.870759
 Mulliken charges:
               1
     1  C   -0.137073
     2  C   -0.139829
     3  C   -0.127524
     4  C   -0.133213
     5  C   -0.126910
     6  C   -0.116576
     7  H    0.133539
     8  H    0.128471
     9  H    0.133039
    10  H    0.133157
    11  H    0.123678
    12  H    0.129241
 Sum of Mulliken charges =  -0.00000
 Mulliken charges with hydrogens summed into heavy atoms:
               1
     1  C   -0.003534
     2  C   -0.011358
     3  C    0.005514
     4  C   -0.000055
     5  C   -0.003232
     6  C    0.012665
 Charge=             -0.0000 electrons
 Dipole moment (field-independent basis, Debye):
    X=              0.0767    Y=             -0.0441    Z=             -0.0876  Tot=              0.1245
 N-N= 1.197244091108D+02 E-N=-1.707482095288D+02  KE=-4.785635047161D+01
 Calling FoFJK, ICntrl=      2127 FMM=F ISym2X=0 I1Cent= 0 IOpClX= 0 NMat=1 NMatS=1 NMatT=0.
 -------------------------------------------------------------------
 Center     Atomic                   Forces (Hartrees/Bohr)
 Number     Number              X              Y              Z
 -------------------------------------------------------------------
      1        6           0.009925072   -0.011735771    0.004226123
      2        6           0.039300901    0.022843781   -0.006179647
      3        6          -0.031489443   -0.014987535    0.008579713
      4        6           0.043612916   -0.016596306    0.003728995
      5        6          -0.032940484    0.038877605   -0.005105605
      6        6           0.003807953   -0.030944760   -0.008376909
      7        1          -0.008596691    0.010965824    0.001853788
      8        1          -0.001459518    0.009596543   -0.000893355
      9        1           0.004409563   -0.004188400   -0.001397520
     10        1           0.001277007   -0.005535498   -0.002115592
     11        1          -0.002107778   -0.006810791    0.003272626
     12        1          -0.025739499    0.008515307    0.002407384
 -------------------------------------------------------------------
 Cartesian Forces:  Max     0.043612916 RMS     0.017220356

 GradGradGradGradGradGradGradGradGradGradGradGradGradGradGradGradGradGrad
 Berny optimization.
 Search for a local minimum.
 Step number   1 out of a maximum of    2
 All quantities printed in internal units (Hartrees-Bohrs-Radians)
 Second derivative matrix not updated -- first step.
 ITU=  0
     Eigenvalues ---    0.01456   0.01719   0.03352   0.04295   0.06562
     Eigenvalues ---    0.06686   0.06815   0.06933   0.07242   0.09390
     Eigenvalues ---    0.09635   0.11290   0.11710   0.16202   0.18074
     Eigenvalues ---    0.27794   0.29546   0.30261   0.40745   0.41626
     Eigenvalues ---    0.44847   0.63165   0.69181   0.97931   1.06324
     Eigenvalues ---    1.20552   1.21903   1.44188   1.57368   1.67083
 Quadratic step=3.703D-01 exceeds max=3.000D-01 adjusted using Lamda=-1.585D-02.
 Angle between NR and scaled steps=   8.79 degrees.
 Angle between quadratic step and forces=  55.76 degrees.
 Linear search not attempted -- first point.
 B after Tr=     0.002803   -0.001635   -0.003524
         Rot=    0.999999   -0.000017    0.001416   -0.000716 Ang=  -0.18 deg.
 Variable       Old X    -DE/DX   Delta X   Delta X   Delta X     New X
                                 (Linear)    (Quad)   (Total)
    X1       -1.34874   0.00993   0.00000   0.04125   0.04742  -1.30132
    Y1       -2.28732  -0.01174   0.00000  -0.00016  -0.00367  -2.29099
    Z1       -0.03676   0.00423   0.00000   0.00864   0.00134  -0.03542
    X2        1.26480   0.03930   0.00000   0.06882   0.07478   1.33958
    Y2       -2.29455   0.02284   0.00000   0.02968   0.02996  -2.26459
    Z2        0.05935  -0.00618   0.00000  -0.02896  -0.02878   0.03057
    X3        2.66504  -0.03149   0.00000  -0.01086  -0.00809   2.65695
    Y3        0.02214  -0.01499   0.00000  -0.02601  -0.02384  -0.00170
    Z3       -0.02939   0.00858   0.00000   0.04015   0.04414   0.01475
    X4        1.30504   0.04361   0.00000   0.02380   0.02334   1.32838
    Y4        2.30879  -0.01660   0.00000  -0.03787  -0.03760   2.27119
    Z4       -0.01923   0.00373   0.00000   0.01873   0.01904  -0.00019
    X5       -1.27405  -0.03294   0.00000  -0.05371  -0.05414  -1.32819
    Y5        2.22588   0.03888   0.00000   0.03907   0.03553   2.26140
    Z5        0.03445  -0.00511   0.00000  -0.03705  -0.04426  -0.00981
    X6       -2.62829   0.00381   0.00000  -0.03503  -0.03212  -2.66041
    Y6        0.01826  -0.03094   0.00000  -0.02415  -0.02960  -0.01134
    Z6        0.01237  -0.00838   0.00000  -0.04347  -0.05453  -0.04216
    X7       -2.21156  -0.00860   0.00000  -0.05485  -0.04586  -2.25743
    Y7       -4.19533   0.01097   0.00000   0.06016   0.05529  -4.14004
    Z7       -0.15292   0.00185   0.00000   0.06322   0.05314  -0.09978
    X8        2.28046  -0.00146   0.00000   0.09585   0.10422   2.38468
    Y8       -4.13465   0.00960   0.00000   0.07508   0.07685  -4.05780
    Z8        0.13259  -0.00089   0.00000  -0.04809  -0.04502   0.08757
    X9        4.72223   0.00441   0.00000   0.00259   0.00532   4.72755
    Y9        0.06949  -0.00419   0.00000  -0.06497  -0.05984   0.00965
    Z9        0.00246  -0.00140   0.00000   0.01322   0.02307   0.02553
   X10        2.27349   0.00128   0.00000   0.07957   0.07648   2.34996
   Y10        4.16080  -0.00554   0.00000  -0.07954  -0.07781   4.08300
   Z10        0.02093  -0.00212   0.00000  -0.00688  -0.00361   0.01732
   X11       -2.26196  -0.00211   0.00000  -0.08216  -0.08511  -2.34707
   Y11        4.08419  -0.00681   0.00000   0.00615   0.00115   4.08535
   Z11       -0.05341   0.00327   0.00000   0.02061   0.01058  -0.04283
   X12       -4.63189  -0.02574   0.00000  -0.10954  -0.10623  -4.73812
   Y12       -0.12344   0.00852   0.00000   0.04200   0.03358  -0.08986
   Z12       -0.17094   0.00241   0.00000   0.04183   0.02488  -0.14606
         Item               Value     Threshold  Converged?
 Maximum Force            0.043613     0.000450     NO 
 RMS     Force            0.017220     0.000300     NO 
 Maximum Displacement     0.106226     0.001800     NO 
 RMS     Displacement     0.049649     0.001200     NO 
 Predicted change in Energy=-9.437533D-03
 GradGradGradGradGradGradGradGradGradGradGradGradGradGradGradGradGradGrad

 Unable to Open any file for archive entry.
 1\1\GINC-BHC0189\Force\RAM1\ZDO\C6H6\BWEIGHT\21-Mar-2025\0\\# AM1/STO-
 5G SCF=XQC FORCE nosym guess=read\\MD Step 23\\0,1\C,-0.7137239,-1.210
 39869,-0.01945137\C,0.66930511,-1.21422394,0.03140829\C,1.41028027,0.0
 117155,-0.01555069\C,0.69059512,1.22175966,-0.0101753\C,-0.67419703,1.
 17788394,0.01822948\C,-1.39083324,0.00966423,0.0065479\H,-1.17030935,-
 2.22007231,-0.08092433\H,1.20676727,-2.18796217,0.07016265\H,2.4988941
 1,0.03677423,0.0013038\H,1.20307854,2.20180128,0.01107457\H,-1.1969767
 ,2.16126272,-0.02826519\H,-2.45109262,-0.06532292,-0.0904559\\Version=
 ES64L-G16RevC.01\HF=0.0441827\RMSD=7.536e-09\RMSF=1.722e-02\Dipole=0.0
 301944,-0.0173458,-0.0344515\PG=C01 [X(C6H6)]\\@
 The archive entry for this job was punched.


 I SUPPOSE A BABY LLAMA HAS A MMAMA AND A PPOPA.
     -- RICHARD AMOUR
 Job cpu time:       0 days  0 hours  0 minutes  1.2 seconds.
 Elapsed time:       0 days  0 hours  0 minutes  0.9 seconds.
 File lengths (MBytes):  RWF=      6 Int=      0 D2E=      0 Chk=      2 Scr=      1
 Normal termination of Gaussian 16 at Fri Mar 21 15:03:16 2025.
