 Entering Gaussian System, Link 0=g16
 Initial command:
 /software/gaussian/g16-c01/avx2/g16/l1.exe "/local_scratch/28554200/Gau-33375.inp" -scrdir="/local_scratch/28554200/"
 Entering Link 1 = /software/gaussian/g16-c01/avx2/g16/l1.exe PID=     33390.
  
 Copyright (c) 1988-2019, Gaussian, Inc.  All Rights Reserved.
  
 This is part of the Gaussian(R) 16 program.  It is based on
 the Gaussian(R) 09 system (copyright 2009, Gaussian, Inc.),
 the Gaussian(R) 03 system (copyright 2003, Gaussian, Inc.),
 the Gaussian(R) 98 system (copyright 1998, Gaussian, Inc.),
 the Gaussian(R) 94 system (copyright 1995, Gaussian, Inc.),
 the Gaussian 92(TM) system (copyright 1992, Gaussian, Inc.),
 the Gaussian 90(TM) system (copyright 1990, Gaussian, Inc.),
 the Gaussian 88(TM) system (copyright 1988, Gaussian, Inc.),
 the Gaussian 86(TM) system (copyright 1986, Carnegie Mellon
 University), and the Gaussian 82(TM) system (copyright 1983,
 Carnegie Mellon University). Gaussian is a federally registered
 trademark of Gaussian, Inc.
  
 This software contains proprietary and confidential information,
 including trade secrets, belonging to Gaussian, Inc.
  
 This software is provided under written license and may be
 used, copied, transmitted, or stored only in accord with that
 written license.
  
 The following legend is applicable only to US Government
 contracts under FAR:
  
                    RESTRICTED RIGHTS LEGEND
  
 Use, reproduction and disclosure by the US Government is
 subject to restrictions as set forth in subparagraphs (a)
 and (c) of the Commercial Computer Software - Restricted
 Rights clause in FAR 52.227-19.
  
 Gaussian, Inc.
 340 Quinnipiac St., Bldg. 40, Wallingford CT 06492
  
  
 ---------------------------------------------------------------
 Warning -- This program may not be used in any manner that
 competes with the business of Gaussian, Inc. or will provide
 assistance to any competitor of Gaussian, Inc.  The licensee
 of this program is prohibited from giving any competitor of
 Gaussian, Inc. access to this program.  By using this program,
 the user acknowledges that Gaussian, Inc. is engaged in the
 business of creating and licensing software in the field of
 computational chemistry and represents and warrants to the
 licensee that it is not a competitor of Gaussian, Inc. and that
 it will not use this program in any manner prohibited above.
 ---------------------------------------------------------------
  

 Cite this work as:
 Gaussian 16, Revision C.01,
 M. J. Frisch, G. W. Trucks, H. B. Schlegel, G. E. Scuseria, 
 M. A. Robb, J. R. Cheeseman, G. Scalmani, V. Barone, 
 G. A. Petersson, H. Nakatsuji, X. Li, M. Caricato, A. V. Marenich, 
 J. Bloino, B. G. Janesko, R. Gomperts, B. Mennucci, H. P. Hratchian, 
 J. V. Ortiz, A. F. Izmaylov, J. L. Sonnenberg, D. Williams-Young, 
 F. Ding, F. Lipparini, F. Egidi, J. Goings, B. Peng, A. Petrone, 
 T. Henderson, D. Ranasinghe, V. G. Zakrzewski, J. Gao, N. Rega, 
 G. Zheng, W. Liang, M. Hada, M. Ehara, K. Toyota, R. Fukuda, 
 J. Hasegawa, M. Ishida, T. Nakajima, Y. Honda, O. Kitao, H. Nakai, 
 T. Vreven, K. Throssell, J. A. Montgomery, Jr., J. E. Peralta, 
 F. Ogliaro, M. J. Bearpark, J. J. Heyd, E. N. Brothers, K. N. Kudin, 
 V. N. Staroverov, T. A. Keith, R. Kobayashi, J. Normand, 
 K. Raghavachari, A. P. Rendell, J. C. Burant, S. S. Iyengar, 
 J. Tomasi, M. Cossi, J. M. Millam, M. Klene, C. Adamo, R. Cammi, 
 J. W. Ochterski, R. L. Martin, K. Morokuma, O. Farkas, 
 J. B. Foresman, and D. J. Fox, Gaussian, Inc., Wallingford CT, 2019.
 
 ******************************************
 Gaussian 16:  ES64L-G16RevC.01  3-Jul-2019
                21-Mar-2025 
 ******************************************
 %oldchk=../GS_OLD/geometry.chk
 %chk=geometry.chk
 %nprocshared=1
 Will use up to    1 processors via shared memory.
 %mem=2GB
 Copying data from "../GS_OLD/geometry.chk" to current chk file "geometry.chk"
 IOpt=  2 FromEx=T IUOpen= 4 IOptOp= 5 NList=   0 IFRang= 0 IUIn= 4 IUOut= 2.
 -------------------------------------------
 # AM1/STO-5G SCF=XQC FORCE nosym guess=read
 -------------------------------------------
 1/10=7,30=1,38=1/1,3;
 2/12=2,15=1,17=6,18=5,40=1/2;
 3/5=2,6=5,25=1,41=700000,71=1,116=-2/1,2,3;
 4/5=1,35=1/1;
 5/5=2,8=3,13=1,35=1,38=6/2,8;
 6/7=2,8=2,9=2,10=2,28=1/1;
 7/29=1,30=1/1,2,3,16;
 1/10=7,30=1/3;
 99//99;
 ----------
 MD Step 25
 ----------
 Symbolic Z-matrix:
 Charge =  0 Multiplicity = 1
 C                    -0.65794  -1.1772   -0.01537 
 C                     0.7105   -1.19253  -0.00273 
 C                     1.41569  -0.00448   0.0223 
 C                     0.67312   1.15843  -0.01969 
 C                    -0.7243    1.2235    0.02778 
 C                    -1.41328   0.00179  -0.00047 
 H                    -1.25625  -2.07684  -0.09179 
 H                     1.31497  -2.1155    0.21097 
 H                     2.55882  -0.0245   -0.02938 
 H                     1.15241   2.16029  -0.13719 
 H                    -1.24872   2.18291  -0.01902 
 H                    -2.48796  -0.06084  -0.15857 
 

 GradGradGradGradGradGradGradGradGradGradGradGradGradGradGradGradGradGrad
 Berny optimization.
 Initialization pass.
 Trust Radius=3.00D-01 FncErr=1.00D-07 GrdErr=1.00D-07 EigMax=2.50D+02 EigMin=1.00D-04
 Number of steps in this run=      2 maximum allowed number of steps=      2.
 GradGradGradGradGradGradGradGradGradGradGradGradGradGradGradGradGradGrad

                          Input orientation:                          
 ---------------------------------------------------------------------
 Center     Atomic      Atomic             Coordinates (Angstroms)
 Number     Number       Type             X           Y           Z
 ---------------------------------------------------------------------
      1          6           0       -0.657936   -1.177197   -0.015369
      2          6           0        0.710504   -1.192527   -0.002728
      3          6           0        1.415687   -0.004478    0.022305
      4          6           0        0.673117    1.158431   -0.019686
      5          6           0       -0.724298    1.223504    0.027779
      6          6           0       -1.413278    0.001793   -0.000473
      7          1           0       -1.256245   -2.076843   -0.091793
      8          1           0        1.314973   -2.115500    0.210969
      9          1           0        2.558815   -0.024500   -0.029379
     10          1           0        1.152408    2.160285   -0.137191
     11          1           0       -1.248724    2.182907   -0.019019
     12          1           0       -2.487964   -0.060840   -0.158569
 ---------------------------------------------------------------------
                    Distance matrix (angstroms):
                    1          2          3          4          5
     1  C    0.000000
     2  C    1.368583   0.000000
     3  C    2.382561   1.381800   0.000000
     4  C    2.688285   2.351316   1.380410   0.000000
     5  C    2.402005   2.810123   2.467287   1.399734   0.000000
     6  C    1.400279   2.436566   2.829063   2.385628   1.402878
     7  H    1.083134   2.158251   3.383332   3.767577   3.345079
     8  H    2.196363   1.123801   2.121827   3.344220   3.916776
     9  H    3.417073   2.186607   1.144471   2.226045   3.512778
    10  H    3.798812   3.384481   2.186539   1.116799   2.103996
    11  H    3.411648   3.902870   3.447527   2.177848   1.094380
    12  H    2.148433   3.396351   3.908246   3.390920   2.189699
                    6          7          8          9         10
     6  C    0.000000
     7  H    2.086559   0.000000
     8  H    3.459912   2.589271   0.000000
     9  H    3.972285   4.332515   2.444829   0.000000
    10  H    3.355670   4.874108   4.293016   2.600556   0.000000
    11  H    2.187391   4.260378   5.010164   4.401148   2.404144
    12  H    1.088057   2.363442   4.338262   5.048563   4.264523
                   11         12
    11  H    0.000000
    12  H    2.567020   0.000000
 Symmetry turned off by external request.
 Stoichiometry    C6H6
 Framework group  C1[X(C6H6)]
 Deg. of freedom    30
 Full point group                 C1      NOp   1
 Rotational constants (GHZ):           5.9475671           5.5245954           2.8679221
 Standard basis: VSTO-5G (5D, 7F)
    30 basis functions,   180 primitive gaussians,    30 cartesian basis functions
    15 alpha electrons       15 beta electrons
       nuclear repulsion energy       119.8090677100 Hartrees.
 Integral buffers will be    131072 words long.
 Regular integral format.
 Two-electron integral symmetry is turned off.
 Do NDO integrals.
 One-electron integrals computed using PRISM.
 NBasis=    30 RedAO= F EigKep=  0.00D+00  NBF=    30
 NBsUse=    30 1.00D-04 EigRej=  0.00D+00 NBFU=    30
 Initial guess from the checkpoint file:  "geometry.chk"
 B after Tr=    -0.000774   -0.001227    0.000780
         Rot=    1.000000    0.000288    0.000272    0.000180 Ang=   0.05 deg.
 Keep J ints in memory in canonical form, NReq=861816.
 Overlap will be assumed to be unity.
 Requested convergence on RMS density matrix=1.00D-08 within  32 cycles.
 Requested convergence on MAX density matrix=1.00D-06.
 Requested convergence on             energy=1.00D-06.
 No special actions if energy rises.
 SCF Done:  E(RAM1) =  0.476175660442E-01 A.U. after   12 cycles
            NFock= 11  Conv=0.51D-08     -V/T= 1.0010
 QCSCF skips out because SCF is already converged.

 **********************************************************************

            Population analysis using the SCF Density.

 **********************************************************************

 Alpha  occ. eigenvalues --   -1.44686  -1.16038  -1.14867  -0.84844  -0.84455
 Alpha  occ. eigenvalues --   -0.65604  -0.58856  -0.56748  -0.52518  -0.51345
 Alpha  occ. eigenvalues --   -0.49426  -0.44093  -0.42731  -0.35615  -0.35462
 Alpha virt. eigenvalues --    0.01844   0.02225   0.10849   0.14047   0.14510
 Alpha virt. eigenvalues --    0.15066   0.15528   0.16894   0.17004   0.18603
 Alpha virt. eigenvalues --    0.18851   0.20580   0.20810   0.21153   0.22516
          Condensed to atoms (all electrons):
               1          2          3          4          5          6
     1  C    4.131897   0.000000   0.000000   0.000000   0.000000   0.000000
     2  C    0.000000   4.126271   0.000000   0.000000   0.000000   0.000000
     3  C    0.000000   0.000000   4.127806   0.000000   0.000000   0.000000
     4  C    0.000000   0.000000   0.000000   4.135517   0.000000   0.000000
     5  C    0.000000   0.000000   0.000000   0.000000   4.128809   0.000000
     6  C    0.000000   0.000000   0.000000   0.000000   0.000000   4.133277
     7  H    0.000000   0.000000   0.000000   0.000000   0.000000   0.000000
     8  H    0.000000   0.000000   0.000000   0.000000   0.000000   0.000000
     9  H    0.000000   0.000000   0.000000   0.000000   0.000000   0.000000
    10  H    0.000000   0.000000   0.000000   0.000000   0.000000   0.000000
    11  H    0.000000   0.000000   0.000000   0.000000   0.000000   0.000000
    12  H    0.000000   0.000000   0.000000   0.000000   0.000000   0.000000
               7          8          9         10         11         12
     1  C    0.000000   0.000000   0.000000   0.000000   0.000000   0.000000
     2  C    0.000000   0.000000   0.000000   0.000000   0.000000   0.000000
     3  C    0.000000   0.000000   0.000000   0.000000   0.000000   0.000000
     4  C    0.000000   0.000000   0.000000   0.000000   0.000000   0.000000
     5  C    0.000000   0.000000   0.000000   0.000000   0.000000   0.000000
     6  C    0.000000   0.000000   0.000000   0.000000   0.000000   0.000000
     7  H    0.877274   0.000000   0.000000   0.000000   0.000000   0.000000
     8  H    0.000000   0.868641   0.000000   0.000000   0.000000   0.000000
     9  H    0.000000   0.000000   0.859042   0.000000   0.000000   0.000000
    10  H    0.000000   0.000000   0.000000   0.880779   0.000000   0.000000
    11  H    0.000000   0.000000   0.000000   0.000000   0.863489   0.000000
    12  H    0.000000   0.000000   0.000000   0.000000   0.000000   0.867197
 Mulliken charges:
               1
     1  C   -0.131897
     2  C   -0.126271
     3  C   -0.127806
     4  C   -0.135517
     5  C   -0.128809
     6  C   -0.133277
     7  H    0.122726
     8  H    0.131359
     9  H    0.140958
    10  H    0.119221
    11  H    0.136511
    12  H    0.132803
 Sum of Mulliken charges =  -0.00000
 Mulliken charges with hydrogens summed into heavy atoms:
               1
     1  C   -0.009171
     2  C    0.005088
     3  C    0.013152
     4  C   -0.016297
     5  C    0.007701
     6  C   -0.000474
 Charge=             -0.0000 electrons
 Dipole moment (field-independent basis, Debye):
    X=              0.0421    Y=              0.0507    Z=             -0.1587  Tot=              0.1719
 N-N= 1.198090677100D+02 E-N=-1.709250802069D+02  KE=-4.785205599723D+01
 Calling FoFJK, ICntrl=      2127 FMM=F ISym2X=0 I1Cent= 0 IOpClX= 0 NMat=1 NMatS=1 NMatT=0.
 -------------------------------------------------------------------
 Center     Atomic                   Forces (Hartrees/Bohr)
 Number     Number              X              Y              Z
 -------------------------------------------------------------------
      1        6          -0.031516078   -0.000758484   -0.003686276
      2        6           0.028125905   -0.029155528    0.026039339
      3        6           0.027857306    0.010262722   -0.012152041
      4        6           0.005225977    0.046251528    0.000012418
      5        6          -0.001098270   -0.025577891   -0.007436846
      6        6           0.017893987    0.012681139   -0.008807473
      7        1          -0.001168276   -0.017465841    0.001528480
      8        1          -0.012775256    0.004766016   -0.012414600
      9        1          -0.028584307    0.004701370    0.003857318
     10        1           0.004531783   -0.009510828    0.004339453
     11        1          -0.000608152    0.001140339    0.002649667
     12        1          -0.007884620    0.002665457    0.006070562
 -------------------------------------------------------------------
 Cartesian Forces:  Max     0.046251528 RMS     0.016277906

 GradGradGradGradGradGradGradGradGradGradGradGradGradGradGradGradGradGrad
 Berny optimization.
 Search for a local minimum.
 Step number   1 out of a maximum of    2
 All quantities printed in internal units (Hartrees-Bohrs-Radians)
 Second derivative matrix not updated -- first step.
 ITU=  0
     Eigenvalues ---    0.01534   0.01737   0.03354   0.04226   0.06340
     Eigenvalues ---    0.06609   0.06765   0.06981   0.07114   0.09333
     Eigenvalues ---    0.09690   0.11282   0.11673   0.16270   0.17961
     Eigenvalues ---    0.27339   0.29623   0.31111   0.39716   0.40461
     Eigenvalues ---    0.45341   0.64463   0.66384   0.96639   1.05123
     Eigenvalues ---    1.19419   1.22264   1.47540   1.58823   1.63697
 Quadratic step=4.614D-01 exceeds max=3.000D-01 adjusted using Lamda=-3.555D-02.
 Angle between NR and scaled steps=  16.74 degrees.
 Angle between quadratic step and forces=  51.57 degrees.
 Linear search not attempted -- first point.
 B after Tr=     0.003396    0.001844   -0.005599
         Rot=    0.999998    0.001679    0.001186   -0.000193 Ang=   0.24 deg.
 Variable       Old X    -DE/DX   Delta X   Delta X   Delta X     New X
                                 (Linear)    (Quad)   (Total)
    X1       -1.24332  -0.03152   0.00000  -0.04346  -0.03913  -1.28244
    Y1       -2.22458  -0.00076   0.00000  -0.05655  -0.05528  -2.27986
    Z1       -0.02904  -0.00369   0.00000   0.00349   0.00250  -0.02654
    X2        1.34266   0.02813   0.00000   0.00217   0.00629   1.34894
    Y2       -2.25355  -0.02916   0.00000  -0.02809  -0.02551  -2.27906
    Z2       -0.00515   0.02604   0.00000   0.06587   0.07113   0.06597
    X3        2.67526   0.02786   0.00000  -0.00600  -0.00266   2.67260
    Y3       -0.00846   0.01026   0.00000   0.04040   0.04334   0.03488
    Z3        0.04215  -0.01215   0.00000  -0.02515  -0.02453   0.01762
    X4        1.27201   0.00523   0.00000   0.03514   0.03777   1.30977
    Y4        2.18912   0.04625   0.00000   0.09254   0.09473   2.28385
    Z4       -0.03720   0.00001   0.00000  -0.00797  -0.01813  -0.05533
    X5       -1.36872  -0.00110   0.00000   0.02787   0.03040  -1.33833
    Y5        2.31209  -0.02558   0.00000  -0.02203  -0.02072   2.29137
    Z5        0.05249  -0.00744   0.00000  -0.05256  -0.06903  -0.01653
    X6       -2.67071   0.01789   0.00000   0.02579   0.02931  -2.64139
    Y6        0.00339   0.01268   0.00000  -0.00527  -0.00463  -0.00124
    Z6       -0.00089  -0.00881   0.00000  -0.05120  -0.06307  -0.06396
    X7       -2.37396  -0.00117   0.00000  -0.00794  -0.00265  -2.37661
    Y7       -3.92466  -0.01747   0.00000  -0.12113  -0.12067  -4.04534
    Z7       -0.17346   0.00153   0.00000   0.02938   0.03173  -0.14174
    X8        2.48494  -0.01278   0.00000  -0.04961  -0.04545   2.43949
    Y8       -3.99772   0.00477   0.00000  -0.04336  -0.03945  -4.03716
    Z8        0.39867  -0.01241   0.00000  -0.07305  -0.05930   0.33937
    X9        4.83546  -0.02858   0.00000  -0.09165  -0.08817   4.74729
    Y9       -0.04630   0.00470   0.00000   0.06169   0.06523   0.01894
    Z9       -0.05552   0.00386   0.00000   0.01097   0.01657  -0.03895
   X10        2.17774   0.00453   0.00000   0.08507   0.08734   2.26507
   Y10        4.08235  -0.00951   0.00000   0.04385   0.04590   4.12825
   Z10       -0.25925   0.00434   0.00000   0.06633   0.05224  -0.20701
   X11       -2.35975  -0.00061   0.00000  -0.00426  -0.00241  -2.36215
   Y11        4.12510   0.00114   0.00000  -0.02881  -0.02793   4.09717
   Z11       -0.03594   0.00265   0.00000   0.03042   0.00546  -0.03048
   X12       -4.70157  -0.00788   0.00000  -0.01462  -0.01064  -4.71221
   Y12       -0.11497   0.00267   0.00000   0.04574   0.04497  -0.07000
   Z12       -0.29965   0.00607   0.00000   0.07098   0.05444  -0.24522
         Item               Value     Threshold  Converged?
 Maximum Force            0.046252     0.000450     NO 
 RMS     Force            0.016278     0.000300     NO 
 Maximum Displacement     0.120673     0.001800     NO 
 RMS     Displacement     0.049422     0.001200     NO 
 Predicted change in Energy=-1.070468D-02
 GradGradGradGradGradGradGradGradGradGradGradGradGradGradGradGradGradGrad

 Unable to Open any file for archive entry.
 1\1\GINC-BHC0201\Force\RAM1\ZDO\C6H6\BWEIGHT\21-Mar-2025\0\\# AM1/STO-
 5G SCF=XQC FORCE nosym guess=read\\MD Step 25\\0,1\C,-0.65793553,-1.17
 719661,-0.01536884\C,0.7105036,-1.19252692,-0.00272781\C,1.41568699,-0
 .0044781,0.0223049\C,0.67311687,1.158431,-0.01968577\C,-0.72429788,1.2
 2350376,0.02777878\C,-1.41327782,0.00179338,-0.00047301\H,-1.25624525,
 -2.07684284,-0.09179276\H,1.31497299,-2.11550008,0.21096916\H,2.558815
 09,-0.02450042,-0.02937895\H,1.15240797,2.1602852,-0.13719083\H,-1.248
 7237,2.182907,-0.01901851\H,-2.48796402,-0.0608395,-0.15856856\\Versio
 n=ES64L-G16RevC.01\HF=0.0476176\RMSD=5.099e-09\RMSF=1.628e-02\Dipole=0
 .0165632,0.0199292,-0.062449\PG=C01 [X(C6H6)]\\@
 The archive entry for this job was punched.


 I SUPPOSE A BABY LLAMA HAS A MMAMA AND A PPOPA.
     -- RICHARD AMOUR
 Job cpu time:       0 days  0 hours  0 minutes  1.3 seconds.
 Elapsed time:       0 days  0 hours  0 minutes  1.0 seconds.
 File lengths (MBytes):  RWF=      6 Int=      0 D2E=      0 Chk=      2 Scr=      1
 Normal termination of Gaussian 16 at Fri Mar 21 15:03:16 2025.
