 Entering Gaussian System, Link 0=g16
 Initial command:
 /software/gaussian/g16-c01/avx2/g16/l1.exe "/local_scratch/28554200/Gau-33575.inp" -scrdir="/local_scratch/28554200/"
 Entering Link 1 = /software/gaussian/g16-c01/avx2/g16/l1.exe PID=     33584.
  
 Copyright (c) 1988-2019, Gaussian, Inc.  All Rights Reserved.
  
 This is part of the Gaussian(R) 16 program.  It is based on
 the Gaussian(R) 09 system (copyright 2009, Gaussian, Inc.),
 the Gaussian(R) 03 system (copyright 2003, Gaussian, Inc.),
 the Gaussian(R) 98 system (copyright 1998, Gaussian, Inc.),
 the Gaussian(R) 94 system (copyright 1995, Gaussian, Inc.),
 the Gaussian 92(TM) system (copyright 1992, Gaussian, Inc.),
 the Gaussian 90(TM) system (copyright 1990, Gaussian, Inc.),
 the Gaussian 88(TM) system (copyright 1988, Gaussian, Inc.),
 the Gaussian 86(TM) system (copyright 1986, Carnegie Mellon
 University), and the Gaussian 82(TM) system (copyright 1983,
 Carnegie Mellon University). Gaussian is a federally registered
 trademark of Gaussian, Inc.
  
 This software contains proprietary and confidential information,
 including trade secrets, belonging to Gaussian, Inc.
  
 This software is provided under written license and may be
 used, copied, transmitted, or stored only in accord with that
 written license.
  
 The following legend is applicable only to US Government
 contracts under FAR:
  
                    RESTRICTED RIGHTS LEGEND
  
 Use, reproduction and disclosure by the US Government is
 subject to restrictions as set forth in subparagraphs (a)
 and (c) of the Commercial Computer Software - Restricted
 Rights clause in FAR 52.227-19.
  
 Gaussian, Inc.
 340 Quinnipiac St., Bldg. 40, Wallingford CT 06492
  
  
 ---------------------------------------------------------------
 Warning -- This program may not be used in any manner that
 competes with the business of Gaussian, Inc. or will provide
 assistance to any competitor of Gaussian, Inc.  The licensee
 of this program is prohibited from giving any competitor of
 Gaussian, Inc. access to this program.  By using this program,
 the user acknowledges that Gaussian, Inc. is engaged in the
 business of creating and licensing software in the field of
 computational chemistry and represents and warrants to the
 licensee that it is not a competitor of Gaussian, Inc. and that
 it will not use this program in any manner prohibited above.
 ---------------------------------------------------------------
  

 Cite this work as:
 Gaussian 16, Revision C.01,
 M. J. Frisch, G. W. Trucks, H. B. Schlegel, G. E. Scuseria, 
 M. A. Robb, J. R. Cheeseman, G. Scalmani, V. Barone, 
 G. A. Petersson, H. Nakatsuji, X. Li, M. Caricato, A. V. Marenich, 
 J. Bloino, B. G. Janesko, R. Gomperts, B. Mennucci, H. P. Hratchian, 
 J. V. Ortiz, A. F. Izmaylov, J. L. Sonnenberg, D. Williams-Young, 
 F. Ding, F. Lipparini, F. Egidi, J. Goings, B. Peng, A. Petrone, 
 T. Henderson, D. Ranasinghe, V. G. Zakrzewski, J. Gao, N. Rega, 
 G. Zheng, W. Liang, M. Hada, M. Ehara, K. Toyota, R. Fukuda, 
 J. Hasegawa, M. Ishida, T. Nakajima, Y. Honda, O. Kitao, H. Nakai, 
 T. Vreven, K. Throssell, J. A. Montgomery, Jr., J. E. Peralta, 
 F. Ogliaro, M. J. Bearpark, J. J. Heyd, E. N. Brothers, K. N. Kudin, 
 V. N. Staroverov, T. A. Keith, R. Kobayashi, J. Normand, 
 K. Raghavachari, A. P. Rendell, J. C. Burant, S. S. Iyengar, 
 J. Tomasi, M. Cossi, J. M. Millam, M. Klene, C. Adamo, R. Cammi, 
 J. W. Ochterski, R. L. Martin, K. Morokuma, O. Farkas, 
 J. B. Foresman, and D. J. Fox, Gaussian, Inc., Wallingford CT, 2019.
 
 ******************************************
 Gaussian 16:  ES64L-G16RevC.01  3-Jul-2019
                21-Mar-2025 
 ******************************************
 %oldchk=../TD_OLD_S1/geometry.chk
 %chk=geometry.chk
 %nprocshared=1
 Will use up to    1 processors via shared memory.
 %mem=2GB
 Copying data from "../TD_OLD_S1/geometry.chk" to current chk file "geometry.chk"
 IOpt=  2 FromEx=T IUOpen= 4 IOptOp= 5 NList=   0 IFRang= 0 IUIn= 4 IUOut= 2.
 ----------------------------------------------------------------------
 # AM1/STO-5G SCF=XQC TD=(read,singlets,nstates=5,root=1) nosym IOp(9/4
 0=3) guess=read
 ----------------------------------------------------------------------
 1/38=1,172=1/1;
 2/12=2,15=1,17=6,18=5,40=1/2;
 3/5=2,6=5,25=1,41=700000,116=-2/1,2,3,8;
 4/5=1,35=1/1;
 5/5=2,8=3,13=1,35=1,38=6/2,8;
 8/6=1,10=90,107=1,108=5/1;
 9/8=1,40=3,41=5,42=1,48=1,49=13,70=2/14;
 6/7=2,8=2,9=2,10=2/1;
 99/5=1,9=1/99;
 ----------
 MD Step 25
 ----------
 Symbolic Z-matrix:
 Charge =  0 Multiplicity = 1
 C                    -0.65794  -1.1772   -0.01537 
 C                     0.7105   -1.19253  -0.00273 
 C                     1.41569  -0.00448   0.0223 
 C                     0.67312   1.15843  -0.01969 
 C                    -0.7243    1.2235    0.02778 
 C                    -1.41328   0.00179  -0.00047 
 H                    -1.25625  -2.07684  -0.09179 
 H                     1.31497  -2.1155    0.21097 
 H                     2.55882  -0.0245   -0.02938 
 H                     1.15241   2.16029  -0.13719 
 H                    -1.24872   2.18291  -0.01902 
 H                    -2.48796  -0.06084  -0.15857 
 
                          Input orientation:                          
 ---------------------------------------------------------------------
 Center     Atomic      Atomic             Coordinates (Angstroms)
 Number     Number       Type             X           Y           Z
 ---------------------------------------------------------------------
      1          6           0       -0.657936   -1.177197   -0.015369
      2          6           0        0.710504   -1.192527   -0.002728
      3          6           0        1.415687   -0.004478    0.022305
      4          6           0        0.673117    1.158431   -0.019686
      5          6           0       -0.724298    1.223504    0.027779
      6          6           0       -1.413278    0.001793   -0.000473
      7          1           0       -1.256245   -2.076843   -0.091793
      8          1           0        1.314973   -2.115500    0.210969
      9          1           0        2.558815   -0.024500   -0.029379
     10          1           0        1.152408    2.160285   -0.137191
     11          1           0       -1.248724    2.182907   -0.019019
     12          1           0       -2.487964   -0.060840   -0.158569
 ---------------------------------------------------------------------
                    Distance matrix (angstroms):
                    1          2          3          4          5
     1  C    0.000000
     2  C    1.368583   0.000000
     3  C    2.382561   1.381800   0.000000
     4  C    2.688285   2.351316   1.380410   0.000000
     5  C    2.402005   2.810123   2.467287   1.399734   0.000000
     6  C    1.400279   2.436566   2.829063   2.385628   1.402878
     7  H    1.083134   2.158251   3.383332   3.767577   3.345079
     8  H    2.196363   1.123801   2.121827   3.344220   3.916776
     9  H    3.417073   2.186607   1.144471   2.226045   3.512778
    10  H    3.798812   3.384481   2.186539   1.116799   2.103996
    11  H    3.411648   3.902870   3.447527   2.177848   1.094380
    12  H    2.148433   3.396351   3.908246   3.390920   2.189699
                    6          7          8          9         10
     6  C    0.000000
     7  H    2.086559   0.000000
     8  H    3.459912   2.589271   0.000000
     9  H    3.972285   4.332515   2.444829   0.000000
    10  H    3.355670   4.874108   4.293016   2.600556   0.000000
    11  H    2.187391   4.260378   5.010164   4.401148   2.404144
    12  H    1.088057   2.363442   4.338262   5.048563   4.264523
                   11         12
    11  H    0.000000
    12  H    2.567020   0.000000
 Symmetry turned off by external request.
 Stoichiometry    C6H6
 Framework group  C1[X(C6H6)]
 Deg. of freedom    30
 Full point group                 C1      NOp   1
 Rotational constants (GHZ):           5.9475671           5.5245954           2.8679221
 Standard basis: VSTO-5G (5D, 7F)
    30 basis functions,   180 primitive gaussians,    30 cartesian basis functions
    15 alpha electrons       15 beta electrons
       nuclear repulsion energy       119.8090677100 Hartrees.
 Integral buffers will be    131072 words long.
 Regular integral format.
 Two-electron integral symmetry is turned off.
 Do NDO integrals.
 One-electron integrals computed using PRISM.
 NBasis=    30 RedAO= F EigKep=  0.00D+00  NBF=    30
 NBsUse=    30 1.00D-04 EigRej=  0.00D+00 NBFU=    30
 Initial guess from the checkpoint file:  "geometry.chk"
 B after Tr=    -0.000774   -0.001227    0.000780
         Rot=    1.000000    0.000288    0.000272    0.000180 Ang=   0.05 deg.
 Keep J ints in memory in canonical form, NReq=861816.
 Overlap will be assumed to be unity.
 Requested convergence on RMS density matrix=1.00D-08 within  32 cycles.
 Requested convergence on MAX density matrix=1.00D-06.
 Requested convergence on             energy=1.00D-06.
 No special actions if energy rises.
 SCF Done:  E(RAM1) =  0.476175660441E-01 A.U. after   12 cycles
            NFock= 11  Conv=0.51D-08     -V/T= 1.0010
 QCSCF skips out because SCF is already converged.
 Range of M.O.s used for correlation:     1    30
 NBasis=    30 NAE=    15 NBE=    15 NFC=     0 NFV=     0
 NROrb=     30 NOA=    15 NOB=    15 NVA=    15 NVB=    15
 Keep J ints in memory in canonical form, NReq=862156.
 Generating guess from checkpoint file densities.
 Convergence on wavefunction:    0.001000000000000
 Iteration     1 Dimension    10 NMult     0 NNew     10
 CISAX will form    10 AO SS matrices at one time.
 Iteration     2 Dimension    20 NMult    10 NNew     10
 Iteration     3 Dimension    30 NMult    20 NNew     10
 Iteration     4 Dimension    38 NMult    30 NNew      8
 Iteration     5 Dimension    44 NMult    38 NNew      6
 Iteration     6 Dimension    50 NMult    44 NNew      6
 Iteration     7 Dimension    54 NMult    50 NNew      4
 Iteration     8 Dimension    56 NMult    54 NNew      2
 Convergence on energies, max DE= 8.26D-06.
 ***********************************************************************
 Excited states from <AA,BB:AA,BB> singles matrix:
 ***********************************************************************
 
 Ground to excited state transition densities written to RWF  633
 Ground to excited state transition electric dipole moments (Au):
       state          X           Y           Z        Dip. S.      Osc.
         1         0.0572     -0.0202      0.0008      0.0037      0.0003
         2        -0.0572     -0.0257     -0.0788      0.0101      0.0010
         3        -0.5742     -1.4615     -0.0360      2.4670      0.3279
         4        -1.4949      0.5612      0.0601      2.5532      0.3422
         5        -0.2025     -0.2955      0.0397      0.1299      0.0185
 Ground to excited state transition velocity dipole moments (Au):
       state          X           Y           Z        Dip. S.      Osc.
         1        -0.0094      0.0027     -0.0005      0.0001      0.0004
         2         0.0153      0.0069      0.0210      0.0007      0.0031
         3         0.1751      0.4504     -0.0225      0.2340      0.7826
         4         0.4693     -0.1805      0.0440      0.2547      0.8446
         5         0.0707      0.0966      0.0315      0.0153      0.0478
 Ground to excited state transition magnetic dipole moments (Au):
       state          X           Y           Z
         1         0.0175      0.0060     -0.0062
         2         0.0106     -0.0421     -0.0501
         3         0.0466     -0.0141      0.0347
         4        -0.0423     -0.0340      0.0192
         5        -0.0108      0.0600     -0.0838
 Ground to excited state transition velocity quadrupole moments (Au):
       state          XX          YY          ZZ          XY          XZ          YZ
         1        -0.0051      0.0045      0.0007      0.0000     -0.0068      0.0052
         2        -0.0119      0.0544     -0.0063     -0.0251      0.0189      0.0195
         3        -0.0376      0.0366     -0.0006     -0.0271     -0.0221     -0.0322
         4        -0.0041      0.0183      0.0032      0.0375      0.0113     -0.0252
         5        -0.1343      0.0828      0.0027     -0.0826      0.0045      0.0030
 <0|del|b> * <b|rxdel|0> + <0|del|b> * <b|delr+rdel|0>
 Rotatory Strengths (R) in cgs (10**-40 erg-esu-cm/Gauss)
       state          XX          YY          ZZ    R(velocity)    E-M Angle
         1         0.0926     -0.5236     -0.2936     -0.2415      139.62
         2        -4.5907     -0.1411     -0.6816     -1.8045      131.44
         3         6.0830      1.9886     -4.3676      1.2347       87.93
         4        18.7652    -57.1586     -6.9149    -15.1028      116.31
         5         0.1859     -0.9676      8.6682      2.6288       79.28
 1/2[<0|r|b>*<b|rxdel|0> + (<0|rxdel|b>*<b|r|0>)*]
 Rotatory Strengths (R) in cgs (10**-40 erg-esu-cm/Gauss)
       state          XX          YY          ZZ     R(length)
         1        -0.7078      0.0857      0.0035     -0.2062
         2         0.4297     -0.7632     -2.7918     -1.0418
         3        18.9193    -14.5323      0.8818      1.7563
         4       -44.7438     13.4908     -0.8165    -10.6898
         5        -1.5485     12.5299      2.3552      4.4455
  1/2[<0|del|b>*<b|r|0> + (<0|r|b>*<b|del|0>)*] (Au)
       state          X           Y           Z        Dip. S.   Osc.(frdel)
         1        -0.0005     -0.0001     -0.0000      0.0006      0.0004
         2        -0.0009     -0.0002     -0.0017      0.0027      0.0018
         3        -0.1005     -0.6583      0.0008      0.7580      0.5053
         4        -0.7015     -0.1013      0.0026      0.8002      0.5334
         5        -0.0143     -0.0285      0.0013      0.0416      0.0277

 Excitation energies and oscillator strengths:
 
 Excited state symmetry could not be determined.
 Excited State   1:      Singlet-?Sym    3.8501 eV  322.03 nm  f=0.0003  <S**2>=0.000
       2 -> 23        -0.00192
       2 -> 24         0.00279
       2 -> 25         0.00180
       3 -> 23         0.00247
       3 -> 24         0.00151
       3 -> 26        -0.00246
       4 -> 16        -0.00144
       4 -> 27         0.00256
       5 -> 17         0.00140
       5 -> 28         0.00287
       6 -> 17        -0.00135
       7 -> 16         0.00168
       7 -> 17        -0.00191
       7 -> 29        -0.00254
       8 -> 16        -0.00132
       8 -> 17        -0.00138
       8 -> 22         0.00128
       8 -> 23         0.00103
       8 -> 24        -0.00120
       9 -> 17         0.00135
       9 -> 18        -0.00232
       9 -> 19        -0.00129
       9 -> 23         0.00175
       9 -> 24        -0.00229
       9 -> 25        -0.00231
      10 -> 18         0.00563
      10 -> 23        -0.00252
      10 -> 24        -0.00116
      10 -> 26         0.00265
      11 -> 16         0.00121
      11 -> 17        -0.00416
      11 -> 19         0.00138
      11 -> 20        -0.00162
      11 -> 22        -0.00173
      11 -> 24        -0.00257
      11 -> 25        -0.00392
      11 -> 26         0.00110
      11 -> 28         0.00117
      11 -> 29        -0.00248
      12 -> 18         0.00182
      12 -> 19        -0.00123
      12 -> 27         0.00197
      13 -> 17         0.00129
      13 -> 18         0.00215
      13 -> 20        -0.00145
      13 -> 25        -0.00110
      14 -> 16        -0.32064
      14 -> 17         0.37532
      14 -> 18        -0.00340
      14 -> 19        -0.00203
      14 -> 20        -0.00104
      14 -> 21        -0.00117
      14 -> 24        -0.00433
      14 -> 25         0.00125
      14 -> 27         0.00268
      14 -> 28         0.00236
      15 -> 16        -0.41244
      15 -> 17        -0.30832
      15 -> 18        -0.00379
      15 -> 20        -0.00764
      15 -> 21        -0.00512
      15 -> 22        -0.00201
      15 -> 25         0.00288
      15 -> 26         0.00156
      15 -> 27         0.00239
      15 -> 28        -0.00204
      15 -> 29        -0.00117
      15 -> 30        -0.00259
       2 <- 24         0.00111
       4 <- 27         0.00216
       5 <- 28         0.00216
       7 <- 29        -0.00186
       9 <- 16        -0.00110
      10 <- 16         0.00118
      10 <- 17         0.00145
      11 <- 17        -0.00114
      12 <- 16         0.00326
      13 <- 16         0.00105
      13 <- 17         0.00394
      14 <- 16        -0.04117
      14 <- 17         0.05618
      15 <- 16        -0.04944
      15 <- 17        -0.04342
      15 <- 20        -0.00263
      15 <- 21        -0.00233
 This state for optimization and/or second-order correction.
 Total Energy, E(TD-HF/TD-DFT) =  0.189106342807    
 Copying the excited state density for this state as the 1-particle RhoCI density.
 
 Excited state symmetry could not be determined.
 Excited State   2:      Singlet-?Sym    4.1915 eV  295.80 nm  f=0.0010  <S**2>=0.000
       1 -> 16         0.00127
       1 -> 19         0.00125
       1 -> 21        -0.00189
       1 -> 30        -0.00104
       2 -> 17        -0.00124
       2 -> 18        -0.00159
       2 -> 23        -0.00264
       2 -> 24        -0.00156
       2 -> 26        -0.00188
       3 -> 16        -0.00136
       3 -> 17         0.00107
       3 -> 23        -0.00124
       3 -> 24         0.00228
       3 -> 25        -0.00227
       4 -> 16        -0.00231
       4 -> 17        -0.00173
       4 -> 18        -0.00119
       4 -> 22        -0.00132
       4 -> 25        -0.00166
       4 -> 28         0.00403
       5 -> 16        -0.00230
       5 -> 17        -0.00113
       5 -> 24         0.00116
       5 -> 27        -0.00515
       6 -> 16        -0.00182
       6 -> 21         0.00132
       7 -> 18         0.00266
       7 -> 22         0.00196
       8 -> 18        -0.00147
       8 -> 19        -0.00106
       8 -> 21        -0.00112
       8 -> 26         0.00243
       8 -> 27         0.00137
       8 -> 29        -0.00172
       9 -> 17         0.00165
       9 -> 18        -0.01521
       9 -> 20        -0.00110
       9 -> 21         0.00196
       9 -> 23         0.00433
       9 -> 24         0.00294
       9 -> 26         0.00589
       9 -> 27        -0.00121
       9 -> 29         0.00146
      10 -> 16         0.00270
      10 -> 17        -0.00365
      10 -> 18        -0.01311
      10 -> 19        -0.00183
      10 -> 20        -0.00183
      10 -> 23         0.00151
      10 -> 24        -0.00210
      10 -> 25         0.00673
      10 -> 26         0.00125
      10 -> 28         0.00274
      10 -> 29         0.00105
      11 -> 16        -0.00238
      11 -> 18         0.10506
      11 -> 19         0.00540
      11 -> 20         0.01526
      11 -> 21        -0.00561
      11 -> 22        -0.00181
      11 -> 23        -0.00434
      11 -> 24        -0.00312
      11 -> 26         0.00173
      11 -> 28         0.00145
      12 -> 16         0.00198
      12 -> 17        -0.00289
      12 -> 18        -0.02520
      12 -> 19         0.00577
      12 -> 20         0.00439
      12 -> 21         0.00251
      12 -> 22        -0.00967
      12 -> 24        -0.00210
      12 -> 25        -0.00152
      12 -> 28         0.00173
      13 -> 16         0.00496
      13 -> 17        -0.00131
      13 -> 18         0.02297
      13 -> 19         0.00965
      13 -> 20        -0.00499
      13 -> 21         0.00458
      13 -> 22        -0.00123
      13 -> 23        -0.00183
      13 -> 24        -0.00155
      13 -> 27         0.00600
      13 -> 28        -0.00107
      13 -> 29        -0.00119
      14 -> 16        -0.37889
      14 -> 17        -0.30266
      14 -> 18         0.00215
      14 -> 20        -0.00695
      14 -> 21        -0.00723
      14 -> 22        -0.00342
      14 -> 25         0.00244
      14 -> 26        -0.00192
      14 -> 27         0.00294
      14 -> 28        -0.00392
      14 -> 29         0.00137
      15 -> 16         0.31269
      15 -> 17        -0.39278
      15 -> 19         0.00241
      15 -> 20         0.00228
      15 -> 21         0.00162
      15 -> 22         0.00201
      15 -> 23         0.00149
      15 -> 24         0.00549
      15 -> 25         0.00160
      15 -> 27         0.00186
       1 <- 19         0.00284
       1 <- 20        -0.00114
       1 <- 21        -0.00445
       1 <- 30         0.00231
       2 <- 23        -0.00532
       2 <- 24        -0.00328
       2 <- 26         0.00182
       3 <- 19         0.00123
       3 <- 22         0.00108
       3 <- 23        -0.00357
       3 <- 24         0.00565
       4 <- 16        -0.00101
       4 <- 25        -0.00134
       4 <- 28         0.00530
       5 <- 24         0.00115
       5 <- 27        -0.00556
       6 <- 21         0.00105
       6 <- 30        -0.00159
       8 <- 26         0.00128
       8 <- 27         0.00140
       8 <- 29        -0.00478
       9 <- 16        -0.00126
       9 <- 18         0.00273
       9 <- 20         0.00102
       9 <- 23         0.00362
       9 <- 24         0.00231
      10 <- 16        -0.00102
      10 <- 18         0.00213
      10 <- 19        -0.00102
      10 <- 23         0.00231
      10 <- 24        -0.00416
      11 <- 16         0.00163
      11 <- 18        -0.01325
      11 <- 23         0.00124
      12 <- 17         0.00131
      12 <- 18         0.00230
      12 <- 19         0.00218
      12 <- 20         0.00237
      12 <- 22        -0.00320
      12 <- 24        -0.00106
      12 <- 25        -0.00126
      12 <- 28         0.00361
      13 <- 16        -0.00125
      13 <- 18        -0.00211
      13 <- 19         0.00231
      13 <- 20        -0.00227
      13 <- 21         0.00154
      13 <- 27         0.00510
      13 <- 28        -0.00109
      14 <- 16        -0.01298
      14 <- 17        -0.01070
      14 <- 18        -0.00196
      14 <- 20        -0.00225
      14 <- 21        -0.00225
      14 <- 26         0.00108
      15 <- 16         0.00824
      15 <- 17        -0.01116
 
 Excited state symmetry could not be determined.
 Excited State   3:      Singlet-?Sym    5.4251 eV  228.54 nm  f=0.3279  <S**2>=0.000
       1 -> 27         0.00223
       2 -> 22         0.00101
       2 -> 23        -0.00192
       2 -> 24        -0.00113
       2 -> 26         0.00258
       2 -> 29        -0.00182
       3 -> 16        -0.00186
       3 -> 17        -0.00258
       3 -> 19         0.00290
       3 -> 20         0.00275
       3 -> 21         0.00129
       3 -> 22         0.00585
       3 -> 23         0.00169
       3 -> 24        -0.00322
       3 -> 25        -0.00155
       4 -> 17         0.00642
       4 -> 18        -0.00179
       4 -> 20         0.00614
       4 -> 21         0.00127
       4 -> 22        -0.00401
       4 -> 28         0.00239
       4 -> 30        -0.00101
       5 -> 16        -0.01095
       5 -> 17        -0.00289
       5 -> 18         0.00275
       5 -> 19        -0.00171
       5 -> 21         0.01450
       5 -> 22        -0.00265
       5 -> 24         0.00175
       5 -> 27         0.00235
       5 -> 30        -0.00759
       6 -> 16        -0.00278
       6 -> 17         0.00224
       6 -> 19         0.00943
       6 -> 20        -0.00881
       6 -> 21         0.00707
       6 -> 22        -0.00109
       6 -> 23         0.00162
       6 -> 24         0.00298
       6 -> 26        -0.00253
       6 -> 27        -0.00526
       6 -> 30        -0.00115
       7 -> 16        -0.00109
       7 -> 17         0.00108
       7 -> 18        -0.01059
       7 -> 19        -0.00684
       7 -> 20        -0.00831
       7 -> 22        -0.00347
       7 -> 23         0.02205
       7 -> 24        -0.01930
       7 -> 25        -0.00902
       7 -> 26        -0.00587
       7 -> 27        -0.00130
       8 -> 16         0.00983
       8 -> 17         0.00109
       8 -> 18        -0.02464
       8 -> 19        -0.00240
       8 -> 20        -0.00997
       8 -> 21         0.00352
       8 -> 23        -0.01594
       8 -> 24        -0.01901
       8 -> 25        -0.01061
       8 -> 26         0.02577
       8 -> 27        -0.00469
       8 -> 28        -0.00158
       8 -> 29         0.00379
       9 -> 16        -0.00626
       9 -> 17        -0.00155
       9 -> 18         0.01243
       9 -> 19        -0.00245
       9 -> 20         0.00556
       9 -> 23         0.01177
       9 -> 24         0.00772
       9 -> 25         0.00373
       9 -> 26        -0.03397
       9 -> 27        -0.00413
       9 -> 29         0.02036
       9 -> 30        -0.00181
      10 -> 16         0.01133
      10 -> 17         0.01748
      10 -> 18        -0.00841
      10 -> 19        -0.00146
      10 -> 20        -0.00189
      10 -> 22        -0.00805
      10 -> 23        -0.00815
      10 -> 24         0.01347
      10 -> 25         0.01892
      10 -> 26         0.00134
      10 -> 28         0.00416
      10 -> 29        -0.00503
      10 -> 30        -0.00122
      11 -> 16        -0.01155
      11 -> 17         0.00510
      11 -> 18         0.00515
      11 -> 19        -0.00384
      11 -> 20         0.00142
      11 -> 21         0.00227
      11 -> 22        -0.00300
      11 -> 23         0.00491
      11 -> 24         0.00701
      11 -> 25         0.00610
      11 -> 26        -0.01057
      11 -> 28        -0.00140
      11 -> 29         0.00151
      11 -> 30        -0.00451
      12 -> 16        -0.01206
      12 -> 17         0.04380
      12 -> 18        -0.02285
      12 -> 19         0.00133
      12 -> 20         0.03243
      12 -> 21        -0.00732
      12 -> 22        -0.02336
      12 -> 23        -0.00318
      12 -> 24        -0.00891
      12 -> 25         0.00918
      12 -> 26         0.00281
      12 -> 27         0.01256
      12 -> 28        -0.03803
      12 -> 30         0.00220
      13 -> 16         0.09908
      13 -> 17         0.08215
      13 -> 18        -0.02201
      13 -> 19        -0.02834
      13 -> 20         0.01158
      13 -> 21        -0.04906
      13 -> 22         0.02068
      13 -> 23        -0.00312
      13 -> 24        -0.00819
      13 -> 25        -0.00211
      13 -> 26         0.00613
      13 -> 27         0.03652
      13 -> 28         0.01510
      13 -> 29         0.01272
      13 -> 30         0.03205
      14 -> 16        -0.45603
      14 -> 17         0.18442
      14 -> 18         0.00526
      14 -> 19        -0.00242
      14 -> 20        -0.00299
      14 -> 21         0.00511
      14 -> 22        -0.00394
      14 -> 23         0.01170
      14 -> 24        -0.01090
      14 -> 25        -0.00978
      14 -> 26        -0.00407
      14 -> 28        -0.00282
      14 -> 29        -0.00523
      14 -> 30        -0.00453
      15 -> 16         0.18680
      15 -> 17         0.44838
      15 -> 18        -0.01591
      15 -> 19        -0.00704
      15 -> 21        -0.00687
      15 -> 27         0.00592
      15 -> 28         0.00443
      15 -> 29        -0.00158
      15 -> 30         0.00491
       1 <- 19        -0.00100
       1 <- 27         0.00347
       2 <- 23        -0.00359
       2 <- 24        -0.00181
       2 <- 26         0.00374
       2 <- 29        -0.00254
       3 <- 19         0.00107
       3 <- 20         0.00117
       3 <- 21         0.00100
       3 <- 22         0.00293
       3 <- 23         0.00270
       3 <- 24        -0.00488
       3 <- 25        -0.00228
       4 <- 20         0.00324
       4 <- 22        -0.00252
       5 <- 18         0.00120
       5 <- 19        -0.00196
       5 <- 21         0.00991
       5 <- 22        -0.00139
       5 <- 24         0.00121
       5 <- 30        -0.00505
       6 <- 19         0.00406
       6 <- 20        -0.00362
       6 <- 21         0.00315
       6 <- 24         0.00101
       6 <- 26        -0.00125
       7 <- 18         0.00114
       7 <- 19        -0.00197
       7 <- 20        -0.00236
       7 <- 22        -0.00161
       7 <- 23         0.00880
       7 <- 24        -0.00817
       7 <- 25        -0.00288
       7 <- 26        -0.00216
       8 <- 19        -0.00106
       8 <- 20        -0.00275
       8 <- 21         0.00121
       8 <- 23        -0.00824
       8 <- 24        -0.00887
       8 <- 25        -0.00410
       8 <- 26         0.01001
       8 <- 27        -0.00178
       8 <- 29         0.00193
       9 <- 17        -0.00100
       9 <- 19        -0.00124
       9 <- 20         0.00141
       9 <- 23         0.00579
       9 <- 24         0.00378
       9 <- 25         0.00148
       9 <- 26        -0.01350
       9 <- 27        -0.00101
       9 <- 29         0.00609
      10 <- 17         0.00140
      10 <- 22        -0.00225
      10 <- 23        -0.00361
      10 <- 24         0.00619
      10 <- 25         0.00838
      10 <- 28         0.00202
      10 <- 29        -0.00130
      11 <- 20         0.00172
      11 <- 21         0.00152
      11 <- 25         0.00216
      11 <- 26        -0.00289
      11 <- 28        -0.00161
      11 <- 30        -0.00120
      12 <- 17         0.00382
      12 <- 18        -0.00199
      12 <- 20         0.00953
      12 <- 21        -0.00243
      12 <- 22        -0.00678
      12 <- 24        -0.00264
      12 <- 25         0.00270
      12 <- 27         0.00409
      12 <- 28        -0.01273
      13 <- 16         0.00378
      13 <- 17         0.00179
      13 <- 18        -0.00209
      13 <- 19        -0.00531
      13 <- 20         0.00263
      13 <- 21        -0.01574
      13 <- 22         0.00570
      13 <- 23        -0.00121
      13 <- 24        -0.00267
      13 <- 26         0.00154
      13 <- 27         0.01181
      13 <- 28         0.00472
      13 <- 29         0.00398
      13 <- 30         0.01150
      14 <- 16         0.07847
      14 <- 17        -0.03162
      14 <- 22         0.00267
      14 <- 23         0.00134
      14 <- 25        -0.00104
      14 <- 28         0.00134
      15 <- 16        -0.03303
      15 <- 17        -0.07870
      15 <- 18         0.00155
      15 <- 19         0.00162
      15 <- 20        -0.00386
 
 Excited state symmetry could not be determined.
 Excited State   4:      Singlet-?Sym    5.4711 eV  226.62 nm  f=0.3422  <S**2>=0.000
       1 -> 28         0.00250
       2 -> 16         0.00190
       2 -> 17         0.00142
       2 -> 19        -0.00379
       2 -> 20        -0.00401
       2 -> 21        -0.00130
       2 -> 22        -0.00597
       2 -> 25        -0.00199
       3 -> 18        -0.00126
       3 -> 22         0.00107
       3 -> 23         0.00208
       3 -> 26        -0.00203
       3 -> 29        -0.00251
       4 -> 16         0.00105
       4 -> 17         0.00550
       4 -> 19         0.01264
       4 -> 20        -0.00510
       4 -> 21        -0.00787
       4 -> 22        -0.00132
       4 -> 23        -0.00159
       4 -> 24        -0.00231
       4 -> 27         0.00106
       4 -> 29         0.00177
       4 -> 30         0.00840
       5 -> 16        -0.00687
       5 -> 17         0.00271
       5 -> 18         0.00201
       5 -> 19        -0.00250
       5 -> 20        -0.00511
       5 -> 21         0.00192
       5 -> 22         0.00438
       5 -> 28        -0.00144
       6 -> 16        -0.00231
       6 -> 17        -0.00433
       6 -> 19         0.00763
       6 -> 20         0.00986
       6 -> 21         0.00172
       6 -> 22        -0.00795
       6 -> 23         0.00130
       6 -> 24        -0.00171
       6 -> 25         0.00271
       6 -> 28        -0.00657
       7 -> 18         0.02540
       7 -> 19        -0.00282
       7 -> 20        -0.00286
       7 -> 21         0.00267
       7 -> 22        -0.00138
       7 -> 23        -0.01778
       7 -> 24        -0.01890
       7 -> 25        -0.00658
       7 -> 26         0.01252
       7 -> 28        -0.00134
       7 -> 30        -0.00138
       8 -> 18        -0.01490
       8 -> 19         0.00765
       8 -> 20         0.00559
       8 -> 21         0.00172
       8 -> 22         0.00600
       8 -> 23        -0.02588
       8 -> 24         0.02533
       8 -> 25         0.02586
       8 -> 26         0.01093
       8 -> 28         0.00125
       8 -> 29         0.00248
       9 -> 16        -0.01072
       9 -> 17        -0.00945
       9 -> 18         0.00970
       9 -> 19         0.00690
       9 -> 20         0.00772
       9 -> 21         0.00276
       9 -> 22         0.00804
       9 -> 23        -0.00371
       9 -> 24         0.00617
       9 -> 25         0.01883
       9 -> 26        -0.00323
       9 -> 27        -0.00191
       9 -> 28         0.00284
       9 -> 29         0.00448
      10 -> 16         0.00905
      10 -> 17         0.00318
      10 -> 18         0.01526
      10 -> 19         0.00500
      10 -> 20        -0.00593
      10 -> 21         0.00384
      10 -> 22        -0.00353
      10 -> 23        -0.01012
      10 -> 24        -0.00780
      10 -> 25        -0.00729
      10 -> 26         0.02345
      10 -> 27        -0.00619
      10 -> 28        -0.00144
      10 -> 29         0.02960
      11 -> 16        -0.00213
      11 -> 17         0.00648
      11 -> 18         0.00286
      11 -> 19         0.00424
      11 -> 20         0.00428
      11 -> 21         0.00171
      11 -> 22         0.00406
      11 -> 23        -0.00978
      11 -> 24         0.00471
      11 -> 25         0.00556
      11 -> 26         0.00474
      11 -> 27        -0.00361
      11 -> 29         0.00534
      11 -> 30         0.00369
      12 -> 16         0.07829
      12 -> 17         0.00465
      12 -> 18         0.00565
      12 -> 19         0.04960
      12 -> 20        -0.02283
      12 -> 21         0.00218
      12 -> 22        -0.01578
      12 -> 23        -0.00590
      12 -> 24        -0.00377
      12 -> 25         0.00439
      12 -> 26        -0.00192
      12 -> 27        -0.04000
      12 -> 28        -0.01260
      12 -> 29        -0.00103
      12 -> 30         0.02992
      13 -> 16         0.06511
      13 -> 17        -0.13072
      13 -> 18        -0.02042
      13 -> 19         0.00418
      13 -> 20         0.04799
      13 -> 21        -0.00431
      13 -> 22        -0.01597
      13 -> 23        -0.00520
      13 -> 24        -0.00567
      13 -> 25         0.01701
      13 -> 26         0.00320
      13 -> 27         0.01374
      13 -> 28        -0.04097
      13 -> 29         0.00219
      14 -> 16         0.17335
      14 -> 17         0.46811
      14 -> 18         0.00516
      14 -> 19         0.00600
      14 -> 20        -0.01248
      14 -> 21        -0.00602
      14 -> 22        -0.00322
      14 -> 23        -0.00401
      14 -> 24        -0.01095
      14 -> 25        -0.01025
      14 -> 26         0.01058
      14 -> 27        -0.00701
      14 -> 28         0.00196
      14 -> 29        -0.00107
      14 -> 30         0.00691
      15 -> 16         0.42932
      15 -> 17        -0.18549
      15 -> 18        -0.00681
      15 -> 19         0.01000
      15 -> 20        -0.00796
      15 -> 21        -0.00216
      15 -> 22        -0.00668
      15 -> 23         0.00265
      15 -> 24        -0.00962
      15 -> 25        -0.00681
      15 -> 26         0.00303
      15 -> 27        -0.01193
      15 -> 28        -0.00433
      15 -> 29         0.00516
      15 -> 30         0.00628
       1 <- 28         0.00376
       2 <- 19        -0.00260
       2 <- 20        -0.00284
       2 <- 22        -0.00400
       2 <- 23         0.00198
       2 <- 24        -0.00302
       2 <- 25        -0.00241
       3 <- 23         0.00366
       3 <- 24         0.00123
       3 <- 26        -0.00283
       3 <- 29        -0.00354
       4 <- 16         0.00105
       4 <- 19         0.00769
       4 <- 20        -0.00338
       4 <- 21        -0.00605
       4 <- 24        -0.00132
       4 <- 30         0.00522
       5 <- 18         0.00102
       5 <- 19        -0.00152
       5 <- 20        -0.00272
       5 <- 21         0.00118
       5 <- 22         0.00214
       6 <- 18        -0.00123
       6 <- 19         0.00297
       6 <- 20         0.00413
       6 <- 22        -0.00366
       6 <- 28        -0.00115
       7 <- 18        -0.00119
       7 <- 19        -0.00171
       7 <- 20        -0.00181
       7 <- 21         0.00139
       7 <- 23        -0.00680
       7 <- 24        -0.00770
       7 <- 25        -0.00252
       7 <- 26         0.00418
       8 <- 19         0.00318
       8 <- 20         0.00286
       8 <- 22         0.00254
       8 <- 23        -0.01163
       8 <- 24         0.01117
       8 <- 25         0.00930
       8 <- 26         0.00415
       8 <- 29         0.00116
       9 <- 17        -0.00102
       9 <- 19         0.00245
       9 <- 20         0.00273
       9 <- 21         0.00104
       9 <- 22         0.00326
       9 <- 23        -0.00195
       9 <- 24         0.00352
       9 <- 25         0.00846
       9 <- 29         0.00169
      10 <- 16         0.00196
      10 <- 17        -0.00101
      10 <- 20        -0.00214
      10 <- 21         0.00121
      10 <- 23        -0.00447
      10 <- 24        -0.00267
      10 <- 25        -0.00217
      10 <- 26         0.01017
      10 <- 27        -0.00220
      10 <- 29         0.00932
      10 <- 30        -0.00101
      11 <- 17         0.00188
      11 <- 19         0.00151
      11 <- 20        -0.00266
      11 <- 22        -0.00112
      11 <- 23        -0.00199
      11 <- 25         0.00153
      11 <- 26         0.00136
      11 <- 27        -0.00215
      11 <- 29         0.00105
      11 <- 30         0.00154
      12 <- 16         0.00299
      12 <- 19         0.01489
      12 <- 20        -0.00607
      12 <- 21        -0.00152
      12 <- 22        -0.00406
      12 <- 23        -0.00192
      12 <- 24        -0.00141
      12 <- 25         0.00114
      12 <- 26        -0.00102
      12 <- 27        -0.01310
      12 <- 28        -0.00447
      12 <- 30         0.01082
      13 <- 16         0.00258
      13 <- 17        -0.00237
      13 <- 18        -0.00231
      13 <- 19         0.00117
      13 <- 20         0.01180
      13 <- 21        -0.00132
      13 <- 22        -0.00523
      13 <- 23        -0.00130
      13 <- 24        -0.00172
      13 <- 25         0.00419
      13 <- 27         0.00408
      13 <- 28        -0.01259
      14 <- 16        -0.03199
      14 <- 17        -0.07531
      14 <- 18        -0.00238
      14 <- 19        -0.00147
      14 <- 21        -0.00349
      14 <- 22        -0.00129
      14 <- 23        -0.00105
      14 <- 26         0.00127
      14 <- 27         0.00156
      15 <- 16        -0.07979
      15 <- 17         0.02977
      15 <- 18        -0.00152
      15 <- 19        -0.00228
      15 <- 20        -0.00259
      15 <- 21        -0.00293
      15 <- 22         0.00150
      15 <- 28         0.00100
 
 Excited state symmetry could not be determined.
 Excited State   5:      Singlet-?Sym    5.8212 eV  212.99 nm  f=0.0185  <S**2>=0.000
       1 -> 16        -0.00403
       2 -> 18         0.01071
       2 -> 20         0.00114
       2 -> 23        -0.00121
       3 -> 22         0.00168
       4 -> 16         0.00280
       4 -> 17        -0.01312
       4 -> 22        -0.00232
       4 -> 24        -0.00136
       4 -> 25        -0.00115
       4 -> 28         0.00172
       5 -> 16         0.04303
       5 -> 17         0.00148
       5 -> 20         0.00143
       5 -> 21         0.00365
       5 -> 30        -0.00120
       6 -> 16         0.02948
       6 -> 17         0.00545
       6 -> 19         0.00233
       6 -> 21         0.00177
       6 -> 25         0.00137
       6 -> 30        -0.00135
       7 -> 16         0.00492
       7 -> 17         0.00174
       7 -> 18         0.01988
       7 -> 20        -0.00367
       7 -> 22        -0.00210
       7 -> 23         0.00365
       7 -> 24        -0.00627
       7 -> 25        -0.00309
       7 -> 28         0.00302
       8 -> 16        -0.00475
       8 -> 17        -0.00454
       8 -> 18         0.07105
       8 -> 20         0.00966
       8 -> 21        -0.00403
       8 -> 23        -0.00790
       8 -> 24        -0.00312
       8 -> 26         0.00504
       8 -> 30        -0.00139
       9 -> 16         0.00572
       9 -> 17        -0.00325
       9 -> 18        -0.11440
       9 -> 19        -0.00430
       9 -> 20        -0.01031
       9 -> 21         0.00779
       9 -> 22         0.00325
       9 -> 23         0.00310
       9 -> 24         0.00218
       9 -> 25         0.00199
       9 -> 26        -0.00627
       9 -> 27        -0.00124
       9 -> 29         0.00363
      10 -> 16         0.00366
      10 -> 17        -0.00229
      10 -> 18        -0.00631
      10 -> 19         0.00154
      10 -> 20        -0.00413
      10 -> 21         0.00271
      10 -> 22        -0.00263
      10 -> 23        -0.00360
      10 -> 26         0.00246
      10 -> 28         0.00374
      11 -> 16         0.01523
      11 -> 17        -0.00444
      11 -> 18        -0.01942
      11 -> 19        -0.00196
      11 -> 20        -0.00255
      11 -> 22        -0.00418
      11 -> 23         0.01573
      11 -> 24         0.00954
      11 -> 25         0.00274
      11 -> 26        -0.00623
      11 -> 29         0.00628
      12 -> 16         0.02086
      12 -> 17         0.03908
      12 -> 18         0.01668
      12 -> 19         0.00319
      12 -> 20         0.00420
      12 -> 21        -0.00254
      12 -> 22        -0.00749
      12 -> 23        -0.00353
      12 -> 24        -0.00443
      12 -> 25         0.00136
      12 -> 26         0.00223
      12 -> 28        -0.00800
      12 -> 29        -0.00105
      12 -> 30         0.00206
      13 -> 16        -0.66244
      13 -> 17        -0.12696
      13 -> 18        -0.01363
      13 -> 19        -0.00657
      13 -> 21        -0.01326
      13 -> 23         0.00127
      13 -> 24        -0.00194
      13 -> 25         0.00479
      13 -> 26        -0.00169
      13 -> 27         0.01177
      13 -> 30         0.00522
      14 -> 16        -0.06823
      14 -> 17         0.05307
      14 -> 18         0.04316
      14 -> 19        -0.01823
      14 -> 20         0.02291
      14 -> 21         0.03134
      14 -> 22        -0.01175
      14 -> 23         0.00304
      14 -> 24         0.00305
      14 -> 25        -0.00491
      14 -> 27        -0.01303
      14 -> 29        -0.00586
      14 -> 30        -0.01727
      15 -> 16         0.05806
      15 -> 17         0.05882
      15 -> 18        -0.00138
      15 -> 19         0.00922
      15 -> 20         0.00311
      15 -> 21        -0.02352
      15 -> 22        -0.00371
      15 -> 23        -0.00332
      15 -> 24        -0.00770
      15 -> 26         0.00226
      15 -> 27         0.00869
      15 -> 28        -0.00263
      15 -> 29         0.00364
      15 -> 30         0.01019
       4 <- 17         0.00177
       5 <- 16        -0.00102
       5 <- 21         0.00201
       5 <- 30        -0.00100
       6 <- 16        -0.00137
       7 <- 20        -0.00106
       7 <- 23         0.00116
       7 <- 24        -0.00202
       7 <- 25        -0.00100
       7 <- 28         0.00125
       8 <- 18        -0.00146
       8 <- 23        -0.00235
       8 <- 24        -0.00113
       8 <- 26         0.00234
       9 <- 18         0.00180
       9 <- 20         0.00100
       9 <- 23         0.00119
       9 <- 26        -0.00300
      10 <- 25         0.00127
      11 <- 16         0.00373
      11 <- 17         0.00145
      11 <- 20        -0.00134
      11 <- 22        -0.00216
      11 <- 23         0.00159
      11 <- 24         0.00164
      11 <- 27        -0.00105
      11 <- 29         0.00388
      12 <- 22        -0.00170
      12 <- 28        -0.00175
      12 <- 30         0.00104
      13 <- 16         0.00415
      13 <- 21        -0.00289
      13 <- 27         0.00266
      13 <- 30         0.00206
      14 <- 16         0.01340
      14 <- 17        -0.01340
      14 <- 18        -0.00541
      14 <- 20         0.00717
      14 <- 21         0.00671
      14 <- 22        -0.00514
      14 <- 25         0.00114
      14 <- 27        -0.00372
      14 <- 28        -0.00517
      14 <- 29        -0.00111
      14 <- 30        -0.00331
      15 <- 16        -0.01077
      15 <- 17        -0.01351
      15 <- 20         0.00642
      15 <- 21        -0.00573
      15 <- 22        -0.00178
      15 <- 23        -0.00118
      15 <- 24        -0.00161
      15 <- 25         0.00197
      15 <- 27         0.00456
      15 <- 28        -0.00405
      15 <- 29         0.00115
      15 <- 30         0.00198
 SavETr:  write IOETrn=   770 NScale= 10 NData=  16 NLR=1 NState=    5 LETran=     100.

 **********************************************************************

            Population analysis using the SCF Density.

 **********************************************************************

 Alpha  occ. eigenvalues --   -1.44686  -1.16038  -1.14867  -0.84844  -0.84455
 Alpha  occ. eigenvalues --   -0.65604  -0.58856  -0.56748  -0.52518  -0.51345
 Alpha  occ. eigenvalues --   -0.49426  -0.44093  -0.42731  -0.35615  -0.35462
 Alpha virt. eigenvalues --    0.01844   0.02225   0.10849   0.14047   0.14510
 Alpha virt. eigenvalues --    0.15066   0.15528   0.16894   0.17004   0.18603
 Alpha virt. eigenvalues --    0.18851   0.20580   0.20810   0.21153   0.22516
          Condensed to atoms (all electrons):
               1          2          3          4          5          6
     1  C    4.131897   0.000000   0.000000   0.000000   0.000000   0.000000
     2  C    0.000000   4.126271   0.000000   0.000000   0.000000   0.000000
     3  C    0.000000   0.000000   4.127806   0.000000   0.000000   0.000000
     4  C    0.000000   0.000000   0.000000   4.135517   0.000000   0.000000
     5  C    0.000000   0.000000   0.000000   0.000000   4.128809   0.000000
     6  C    0.000000   0.000000   0.000000   0.000000   0.000000   4.133277
     7  H    0.000000   0.000000   0.000000   0.000000   0.000000   0.000000
     8  H    0.000000   0.000000   0.000000   0.000000   0.000000   0.000000
     9  H    0.000000   0.000000   0.000000   0.000000   0.000000   0.000000
    10  H    0.000000   0.000000   0.000000   0.000000   0.000000   0.000000
    11  H    0.000000   0.000000   0.000000   0.000000   0.000000   0.000000
    12  H    0.000000   0.000000   0.000000   0.000000   0.000000   0.000000
               7          8          9         10         11         12
     1  C    0.000000   0.000000   0.000000   0.000000   0.000000   0.000000
     2  C    0.000000   0.000000   0.000000   0.000000   0.000000   0.000000
     3  C    0.000000   0.000000   0.000000   0.000000   0.000000   0.000000
     4  C    0.000000   0.000000   0.000000   0.000000   0.000000   0.000000
     5  C    0.000000   0.000000   0.000000   0.000000   0.000000   0.000000
     6  C    0.000000   0.000000   0.000000   0.000000   0.000000   0.000000
     7  H    0.877274   0.000000   0.000000   0.000000   0.000000   0.000000
     8  H    0.000000   0.868641   0.000000   0.000000   0.000000   0.000000
     9  H    0.000000   0.000000   0.859042   0.000000   0.000000   0.000000
    10  H    0.000000   0.000000   0.000000   0.880779   0.000000   0.000000
    11  H    0.000000   0.000000   0.000000   0.000000   0.863489   0.000000
    12  H    0.000000   0.000000   0.000000   0.000000   0.000000   0.867197
 Mulliken charges:
               1
     1  C   -0.131897
     2  C   -0.126271
     3  C   -0.127806
     4  C   -0.135517
     5  C   -0.128809
     6  C   -0.133277
     7  H    0.122726
     8  H    0.131359
     9  H    0.140958
    10  H    0.119221
    11  H    0.136511
    12  H    0.132803
 Sum of Mulliken charges =   0.00000
 Mulliken charges with hydrogens summed into heavy atoms:
               1
     1  C   -0.009171
     2  C    0.005088
     3  C    0.013152
     4  C   -0.016297
     5  C    0.007701
     6  C   -0.000474
 Charge=             -0.0000 electrons
 Dipole moment (field-independent basis, Debye):
    X=              0.0421    Y=              0.0507    Z=             -0.1587  Tot=              0.1719
 N-N= 1.198090677100D+02 E-N=-1.709250802069D+02  KE=-4.785205599723D+01

 Test job not archived.
 1\1\GINC-BHC0201\SP\RAM1 TD-Full\STO-5G\C6H6\BWEIGHT\21-Mar-2025\0\\# 
 AM1/STO-5G SCF=XQC TD=(read,singlets,nstates=5,root=1) nosym IOp(9/40=
 3) guess=read\\MD Step 25\\0,1\C,0,-0.65793553,-1.17719661,-0.01536884
 \C,0,0.7105036,-1.19252692,-0.00272781\C,0,1.41568699,-0.0044781,0.022
 3049\C,0,0.67311687,1.158431,-0.01968577\C,0,-0.72429788,1.22350376,0.
 02777878\C,0,-1.41327782,0.00179338,-0.00047301\H,0,-1.25624525,-2.076
 84284,-0.09179276\H,0,1.31497299,-2.11550008,0.21096916\H,0,2.55881509
 ,-0.02450042,-0.02937895\H,0,1.15240797,2.1602852,-0.13719083\H,0,-1.2
 487237,2.182907,-0.01901851\H,0,-2.48796402,-0.0608395,-0.15856856\\Ve
 rsion=ES64L-G16RevC.01\HF=0.0476176\RMSD=5.099e-09\PG=C01 [X(C6H6)]\\@


 HE THAT IS UNAWARE OF HIS IGNORANCE WILL BE MISLED BY HIS KNOWLEDGE.

                                        -- WHATLEY
 Job cpu time:       0 days  0 hours  0 minutes  1.1 seconds.
 Elapsed time:       0 days  0 hours  0 minutes  0.8 seconds.
 File lengths (MBytes):  RWF=     34 Int=      0 D2E=      0 Chk=      2 Scr=      1
 Normal termination of Gaussian 16 at Fri Mar 21 15:03:19 2025.
