 Entering Gaussian System, Link 0=g16
 Initial command:
 /software/gaussian/g16-c01/avx2/g16/l1.exe "/local_scratch/28554128/Gau-16200.inp" -scrdir="/local_scratch/28554128/"
 Entering Link 1 = /software/gaussian/g16-c01/avx2/g16/l1.exe PID=     16225.
  
 Copyright (c) 1988-2019, Gaussian, Inc.  All Rights Reserved.
  
 This is part of the Gaussian(R) 16 program.  It is based on
 the Gaussian(R) 09 system (copyright 2009, Gaussian, Inc.),
 the Gaussian(R) 03 system (copyright 2003, Gaussian, Inc.),
 the Gaussian(R) 98 system (copyright 1998, Gaussian, Inc.),
 the Gaussian(R) 94 system (copyright 1995, Gaussian, Inc.),
 the Gaussian 92(TM) system (copyright 1992, Gaussian, Inc.),
 the Gaussian 90(TM) system (copyright 1990, Gaussian, Inc.),
 the Gaussian 88(TM) system (copyright 1988, Gaussian, Inc.),
 the Gaussian 86(TM) system (copyright 1986, Carnegie Mellon
 University), and the Gaussian 82(TM) system (copyright 1983,
 Carnegie Mellon University). Gaussian is a federally registered
 trademark of Gaussian, Inc.
  
 This software contains proprietary and confidential information,
 including trade secrets, belonging to Gaussian, Inc.
  
 This software is provided under written license and may be
 used, copied, transmitted, or stored only in accord with that
 written license.
  
 The following legend is applicable only to US Government
 contracts under FAR:
  
                    RESTRICTED RIGHTS LEGEND
  
 Use, reproduction and disclosure by the US Government is
 subject to restrictions as set forth in subparagraphs (a)
 and (c) of the Commercial Computer Software - Restricted
 Rights clause in FAR 52.227-19.
  
 Gaussian, Inc.
 340 Quinnipiac St., Bldg. 40, Wallingford CT 06492
  
  
 ---------------------------------------------------------------
 Warning -- This program may not be used in any manner that
 competes with the business of Gaussian, Inc. or will provide
 assistance to any competitor of Gaussian, Inc.  The licensee
 of this program is prohibited from giving any competitor of
 Gaussian, Inc. access to this program.  By using this program,
 the user acknowledges that Gaussian, Inc. is engaged in the
 business of creating and licensing software in the field of
 computational chemistry and represents and warrants to the
 licensee that it is not a competitor of Gaussian, Inc. and that
 it will not use this program in any manner prohibited above.
 ---------------------------------------------------------------
  

 Cite this work as:
 Gaussian 16, Revision C.01,
 M. J. Frisch, G. W. Trucks, H. B. Schlegel, G. E. Scuseria, 
 M. A. Robb, J. R. Cheeseman, G. Scalmani, V. Barone, 
 G. A. Petersson, H. Nakatsuji, X. Li, M. Caricato, A. V. Marenich, 
 J. Bloino, B. G. Janesko, R. Gomperts, B. Mennucci, H. P. Hratchian, 
 J. V. Ortiz, A. F. Izmaylov, J. L. Sonnenberg, D. Williams-Young, 
 F. Ding, F. Lipparini, F. Egidi, J. Goings, B. Peng, A. Petrone, 
 T. Henderson, D. Ranasinghe, V. G. Zakrzewski, J. Gao, N. Rega, 
 G. Zheng, W. Liang, M. Hada, M. Ehara, K. Toyota, R. Fukuda, 
 J. Hasegawa, M. Ishida, T. Nakajima, Y. Honda, O. Kitao, H. Nakai, 
 T. Vreven, K. Throssell, J. A. Montgomery, Jr., J. E. Peralta, 
 F. Ogliaro, M. J. Bearpark, J. J. Heyd, E. N. Brothers, K. N. Kudin, 
 V. N. Staroverov, T. A. Keith, R. Kobayashi, J. Normand, 
 K. Raghavachari, A. P. Rendell, J. C. Burant, S. S. Iyengar, 
 J. Tomasi, M. Cossi, J. M. Millam, M. Klene, C. Adamo, R. Cammi, 
 J. W. Ochterski, R. L. Martin, K. Morokuma, O. Farkas, 
 J. B. Foresman, and D. J. Fox, Gaussian, Inc., Wallingford CT, 2019.
 
 ******************************************
 Gaussian 16:  ES64L-G16RevC.01  3-Jul-2019
                21-Mar-2025 
 ******************************************
 %oldchk=../TD_OLD_S1/geometry.chk
 %chk=geometry.chk
 %nprocshared=1
 Will use up to    1 processors via shared memory.
 %mem=2GB
 Copying data from "../TD_OLD_S1/geometry.chk" to current chk file "geometry.chk"
 IOpt=  2 FromEx=T IUOpen= 4 IOptOp= 5 NList=   0 IFRang= 0 IUIn= 4 IUOut= 2.
 ----------------------------------------------------------------------
 # AM1/STO-5G SCF=XQC TD=(read,singlets,nstates=5,root=1) nosym IOp(9/4
 0=3) guess=read
 ----------------------------------------------------------------------
 1/38=1,172=1/1;
 2/12=2,15=1,17=6,18=5,40=1/2;
 3/5=2,6=5,25=1,41=700000,116=-2/1,2,3,8;
 4/5=1,35=1/1;
 5/5=2,8=3,13=1,35=1,38=6/2,8;
 8/6=1,10=90,107=1,108=5/1;
 9/8=1,40=3,41=5,42=1,48=1,49=13,70=2/14;
 6/7=2,8=2,9=2,10=2/1;
 99/5=1,9=1/99;
 ----------
 MD Step 25
 ----------
 Symbolic Z-matrix:
 Charge =  0 Multiplicity = 1
 C                    -0.64832  -1.13445  -0.03304 
 C                     0.71796  -1.20003  -0.01487 
 C                     1.42199  -0.01852   0.02703 
 C                     0.68487   1.17736  -0.01647 
 C                    -0.72042   1.17428  -0.00097 
 C                    -1.445     0.02173   0.02454 
 H                    -1.19014  -2.06592  -0.07376 
 H                     1.24264  -2.19954   0.12255 
 H                     2.4838   -0.08805   0.10996 
 H                     1.31471   2.07291  -0.10447 
 H                    -1.29543   2.13869   0.03329 
 H                    -2.54044  -0.04081   0.08248 
 
                          Input orientation:                          
 ---------------------------------------------------------------------
 Center     Atomic      Atomic             Coordinates (Angstroms)
 Number     Number       Type             X           Y           Z
 ---------------------------------------------------------------------
      1          6           0       -0.648321   -1.134451   -0.033044
      2          6           0        0.717960   -1.200031   -0.014872
      3          6           0        1.421994   -0.018520    0.027028
      4          6           0        0.684870    1.177364   -0.016470
      5          6           0       -0.720423    1.174279   -0.000968
      6          6           0       -1.445002    0.021729    0.024536
      7          1           0       -1.190141   -2.065923   -0.073764
      8          1           0        1.242642   -2.199535    0.122554
      9          1           0        2.483803   -0.088051    0.109959
     10          1           0        1.314708    2.072907   -0.104472
     11          1           0       -1.295427    2.138691    0.033294
     12          1           0       -2.540435   -0.040807    0.082477
 ---------------------------------------------------------------------
                    Distance matrix (angstroms):
                    1          2          3          4          5
     1  C    0.000000
     2  C    1.367975   0.000000
     3  C    2.352683   1.376004   0.000000
     4  C    2.668738   2.377626   1.405483   0.000000
     5  C    2.310078   2.776056   2.452245   1.405383   0.000000
     6  C    1.405264   2.484482   2.867280   2.423537   1.361630
     7  H    1.078364   2.096208   3.320433   3.746714   3.274881
     8  H    2.175858   1.137183   2.190461   3.425476   3.905318
     9  H    3.305391   2.090522   1.067310   2.203048   3.445700
    10  H    3.761081   3.328102   2.098302   1.098379   2.227107
    11  H    3.337155   3.899117   3.469579   2.201864   1.123341
    12  H    2.188492   3.459829   3.962880   3.449105   2.189941
                    6          7          8          9         10
     6  C    0.000000
     7  H    2.105447   0.000000
     8  H    3.488130   2.444346   0.000000
     9  H    3.931267   4.176554   2.449287   0.000000
    10  H    3.440926   4.837885   4.279077   2.466274   0.000000
    11  H    2.122258   4.207295   5.026925   4.387122   2.614596
    12  H    1.098746   2.439016   4.355845   5.024536   4.400553
                   11         12
    11  H    0.000000
    12  H    2.510513   0.000000
 Symmetry turned off by external request.
 Stoichiometry    C6H6
 Framework group  C1[X(C6H6)]
 Deg. of freedom    30
 Full point group                 C1      NOp   1
 Rotational constants (GHZ):           6.0887678           5.4482445           2.8781876
 Standard basis: VSTO-5G (5D, 7F)
    30 basis functions,   180 primitive gaussians,    30 cartesian basis functions
    15 alpha electrons       15 beta electrons
       nuclear repulsion energy       119.9958195692 Hartrees.
 Integral buffers will be    131072 words long.
 Regular integral format.
 Two-electron integral symmetry is turned off.
 Do NDO integrals.
 One-electron integrals computed using PRISM.
 NBasis=    30 RedAO= F EigKep=  0.00D+00  NBF=    30
 NBsUse=    30 1.00D-04 EigRej=  0.00D+00 NBFU=    30
 Initial guess from the checkpoint file:  "geometry.chk"
 B after Tr=     0.000749    0.000858    0.001071
         Rot=    1.000000    0.000387   -0.000128    0.000251 Ang=   0.05 deg.
 Keep J ints in memory in canonical form, NReq=861816.
 Overlap will be assumed to be unity.
 Requested convergence on RMS density matrix=1.00D-08 within  32 cycles.
 Requested convergence on MAX density matrix=1.00D-06.
 Requested convergence on             energy=1.00D-06.
 No special actions if energy rises.
 SCF Done:  E(RAM1) =  0.503346880771E-01 A.U. after   12 cycles
            NFock= 11  Conv=0.33D-08     -V/T= 1.0011
 QCSCF skips out because SCF is already converged.
 Range of M.O.s used for correlation:     1    30
 NBasis=    30 NAE=    15 NBE=    15 NFC=     0 NFV=     0
 NROrb=     30 NOA=    15 NOB=    15 NVA=    15 NVB=    15
 Keep J ints in memory in canonical form, NReq=862156.
 Generating guess from checkpoint file densities.
 Convergence on wavefunction:    0.001000000000000
 Iteration     1 Dimension    10 NMult     0 NNew     10
 CISAX will form    10 AO SS matrices at one time.
 Iteration     2 Dimension    20 NMult    10 NNew     10
 Iteration     3 Dimension    30 NMult    20 NNew     10
 Iteration     4 Dimension    38 NMult    30 NNew      8
 Iteration     5 Dimension    44 NMult    38 NNew      6
 Iteration     6 Dimension    50 NMult    44 NNew      6
 Iteration     7 Dimension    54 NMult    50 NNew      4
 Iteration     8 Dimension    56 NMult    54 NNew      2
 ***********************************************************************
 Excited states from <AA,BB:AA,BB> singles matrix:
 ***********************************************************************
 
 Ground to excited state transition densities written to RWF  633
 Ground to excited state transition electric dipole moments (Au):
       state          X           Y           Z        Dip. S.      Osc.
         1         0.0689     -0.0810      0.0006      0.0113      0.0011
         2         0.0095     -0.2458      0.0006      0.0605      0.0062
         3         0.6584     -1.4383     -0.0399      2.5038      0.3376
         4         1.4737      0.6746      0.0032      2.6268      0.3561
         5         0.4268     -0.0946      0.0600      0.1947      0.0272
 Ground to excited state transition velocity dipole moments (Au):
       state          X           Y           Z        Dip. S.      Osc.
         1        -0.0115      0.0138     -0.0001      0.0003      0.0015
         2        -0.0048      0.0583     -0.0004      0.0034      0.0148
         3        -0.2167      0.4501     -0.0309      0.2505      0.8259
         4        -0.4668     -0.2063     -0.0107      0.2605      0.8542
         5        -0.1425      0.0300      0.0723      0.0264      0.0841
 Ground to excited state transition magnetic dipole moments (Au):
       state          X           Y           Z
         1         0.0088     -0.0012      0.0259
         2        -0.0049      0.0457      0.0910
         3        -0.0336      0.0249     -0.0183
         4         0.0590     -0.0181      0.0070
         5         0.0308     -0.0166     -0.0078
 Ground to excited state transition velocity quadrupole moments (Au):
       state          XX          YY          ZZ          XY          XZ          YZ
         1        -0.0028      0.0045      0.0005     -0.0003     -0.0051      0.0064
         2         0.0108      0.0507      0.0011      0.0321     -0.0391     -0.0155
         3        -0.0398      0.0523      0.0042      0.0352     -0.0164     -0.0240
         4        -0.0126     -0.0103      0.0002     -0.0060     -0.0346      0.0398
         5         0.0936     -0.0479     -0.0124     -0.0697     -0.0136     -0.0195
 <0|del|b> * <b|rxdel|0> + <0|del|b> * <b|delr+rdel|0>
 Rotatory Strengths (R) in cgs (10**-40 erg-esu-cm/Gauss)
       state          XX          YY          ZZ    R(velocity)    E-M Angle
         1         0.1221     -0.4445     -0.2857     -0.2027      104.39
         2        11.2325      0.1663      0.7639      4.0542       63.66
         3        31.5834     24.7448     10.3370     22.2217       33.51
         4        -5.9264    -80.3942      3.3378    -27.6609      138.84
         5        -9.6258      4.8221    -13.6236     -6.1424      159.35
 1/2[<0|r|b>*<b|rxdel|0> + (<0|rxdel|b>*<b|r|0>)*]
 Rotatory Strengths (R) in cgs (10**-40 erg-esu-cm/Gauss)
       state          XX          YY          ZZ     R(length)
         1        -0.4299     -0.0705     -0.0104     -0.1703
         2         0.0328      7.9368     -0.0398      2.6433
         3        15.6638     25.3250     -0.5163     13.4909
         4       -61.4584      8.6459     -0.0159    -17.6095
         5        -9.3078     -1.1084      0.3332     -3.3610
  1/2[<0|del|b>*<b|r|0> + (<0|r|b>*<b|del|0>)*] (Au)
       state          X           Y           Z        Dip. S.   Osc.(frdel)
         1        -0.0008     -0.0011     -0.0000      0.0019      0.0013
         2        -0.0000     -0.0143     -0.0000      0.0144      0.0096
         3        -0.1427     -0.6474      0.0012      0.7889      0.5259
         4        -0.6879     -0.1392     -0.0000      0.8271      0.5514
         5        -0.0608     -0.0028      0.0043      0.0593      0.0395

 Excitation energies and oscillator strengths:
 
 Excited state symmetry could not be determined.
 Excited State   1:      Singlet-?Sym    3.8808 eV  319.48 nm  f=0.0011  <S**2>=0.000
       2 -> 21         0.00121
       2 -> 22         0.00160
       2 -> 23         0.00322
       2 -> 25        -0.00130
       3 -> 24         0.00267
       3 -> 26         0.00271
       4 -> 27        -0.00259
       5 -> 18         0.00120
       5 -> 19        -0.00103
       5 -> 28        -0.00230
       5 -> 29        -0.00138
       7 -> 17         0.00162
       7 -> 23         0.00126
       7 -> 24        -0.00104
       7 -> 28        -0.00125
       7 -> 29         0.00225
       8 -> 16         0.00106
       8 -> 23         0.00208
       8 -> 25        -0.00103
       9 -> 16        -0.00138
       9 -> 18        -0.00170
       9 -> 21         0.00138
       9 -> 22         0.00184
       9 -> 23         0.00339
       9 -> 25        -0.00280
      10 -> 18        -0.00245
      10 -> 24        -0.00213
      10 -> 26        -0.00207
      10 -> 28         0.00108
      11 -> 16        -0.00156
      11 -> 17        -0.00257
      11 -> 18         0.00200
      11 -> 20        -0.00158
      11 -> 22        -0.00162
      11 -> 25         0.00129
      11 -> 26        -0.00151
      11 -> 27        -0.00201
      12 -> 19        -0.00132
      12 -> 21         0.00178
      12 -> 27        -0.00177
      12 -> 28        -0.00143
      13 -> 16        -0.00154
      13 -> 17         0.00171
      13 -> 18        -0.00148
      13 -> 19         0.00193
      13 -> 20        -0.00120
      13 -> 27         0.00198
      14 -> 16         0.45311
      14 -> 17        -0.15483
      14 -> 18        -0.00450
      14 -> 19         0.00235
      14 -> 20         0.00255
      14 -> 21         0.00318
      14 -> 25        -0.00102
      14 -> 29         0.00169
      15 -> 16         0.20693
      15 -> 17         0.48659
      15 -> 19        -0.00276
      15 -> 20        -0.00120
      15 -> 21        -0.00272
      15 -> 24         0.00359
      15 -> 27         0.00169
       2 <- 23         0.00134
       4 <- 27        -0.00204
       5 <- 28        -0.00181
       5 <- 29        -0.00106
       7 <- 29         0.00159
       8 <- 23         0.00135
       9 <- 16        -0.00157
      10 <- 17        -0.00103
      11 <- 17        -0.00110
      13 <- 16        -0.00211
      13 <- 17         0.00124
      13 <- 27         0.00108
      14 <- 16         0.06623
      14 <- 17        -0.02769
      14 <- 19         0.00104
      14 <- 21         0.00163
      15 <- 16         0.01794
      15 <- 17         0.06005
      15 <- 19        -0.00116
 This state for optimization and/or second-order correction.
 Total Energy, E(TD-HF/TD-DFT) =  0.192952311607    
 Copying the excited state density for this state as the 1-particle RhoCI density.
 
 Excited state symmetry could not be determined.
 Excited State   2:      Singlet-?Sym    4.1874 eV  296.09 nm  f=0.0062  <S**2>=0.000
       1 -> 19         0.00135
       1 -> 20         0.00136
       1 -> 22        -0.00126
       1 -> 30         0.00109
       2 -> 17        -0.00128
       2 -> 24         0.00250
       2 -> 26        -0.00208
       3 -> 20         0.00121
       3 -> 22        -0.00101
       3 -> 23        -0.00276
       3 -> 25        -0.00224
       3 -> 26        -0.00102
       4 -> 20         0.00108
       4 -> 22        -0.00232
       4 -> 25        -0.00156
       4 -> 26         0.00118
       4 -> 27         0.00171
       4 -> 28         0.00374
       4 -> 29         0.00178
       5 -> 19        -0.00115
       5 -> 23        -0.00126
       5 -> 27        -0.00457
       6 -> 19         0.00303
       6 -> 20         0.00105
       6 -> 27         0.00111
       7 -> 16        -0.00160
       7 -> 21         0.00297
       7 -> 22         0.00229
       7 -> 23         0.00399
       7 -> 26        -0.00145
       8 -> 18         0.00112
       8 -> 20         0.00206
       8 -> 23         0.00142
       8 -> 24         0.00414
       8 -> 25        -0.00237
       8 -> 26         0.00296
       8 -> 28         0.00179
       8 -> 29        -0.00139
       9 -> 17        -0.00222
       9 -> 18         0.00339
       9 -> 21        -0.00183
       9 -> 23         0.00226
       9 -> 24         0.00309
       9 -> 25         0.00151
       9 -> 26        -0.00966
       9 -> 28         0.00321
      10 -> 16         0.00377
      10 -> 18        -0.02244
      10 -> 19         0.00428
      10 -> 22         0.00308
      10 -> 23         0.00403
      10 -> 25         0.00395
      10 -> 26         0.00485
      10 -> 28         0.00215
      10 -> 29        -0.00174
      10 -> 30         0.00114
      11 -> 16         0.00229
      11 -> 18         0.10394
      11 -> 19        -0.01337
      11 -> 20        -0.00405
      11 -> 21         0.00239
      11 -> 22        -0.00248
      11 -> 24         0.00218
      11 -> 26         0.00169
      11 -> 27         0.00183
      11 -> 29        -0.00122
      12 -> 16        -0.00247
      12 -> 18        -0.01346
      12 -> 19        -0.00171
      12 -> 20        -0.00501
      12 -> 21         0.00970
      12 -> 22        -0.00862
      12 -> 23        -0.00107
      12 -> 24         0.00344
      12 -> 26         0.00180
      12 -> 27        -0.00538
      12 -> 28         0.00192
      12 -> 30        -0.00179
      13 -> 16        -0.00174
      13 -> 18        -0.02288
      13 -> 19        -0.00694
      13 -> 20         0.00233
      13 -> 21         0.00561
      13 -> 22        -0.00897
      13 -> 23         0.00551
      13 -> 26        -0.00119
      13 -> 27         0.00714
      13 -> 28        -0.00331
      13 -> 29        -0.00192
      13 -> 30        -0.00489
      14 -> 16        -0.15692
      14 -> 17        -0.38175
      14 -> 19         0.00304
      14 -> 20         0.00170
      14 -> 21         0.00364
      14 -> 23         0.00210
      14 -> 24        -0.00293
      14 -> 26        -0.00311
      15 -> 16         0.52695
      15 -> 17        -0.20049
      15 -> 18         0.00463
      15 -> 19         0.00134
      15 -> 20         0.00286
      15 -> 21         0.00242
      15 -> 23        -0.00284
      15 -> 24        -0.00229
      15 -> 25         0.00210
      15 -> 28         0.00131
       1 <- 19         0.00278
       1 <- 20         0.00326
       1 <- 22        -0.00296
       1 <- 23         0.00119
       1 <- 30        -0.00217
       2 <- 20         0.00128
       2 <- 24         0.00518
       2 <- 26         0.00173
       3 <- 20         0.00120
       3 <- 21        -0.00149
       3 <- 22        -0.00297
       3 <- 23        -0.00685
       4 <- 20         0.00119
       4 <- 22        -0.00104
       4 <- 25        -0.00143
       4 <- 27         0.00123
       4 <- 28         0.00426
       4 <- 29         0.00237
       5 <- 19        -0.00164
       5 <- 27        -0.00557
       6 <- 19         0.00177
       6 <- 30        -0.00139
       7 <- 21         0.00143
       7 <- 22         0.00128
       7 <- 23         0.00217
       8 <- 24         0.00279
       8 <- 25        -0.00117
       8 <- 26         0.00157
       8 <- 28         0.00300
       8 <- 29        -0.00396
       9 <- 17         0.00141
       9 <- 23         0.00152
       9 <- 24         0.00329
       9 <- 26        -0.00154
      10 <- 18         0.00331
      10 <- 22         0.00281
      10 <- 23         0.00553
      10 <- 26         0.00180
      11 <- 16        -0.00159
      11 <- 18        -0.01284
      11 <- 19         0.00117
      11 <- 23         0.00139
      12 <- 19        -0.00158
      12 <- 20        -0.00123
      12 <- 21         0.00320
      12 <- 22        -0.00289
      12 <- 24         0.00153
      12 <- 26         0.00128
      12 <- 27        -0.00371
      12 <- 28         0.00268
      12 <- 29         0.00181
      13 <- 17         0.00120
      13 <- 18         0.00151
      13 <- 19        -0.00226
      13 <- 21         0.00192
      13 <- 22        -0.00330
      13 <- 23         0.00221
      13 <- 27         0.00549
      13 <- 30        -0.00197
      14 <- 16        -0.01138
      14 <- 17        -0.02833
      14 <- 19         0.00107
      14 <- 21         0.00107
      15 <- 16        -0.00138
      15 <- 17        -0.00275
      15 <- 18        -0.00180
 
 Excited state symmetry could not be determined.
 Excited State   3:      Singlet-?Sym    5.5030 eV  225.30 nm  f=0.3376  <S**2>=0.000
       1 -> 27         0.00242
       2 -> 16        -0.00152
       2 -> 18         0.00118
       2 -> 20         0.00236
       2 -> 21         0.00478
       2 -> 22         0.00278
       2 -> 25        -0.00161
       2 -> 29        -0.00113
       3 -> 16        -0.00117
       3 -> 20         0.00276
       3 -> 21         0.00412
       3 -> 22         0.00154
       3 -> 23        -0.00229
       3 -> 24        -0.00157
       3 -> 26        -0.00272
       3 -> 29         0.00184
       4 -> 17         0.00112
       4 -> 18        -0.00152
       4 -> 21         0.00437
       4 -> 22        -0.00489
       4 -> 27         0.00135
       4 -> 28         0.00168
       5 -> 16         0.00312
       5 -> 17        -0.00208
       5 -> 18        -0.00212
       5 -> 19        -0.01293
       5 -> 20        -0.00466
       5 -> 21        -0.00102
       5 -> 22         0.00874
       5 -> 23        -0.00160
       5 -> 30         0.00840
       6 -> 16        -0.00406
       6 -> 18         0.00118
       6 -> 19         0.01490
       6 -> 20        -0.00773
       6 -> 22         0.00157
       6 -> 23        -0.00106
       6 -> 26         0.00117
       6 -> 27         0.00613
       6 -> 29        -0.00129
       7 -> 16        -0.00171
       7 -> 17         0.00255
       7 -> 18        -0.01593
       7 -> 19         0.00595
       7 -> 20        -0.00709
       7 -> 21         0.01103
       7 -> 22         0.00996
       7 -> 23         0.02388
       7 -> 24        -0.01250
       7 -> 25        -0.00879
       7 -> 26        -0.01039
       7 -> 27        -0.00308
       7 -> 30        -0.00144
       8 -> 17         0.00318
       8 -> 18         0.00549
       8 -> 20         0.00440
       8 -> 21         0.00577
       8 -> 22         0.01287
       8 -> 23         0.02262
       8 -> 24         0.02167
       8 -> 25        -0.01559
       8 -> 26         0.01826
       8 -> 28        -0.00374
       8 -> 29        -0.00190
       9 -> 16        -0.00839
       9 -> 17         0.00510
       9 -> 18         0.01260
       9 -> 19         0.00118
       9 -> 21         0.00886
       9 -> 22         0.00547
       9 -> 23         0.00888
       9 -> 24         0.00724
       9 -> 25        -0.01902
       9 -> 26        -0.00837
       9 -> 27        -0.00309
       9 -> 28         0.00894
       9 -> 29        -0.01286
       9 -> 30        -0.00161
      10 -> 16         0.01137
      10 -> 18         0.01336
      10 -> 19        -0.00408
      10 -> 22         0.00235
      10 -> 23         0.01005
      10 -> 24         0.01489
      10 -> 25        -0.01611
      10 -> 26         0.02674
      10 -> 27        -0.00417
      10 -> 28         0.00840
      10 -> 29        -0.01768
      10 -> 30         0.00415
      11 -> 16         0.00675
      11 -> 17         0.00317
      11 -> 18        -0.01793
      11 -> 19         0.00159
      11 -> 20         0.00142
      11 -> 21        -0.00355
      11 -> 22         0.00134
      11 -> 24         0.00372
      11 -> 25        -0.00367
      11 -> 26         0.00788
      11 -> 27         0.00142
      11 -> 28         0.00169
      11 -> 29        -0.00527
      12 -> 16        -0.03033
      12 -> 17        -0.01672
      12 -> 18        -0.01246
      12 -> 19        -0.04289
      12 -> 20        -0.00436
      12 -> 21         0.02346
      12 -> 22        -0.01197
      12 -> 23         0.00355
      12 -> 24         0.00143
      12 -> 25         0.01079
      12 -> 26        -0.00566
      12 -> 27        -0.03096
      12 -> 28        -0.02159
      12 -> 29        -0.01202
      12 -> 30         0.01159
      13 -> 16        -0.08670
      13 -> 17         0.08665
      13 -> 18         0.00629
      13 -> 19         0.04389
      13 -> 20        -0.02065
      13 -> 21         0.01835
      13 -> 22        -0.02456
      13 -> 23         0.00544
      13 -> 24         0.00581
      13 -> 25         0.00336
      13 -> 26        -0.00514
      13 -> 27         0.03765
      13 -> 28        -0.02340
      13 -> 29        -0.02091
      13 -> 30        -0.02761
      14 -> 16        -0.16087
      14 -> 17         0.52622
      14 -> 18        -0.00461
      14 -> 19         0.00362
      14 -> 20        -0.00192
      14 -> 21         0.00262
      14 -> 23         0.00239
      14 -> 25        -0.00331
      14 -> 26        -0.00444
      14 -> 27         0.00312
      14 -> 29        -0.00439
      14 -> 30        -0.00323
      15 -> 16         0.39416
      15 -> 17         0.14902
      15 -> 18         0.01130
      15 -> 19        -0.00139
      15 -> 20         0.00730
      15 -> 21        -0.00627
      15 -> 22        -0.00512
      15 -> 23        -0.00651
      15 -> 24         0.00488
      15 -> 25         0.00179
      15 -> 26         0.01379
      15 -> 27         0.00274
      15 -> 28         0.00428
      15 -> 29        -0.00152
       1 <- 20        -0.00136
       1 <- 27         0.00359
       2 <- 21         0.00380
       2 <- 22         0.00299
       2 <- 23         0.00307
       2 <- 24        -0.00115
       2 <- 25        -0.00202
       2 <- 26        -0.00209
       2 <- 28         0.00109
       2 <- 29        -0.00110
       3 <- 20         0.00109
       3 <- 21         0.00246
       3 <- 23        -0.00158
       3 <- 24        -0.00339
       3 <- 26        -0.00345
       3 <- 29         0.00244
       4 <- 21         0.00247
       4 <- 22        -0.00292
       5 <- 18        -0.00139
       5 <- 19        -0.00763
       5 <- 20        -0.00376
       5 <- 22         0.00596
       5 <- 23        -0.00134
       5 <- 30         0.00517
       6 <- 18         0.00101
       6 <- 19         0.00611
       6 <- 20        -0.00310
       7 <- 19         0.00149
       7 <- 20        -0.00239
       7 <- 21         0.00466
       7 <- 22         0.00375
       7 <- 23         0.00964
       7 <- 24        -0.00534
       7 <- 25        -0.00321
       7 <- 26        -0.00365
       7 <- 27        -0.00112
       8 <- 20         0.00183
       8 <- 21         0.00242
       8 <- 22         0.00515
       8 <- 23         0.01012
       8 <- 24         0.00942
       8 <- 25        -0.00503
       8 <- 26         0.00728
       8 <- 28        -0.00210
       9 <- 17         0.00130
       9 <- 19         0.00114
       9 <- 21         0.00271
       9 <- 22         0.00272
       9 <- 23         0.00446
       9 <- 24         0.00175
       9 <- 25        -0.00774
       9 <- 26        -0.00438
       9 <- 28         0.00274
       9 <- 29        -0.00363
      10 <- 16         0.00198
      10 <- 21        -0.00120
      10 <- 22         0.00139
      10 <- 23         0.00335
      10 <- 24         0.00595
      10 <- 25        -0.00485
      10 <- 26         0.01103
      10 <- 27        -0.00141
      10 <- 28         0.00242
      10 <- 29        -0.00556
      10 <- 30         0.00179
      11 <- 16        -0.00198
      11 <- 18         0.00277
      11 <- 21         0.00165
      11 <- 24         0.00142
      11 <- 26         0.00276
      11 <- 29        -0.00173
      12 <- 18        -0.00306
      12 <- 19        -0.01220
      12 <- 20        -0.00203
      12 <- 21         0.00644
      12 <- 22        -0.00284
      12 <- 25         0.00303
      12 <- 26        -0.00147
      12 <- 27        -0.00995
      12 <- 28        -0.00762
      12 <- 29        -0.00409
      12 <- 30         0.00418
      13 <- 17         0.00165
      13 <- 19         0.01182
      13 <- 20        -0.00324
      13 <- 21         0.00471
      13 <- 22        -0.00835
      13 <- 23         0.00179
      13 <- 24         0.00155
      13 <- 25         0.00103
      13 <- 26        -0.00108
      13 <- 27         0.01112
      13 <- 28        -0.00761
      13 <- 29        -0.00621
      13 <- 30        -0.00944
      14 <- 16         0.02374
      14 <- 17        -0.07517
      14 <- 19        -0.00143
      14 <- 20         0.00203
      15 <- 16        -0.08425
      15 <- 17        -0.02820
      15 <- 18        -0.00363
      15 <- 19        -0.00137
      15 <- 22        -0.00281
      15 <- 28        -0.00107
 
 Excited state symmetry could not be determined.
 Excited State   4:      Singlet-?Sym    5.5333 eV  224.07 nm  f=0.3561  <S**2>=0.000
       1 -> 28        -0.00191
       1 -> 29        -0.00118
       2 -> 16        -0.00168
       2 -> 20         0.00321
       2 -> 21         0.00360
       2 -> 22         0.00250
       2 -> 24         0.00237
       2 -> 26         0.00140
       3 -> 16         0.00111
       3 -> 18        -0.00242
       3 -> 20        -0.00357
       3 -> 21        -0.00374
       3 -> 22        -0.00145
       3 -> 23         0.00357
       3 -> 25        -0.00118
       3 -> 28        -0.00130
       3 -> 29         0.00137
       4 -> 16        -0.00217
       4 -> 17        -0.00603
       4 -> 20        -0.01180
       4 -> 21         0.00262
       4 -> 22         0.00729
       4 -> 23        -0.00391
       4 -> 24         0.00270
       4 -> 27        -0.00297
       4 -> 29         0.00124
       4 -> 30         0.00730
       5 -> 16         0.01014
       5 -> 17         0.00222
       5 -> 18        -0.00211
       5 -> 19        -0.00317
       5 -> 20        -0.00443
       5 -> 21         0.00477
       5 -> 22        -0.00295
       5 -> 28         0.00179
       5 -> 29         0.00203
       5 -> 30         0.00173
       6 -> 16        -0.00583
       6 -> 17         0.00448
       6 -> 18         0.00205
       6 -> 19        -0.00246
       6 -> 20        -0.00570
       6 -> 21         0.00865
       6 -> 22        -0.00773
       6 -> 25         0.00108
       6 -> 27         0.00126
       6 -> 28        -0.00525
       6 -> 29        -0.00309
       6 -> 30        -0.00164
       7 -> 16        -0.00187
       7 -> 17        -0.00331
       7 -> 18        -0.00200
       7 -> 20        -0.00350
       7 -> 21        -0.00329
       7 -> 22        -0.00761
       7 -> 23        -0.01709
       7 -> 24        -0.01719
       7 -> 25         0.00196
       7 -> 26        -0.01097
       7 -> 29         0.00123
       8 -> 16        -0.00398
       8 -> 17         0.00266
       8 -> 18         0.02165
       8 -> 19         0.00163
       8 -> 20        -0.01023
       8 -> 21         0.01145
       8 -> 22         0.01187
       8 -> 23         0.02933
       8 -> 24        -0.00871
       8 -> 25        -0.01515
       8 -> 26        -0.02132
       8 -> 27        -0.00167
       8 -> 28        -0.00424
       8 -> 29         0.00559
       8 -> 30         0.00107
       9 -> 16        -0.00993
       9 -> 17         0.00497
       9 -> 20         0.01124
       9 -> 21         0.00543
       9 -> 22         0.00858
       9 -> 23         0.00122
       9 -> 24         0.01358
       9 -> 25        -0.00806
       9 -> 26         0.02945
       9 -> 27         0.00134
       9 -> 28        -0.01081
       9 -> 29         0.01052
       9 -> 30        -0.00240
      10 -> 16        -0.00593
      10 -> 18         0.02212
      10 -> 19        -0.00271
      10 -> 20         0.00986
      10 -> 21         0.00724
      10 -> 22        -0.00266
      10 -> 23        -0.01236
      10 -> 25         0.01089
      10 -> 26         0.00495
      10 -> 27        -0.00221
      10 -> 28         0.01316
      10 -> 29        -0.01861
      10 -> 30        -0.00209
      11 -> 16        -0.00500
      11 -> 18         0.02296
      11 -> 19        -0.00915
      11 -> 21         0.00224
      11 -> 22        -0.00330
      11 -> 23        -0.01113
      11 -> 25         0.00537
      11 -> 28         0.00227
      11 -> 29        -0.00537
      11 -> 30         0.00403
      12 -> 16         0.00448
      12 -> 17        -0.00483
      12 -> 18        -0.01268
      12 -> 19         0.01433
      12 -> 20        -0.04448
      12 -> 21         0.02339
      12 -> 22         0.00474
      12 -> 23        -0.00655
      12 -> 24         0.01144
      12 -> 25         0.00492
      12 -> 27         0.02608
      12 -> 28        -0.02535
      12 -> 29        -0.01430
      12 -> 30         0.02872
      13 -> 16        -0.13973
      13 -> 17        -0.03340
      13 -> 18         0.02292
      13 -> 19         0.03819
      13 -> 20        -0.00638
      13 -> 21        -0.02605
      13 -> 22         0.03560
      13 -> 23        -0.01232
      13 -> 24         0.00271
      13 -> 25        -0.00733
      13 -> 26         0.00481
      13 -> 27         0.02859
      13 -> 28         0.02670
      13 -> 29         0.01118
      13 -> 30         0.01412
      14 -> 16        -0.47962
      14 -> 17        -0.19776
      14 -> 18        -0.00118
      14 -> 19         0.00274
      14 -> 20         0.00677
      14 -> 22         0.00213
      14 -> 25        -0.00101
      14 -> 26         0.00558
      14 -> 27        -0.00153
      14 -> 28        -0.00126
      14 -> 29         0.00493
      14 -> 30        -0.00219
      15 -> 16        -0.12483
      15 -> 17         0.43622
      15 -> 18         0.00902
      15 -> 19         0.00717
      15 -> 20         0.01125
      15 -> 21         0.00779
      15 -> 22         0.00197
      15 -> 23         0.01720
      15 -> 24         0.00923
      15 -> 25        -0.01218
      15 -> 26         0.00770
      15 -> 27         0.00284
      15 -> 28         0.00151
      15 -> 29        -0.00326
      15 -> 30        -0.00710
       1 <- 21         0.00107
       1 <- 22        -0.00113
       1 <- 28        -0.00313
       1 <- 29        -0.00202
       2 <- 20         0.00260
       2 <- 21         0.00199
       2 <- 22         0.00195
       2 <- 24         0.00409
       2 <- 26         0.00353
       2 <- 28        -0.00161
       2 <- 29         0.00154
       3 <- 20        -0.00250
       3 <- 21        -0.00137
       3 <- 23         0.00488
       3 <- 24        -0.00118
       3 <- 25        -0.00134
       3 <- 28        -0.00148
       3 <- 29         0.00222
       4 <- 19        -0.00127
       4 <- 20        -0.00779
       4 <- 21         0.00116
       4 <- 22         0.00562
       4 <- 23        -0.00287
       4 <- 24         0.00176
       4 <- 30         0.00509
       5 <- 19        -0.00177
       5 <- 20        -0.00250
       5 <- 21         0.00255
       5 <- 22        -0.00166
       6 <- 20        -0.00205
       6 <- 21         0.00372
       6 <- 22        -0.00377
       7 <- 20        -0.00132
       7 <- 22        -0.00266
       7 <- 23        -0.00686
       7 <- 24        -0.00691
       7 <- 26        -0.00396
       8 <- 19         0.00189
       8 <- 20        -0.00390
       8 <- 21         0.00473
       8 <- 22         0.00522
       8 <- 23         0.01238
       8 <- 24        -0.00549
       8 <- 25        -0.00563
       8 <- 26        -0.00855
       8 <- 28        -0.00121
       8 <- 29         0.00239
       9 <- 16        -0.00137
       9 <- 20         0.00425
       9 <- 21         0.00159
       9 <- 22         0.00286
       9 <- 24         0.00637
       9 <- 25        -0.00311
       9 <- 26         0.01227
       9 <- 28        -0.00352
       9 <- 29         0.00293
       9 <- 30        -0.00110
      10 <- 20         0.00342
      10 <- 21         0.00163
      10 <- 22        -0.00173
      10 <- 23        -0.00582
      10 <- 25         0.00551
      10 <- 26         0.00240
      10 <- 28         0.00415
      10 <- 29        -0.00608
      11 <- 16        -0.00138
      11 <- 17         0.00239
      11 <- 18        -0.00181
      11 <- 23        -0.00275
      11 <- 25         0.00146
      11 <- 28         0.00110
      12 <- 16         0.00126
      12 <- 17        -0.00128
      12 <- 18        -0.00124
      12 <- 19         0.00219
      12 <- 20        -0.01378
      12 <- 21         0.00667
      12 <- 22         0.00245
      12 <- 23        -0.00284
      12 <- 24         0.00388
      12 <- 25         0.00168
      12 <- 27         0.00848
      12 <- 28        -0.00788
      12 <- 29        -0.00485
      12 <- 30         0.01053
      13 <- 16        -0.00146
      13 <- 17        -0.00137
      13 <- 18         0.00216
      13 <- 19         0.00822
      13 <- 20        -0.00229
      13 <- 21        -0.00657
      13 <- 22         0.00983
      13 <- 23        -0.00418
      13 <- 25        -0.00176
      13 <- 26         0.00145
      13 <- 27         0.00852
      13 <- 28         0.00844
      13 <- 29         0.00376
      13 <- 30         0.00552
      14 <- 16         0.07824
      14 <- 17         0.02726
      14 <- 18        -0.00194
      14 <- 19        -0.00113
      14 <- 21         0.00126
      15 <- 16         0.03074
      15 <- 17        -0.08140
      15 <- 18        -0.00160
      15 <- 19         0.00261
      15 <- 21         0.00327
      15 <- 22        -0.00151
      15 <- 23         0.00123
      15 <- 27         0.00106
 
 Excited state symmetry could not be determined.
 Excited State   5:      Singlet-?Sym    5.6995 eV  217.53 nm  f=0.0272  <S**2>=0.000
       1 -> 16         0.00366
       1 -> 17        -0.00186
       2 -> 18        -0.00156
       2 -> 20         0.00156
       2 -> 21         0.00117
       2 -> 22         0.00115
       3 -> 18         0.00905
       3 -> 19        -0.00112
       4 -> 16         0.00912
       4 -> 17         0.00836
       4 -> 20        -0.00335
       4 -> 30         0.00184
       5 -> 16        -0.03330
       5 -> 17        -0.00670
       5 -> 19        -0.00274
       5 -> 20        -0.00227
       5 -> 30         0.00163
       6 -> 16         0.03006
       6 -> 17        -0.01322
       6 -> 18        -0.00408
       6 -> 19         0.00305
       6 -> 20        -0.00190
       6 -> 21         0.00331
       6 -> 27         0.00119
       6 -> 28        -0.00106
       6 -> 29        -0.00125
       7 -> 16        -0.00213
       7 -> 17         0.00770
       7 -> 18         0.03751
       7 -> 19        -0.00182
       7 -> 20        -0.00348
       7 -> 24        -0.00535
       7 -> 25        -0.00149
       7 -> 26        -0.00423
       7 -> 28         0.00148
       8 -> 16        -0.00558
       8 -> 17         0.00744
       8 -> 18        -0.05819
       8 -> 19         0.00994
       8 -> 21         0.00298
       8 -> 22         0.00619
       8 -> 23         0.01069
       8 -> 25        -0.00561
       8 -> 26        -0.00176
       8 -> 28        -0.00104
       8 -> 29         0.00127
       9 -> 16        -0.00231
       9 -> 17        -0.00727
       9 -> 18        -0.02417
       9 -> 20         0.00504
       9 -> 21         0.00111
       9 -> 22         0.00398
       9 -> 23         0.00337
       9 -> 24         0.00352
       9 -> 25        -0.00543
       9 -> 26         0.00563
       9 -> 27         0.00136
       9 -> 28        -0.00128
      10 -> 16        -0.00236
      10 -> 17        -0.00175
      10 -> 18        -0.10771
      10 -> 19         0.01471
      10 -> 20         0.00767
      10 -> 21         0.00122
      10 -> 23        -0.00461
      10 -> 26         0.00589
      10 -> 27        -0.00166
      10 -> 28         0.00502
      10 -> 29        -0.00567
      11 -> 16         0.01100
      11 -> 17         0.00479
      11 -> 18        -0.02694
      11 -> 19         0.00210
      11 -> 20        -0.00472
      11 -> 21        -0.00335
      11 -> 22         0.00170
      11 -> 23         0.01320
      11 -> 25         0.00266
      11 -> 26         0.00289
      11 -> 28         0.00407
      11 -> 29        -0.00504
      11 -> 30         0.00202
      12 -> 16         0.05012
      12 -> 17        -0.01737
      12 -> 18        -0.01302
      12 -> 19        -0.00392
      12 -> 20        -0.01087
      12 -> 21         0.00796
      12 -> 22        -0.00102
      12 -> 23        -0.00188
      12 -> 24         0.00178
      12 -> 25         0.00320
      12 -> 26         0.00150
      12 -> 27         0.00104
      12 -> 28        -0.01068
      12 -> 29        -0.00452
      12 -> 30         0.00898
      13 -> 16         0.65806
      13 -> 17        -0.09045
      13 -> 18        -0.02858
      13 -> 19         0.02030
      13 -> 20        -0.00188
      13 -> 22         0.00343
      13 -> 23        -0.00343
      13 -> 24         0.00117
      13 -> 25        -0.00134
      13 -> 27         0.01237
      13 -> 28         0.00440
      13 -> 29        -0.00220
      14 -> 16        -0.12028
      14 -> 17         0.03595
      14 -> 18        -0.00744
      14 -> 19         0.01337
      14 -> 20        -0.00687
      14 -> 22         0.00674
      14 -> 23        -0.00289
      14 -> 25        -0.00183
      14 -> 26        -0.00118
      14 -> 27         0.00658
      14 -> 28         0.00260
      14 -> 30         0.00227
      15 -> 16         0.03448
      15 -> 17         0.10986
      15 -> 18        -0.04361
      15 -> 19         0.00153
      15 -> 20        -0.01663
      15 -> 21        -0.01078
      15 -> 22         0.03990
      15 -> 23        -0.00690
      15 -> 24         0.00510
      15 -> 26         0.00547
      15 -> 27        -0.01410
      15 -> 28        -0.00207
      15 -> 29        -0.00108
      15 -> 30         0.01297
       4 <- 17        -0.00133
       4 <- 20        -0.00210
       4 <- 30         0.00108
       5 <- 19        -0.00163
       5 <- 20        -0.00117
       5 <- 30         0.00103
       6 <- 16        -0.00136
       7 <- 24        -0.00235
       7 <- 26        -0.00136
       8 <- 18         0.00103
       8 <- 20        -0.00107
       8 <- 21         0.00161
       8 <- 22         0.00186
       8 <- 23         0.00431
       8 <- 25        -0.00202
       9 <- 20         0.00121
       9 <- 23         0.00130
       9 <- 24         0.00151
       9 <- 25        -0.00181
       9 <- 26         0.00192
      10 <- 18         0.00187
      10 <- 20         0.00153
      10 <- 23        -0.00119
      10 <- 26         0.00213
      10 <- 29        -0.00163
      11 <- 16         0.00312
      11 <- 20        -0.00239
      11 <- 21        -0.00289
      11 <- 22        -0.00214
      11 <- 23         0.00234
      11 <- 25         0.00147
      11 <- 28         0.00225
      11 <- 29        -0.00290
      12 <- 19        -0.00158
      12 <- 20        -0.00344
      12 <- 21         0.00213
      12 <- 28        -0.00328
      12 <- 29        -0.00108
      12 <- 30         0.00300
      13 <- 16        -0.00388
      13 <- 19         0.00344
      13 <- 27         0.00335
      14 <- 16         0.01937
      14 <- 17        -0.00569
      14 <- 19         0.00873
      14 <- 20        -0.00270
      14 <- 22         0.00353
      14 <- 23        -0.00184
      14 <- 24         0.00122
      14 <- 27         0.00565
      14 <- 28         0.00187
      15 <- 16        -0.00667
      15 <- 17        -0.02351
      15 <- 18         0.00525
      15 <- 19         0.00119
      15 <- 20         0.00116
      15 <- 21        -0.00701
      15 <- 22         0.01141
      15 <- 23        -0.00330
      15 <- 26         0.00127
      15 <- 27        -0.00337
      15 <- 28         0.00468
      15 <- 29         0.00307
      15 <- 30         0.00359
 SavETr:  write IOETrn=   770 NScale= 10 NData=  16 NLR=1 NState=    5 LETran=     100.

 **********************************************************************

            Population analysis using the SCF Density.

 **********************************************************************

 Alpha  occ. eigenvalues --   -1.45178  -1.17341  -1.14151  -0.85411  -0.84279
 Alpha  occ. eigenvalues --   -0.65813  -0.59175  -0.56852  -0.52886  -0.50959
 Alpha  occ. eigenvalues --   -0.49592  -0.44516  -0.42506  -0.36168  -0.35099
 Alpha virt. eigenvalues --    0.01787   0.02406   0.10936   0.14008   0.14544
 Alpha virt. eigenvalues --    0.15211   0.15499   0.17010   0.17222   0.18569
 Alpha virt. eigenvalues --    0.19100   0.20547   0.20845   0.21248   0.22522
          Condensed to atoms (all electrons):
               1          2          3          4          5          6
     1  C    4.136608   0.000000   0.000000   0.000000   0.000000   0.000000
     2  C    0.000000   4.135766   0.000000   0.000000   0.000000   0.000000
     3  C    0.000000   0.000000   4.129866   0.000000   0.000000   0.000000
     4  C    0.000000   0.000000   0.000000   4.129329   0.000000   0.000000
     5  C    0.000000   0.000000   0.000000   0.000000   4.121693   0.000000
     6  C    0.000000   0.000000   0.000000   0.000000   0.000000   4.125849
     7  H    0.000000   0.000000   0.000000   0.000000   0.000000   0.000000
     8  H    0.000000   0.000000   0.000000   0.000000   0.000000   0.000000
     9  H    0.000000   0.000000   0.000000   0.000000   0.000000   0.000000
    10  H    0.000000   0.000000   0.000000   0.000000   0.000000   0.000000
    11  H    0.000000   0.000000   0.000000   0.000000   0.000000   0.000000
    12  H    0.000000   0.000000   0.000000   0.000000   0.000000   0.000000
               7          8          9         10         11         12
     1  C    0.000000   0.000000   0.000000   0.000000   0.000000   0.000000
     2  C    0.000000   0.000000   0.000000   0.000000   0.000000   0.000000
     3  C    0.000000   0.000000   0.000000   0.000000   0.000000   0.000000
     4  C    0.000000   0.000000   0.000000   0.000000   0.000000   0.000000
     5  C    0.000000   0.000000   0.000000   0.000000   0.000000   0.000000
     6  C    0.000000   0.000000   0.000000   0.000000   0.000000   0.000000
     7  H    0.889828   0.000000   0.000000   0.000000   0.000000   0.000000
     8  H    0.000000   0.863405   0.000000   0.000000   0.000000   0.000000
     9  H    0.000000   0.000000   0.868624   0.000000   0.000000   0.000000
    10  H    0.000000   0.000000   0.000000   0.869765   0.000000   0.000000
    11  H    0.000000   0.000000   0.000000   0.000000   0.875161   0.000000
    12  H    0.000000   0.000000   0.000000   0.000000   0.000000   0.854106
 Mulliken charges:
               1
     1  C   -0.136608
     2  C   -0.135766
     3  C   -0.129866
     4  C   -0.129329
     5  C   -0.121693
     6  C   -0.125849
     7  H    0.110172
     8  H    0.136595
     9  H    0.131376
    10  H    0.130235
    11  H    0.124839
    12  H    0.145894
 Sum of Mulliken charges =   0.00000
 Mulliken charges with hydrogens summed into heavy atoms:
               1
     1  C   -0.026436
     2  C    0.000830
     3  C    0.001510
     4  C    0.000906
     5  C    0.003145
     6  C    0.020045
 Charge=              0.0000 electrons
 Dipole moment (field-independent basis, Debye):
    X=             -0.0229    Y=             -0.0307    Z=              0.1383  Tot=              0.1435
 N-N= 1.199958195692D+02 E-N=-1.712224999734D+02  KE=-4.786994838573D+01

 Test job not archived.
 1\1\GINC-BHC0165\SP\RAM1 TD-Full\STO-5G\C6H6\BWEIGHT\21-Mar-2025\0\\# 
 AM1/STO-5G SCF=XQC TD=(read,singlets,nstates=5,root=1) nosym IOp(9/40=
 3) guess=read\\MD Step 25\\0,1\C,0,-0.64832146,-1.13445065,-0.03304426
 \C,0,0.71796001,-1.20003092,-0.0148724\C,0,1.42199438,-0.0185199,0.027
 02759\C,0,0.68487048,1.17736404,-0.01646955\C,0,-0.72042331,1.17427933
 ,-0.00096757\C,0,-1.44500159,0.02172877,0.02453646\H,0,-1.19014149,-2.
 06592318,-0.07376401\H,0,1.24264172,-2.19953532,0.12255417\H,0,2.48380
 329,-0.08805136,0.109959\H,0,1.31470807,2.07290716,-0.10447223\H,0,-1.
 29542709,2.13869143,0.03329443\H,0,-2.54043502,-0.04080665,0.08247711\
 \Version=ES64L-G16RevC.01\HF=0.0503347\RMSD=3.319e-09\PG=C01 [X(C6H6)]
 \\@


 THERE IS NO CURE FOR BIRTH AND DEATH SAVE TO ENJOY THE INTERVAL.

                               -- GEORGE SANTAYANA
 Job cpu time:       0 days  0 hours  0 minutes  1.1 seconds.
 Elapsed time:       0 days  0 hours  0 minutes  0.8 seconds.
 File lengths (MBytes):  RWF=     34 Int=      0 D2E=      0 Chk=      2 Scr=      1
 Normal termination of Gaussian 16 at Fri Mar 21 15:03:35 2025.
