%chk=geometry.chk
%rwf=geometry.rwf
%nprocshared=1
%mem=5GB

# WB97XD/STO-3G nosymm iop(2/12=3,3/33=1) guess=only pop=full

MD Step 1000

0 1
C  2.72953842  1.87134338  2.07945838 
H  -1.05560613  -1.02062931  2.50032533 
H  -1.04327178  -0.67903808  1.52510196 
C  1.53942355  3.05223369  2.06007944 
H  1.75350845  3.23019869  3.16005581 
H  1.57091915  3.70494375  1.23458137 
C  2.74013463  1.87525770  2.08311481 
H  -1.06507604  -1.03155638  2.48749307 
H  -1.09272681  -0.68990011  1.54417368 
C  1.53904851  3.05056607  2.05905601 
H  1.74189868  3.26331677  3.16784543 
H  1.55951981  3.73872426  1.25195983 








