12
MD Step 0.0 Units = [eV / Ang.]
C  -0.34970099 -1.11065415 -0.80183020
C  2.10767441 1.08851198 0.89322561
C  -1.48401049 -1.02699308 -1.19561374
C  0.11352962 -0.32156626 0.41938025
C  -2.03307099 1.65269127 -0.28137818
C  -0.65838897 2.07067372 1.03704751
H  0.08877008 -0.50918449 0.30302920
H  0.66914364 -0.13465675 -0.18643762
H  0.54432609 0.03319610 0.16180194
H  0.40418168 -0.41423682 0.12786022
H  0.89245281 -1.95345774 0.12807151
H  -0.29490688 0.62567622 -0.60515650
12
MD Step 0.5 Units = [eV / Ang.]
C  -0.65857940 -0.93260267 -0.87954356
C  2.32832154 0.82467459 0.97554708
C  -1.54585854 -0.93681276 -1.20996540
C  0.07045138 -0.33937898 0.47790166
C  -1.87501313 1.75465463 -0.29784293
C  -1.21402703 1.58404055 1.14769877
H  0.13205642 -0.39749944 0.34978642
H  0.61611308 0.04222185 -0.22492464
H  0.57616256 0.02320289 0.15698608
H  0.45260389 -0.38001521 0.10716288
H  0.88771091 -1.93072457 0.11974632
H  0.23005832 0.68823913 -0.72255267
12
MD Step 1.0 Units = [eV / Ang.]
C  -0.95011630 -0.74263516 -0.94891883
C  2.50532652 0.53311158 1.05091030
C  -1.53121631 -0.83118508 -1.21210910
C  0.01760501 -0.36729216 0.53600270
C  -1.62484907 1.76034236 -0.31012485
C  -1.69410111 1.05132672 1.22165078
H  0.18005343 -0.27222304 0.39818737
H  0.55247838 0.22910112 -0.26562482
H  0.54524975 0.01520714 0.14715269
H  0.49914302 -0.33403654 0.08556811
H  0.81526901 -1.78304371 0.10742734
H  0.68515767 0.74132677 -0.81012170
12
MD Step 1.5 Units = [eV / Ang.]
C  -1.20695271 -0.53851300 -1.00785656
C  2.62647286 0.23456725 1.11677874
C  -1.44330672 -0.71435600 -1.20170030
C  -0.04359999 -0.39930313 0.59258072
C  -1.28547076 1.66308203 -0.31924244
C  -2.07748316 0.49052711 1.25475401
H  0.22598760 -0.14481217 0.44564888
H  0.48640217 0.40796832 -0.30624445
H  0.45495133 0.00930355 0.13197407
H  0.54162946 -0.28049648 0.06371605
H  0.67489239 -1.50883763 0.09241819
H  1.04647753 0.78087016 -0.86282690
12
MD Step 2.0 Units = [eV / Ang.]
C  -1.41408524 -0.31872859 -1.05396157
C  2.68228026 -0.05288786 1.17057081
C  -1.29228378 -0.59037087 -1.17885860
C  -0.11141361 -0.42841634 0.64650950
C  -0.86148005 1.45642559 -0.32628144
C  -2.35362494 -0.08031577 1.24669220
H  0.26362739 -0.02581329 0.48933262
H  0.42481388 0.56330141 -0.34423621
H  0.31558448 0.00533409 0.11150647
H  0.57772491 -0.22427529 0.04223015
H  0.46727525 -1.10833451 0.07623205
H  1.30158144 0.80408143 -0.87973597
12
MD Step 2.5 Units = [eV / Ang.]
C  -1.55997950 -0.08298387 -1.08484292
C  2.66670116 -0.31471581 1.20997465
C  -1.09348940 -0.46309050 -1.14421907
C  -0.18396339 -0.44714312 0.69673260
C  -0.36156680 1.13959382 -0.33253013
C  -2.51802577 -0.64336406 1.19935496
H  0.28783070 0.07590061 0.52649768
H  0.37306558 0.68299305 -0.37715120
H  0.14260512 0.00298240 0.08624299
H  0.60506554 -0.17053045 0.02166554
H  0.19681527 -0.58880594 0.06068383
H  1.44494149 0.80916387 -0.86240893
12
MD Step 3.0 Units = [eV / Ang.]
C  -1.63727492 0.16759169 -1.09837384
C  2.57740030 -0.54001284 1.23315079
C  -0.86504643 -0.33623620 -1.09890892
C  -0.25950813 -0.44811585 0.74235434
C  0.19797909 0.72507964 -0.33947083
C  -2.56876050 -1.18124022 1.11570775
H  0.29486884 0.15356274 0.55478744
H  0.33489865 0.75855230 -0.40288741
H  -0.04587361 0.00188113 0.05709349
H  0.62143272 -0.12420151 0.00246468
H  -0.12448176 0.02814705 0.04782573
H  1.47436575 0.79499207 -0.81374323
12
MD Step 3.5 Units = [eV / Ang.]
C  -1.64309371 0.43041809 -1.09290057
C  2.41572692 -0.72119050 1.23883505
C  -0.62546607 -0.21341842 -1.04446165
C  -0.33664548 -0.42478807 0.78271978
C  0.78947041 0.24653345 -0.34847800
C  -2.50465150 -1.67747358 0.99929598
H  0.28257083 0.20269679 0.57243910
H  0.31257357 0.78489853 -0.41983614
H  -0.23156070 0.00169998 0.02530043
H  0.62494361 -0.08947625 -0.01507331
H  -0.47294221 0.69913620 0.03958191
H  1.38907434 0.76096375 -0.73742258
12
MD Step 4.0 Units = [eV / Ang.]
C  -1.57902537 0.70153469 -1.06740760
C  2.18647281 -0.85358609 1.22638152
C  -0.39176092 -0.09811803 -0.98269007
C  -0.41441084 -0.37214776 0.81746470
C  1.37181841 -0.23709180 -0.36013829
C  -2.32523681 -2.11725875 0.85430633
H  0.25036306 0.22118089 0.57842680
H  0.30702467 0.76006540 -0.42696221
H  -0.39795515 0.00219808 -0.00768434
H  0.61424726 -0.06928930 -0.03080461
H  -0.81116705 1.35539637 0.03701281
H  1.18962993 0.70711631 -0.63790504
12
MD Step 4.5 Units = [eV / Ang.]
C  -1.45084614 0.97570346 -1.02165480
C  1.89751723 -0.93522370 1.19578834
C  -0.17829714 0.00636713 -0.91554733
C  -0.49217224 -0.28733077 0.84652059
C  1.89315620 -0.64653829 -0.37335161
C  -2.03255409 -2.48848667 0.68600992
H  0.19925318 0.20926936 0.57255262
H  0.31794929 0.68502491 -0.42385552
H  -0.53157173 0.00324078 -0.04033117
H  0.58870051 -0.06494080 -0.04473194
H  -1.09089362 1.90840486 0.03938233
H  0.87975854 0.63450973 -0.52078144
12
MD Step 5.0 Units = [eV / Ang.]
C  -1.26802423 1.24649626 -0.95629065
C  1.55942593 -0.96685915 1.14773152
C  0.00367177 0.09702945 -0.84500324
C  -0.56934358 -0.17005450 0.87007050
C  2.29998353 -0.89953088 -0.38473661
C  -1.63466454 -2.78291566 0.50132664
H  0.13178475 0.16961600 0.55549456
H  0.34378081 0.56373871 -0.41078099
H  -0.62247077 0.00478910 -0.07114840
H  0.54849888 -0.07590019 -0.05697737
H  -1.26258369 2.26781677 0.04355814
H  0.46994115 0.54577409 -0.39324409
12
MD Step 5.5 Units = [eV / Ang.]
C  -1.04302982 1.50635490 -0.87293186
C  1.18506429 -0.95224389 1.08361111
C  0.14601405 0.17125828 -0.77294030
C  -0.64497762 -0.02275774 0.88845905
C  2.55106507 -0.93657223 -0.38900770
C  -1.15041373 -2.99715483 0.30913151
H  0.05194852 0.10727327 0.52880163
H  0.38155578 0.40338411 -0.38872663
H  -0.66431385 0.00687413 -0.09877621
H  0.49472446 -0.09985371 -0.06774152
H  -1.28982577 2.36785884 0.04441150
H  -0.01781138 0.44557890 -0.26429059
12
MD Step 6.0 Units = [eV / Ang.]
C  -0.79045227 1.74667012 -0.77417199
C  0.78920893 -0.89846810 1.00557897
C  0.24356377 0.22695196 -0.70106598
C  -0.71744362 0.14956438 0.90208046
C  2.63004552 -0.74357498 -0.38055051
C  -0.61397033 -3.13296318 0.11982798
H  -0.03499154 0.02958599 0.49481245
H  0.42673043 0.21459875 -0.35942549
H  -0.65420839 0.00956652 -0.12206308
H  0.42930064 -0.13298070 -0.07725779
H  -1.16225445 2.19041497 0.03642851
H  -0.54552869 0.34063427 -0.14419353
12
MD Step 6.5 Units = [eV / Ang.]
C  -0.52593499 1.95794128 -0.66348011
C  0.38814128 -0.81606654 0.91649889
C  0.29400777 0.26258418 -0.63083207
C  -0.78435533 0.33982171 0.91128206
C  2.54973462 -0.35840615 -0.35553723
C  -0.07651201 -3.19629929 -0.05618608
H  -0.12281123 -0.05413691 0.45646868
H  0.47306363 0.01146195 -0.32530051
H  -0.59255630 0.01294703 -0.14014000
H  0.35484669 -0.17041837 -0.08574986
H  -0.89974106 1.77177065 0.01584383
H  -1.05788308 0.23880044 -0.04286761
12
MD Step 7.0 Units = [eV / Ang.]
C  -0.26494505 2.13013042 -0.54495092
C  -0.00091762 -0.71857977 0.81978178
C  0.29795292 0.27725315 -0.56334108
C  -0.84280590 0.53949170 0.91630307
C  2.34551871 0.14272607 -0.31336720
C  0.39806404 -3.19497532 -0.21106508
H  -0.20482104 -0.13328510 0.41700332
H  0.51272526 -0.18910005 -0.28927963
H  -0.48302703 0.01708038 -0.15250582
H  0.27445848 -0.20682529 -0.09339949
H  -0.54525731 1.18890806 -0.01792664
H  -1.48694545 0.14717573 0.03274770
12
MD Step 7.5 Units = [eV / Ang.]
C  -0.02148734 2.25329210 -0.42291000
C  -0.36062636 -0.62130027 0.71906359
C  0.25913072 0.27069671 -0.49924465
C  -0.88982190 0.73938382 0.91726999
C  2.06203541 0.67082669 -0.25667087
C  0.74499386 -3.13555998 -0.34216129
H  -0.27452942 -0.19697887 0.37952378
H  0.53678705 -0.36872093 -0.25445005
H  -0.33264282 0.02199336 -0.15912781
H  0.19144981 -0.23695226 -0.10032826
H  -0.15065652 0.53362883 -0.06231936
H  -1.76463250 0.06969081 0.08135493
12
MD Step 8.0 Units = [eV / Ang.]
C  0.19309029 2.31852689 -0.30141537
C  -0.67470659 -0.53919123 0.61774351
C  0.18463059 0.24331622 -0.43863388
C  -0.92281547 0.93038951 0.91422935
C  1.74042535 1.14800294 -0.19011895
C  0.91561306 -3.02100437 -0.45324463
H  -0.32641031 -0.23540624 0.34654639
H  0.53619399 -0.50982980 -0.22357788
H  -0.15186859 0.02765517 -0.16054728
H  0.10909338 -0.25614632 -0.10659258
H  0.23705251 -0.11174025 -0.11285288
H  -1.84029820 0.00542748 0.10846421
12
MD Step 8.5 Units = [eV / Ang.]
C  0.37100941 2.31915908 -0.18376298
C  -0.92942993 -0.48432211 0.51848379
C  0.08492779 0.19621259 -0.38095734
C  -0.93988793 1.10412087 0.90720399
C  1.41130022 1.52055649 -0.11891632
C  0.89260582 -2.85042005 -0.55314357
H  -0.35663576 -0.24124372 0.31958741
H  0.50314114 -0.59836002 -0.19859551
H  0.04551144 0.03396148 -0.15795844
H  0.03039430 -0.26073692 -0.11218990
H  0.58356841 -0.68780476 -0.16465092
H  -1.69650491 -0.05112293 0.12489979
12
MD Step 9.0 Units = [eV / Ang.]
C  0.50850401 2.25192614 -0.07210832
C  -1.11516765 -0.46347122 0.42281231
C  -0.02655675 0.13124697 -0.32500269
C  -0.93988315 1.25337391 0.89624882
C  1.09398949 1.76042014 -0.04771904
C  0.69579369 -2.62128253 -0.65213497
H  -0.36361236 -0.21085521 0.29891959
H  0.43259600 -0.62627517 -0.18021152
H  0.24297388 0.04071990 -0.15321665
H  -0.04209035 -0.24829068 -0.11707211
H  0.86852487 -1.15982423 -0.21351072
H  -1.35507169 -0.10768803 0.14299530
12
MD Step 9.5 Units = [eV / Ang.]
C  0.60572164 2.11786513 0.03268445
C  -1.22764024 -0.47667514 0.33097900
C  -0.13452620 0.05109386 -0.26900210
C  -0.92223218 1.37242994 0.88148660
C  0.79961022 1.85941982 0.01980365
C  0.37517364 -2.33279606 -0.75794273
H  -0.34818358 -0.14495860 0.28357373
H  0.32354340 -0.59313457 -0.16778538
H  0.42248440 0.04764160 -0.14871973
H  -0.10638565 -0.21774916 -0.12116029
H  1.08246413 -1.51217878 -0.25629197
H  -0.87002958 -0.17095804 0.17237476
12
MD Step 10.0 Units = [eV / Ang.]
C  0.66611250 1.92261202 0.13093958
C  -1.26845008 -0.51724019 0.24211769
C  -0.22357694 -0.04073697 -0.21087999
C  -0.88665892 1.45719631 0.86311546
C  0.53509210 1.82140850 0.08091084
C  -0.00499355 -1.98849227 -0.87335987
H  -0.31344345 -0.04857536 0.27159005
H  0.17954236 -0.50615661 -0.15953157
H  0.56641140 0.05433967 -0.14713550
H  -0.16119166 -0.16945877 -0.12435823
H  1.22244900 -1.74069297 -0.29080595
H  -0.31129277 -0.24420335 0.21739749
12
MD Step 10.5 Units = [eV / Ang.]
C  0.69548323 1.67599898 0.22385008
C  -1.24472503 -0.57324065 0.15466406
C  -0.28041197 -0.13994245 -0.14864197
C  -0.83287816 1.50524794 0.84139344
C  0.30640805 1.65545308 0.13349905
C  -0.38310144 -1.59694448 -0.99627386
H  -0.26421441 0.06972106 0.26045008
H  0.00838351 -0.37875010 -0.15298506
H  0.65988285 0.06034055 -0.15098716
H  -0.20594251 -0.10511759 -0.12656252
H  1.28821398 -1.84603019 -0.31548171
H  0.25290190 -0.32673616 0.27707558
12
MD Step 11.0 Units = [eV / Ang.]
C  0.70092392 1.39103409 0.31304937
C  -1.16794285 -0.62999060 0.06687416
C  -0.29603272 -0.24156423 -0.08082177
C  -0.76036925 1.51580571 0.81660201
C  0.12038639 1.37122916 0.17578321
C  -0.71146159 -1.17074211 -1.12135936
H  -0.20632360 0.19905556 0.24756851
H  -0.17905287 -0.22800588 -0.14557263
H  0.69310536 0.06511228 -0.16217535
H  -0.24083029 -0.02764411 -0.12766698
H  1.27962151 -1.82937004 -0.32902841
H  0.76797599 -0.41491981 0.34674723
12
MD Step 11.5 Units = [eV / Ang.]
C  0.68983512 1.08252161 0.40019117
C  -1.05227961 -0.67271293 -0.02271625
C  -0.26731815 -0.34022337 -0.00687808
C  -0.66828286 1.48967291 0.78900682
C  -0.01485074 0.97674749 0.20607677
C  -0.95985422 -0.72467445 -1.24214491
H  -0.14584846 0.32768603 0.23072748
H  -0.37037946 -0.07192645 -0.13511295
H  0.66303125 0.06811201 -0.18155951
H  -0.26678882 0.05902535 -0.12756198
H  1.19554642 -1.69049149 -0.33021888
H  1.19718953 -0.50373671 0.42019032
12
MD Step 12.0 Units = [eV / Ang.]
C  0.66918200 0.76564362 0.48662891
C  -0.91290893 -0.68871008 -0.11500142
C  -0.19749442 -0.43043454 0.07258975
C  -0.55551363 1.42913316 0.75882500
C  -0.09071608 0.47830677 0.22275572
C  -1.11317364 -0.27399712 -1.35251171
H  -0.08847753 0.44431951 0.20837034
H  -0.55327509 0.07289943 -0.12013114
H  0.57387574 0.06884678 -0.20872991
H  -0.28542034 0.15021511 -0.12613105
H  1.03416941 -1.42815760 -0.31787336
H  1.51975250 -0.58806504 0.49120887
12
MD Step 12.5 Units = [eV / Ang.]
C  0.64502203 0.45472249 0.57322716
C  -0.76458333 -0.66865232 -0.21020680
C  -0.09535275 -0.50697138 0.15587641
C  -0.42092870 1.33781047 0.72621028
C  -0.10026534 -0.11725277 0.22447675
C  -1.16640548 0.16683177 -1.44735795
H  -0.03906000 0.53912008 0.17973400
H  -0.71670154 0.19278126 -0.09996171
H  0.43632121 0.06693786 -0.24204419
H  -0.29886005 0.24085149 -0.12324561
H  0.79474016 -1.04284552 -0.29110834
H  1.72607378 -0.66333343 0.55440000
12
MD Step 13.0 Units = [eV / Ang.]
C  0.62226147 0.16230497 0.66029773
C  -0.62065396 -0.60698858 -0.30793417
C  0.02653896 -0.56522359 0.24043152
C  -0.26373598 1.22046277 0.69126034
C  -0.04167823 -0.79783160 0.21071259
C  -1.11955334 0.58492160 -1.52262956
H  -0.00135524 0.60434565 0.14484114
H  -0.85162279 0.27754641 -0.07468402
H  0.26566238 0.06217406 -0.27891180
H  -0.30956606 0.32586020 -0.11876157
H  0.48089513 -0.54192753 -0.24989937
H  1.81280765 -0.72564437 0.60527717
12
MD Step 13.5 Units = [eV / Ang.]
C  0.60456938 -0.10145501 0.74761671
C  -0.49249473 -0.50172263 -0.40728438
C  0.15408298 -0.60150556 0.32327091
C  -0.08392802 1.08270683 0.65404437
C  0.07709835 -1.53922264 0.18257814
C  -0.97393142 0.96940664 -1.57503606
H  0.02206324 0.63466949 0.10439869
H  -0.95127899 0.32052340 -0.04496925
H  0.07943221 0.05454133 -0.31623732
H  -0.32004867 0.40058455 -0.11252183
H  0.10527286 0.05310188 -0.19593136
H  1.77916282 -0.77162829 0.64007139
12
MD Step 14.0 Units = [eV / Ang.]
C  0.59435945 -0.32915828 0.83448792
C  -0.38920564 -0.35390106 -0.50699534
C  0.27376802 -0.61326777 0.40139966
C  0.11727042 0.93066199 0.61464377
C  0.23369462 -2.29791145 0.14372518
C  -0.73031791 1.31172819 -1.60175514
H  0.02981298 0.62729412 0.05964736
H  -1.01118762 0.31821243 -0.01190105
H  -0.10488422 0.04422483 -0.35088984
H  -0.33256206 0.46117969 -0.10436528
H  -0.30577988 0.69922678 -0.13350447
H  1.62503183 -0.79828948 0.65550721
12
MD Step 14.5 Units = [eV / Ang.]
C  0.59278367 -0.51636585 0.91982215
C  -0.31742143 -0.16710496 -0.60556289
C  0.37421883 -0.59919337 0.47215617
C  0.33707183 0.77051425 0.57319333
C  0.38919192 -3.00747558 0.10079518
C  -0.38911561 1.60585369 -1.60034476
H  0.02167544 0.58196667 0.01219585
H  -1.02906951 0.26993847 0.02318596
H  -0.27161429 0.03158611 -0.38009400
H  -0.34879938 0.50493559 -0.09414558
H  -0.71000895 1.32839008 -0.06997714
H  1.35108746 -0.80304511 0.64877572
12
MD Step 15.0 Units = [eV / Ang.]
C  0.59968881 -0.66169116 1.00222356
C  -0.28110501 0.05286084 -0.70134125
C  0.44701115 -0.55917476 0.53342658
C  0.57099205 0.60804494 0.52991294
C  0.49191350 -3.58386517 0.06273216
C  0.04743041 1.84847505 -1.56901775
H  -0.00141995 0.50098078 -0.03614639
H  -1.00485234 0.17767704 0.05884154
H  -0.40796455 0.01712412 -0.40168488
H  -0.36964139 0.53047830 -0.08175808
H  -1.05294350 1.85318905 -0.01505017
H  0.96089083 -0.78409903 0.61786174
12
MD Step 15.5 Units = [eV / Ang.]
C  0.61355081 -0.76677971 1.08008903
C  -0.28127042 0.29800567 -0.79263100
C  0.48685954 -0.49419399 0.58372834
C  0.81293977 0.44818679 0.48512543
C  0.48900357 -3.94262972 0.03857827
C  0.57098541 2.03924839 -1.50739401
H  -0.03739971 0.38916063 -0.08353231
H  -0.94082484 0.04612791 0.09361770
H  -0.50446593 0.00142982 -0.41422605
H  -0.39500355 0.53782275 -0.06716954
H  -1.27932912 2.18482176 0.02148415
H  0.46495448 -0.74120029 0.56233000
12
MD Step 16.0 Units = [eV / Ang.]
C  0.63140571 -0.83615167 1.15172497
C  -0.31565535 0.55796253 -0.87777423
C  0.49139171 -0.40611928 0.62221521
C  1.05553021 0.29466702 0.43925908
C  0.34316012 -4.02426724 0.03432150
C  1.16137163 2.18105528 -1.41768315
H  -0.08305278 0.25379719 -0.12823929
H  -0.84191218 -0.11700677 0.12618127
H  -0.55500531 -0.01486088 -0.41702821
H  -0.42381372 0.52827139 -0.05044752
H  -1.34965245 2.25932250 0.03295053
H  -0.11376760 -0.67667008 0.48451984
12
MD Step 16.5 Units = [eV / Ang.]
C  0.64885709 -0.87683857 1.21549524
C  -0.37848076 0.81974506 -0.95526941
C  0.46079213 -0.29747550 0.64863419
C  1.29049119 0.14980565 0.39284592
C  0.04697699 -3.81611632 0.05036329
C  1.78091965 2.28009228 -1.30600064
H  -0.13409248 0.10442833 -0.16882399
H  -0.71592890 -0.30071076 0.15543636
H  -0.55668575 -0.03111393 -0.41011017
H  -0.45412638 0.50418638 -0.03177994
H  -1.25418992 2.06029361 0.01837859
H  -0.73453286 -0.59629623 0.39083056
12
MD Step 17.0 Units = [eV / Ang.]
C  0.66026624 -0.89775500 1.26998170
C  -0.46052211 1.06770919 -1.02390106
C  0.39752111 -0.17121381 0.66328027
C  1.50909126 0.01449859 0.34651670
C  -0.37322265 -3.35809479 0.08119392
C  2.37194653 2.34531879 -1.18309609
H  -0.18533419 -0.04765135 -0.20425591
H  -0.57357507 -0.49057301 0.18064847
H  -0.50970248 -0.04674529 -0.39414003
H  -0.48335774 0.46867309 -0.01148132
H  -1.01652522 1.62522784 -0.01712412
H  -1.33658567 -0.50939425 0.29237746
12
MD Step 17.5 Units = [eV / Ang.]
C  0.65918989 -0.90877909 1.31413999
C  -0.54974727 1.28402927 -1.08286001
C  0.30622391 -0.03046865 0.66695673
C  1.70252841 -0.11163160 0.30099396
C  -0.86625554 -2.72847138 0.11752770
C  2.86110445 2.38665147 -1.06353929
H  -0.23103978 -0.19022921 -0.23400668
H  -0.42790191 -0.66926740 0.20154458
H  -0.41733681 -0.06127605 -0.37037103
H  -0.50859728 0.42522977 0.01001860
H  -0.68439013 1.03152609 -0.06447206
H  -1.84377794 -0.42731323 0.20406752
12
MD Step 18.0 Units = [eV / Ang.]
C  0.63909043 -0.91956618 1.34740283
C  -0.63269241 1.44997492 -1.13180866
C  0.19381257 0.12165403 0.66093453
C  1.86234660 -0.22993200 0.25707427
C  -1.37219393 -2.01806223 0.14958005
C  3.17273689 2.41180881 -0.96274980
H  -0.26544813 -0.31136747 -0.25806589
H  -0.29304878 -0.81786654 0.21834650
H  -0.28605243 -0.07439406 -0.34056499
H  -0.52694756 0.37740377 0.03220102
H  -0.31342081 0.37062821 -0.11385785
H  -2.17818244 -0.36028126 0.14150798
12
MD Step 18.5 Units = [eV / Ang.]
C  0.59425206 -0.93822068 1.36970084
C  -0.69652437 1.54803822 -1.17084882
C  0.06959967 0.28228864 0.64688592
C  1.98093011 -0.34235086 0.21558866
C  -1.83717088 -1.30644351 0.16973656
C  3.24881444 2.42280213 -0.89244768
H  -0.28345373 -0.40082205 -0.27686825
H  -0.18228806 -0.91805172 0.23169492
H  -0.12559039 -0.08601858 -0.30688127
H  -0.53583893 0.32849068 0.05449590
H  0.04754523 -0.27603130 -0.15740872
H  -2.28027516 -0.31368097 0.11635195
12
MD Step 19.0 Units = [eV / Ang.]
C  0.52073463 -0.97005964 1.38137826
C  -0.73139934 1.56465529 -1.20037439
C  -0.05474392 0.44895918 0.62676073
C  2.05210357 -0.45103510 0.17733973
C  -2.22148635 -0.64923958 0.17369053
C  3.06763705 2.41404766 -0.85651135
H  -0.28132253 -0.45142918 -0.29113733
H  -0.10573596 -0.95492998 0.24245406
H  0.05114437 -0.09635047 -0.27170237
H  -0.53328672 0.28128999 0.07632571
H  0.36417650 -0.85013095 -0.19031616
H  -2.12782129 -0.28577722 0.13209259
12
MD Step 19.5 Units = [eV / Ang.]
C  0.41715327 -1.01672293 1.38302626
C  -0.73245986 1.49289080 -1.22084493
C  -0.16563633 0.61962017 0.60258456
C  2.07173948 -0.55793822 0.14302437
C  -2.50079042 -0.07720061 0.16021485
C  2.65186269 2.37360945 -0.84957565
H  -0.25729766 -0.46014732 -0.30168050
H  -0.06836880 -0.91980674 0.25143794
H  0.22862632 -0.10588564 -0.23737999
H  -0.51807034 0.23792321 0.09714950
H  0.61717803 -1.31787835 -0.21061025
H  -1.74393638 -0.26846383 0.18265385
12
MD Step 20.0 Units = [eV / Ang.]
C  0.28509004 -1.07587690 1.37528009
C  -0.70081152 1.33427497 -1.23256336
C  -0.24862722 0.79255661 0.57618390
C  2.03825953 -0.66447146 0.11315456
C  -2.66319705 0.39749829 0.13025865
C  2.06134030 2.28724565 -0.85926322
H  -0.21193840 -0.42847718 -0.30918805
H  -0.06902137 -0.81208669 0.25914908
H  0.38986589 -0.11536319 -0.20591470
H  -0.48982873 0.19971618 0.11650444
H  0.79860941 -1.66427218 -0.21827518
H  -1.18974087 -0.25074408 0.25467380
12
MD Step 20.5 Units = [eV / Ang.]
C  0.12905132 -1.14161084 1.35863934
C  -0.64309032 1.09916532 -1.23555195
C  -0.29007118 0.96609706 0.54889116
C  1.95291258 -0.77119369 0.08799204
C  -2.70532480 0.77294367 0.08597597
C  1.37467511 2.14316179 -0.87072362
H  -0.14810607 -0.36215631 -0.31409127
H  -0.10075387 -0.63965210 0.26562506
H  0.51821371 -0.12563279 -0.17862354
H  -0.44907824 0.16713553 0.13404009
H  0.90715172 -1.88533922 -0.21432514
H  -0.54557996 -0.22291844 0.33215185
12
MD Step 21.0 Units = [eV / Ang.]
C  -0.04400653 -1.20546289 1.33335986
C  -0.56977397 0.80545898 -1.22957623
C  -0.27921161 1.13819570 0.52130737
C  1.81976033 -0.87757177 0.06750724
C  -2.62896016 1.05042214 0.02999202
C  0.66891347 1.93525642 -0.87102915
H  -0.07058989 -0.27020320 -0.31650943
H  -0.15247012 -0.41756154 0.27045083
H  0.59958777 -0.13745022 -0.15588520
H  -0.39715378 0.13978833 0.14954490
H  0.94419953 -1.98153232 -0.20014384
H  0.10970495 -0.17933963 0.40098161
12
MD Step 21.5 Units = [eV / Ang.]
C  -0.22544179 -1.25780657 1.29943156
C  -0.49283640 0.47606729 -1.21429594
C  -0.21021634 1.30597389 0.49321839
C  1.64533668 -0.98182399 0.05137282
C  -2.43882706 1.22987161 -0.03502952
C  0.00554885 1.66397673 -0.85163973
H  0.01452128 -0.16358069 -0.31628688
H  -0.21121358 -0.16550675 0.27291662
H  0.62467344 -0.15124362 -0.13705832
H  -0.33608165 0.11648408 0.16295902
H  0.91141130 -1.95347406 -0.17714355
H  0.71312528 -0.11893792 0.45155553
12
MD Step 22.0 Units = [eV / Ang.]
C  -0.40580486 -1.28930934 1.25663570
C  -0.42346848 0.13590695 -1.18946845
C  -0.08359944 1.46534398 0.46371391
C  1.43801489 -1.08086932 0.03899282
C  -2.14140968 1.30797487 -0.10656082
C  -0.57435918 1.33540681 -0.80867814
H  0.10057669 -0.05378577 -0.31309305
H  -0.26442222 0.09519042 0.27224911
H  0.59052099 -0.16691992 -0.12062776
H  -0.26838997 0.09537146 0.17437238
H  0.80971967 -1.80017527 -0.14668591
H  1.22262159 -0.04413487 0.47915021
12
MD Step 22.5 Units = [eV / Ang.]
C  -0.57569195 -1.29214316 1.20464568
C  -0.37044332 -0.19080692 -1.15511847
C  0.09343603 1.61085528 0.43149613
C  1.20716525 -1.17042202 0.02956587
C  -1.74472596 1.27876105 -0.18218762
C  -1.04793652 0.95967580 -0.74183101
H  0.18106007 0.04836442 -0.30654664
H  -0.30157423 0.34423013 0.26782833
H  0.50106498 -0.18378075 -0.10456038
H  -0.19687473 0.07414813 0.18400441
H  0.63966600 -1.51961966 -0.11018591
H  1.61485437 0.04073772 0.48288960
12
MD Step 23.0 Units = [eV / Ang.]
C  -0.72645120 -1.26081690 1.14314265
C  -0.33933273 -0.48251438 -1.11162586
C  0.30789669 1.73582440 0.39528572
C  0.96218701 -1.24523972 0.02217521
C  -1.25911405 1.13674461 -0.25945957
C  -1.40496792 0.54954948 -0.65288270
H  0.25014372 0.13360492 -0.29633001
H  -0.31502061 0.56415800 0.25933371
H  0.36640433 -0.20058392 -0.08677256
H  -0.12433539 0.05035062 0.19216521
H  0.40302546 -1.11178293 -0.06932254
H  1.87956470 0.13070581 0.46429074
12
MD Step 23.5 Units = [eV / Ang.]
C  -0.85075029 -1.19257915 1.07191704
C  -0.33246706 -0.72138173 -1.05972056
C  0.54288263 1.83275495 0.35419406
C  0.71157786 -1.29953446 0.01589445
C  -0.69920811 0.88266852 -0.33569655
C  -1.64215721 0.11947713 -0.54452930
H  0.30306965 0.19473875 -0.28227327
H  -0.30009818 0.74124576 0.24680363
H  0.20106901 -0.21573700 -0.06557494
H  -0.05331941 0.02169165 0.19920264
H  0.10571432 -0.58417950 -0.02626703
H  2.01368678 0.22083507 0.42604982
12
MD Step 24.0 Units = [eV / Ang.]
C  -0.94299121 -1.08748097 0.99094928
C  -0.34938234 -0.89371730 -1.00042019
C  0.77996705 1.89397673 0.30797177
C  0.46215881 -1.32751408 0.00988944
C  -0.08697391 0.53137884 -0.40787556
C  -1.75883437 -0.31498832 -0.41970433
H  0.33637742 0.22687280 -0.26440378
H  -0.25480407 0.86564930 0.23062615
H  0.02177049 -0.22756313 -0.03998425
H  0.01409830 -0.01358462 0.20543963
H  -0.23832021 0.04054892 0.01619957
H  2.01693404 0.30642183 0.37131226
12
MD Step 24.5 Units = [eV / Ang.]
C  -0.99965040 -0.94821123 0.90046069
C  -0.38743541 -0.99002761 -0.93493720
C  1.00145165 1.91238666 0.25706904
C  0.21859786 -1.32400488 0.00350378
C  0.54513241 0.11978500 -0.47277421
C  -1.75462004 -0.73764571 -0.28138200
H  0.34803282 0.22749333 -0.24296065
H  -0.17931755 0.93118889 0.21149048
H  -0.15478303 -0.23456474 -0.00984354
H  0.07646533 -0.05638853 0.21111671
H  -0.60332825 0.71706685 0.05485140
H  1.88945459 0.38292198 0.30340552
12
MD Step 25.0 Units = [eV / Ang.]
C  -1.01955351 -0.77980103 0.80094534
C  -0.44239126 -1.00501840 -0.86459502
C  1.19208313 1.88217363 0.20255187
C  -0.01666652 -1.28508453 -0.00368714
C  1.15296177 -0.28939926 -0.52749462
C  -1.62911162 -1.13222191 -0.13272023
H  0.33750692 0.19647322 -0.21838557
H  -0.07558179 0.93508825 0.19032012
H  -0.31359440 -0.23562395 0.02422705
H  0.13302031 -0.10655452 0.21634424
H  -0.95032167 1.37410379 0.08659014
H  1.63164864 0.44586470 0.22590383
12
MD Step 25.5 Units = [eV / Ang.]
C  -1.00410790 -0.58927531 0.69317654
C  -0.50884334 -0.93774391 -0.79075471
C  1.34002846 1.79943727 0.14592232
C  -0.24304140 -1.20861605 -0.01186144
C  1.68415328 -0.61367203 -0.57030365
C  -1.38359820 -1.48326479 0.02263099
H  0.30583900 0.13607909 -0.19128942
H  0.05294737 0.87791632 0.16819621
H  -0.44242965 -0.23011357 0.06099487
H  0.18366973 -0.16275290 0.22107952
H  -1.23075148 1.92103181 0.10934906
H  1.24613412 0.49097405 0.14285971
12
MD Step 26.0 Units = [eV / Ang.]
C  -0.95744275 -0.38526562 0.57819443
C  -0.58044994 -0.79197647 -0.71474841
C  1.43717684 1.66264616 0.08891337
C  -0.46100240 -1.09462657 -0.02097047
C  2.08771409 -0.76938201 -0.60139072
C  -1.02482081 -1.77748502 0.18025099
H  0.25567762 0.05096587 -0.16239852
H  0.20137301 0.76383308 0.14626346
H  -0.53227469 -0.21792231 0.09882787
H  0.22889183 -0.22254839 0.22513000
H  -1.39665136 2.26706595 0.12292065
H  0.74180856 0.51469532 0.05900734
12
MD Step 26.5 Units = [eV / Ang.]
C  -0.88638299 -0.17759665 0.45726851
C  -0.65001463 -0.57669362 -0.63779741
C  1.47896725 1.47287971 0.03330626
C  -0.67111235 -0.94545494 -0.03078307
C  2.32743443 -0.69846504 -0.62298197
C  -0.57040492 -2.00551667 0.33495108
H  0.19126270 -0.05189525 -0.13248065
H  0.36331433 0.60107253 0.12560189
H  -0.57738509 -0.19941761 0.13590639
H  0.26958480 -0.28260769 0.22818364
H  -1.41480250 2.34846225 0.12912964
H  0.13953896 0.51523298 -0.02030432
12
MD Step 27.0 Units = [eV / Ang.]
C  -0.80013859 0.02321010 0.33183537
C  -0.70952362 -0.30648981 -0.56089794
C  1.46400509 1.23386476 -0.01921309
C  -0.87313229 -0.76566362 -0.04094334
C  2.39301637 -0.39083441 -0.63854213
C  -0.05464285 -2.16384896 0.48131436
H  0.11827880 -0.16346853 -0.10225384
H  0.53085779 0.40244650 0.10705396
H  -0.57515710 -0.17537203 0.17041353
H  0.30688360 -0.33902364 0.22986122
H  -1.27849549 2.15120013 0.13107271
H  -0.52195170 0.49397951 -0.08970081
12
MD Step 27.5 Units = [eV / Ang.]
C  -0.70962920 0.20652517 0.20341550
C  -0.75026446 -0.00151017 -0.48466730
C  1.39368810 0.95177986 -0.06717128
C  -1.06551820 -0.56173410 -0.05102472
C  2.30252065 0.11048436 -0.65145454
C  0.46822800 -2.25622388 0.61490097
H  0.04350880 -0.27319399 -0.07228926
H  0.69465276 0.18547272 0.09101125
H  -0.52599689 -0.14686855 0.20070555
H  0.34197088 -0.38770755 0.22978057
H  -1.01023872 1.71617626 0.13180485
H  -1.18292172 0.45679989 -0.14501159
12
MD Step 28.0 Units = [eV / Ang.]
C  -0.62640743 0.36232170 0.07352470
C  -0.76316244 0.31350189 -0.40918123
C  1.27195788 0.63485868 -0.10940971
C  -1.24540315 -0.34159033 -0.06058610
C  2.09455448 0.72463859 -0.66396180
C  0.92706134 -2.29348683 0.73385794
H  -0.02575602 -0.36988824 -0.04292977
H  0.84428899 -0.02832214 0.07719923
H  -0.43327715 -0.11519216 0.22547308
H  0.37590251 -0.42480283 0.22762235
H  -0.65372805 1.12374413 0.13326402
H  -1.76603098 0.41421752 -0.18487270
12
MD Step 28.5 Units = [eV / Ang.]
C  -0.56125792 0.48198148 -0.05639871
C  -0.73944693 0.61138175 -0.33386636
C  1.10520168 0.29283059 -0.14519721
C  -1.40897921 -0.11401154 -0.06922772
C  1.81482797 1.35940194 -0.67689017
C  1.24584324 -2.29102730 0.84014764
H  -0.08252796 -0.44297808 -0.01424869
H  0.96905448 -0.21529675 0.06453734
H  -0.30337495 -0.08170373 0.24390390
H  0.40946349 -0.44707635 0.22318714
H  -0.25978915 0.46693835 0.13596931
H  -2.18901474 0.37955964 -0.21191647
12
MD Step 29.0 Units = [eV / Ang.]
C  -0.52268335 0.55911753 -0.18502755
C  -0.67162769 0.86590959 -0.25753653
C  0.90221905 -0.06373958 -0.17435086
C  -1.55205344 0.11201073 -0.07664990
C  1.50409308 1.93487438 -0.69005560
C  1.36308604 -2.26396571 0.93937833
H  -0.12104809 -0.48390122 0.01392783
H  1.05904948 -0.35279519 0.05116914
H  -0.14569200 -0.04769553 0.25584295
H  0.44306445 -0.45225286 0.21643640
H  0.12646192 -0.17258558 0.13940586
H  -2.38486946 0.36502345 -0.23254009
12
MD Step 29.5 Units = [eV / Ang.]
C  -0.51558276 0.59029542 -0.31112840
C  -0.55466838 1.05582981 -0.17864104
C  0.67407768 -0.42412962 -0.19734626
C  -1.67057454 0.32790194 -0.08270930
C  1.19194472 2.39578000 -0.70288918
C  1.25127113 -2.22186044 1.03880114
H  -0.13763494 -0.48738895 0.04192972
H  1.10649965 -0.42295608 0.03473124
H  0.02752300 -0.01423330 0.26192220
H  0.47668093 -0.43927011 0.20751281
H  0.47254284 -0.73712354 0.14264530
H  -2.32207933 0.37715488 -0.25482822
12
MD Step 30.0 Units = [eV / Ang.]
C  -0.54047699 0.57554744 -0.43351088
C  -0.38707109 1.16848190 -0.09570918
C  0.43367881 -0.77808143 -0.21537366
C  -1.76099037 0.52607630 -0.08746139
C  0.89660897 2.71216892 -0.71489567
C  0.92662439 -2.16561818 1.14426466
H  -0.13125125 -0.45231680 0.07010039
H  1.10696845 -0.41621424 0.01284694
H  0.20173200 0.01799239 0.26361576
H  0.50982928 -0.40844886 0.19673849
H  0.75929703 -1.19376701 0.14481984
H  -2.01494924 0.41417957 -0.28543531
12
MD Step 30.5 Units = [eV / Ang.]
C  -0.59346364 0.51854887 -0.55096962
C  -0.17159573 1.20190179 -0.00788104
C  0.19487210 -1.11629403 -0.23027957
C  -1.82040843 0.70039648 -0.09117800
C  0.62823778 2.87339942 -0.72582600
C  0.44373140 -2.08835655 1.25779356
H  -0.10363580 -0.38189350 0.09864255
H  1.06013842 -0.33335717 -0.01627757
H  0.36119841 0.04876750 0.26316064
H  0.54157093 -0.36156608 0.18459163
H  0.97777503 -1.52835061 0.14533672
H  -1.51842046 0.46680386 -0.32711329
12
MD Step 31.0 Units = [eV / Ang.]
C  -0.66692094 0.42637077 -0.66225797
C  0.08463820 1.16465754 0.08465886
C  -0.02889842 -1.43073066 -0.24435213
C  -1.84659975 0.84649946 -0.09433436
C  0.39302228 2.88046909 -0.73563251
C  -0.12202667 -1.97959531 1.37705882
H  -0.05896323 -0.28313180 0.12749884
H  0.96991873 -0.18538566 -0.05334616
H  0.49060963 0.07836257 0.26330651
H  0.57053887 -0.30182717 0.17166432
H  1.12500787 -1.73762514 0.14390075
H  -0.91032658 0.52193630 -0.37816496
12
MD Step 31.5 Units = [eV / Ang.]
C  -0.75071788 0.30878618 -0.76610719
C  0.37072645 1.07348235 0.18050884
C  -0.22626012 -1.71471786 -0.25994832
C  -1.83792949 0.96195553 -0.09755756
C  0.19651167 2.73970593 -0.74432451
C  -0.69511251 -1.83031587 1.49667292
H  -0.00313369 -0.16575618 0.15630077
H  0.84383661 0.00878373 -0.09773033
H  0.57703427 0.10741788 0.26689544
H  0.59498684 -0.23370998 0.15860178
H  1.20037915 -1.82274295 0.14045562
H  -0.27032133 0.56711124 -0.43376744
12
MD Step 32.0 Units = [eV / Ang.]
C  -0.83362751 0.17724902 -0.86129134
C  0.67307274 0.94955298 0.27719408
C  -0.38951676 -1.96285745 -0.27902326
C  -1.79329360 1.04626808 -0.10154826
C  0.04555450 2.45876792 -0.75183009
C  -1.21485974 -1.63651024 1.61021884
H  0.05712058 -0.04083289 0.18439614
H  0.69189897 0.22595314 -0.14755638
H  0.61182089 0.13671124 0.27634173
H  0.61286393 -0.16267593 0.14603011
H  1.20325880 -1.78513579 0.13512533
H  0.33570719 0.59350993 -0.48805690
12
MD Step 32.5 Units = [eV / Ang.]
C  -0.90464856 0.04374740 -0.94671114
C  0.97673714 0.81459214 0.37155325
C  -0.51576720 -2.17081318 -0.30268114
C  -1.71212361 1.10068607 -0.10697882
C  -0.05114273 2.04493911 -0.75792022
C  -1.64138334 -1.40029367 1.71188864
H  0.11510312 0.08056367 0.21093787
H  0.52524526 0.44245128 -0.20005826
H  0.59196227 0.16686338 0.29313488
H  0.62192553 -0.09472718 0.13447730
H  1.13200770 -1.62485585 0.12819028
H  0.86208442 0.59684683 -0.53583263
12
MD Step 33.0 Units = [eV / Ang.]
C  -0.95405058 -0.08027930 -1.02147520
C  1.26672791 0.68779152 0.46022020
C  -0.60717203 -2.33506584 -0.33087609
C  -1.59446300 1.12785097 -0.11439487
C  -0.08384464 1.50550795 -0.76222720
C  -1.95391293 -1.12901010 1.79726476
H  0.16484999 0.18842796 0.23500384
H  0.35491847 0.63713218 -0.25204683
H  0.52054221 0.19806804 0.31750486
H  0.61988890 -0.03583451 0.12429933
H  0.98436300 -1.34124792 0.12010638
H  1.28215268 0.57665906 -0.57337918
12
MD Step 33.5 Units = [eV / Ang.]
C  -0.97409493 -0.18478090 -1.08495285
C  1.52904438 0.58403275 0.54004716
C  -0.67025895 -2.45275773 -0.36235738
C  -1.44114715 1.13132597 -0.12412973
C  -0.04402056 0.85030805 -0.76434311
C  -2.14529979 -0.83341186 1.86337704
H  0.20158661 0.27454014 0.25571645
H  0.19097418 0.79309972 -0.30034812
H  0.40613775 0.22993452 0.34834523
H  0.60463447 0.00871619 0.11562400
H  0.75929994 -0.93597993 0.11154914
H  1.58314405 0.53497309 -0.59852782
12
MD Step 34.0 Units = [eV / Ang.]
C  -0.95942693 -0.26169555 -1.13679542
C  1.75137535 0.51332045 0.60839200
C  -0.71444612 -2.52164787 -0.39487156
C  -1.25404339 1.11505547 -0.13625159
C  0.07187682 0.09650025 -0.76394932
C  -2.21597874 -0.52570844 1.90841567
H  0.22196269 0.33285330 0.27234186
H  0.04198082 0.89823572 -0.34212119
H  0.26135452 0.26148799 0.38340903
H  0.57444741 0.03497689 0.10832427
H  0.46047895 -0.41847001 0.10343803
H  1.76041862 0.47509179 -0.61033177
12
MD Step 34.5 Units = [eV / Ang.]
C  -0.90722837 -0.30531541 -1.17692313
C  1.92350148 0.48105421 0.66325261
C  -0.75021429 -2.54018520 -0.42554667
C  -1.03628767 1.08284406 -0.15055272
C  0.25737160 -0.72484530 -0.76087706
C  -2.16922921 -0.21800093 1.93141502
H  0.22412187 0.35964169 0.28435885
H  -0.08515333 0.94491772 -0.37503836
H  0.10091505 0.29131796 0.41970372
H  0.52827228 0.04087487 0.10203138
H  0.10098735 0.18686912 0.09686134
H  1.81294323 0.40082721 -0.60868498
12
MD Step 35.0 Units = [eV / Ang.]
C  -0.81720410 -0.31251077 -1.20549342
C  2.03749337 0.48865156 0.70329668
C  -0.78736201 -2.50764140 -0.45134328
C  -0.79245896 1.03793426 -0.16658280
C  0.49095940 -1.56235949 -0.75496915
C  -2.00841888 0.07874608 1.93208221
H  0.20768525 0.35353330 0.29150073
H  -0.18517447 0.92941129 -0.39736536
H  -0.06024326 0.31781602 0.45396644
H  0.46594491 0.02653043 0.09618824
H  -0.29193600 0.83369565 0.09279670
H  1.74071475 0.31619307 -0.59407700
12
MD Step 35.5 Units = [eV / Ang.]
C  -0.69148146 -0.28285400 -1.22286213
C  2.08783467 0.53414153 0.72784958
C  -0.83369599 -2.42422192 -0.46946283
C  -0.52858108 0.98271885 -0.18371620
C  0.73385287 -2.34228017 -0.74566759
C  -1.73635045 0.35517217 1.91081921
H  0.17369949 0.31550852 0.29377195
H  -0.25445283 0.85132168 -0.40799858
H  -0.20850498 0.33942956 0.48310482
H  0.38836101 -0.00571051 0.09013508
H  -0.67494165 1.45135239 0.09157712
H  1.54426040 0.22542189 -0.56755042
12
MD Step 36.0 Units = [eV / Ang.]
C  -0.53443863 -0.21867885 -1.22954398
C  2.07157340 0.61250470 0.73689449
C  -0.89430885 -2.29110478 -0.47764168
C  -0.25189275 0.91860897 -0.20124098
C  0.93396278 -2.97569629 -0.73143315
C  -1.35673383 0.60353473 1.86890480
H  0.12457562 0.24890483 0.29144311
H  -0.29105724 0.71333461 -0.40650890
H  -0.33258710 0.35487235 0.50452710
H  0.29754065 -0.05154395 0.08321205
H  -0.99283120 1.95215448 0.09223528
H  1.22619715 0.13310920 -0.53084813
12
MD Step 36.5 Units = [eV / Ang.]
C  -0.35246922 -0.12505000 -1.22618163
C  1.98856903 0.71568916 0.73111719
C  -0.97137423 -2.11038982 -0.47431486
C  0.02958969 0.84605353 -0.21845968
C  1.03783192 -3.37734672 -0.70939053
C  -0.87773304 0.81747852 1.80875199
H  0.06400655 0.15939898 0.28502284
H  -0.29500781 0.52131159 -0.39322018
H  -0.42405417 0.36326042 0.51634361
H  0.19656850 -0.10522132 0.07486039
H  -1.19070066 2.25055862 0.09213084
H  0.79477346 0.04425704 -0.48665999
12
MD Step 37.0 Units = [eV / Ang.]
C  -0.15363116 -0.00959019 -1.21350994
C  1.84185122 0.83240410 0.71198812
C  -1.06431493 -1.88499773 -0.45867550
C  0.30763542 0.76468573 -0.23477670
C  1.00746850 -3.49102628 -0.67569372
C  -0.31718226 0.99191410 1.73406929
H  -0.00317641 0.05489127 0.27519900
H  -0.26870637 0.28464416 -0.36931494
H  -0.47747203 0.36417218 0.51745416
H  0.08940846 -0.16020830 0.06470321
H  -1.23084227 2.28914331 0.08734752
H  0.26896183 -0.03603237 -0.43879052
12
MD Step 37.5 Units = [eV / Ang.]
C  0.05285168 0.11791403 -1.19231494
C  1.63800855 0.94791655 0.68183890
C  -1.17011833 -1.61854509 -0.43066376
C  0.57429700 0.67355269 -0.24977511
C  0.83419039 -3.30961979 -0.62675497
C  0.29183876 1.12340818 1.64967295
H  -0.07126335 -0.05482747 0.26274713
H  -0.21743174 0.01662434 -0.33692309
H  -0.49038110 0.35764646 0.50755963
H  -0.01938085 -0.20986992 0.05259645
H  -1.10642928 2.05921391 0.07397932
H  -0.31618173 -0.10341388 -0.39196250
12
MD Step 38.0 Units = [eV / Ang.]
C  0.25729690 0.24620786 -1.16337541
C  1.38740138 1.04419317 0.64385630
C  -1.28365587 -1.31526196 -0.39092475
C  0.82223109 0.57141823 -0.26327393
C  0.54152531 -2.87809199 -0.56077835
C  0.89770865 1.21123929 1.56066130
H  -0.13408875 -0.15872931 0.24840705
H  -0.14968057 -0.26551028 -0.29911737
H  -0.46322209 0.34413614 0.48713081
H  -0.12499450 -0.24808890 0.03864611
H  -0.84403278 1.60417324 0.04972299
H  -0.90648878 -0.15568550 -0.35095474
12
MD Step 38.5 Units = [eV / Ang.]
C  0.45042686 0.36358798 -1.12739180
C  1.10392976 1.10074314 0.60190529
C  -1.39792550 -0.97993118 -0.34074856
C  1.04480239 0.45707335 -0.27535326
C  0.17558560 -2.27740790 -0.47867511
C  1.43276979 1.25873295 1.47087190
H  -0.18561974 -0.24556285 0.23274521
H  -0.07704082 -0.54124241 -0.25972617
H  -0.39928123 0.32443092 0.45734659
H  -0.22274109 -0.26974328 0.02319226
H  -0.49343773 1.00356764 0.01483479
H  -1.43146829 -0.19424834 -0.31900115
12
MD Step 39.0 Units = [eV / Ang.]
C  0.62431525 0.45919372 -1.08491520
C  0.80405776 1.09642928 0.56011955
C  -1.50424892 -0.61784940 -0.28198965
C  1.23610061 0.32964256 -0.28635341
C  -0.21102421 -1.59875645 -0.38382724
C  1.82414682 1.27386768 1.38104897
H  -0.22066115 -0.30516116 0.21603520
H  -0.01329189 -0.78842215 -0.22290494
H  -0.30463581 0.29955136 0.42000123
H  -0.30838056 -0.27103556 0.00676887
H  -0.11094762 0.34726695 -0.02806964
H  -1.81543027 -0.22472683 -0.29591374
12
MD Step 39.5 Units = [eV / Ang.]
C  0.77324813 0.52440474 -1.03630172
C  0.50498483 1.01221778 0.52227849
C  -1.59252414 -0.23477806 -0.21694609
C  1.39099364 0.18883777 -0.29683467
C  -0.57315297 -0.92118239 -0.28098112
C  2.01161282 1.26810941 1.28774870
H  -0.23556300 -0.32984500 0.19819463
H  0.02739035 -0.98587437 -0.19248757
H  -0.18801184 0.27061921 0.37736334
H  -0.37840987 -0.24967970 -0.00995637
H  0.25509143 -0.28699057 -0.07508268
H  -1.99565936 -0.25583883 -0.27699494
12
MD Step 40.0 Units = [eV / Ang.]
C  0.89428861 0.55408299 -0.98171882
C  0.22219562 0.83441726 0.49110280
C  -1.65167456 0.16312743 -0.14817745
C  1.50534571 0.03518140 -0.30750114
C  -0.87990950 -0.30036408 -0.17499411
C  1.96604251 1.25330344 1.18404711
H  -0.22876958 -0.31561089 0.17881071
H  0.03290156 -1.11653568 -0.17125441
H  -0.06041621 0.23870877 0.33196929
H  -0.43029916 -0.20499815 -0.02625562
H  0.57143213 -0.84486388 -0.12220824
H  -1.94113711 -0.29644861 -0.25382013
12
MD Step 40.5 Units = [eV / Ang.]
C  0.98740169 0.54739060 -0.92121696
C  -0.03298035 0.55761645 0.46768257
C  -1.67045219 0.56939359 -0.07824740
C  1.57636719 -0.12983193 -0.31909511
C  -1.11455956 0.23162635 -0.06999705
C  1.69952604 1.23790098 1.06218507
H  -0.20107739 -0.26281657 0.15726033
H  -0.00427049 -1.17031745 -0.16034036
H  0.06559422 0.20469752 0.28634708
H  -0.46267497 -0.13794906 -0.04142401
H  0.81992483 -1.29565849 -0.16614372
H  -1.66279902 -0.35205198 -0.21701043
12
MD Step 41.0 Units = [eV / Ang.]
C  1.05510469 0.50797528 -0.85485609
C  -0.25502105 0.18644815 0.45125129
C  -1.63862290 0.97725696 -0.00941340
C  1.60303298 -0.30358354 -0.33227321
C  -1.27068285 0.66023134 0.03088752
C  1.26161805 1.22450891 0.91691420
H  -0.15552577 -0.17616881 0.13289829
H  -0.08527602 -1.14583267 -0.15900021
H  0.17705898 0.16914871 0.24269778
H  -0.47546348 -0.05112114 -0.05486908
H  0.99351997 -1.62626433 -0.20451298
H  -1.20974261 -0.42259887 -0.15972411
12
MD Step 41.5 Units = [eV / Ang.]
C  1.10174427 0.44342755 -0.78284668
C  -0.44443321 -0.26439497 0.43940477
C  -1.54846867 1.37959982 0.05668425
C  1.58645547 -0.48221605 -0.34747027
C  -1.34767129 0.98079492 0.12542632
C  0.72380258 1.21001389 0.74772539
H  -0.09694294 -0.06401400 0.10526223
H  -0.20453862 -1.05040173 -0.16483604
H  0.26211149 0.13226367 0.20259005
H  -0.46998465 0.05131703 -0.06620490
H  1.09142211 -1.83360653 -0.23571805
H  -0.65349654 -0.50278360 -0.08001708
12
MD Step 42.0 Units = [eV / Ang.]
C  1.13261057 0.36415436 -0.70566546
C  -0.60647924 -0.77187087 0.42868043
C  -1.39634100 1.76877547 0.11926057
C  1.53009556 -0.66056200 -0.36477442
C  -1.34726159 1.19224906 0.21197495
C  0.16025769 1.18785326 0.55896292
H  -0.03126606 0.06287331 0.07423934
H  -0.35091807 -0.89837565 -0.17440372
H  0.31159351 0.09393302 0.16674544
H  -0.44897262 0.16373354 -0.07533996
H  1.11519359 -1.91843351 -0.25863680
H  -0.06851233 -0.58433001 0.01895669
12
MD Step 42.5 Units = [eV / Ang.]
C  1.15311234 0.28189806 -0.62410586
C  -0.74890170 -1.30745624 0.41529151
C  -1.18388894 2.13635843 0.17847578
C  1.43971076 -0.83216831 -0.38381886
C  -1.27153323 1.29312858 0.28916940
C  -0.36689479 1.15094107 0.35821368
H  0.03520657 0.19270459 0.04015383
H  -0.50995986 -0.70836684 -0.18398576
H  0.32043843 0.05388939 0.13498206
H  -0.41648079 0.27926427 -0.08255036
H  1.06638106 -1.88142151 -0.27233982
H  0.48281015 -0.65877150 0.13051441
12
MD Step 43.0 Units = [eV / Ang.]
C  1.16815816 0.20821720 -0.53925743
C  -0.87945384 -1.84034201 0.39577480
C  -0.91858277 2.47291913 0.23533933
C  1.32298779 -0.98947276 -0.40372152
C  -1.12225123 1.27999006 0.35570998
C  -0.81413277 1.09388334 0.15417380
H  0.09648466 0.31400297 0.00376656
H  -0.66644893 -0.50025684 -0.19028104
H  0.28846369 0.01192347 0.10634778
H  -0.37762659 0.39019868 -0.08851546
H  0.94564042 -1.72165272 -0.27592074
H  0.95676139 -0.71941052 0.24658394
12
MD Step 43.5 Units = [eV / Ang.]
C  1.18181590 0.15318921 -0.45242596
C  -1.00401584 -2.34025637 0.36740778
C  -0.61329544 2.76795807 0.29144551
C  1.18883411 -1.12417402 -0.42308877
C  -0.90138129 1.14812688 0.41031364
C  -1.15591048 1.01399420 -0.04498469
H  0.14738235 0.41663550 -0.03379911
H  -0.80653665 -0.29273283 -0.19085286
H  0.22035961 -0.03190037 0.07941019
H  -0.33814462 0.48854904 -0.09429727
H  0.75323534 -1.43736982 -0.26850488
H  1.32765699 -0.76201949 0.35937642
12
MD Step 44.0 Units = [eV / Ang.]
C  1.19719087 0.12446019 -0.36502161
C  -1.12567213 -2.77955345 0.32836977
C  -0.28495007 3.01013175 0.34860891
C  1.04639789 -1.22780687 -0.44010629
C  -0.61278009 0.89465879 0.45190124
C  -1.38018360 0.91135790 -0.23236172
H  0.18382359 0.49249216 -0.07117717
H  -0.91904200 -0.10174210 -0.18429680
H  0.12486619 -0.07710023 0.05262467
H  -0.30376591 0.56677353 -0.10124670
H  0.49088984 -1.02908891 -0.24949094
H  1.58322542 -0.78458274 0.46219664
12
MD Step 44.5 Units = [eV / Ang.]
C  1.21644530 0.12668485 -0.27843985
C  -1.24475099 -3.13455578 0.27771827
C  0.04748733 3.18781685 0.40849114
C  0.90393251 -1.29248461 -0.45272210
C  -0.26511873 0.52407644 0.48007655
C  -1.48314885 0.78843261 -0.40234126
H  0.20298181 0.53584327 -0.10689790
H  -0.99590694 0.06013469 -0.17019029
H  0.01337935 -0.12274825 0.02468015
H  -0.27948749 0.61858701 -0.11083336
H  0.16498724 -0.50516062 -0.21906823
H  1.71919946 -0.78662645 0.54952689
12
MD Step 45.0 Units = [eV / Ang.]
C  1.24083404 0.16129192 -0.19395577
C  -1.35951684 -3.38636637 0.21528280
C  0.36524949 3.28999133 0.47229513
C  0.76773090 -1.31170624 -0.45890353
C  0.12421859 0.05573385 0.49586645
C  -1.46499948 0.64955255 -0.55021596
H  0.20332056 0.54348905 -0.13952873
H  -1.03205101 0.18365476 -0.14892322
H  -0.10166529 -0.16755881 -0.00525615
H  -0.26886474 0.63972096 -0.12441936
H  -0.20924853 0.11076755 -0.17897002
H  1.73499232 -0.76857055 0.61672836
12
MD Step 45.5 Units = [eV / Ang.]
C  1.27070322 0.22648310 -0.11263422
C  -1.46711060 -3.52138912 0.14155838
C  0.65179130 3.30729370 0.54057118
C  0.64134938 -1.28110818 -0.45693207
C  0.52541206 -0.46880404 0.50250278
C  -1.32741956 0.50052469 -0.67177719
H  0.18458837 0.51479894 -0.16781066
H  -1.02495516 0.26257807 -0.12149868
H  -0.20827601 -0.21005802 -0.03743013
H  -0.27346834 0.62849584 -0.14301424
H  -0.60383210 0.77251996 -0.13323402
H  1.63121744 -0.73133494 0.65969887
12
MD Step 46.0 Units = [eV / Ang.]
C  1.30538042 0.31741601 -0.03525994
C  -1.56437285 -3.53175179 0.05764034
C  0.89428262 3.23310647 0.61313755
C  0.52532375 -1.19902486 -0.44567724
C  0.89505623 -0.98285534 0.50574363
C  -1.07294710 0.34828506 -0.76312833
H  0.14781113 0.45172143 -0.19079058
H  -0.97425655 0.29333649 -0.08935582
H  -0.29603886 -0.24878192 -0.07151874
H  -0.29264017 0.58606947 -0.16706586
H  -0.97680284 1.40874418 -0.08847181
H  1.40920420 -0.67626520 0.67474680
12
MD Step 46.5 Units = [eV / Ang.]
C  1.34299553 0.42652269 0.03772041
C  -1.64829755 -3.41572148 -0.03481052
C  1.08441124 3.06446420 0.68910019
C  0.41749673 -1.06675962 -0.42479180
C  1.18045572 -1.40145752 0.51310768
C  -0.70625709 0.20060429 -0.82093375
H  0.09528648 0.35877266 -0.20794861
H  -0.88153534 0.27493017 -0.05422738
H  -0.35682482 -0.28245506 -0.10673646
H  -0.32360413 0.51630829 -0.19633325
H  -1.27662551 1.93014201 -0.05303010
H  1.07249874 -0.60535063 0.65888358
12
MD Step 47.0 Units = [eV / Ang.]
C  1.38025168 0.54398845 0.10623584
C  -1.71600877 -3.17810573 -0.13360015
C  1.21851734 2.80265862 0.76694539
C  0.31389843 -0.88854979 -0.39478465
C  1.33065110 -1.64036933 0.53174422
C  -0.23729014 0.06574252 -0.84323866
H  0.03055969 0.24296070 -0.21931165
H  -0.75034975 0.20914331 -0.01801737
H  -0.38513069 -0.31012197 -0.14198654
H  -0.36190409 0.42530568 -0.22987287
H  -1.45342183 2.24897238 -0.03479107
H  0.63022704 -0.52162482 0.61067752
12
MD Step 47.5 Units = [eV / Ang.]
C  1.41226294 0.65841826 0.17060326
C  -1.76431051 -2.83058007 -0.23608447
C  1.29721166 2.45344520 0.84469198
C  0.20994513 -0.67126742 -0.35696983
C  1.31130883 -1.64222655 0.56560657
C  0.31413267 -0.04801068 -0.83088893
H  -0.04167177 0.11354378 -0.22553169
H  -0.58647087 0.10106322 0.01733123
H  -0.37818101 -0.33122237 -0.17602342
H  -0.40205637 0.32066012 -0.26613468
H  -1.47405063 2.30571668 -0.03828943
H  0.10187992 -0.42954017 0.53168941
12
MD Step 48.0 Units = [eV / Ang.]
C  1.43257150 0.75772214 0.23149218
C  -1.78901135 -2.39178032 -0.33933813
C  1.32467420 2.02682482 0.92008522
C  0.10159749 -0.42393188 -0.31330784
C  1.11659233 -1.39747597 0.61345094
C  0.91346686 -0.13305233 -0.78927523
H  -0.11578211 -0.01848515 -0.22789675
H  -0.39815759 -0.04027353 0.05000826
H  -0.33590666 -0.34561412 -0.20760508
H  -0.43827858 0.21065440 -0.30314456
H  -1.33399852 2.09039688 -0.06268222
H  -0.47776757 -0.33498495 0.42821320
12
MD Step 48.5 Units = [eV / Ang.]
C  1.43345042 0.83021374 0.28982563
C  -1.78432673 -1.88692939 -0.44042469
C  1.30783475 1.53645174 0.99082324
C  -0.01385519 -0.15713391 -0.26619536
C  0.77129816 -0.94794328 0.66902150
C  1.50879950 -0.18357121 -0.72967828
H  -0.18561512 -0.14126905 -0.22823946
H  -0.19623391 -0.20142299 0.07855892
H  -0.26088873 -0.35355305 -0.23562932
H  -0.46515705 0.10347648 -0.33872958
H  -1.05925970 1.64626768 -0.10191802
H  -1.05604639 -0.24458675 0.31258542
12
MD Step 49.0 Units = [eV / Ang.]
C  1.40655078 0.86585701 0.34661005
C  -1.74273280 -1.34668209 -0.53673943
C  1.25557378 0.99875803 1.05479905
C  -0.13751120 0.11755521 -0.21824695
C  0.32203126 -0.37080627 0.72339878
C  2.03361539 -0.19709198 -0.66907276
H  -0.24506081 -0.24330465 -0.22872269
H  0.00629988 -0.36470209 0.10213421
H  -0.15827796 -0.35563493 -0.25925028
H  -0.47816202 0.00658006 -0.37074434
H  -0.69701241 1.05363721 -0.14707337
H  -1.56531388 -0.16416552 0.20290774
12
MD Step 49.5 Units = [eV / Ang.]
C  1.34384322 0.85749784 0.40270460
C  -1.65555119 -0.80490676 -0.62633984
C  1.17801681 0.43190868 1.11032849
C  -0.26898465 0.38816628 -0.17209232
C  -0.17728614 0.24738464 0.76808521
C  2.41719566 -0.17604790 -0.62736787
H  -0.28874979 -0.31486301 -0.23151384
H  0.19531995 -0.50940705 0.12070119
H  -0.03565108 -0.35270470 -0.27797195
H  -0.47397676 -0.07378169 -0.39726914
H  -0.30055453 0.40350566 -0.18942943
H  -1.93362150 -0.09675200 0.12016491
12
MD Step 50.0 Units = [eV / Ang.]
C  1.23871514 0.80187647 0.45857317
C  -1.51433634 -0.29533778 -0.70815569
C  1.08587385 -0.14526030 1.15633614
C  -0.40670054 0.64286428 -0.13020374
C  -0.67812623 0.83316567 0.79722418
C  2.60134746 -0.12851112 -0.62217600
H  -0.31275046 -0.34935699 -0.23840147
H  0.35728573 -0.61427729 0.13511739
H  0.09729364 -0.34573434 -0.29170828
H  -0.45065215 -0.13285815 -0.41676311
H  0.08384042 -0.22538027 -0.22268786
H  -2.10179052 -0.04119018 0.08284527
12
MD Step 50.5 Units = [eV / Ang.]
C  1.08700503 0.70018721 0.51407969
C  -1.31279820 0.15252926 -0.78197137
C  0.98977440 -0.71423900 1.19245925
C  -0.54819669 0.87047290 -0.09474523
C  -1.14388565 1.33713837 0.80827250
C  2.55749134 -0.06714149 -0.66296186
H  -0.31511538 -0.34433324 -0.25044293
H  0.48129812 -0.66093317 0.14698459
H  0.22930202 -0.33567937 -0.30079521
H  -0.40762819 -0.16758287 -0.42817228
H  0.42358409 -0.77802792 -0.24366045
H  -2.04083089 0.00760933 0.10095330
12
MD Step 51.0 Units = [eV / Ang.]
C  0.88775441 0.55804823 0.56838730
C  -1.04871011 0.51745037 -0.84815441
C  0.89952005 -1.25768672 1.21904277
C  -0.69031689 1.06098859 -0.06744003
C  -1.55034722 1.73372445 0.80147123
C  2.29594464 -0.00630773 -0.74750523
H  -0.29614807 -0.30183032 -0.26773716
H  0.56095130 -0.63748081 0.15826953
H  0.34844769 -0.32333209 -0.30593920
H  -0.34567583 -0.17668793 -0.43099966
H  0.70000420 -1.22344861 -0.25177818
H  -1.76142417 0.05656256 0.17238305
12
MD Step 51.5 Units = [eV / Ang.]
C  0.64354126 0.38486743 0.61999874
C  -0.72516825 0.78922923 -0.90721552
C  0.82322296 -1.76009741 1.23701815
C  -0.82930663 1.20609716 -0.04945552
C  -1.88274027 2.01457677 0.77883021
C  1.86240614 0.04145034 -0.86268976
H  -0.25832431 -0.22800285 -0.28938509
H  0.59537168 -0.54115665 0.17078475
H  0.44333083 -0.30920019 -0.30809665
H  -0.26679125 -0.16077882 -0.42534268
H  0.90485963 -1.54849475 -0.24814287
H  -1.31040178 0.11150974 0.28369625
12
MD Step 52.0 Units = [eV / Ang.]
C  0.36034754 0.19272753 0.66692814
C  -0.35078778 0.96941771 -0.95936073
C  0.76642967 -2.20828450 1.24767669
C  -0.96085633 1.29968886 -0.04130706
C  -2.13206554 2.18061371 0.74319447
C  1.32356870 0.06794987 -0.98913518
H  -0.20589167 -0.13211046 -0.31364580
H  0.58908858 -0.37907710 0.18569956
H  0.50443612 -0.29344192 -0.30829583
H  -0.17406649 -0.12238532 -0.41190241
H  1.03594139 -1.75019898 -0.23467656
H  -0.75614417 0.17510060 0.41482472
12
MD Step 52.5 Units = [eV / Ang.]
C  0.04708519 -0.00499040 0.70695753
C  0.06115943 1.06969600 -1.00421359
C  0.73138317 -2.59168425 1.25238738
C  -1.08018718 1.33833232 -0.04279772
C  -2.29216081 2.23557954 0.69762313
C  0.74920324 0.06997366 -1.10708307
H  -0.14425894 -0.02514939 -0.33823353
H  0.55080269 -0.16681077 0.20325168
H  0.52542494 -0.27588319 -0.30743588
H  -0.07152686 -0.06595547 -0.39195590
H  1.09342831 -1.82949102 -0.21359390
H  -0.17035318 0.24638297 0.54509386
12
MD Step 53.0 Units = [eV / Ang.]
C  -0.28508464 -0.19499702 0.73791179
C  0.49429342 1.10855274 -1.04078256
C  0.71664607 -2.90251377 1.25231667
C  -1.18223387 1.32164850 -0.05301224
C  -2.35795283 2.18209731 0.64510959
C  0.19826993 0.04826088 -1.20084559
H  -0.07931438 0.08155831 -0.36067408
H  0.49151249 0.07468679 0.22273766
H  0.50406185 -0.25611568 -0.30610981
H  0.03607748 0.00225724 -0.36728194
H  1.07759027 -1.78726333 -0.18720133
H  0.38613421 0.32182804 0.65783185
12
MD Step 53.5 Units = [eV / Ang.]
C  -0.62348349 -0.36529720 0.75788834
C  0.93082465 1.10736055 -1.06764440
C  0.71724564 -3.13579623 1.24821585
C  -1.26198151 1.25248556 -0.07038765
C  -2.32485231 2.02021024 0.58855759
C  -0.28741803 0.00590970 -1.26060612
H  -0.01680332 0.17755154 -0.37863515
H  0.42259919 0.32272140 0.24274251
H  0.44255659 -0.23365407 -0.30449903
H  0.14354966 0.07448875 -0.34002514
H  0.98789553 -1.62283760 -0.15792782
H  0.86986739 0.39685735 0.74232102
12
MD Step 54.0 Units = [eV / Ang.]
C  -0.95462145 -0.50608499 0.76540971
C  1.35298185 1.08693775 -1.08322755
C  0.72539480 -3.28928007 1.24031496
C  -1.31494950 1.13679068 -0.09287435
C  -2.18923066 1.74826327 0.53092136
C  -0.68281945 -0.05293873 -1.28198780
H  0.03815526 0.25405648 -0.39017871
H  0.35434830 0.55603327 0.26148874
H  0.34722051 -0.20810707 -0.30236538
H  0.24560095 0.14200276 -0.31249287
H  0.82347899 -1.33472805 -0.12847548
H  1.25444038 0.46705470 0.79346737
12
MD Step 54.5 Units = [eV / Ang.]
C  -1.26487491 -0.61028298 0.75949065
C  1.74400916 1.06523876 -1.08607923
C  0.73164879 -3.36327260 1.22833622
C  -1.33775841 0.98311877 -0.11818629
C  -1.95009279 1.36614745 0.47537548
C  -0.97558673 -0.12379991 -1.26452356
H  0.08139134 0.30444491 -0.39391570
H  0.29510827 0.75686413 0.27717582
H  0.22753497 -0.17931560 -0.29913726
H  0.33726353 0.19588024 -0.28689766
H  0.58501970 -0.92377832 -0.10195510
H  1.52633709 0.52875514 0.81031666
12
MD Step 55.0 Units = [eV / Ang.]
C  -1.54114886 -0.67379927 0.73963896
C  2.08876694 1.05626969 -1.07504466
C  0.72628050 -3.36041159 1.21160074
C  -1.32872195 0.80177622 -0.14411047
C  -1.61206318 0.88099632 0.42533256
C  -1.16114873 -0.20200645 -1.21004199
H  0.10987452 0.32441205 -0.38907523
H  0.25102855 0.91182898 0.28823197
H  0.09485529 -0.14742451 -0.29405922
H  0.41432370 0.22801584 -0.26507462
H  0.27806173 -0.39876737 -0.08182897
H  1.67989150 0.57911008 0.79443091
12
MD Step 55.5 Units = [eV / Ang.]
C  -1.77158846 -0.69555793 0.70581896
C  2.37412122 1.06992937 -1.04934942
C  0.70057051 -3.28537304 1.18919102
C  -1.28830658 0.60371628 -0.16882387
C  -1.18944725 0.31480906 0.38406425
C  -1.23869888 -0.28265065 -1.12151726
H  0.12181980 0.31199622 -0.37551455
H  0.22617791 1.01188945 0.29345732
H  -0.03895573 -0.11287952 -0.28636064
H  0.47370228 0.23216223 -0.24822850
H  -0.08259492 0.21606652 -0.07142942
H  1.71320011 0.61589200 0.74869211
12
MD Step 56.0 Units = [eV / Ang.]
C  -1.94633845 -0.67739494 0.65840341
C  2.58927246 1.11232805 -1.00861687
C  0.64780315 -3.14451116 1.16012684
C  -1.21936057 0.39934085 -0.19115288
C  -0.71011381 -0.28814519 0.35371419
C  -1.20881285 -0.36056055 -1.00253297
H  0.11675736 0.26754378 -0.35369266
H  0.22281495 1.05188696 0.29208304
H  -0.16273515 -0.07636313 -0.27540415
H  0.51372287 0.20483657 -0.23676526
H  -0.46878362 0.87375945 -0.07286276
H  1.62577366 0.63727932 0.67670008
12
MD Step 56.5 Units = [eV / Ang.]
C  -2.05832911 -0.62385526 0.59813159
C  2.72614227 1.18616870 -0.95286404
C  0.56383549 -2.94544755 1.12352203
C  -1.12697448 0.19745198 -0.21070918
C  -0.21666532 -0.85851601 0.33376046
C  -1.07291330 -0.43054277 -0.85728569
H  0.09559203 0.19368072 -0.32462210
H  0.24163058 1.03005464 0.28378514
H  -0.26691501 -0.03869550 -0.26078834
H  0.53421406 0.14587738 -0.23025238
H  -0.83777154 1.50203069 -0.08538445
H  1.41815434 0.64179299 0.58270696
12
MD Step 57.0 Units = [eV / Ang.]
C  -2.10400674 -0.54191257 0.52607766
C  2.77982322 1.29091411 -0.88251051
C  0.44727154 -2.69661059 1.07870718
C  -1.01795249 0.00452953 -0.22786428
C  0.23816290 -1.30906408 0.31956238
C  -0.83462054 -0.48798225 -0.69095388
H  0.06065398 0.09529449 -0.28979969
H  0.28185773 0.94778201 0.26868602
H  -0.34408837 -0.00072841 -0.24239901
H  0.53643551 0.05852272 -0.22752127
H  -1.13705768 2.01077161 -0.10391039
H  1.09352094 0.62848342 0.47192578
12
MD Step 57.5 Units = [eV / Ang.]
C  -2.08387880 -0.44057537 0.44361993
C  2.74907485 1.42263877 -0.79841338
C  0.29933626 -2.40677267 1.02531303
C  -0.89993722 -0.17555343 -0.24356905
C  0.60301780 -1.55427803 0.30218210
C  -0.50296124 -0.52978645 -0.51019002
H  0.01569786 -0.02053943 -0.25110292
H  0.34121238 0.80974337 0.24735855
H  -0.38930591 0.03674680 -0.22041390
H  0.52285082 -0.05100911 -0.22688604
H  -1.31629341 2.31198146 -0.11887463
H  0.66118659 0.59740409 0.35097632
12
MD Step 58.0 Units = [eV / Ang.]
C  -2.00272606 -0.33034470 0.35239600
C  2.63676999 1.57362526 -0.70191416
C  0.12359364 -2.08463166 0.96331662
C  -0.78038101 -0.34138283 -0.25905964
C  0.84305384 -1.53719255 0.27047804
C  -0.09698744 -0.55549510 -0.32339813
H  -0.03420718 -0.14478199 -0.21064075
H  0.41570032 0.62432355 0.22082575
H  -0.40018782 0.07306686 -0.19527343
H  0.49679670 -0.17433406 -0.22642885
H  -1.34290318 2.34684927 -0.11842765
H  0.14147820 0.55029794 0.22812620
12
MD Step 58.5 Units = [eV / Ang.]
C  -1.86933112 -0.22248524 0.25422639
C  2.45015310 1.73192433 -0.59486754
C  -0.07434185 -1.73848478 0.89305083
C  -0.66563372 -0.49351956 -0.27553236
C  0.95124094 -1.25068751 0.21509351
C  0.34951926 -0.56812269 -0.14037277
H  -0.08296871 -0.26692072 -0.17054852
H  0.49938960 0.40410834 0.19053308
H  -0.37694406 0.10773811 -0.16762591
H  0.46210804 -0.30192719 -0.22428796
H  -1.21381645 2.10712872 -0.09256613
H  -0.42937504 0.49124818 0.11289736
12
MD Step 59.0 Units = [eV / Ang.]
C  -1.69565416 -0.12810014 0.15100035
C  2.20078463 1.88125971 -0.47960282
C  -0.28704871 -1.37602771 0.81518031
C  -0.56039644 -0.63383668 -0.29386833
C  0.94916437 -0.74092002 0.13229931
C  0.78579235 -0.57415394 0.02905903
H  -0.12399560 -0.37580651 -0.13274188
H  0.58430893 0.16605665 0.15825726
H  -0.32234357 0.14045411 -0.13825381
H  0.42275447 -0.42415542 -0.21889723
H  -0.95643162 1.63838599 -0.03709904
H  -0.99693463 0.42684395 0.01466685
12
MD Step 59.5 Units = [eV / Ang.]
C  -1.49548237 -0.05706217 0.04453745
C  1.90397570 2.00171566 -0.35878792
C  -0.50550251 -1.00426492 0.73064470
C  -0.46761765 -0.76482288 -0.31446470
C  0.87681186 -0.09082329 0.02539267
C  1.14749484 -0.58219787 0.17736403
H  -0.15094465 -0.46081699 -0.09866538
H  0.66067945 -0.06910681 0.12592567
H  -0.24162590 0.17109294 -0.10798397
H  0.38252515 -0.53216276 -0.20914587
H  -0.61821752 1.02309291 0.04488765
H  -1.49209642 0.36535619 -0.05970432
12
MD Step 60.0 Units = [eV / Ang.]
C  -1.28273241 -0.01693107 -0.06354566
C  1.57759752 2.07155858 -0.23517870
C  -0.71931418 -0.62949654 0.64056785
C  -0.38873956 -0.88897054 -0.33718766
C  0.77754484 0.60635170 -0.09695134
C  1.36782893 -0.60028201 0.30182358
H  -0.15859971 -0.51321045 -0.06909549
H  0.71765909 -0.27863735 0.09534527
H  -0.14230265 0.19969561 -0.07758581
H  0.34478393 -0.61852317 -0.19445318
H  -0.25117419 0.35369784 0.14469176
H  -1.84255163 0.31474739 -0.10843062
12
MD Step 60.5 Units = [eV / Ang.]
C  -1.06971796 -0.01203756 -0.17192848
C  1.24027926 2.07021259 -0.11131235
C  -0.91713548 -0.25734050 0.54614635
C  -0.32408231 -1.00829015 -0.36142943
C  0.68600069 1.26975421 -0.22399370
C  1.39462368 -0.63258542 0.40586115
H  -0.14371266 -0.52740444 -0.04405362
H  0.74465756 -0.44068661 0.06789362
H  -0.03376052 0.22642503 -0.04766292
H  0.31229509 -0.67765446 -0.17476765
H  0.10096969 -0.29047000 0.25136595
H  -1.99041704 0.28007731 -0.13611890
12
MD Step 61.0 Units = [eV / Ang.]
C  -0.86575373 -0.04291724 -0.27961207
C  0.90920782 1.98191514 0.01077992
C  -1.08731157 0.10724118 0.44853158
C  -0.27318260 -1.12396394 -0.38622566
C  0.62296517 1.84207413 -0.34590888
C  1.20703120 -0.67710419 0.49798386
H  -0.10560219 -0.50187525 -0.02286905
H  0.73306046 -0.53790933 0.04425919
H  0.07340222 0.25150690 -0.01855899
H  0.28710669 -0.70603631 -0.15051284
H  0.40862298 -0.85449209 0.35477341
H  -1.90954645 0.26156102 -0.15264045
12
MD Step 61.5 Units = [eV / Ang.]
C  -0.67640747 -0.10622245 -0.38587243
C  0.59801051 1.79910599 0.12972446
C  -1.21883818 0.45991024 0.34872996
C  -0.23497573 -1.23610620 -0.41039555
C  0.59649217 2.28956136 -0.45533039
C  0.82359847 -0.72556701 0.58847497
H  -0.04634538 -0.43943053 -0.00437991
H  0.67795668 -0.56080203 0.02433660
H  0.16833622 0.27515460 0.00970345
H  0.27046955 -0.70230083 -0.12249967
H  0.65583743 -1.30777865 0.44719301
H  -1.61413429 0.25447551 -0.16968450
12
MD Step 62.0 Units = [eV / Ang.]
C  -0.50350273 -0.19514474 -0.49016550
C  0.31524187 1.52445067 0.24476883
C  -1.30253219 0.79691397 0.24755037
C  -0.20782055 -1.34360204 -0.43268086
C  0.60623420 2.59593746 -0.54748727
C  0.29718662 -0.76578810 0.68548299
H  0.02949779 -0.34677436 0.01278033
H  0.57933903 -0.50967434 0.00733039
H  0.24112519 0.29748813 0.03742420
H  0.26277337 -0.66724849 -0.09181874
H  0.83642890 -1.63763271 0.52349189
H  -1.15397150 0.25107454 -0.19667665
12
MD Step 62.5 Units = [eV / Ang.]
C  -0.34578636 -0.30027591 -0.59201272
C  0.06393979 1.17080186 0.35557956
C  -1.33225103 1.11499535 0.14561164
C  -0.18940560 -1.44400539 -0.45186546
C  0.64815014 2.75510864 -0.61953931
C  -0.30062942 -0.78525516 0.79251716
H  0.11555225 -0.23348536 0.02988662
H  0.44234948 -0.39453271 -0.00796159
H  0.28403058 0.31846269 0.06515150
H  0.26349124 -0.60381013 -0.05972255
H  0.94950575 -1.84144387 0.58047940
H  -0.59894683 0.24343999 -0.23812425
12
MD Step 63.0 Units = [eV / Ang.]
C  -0.19995973 -0.41074646 -0.69090577
C  -0.15767842 0.75911713 0.46196781
C  -1.30589943 1.41124930 0.04341146
C  -0.17662293 -1.53349293 -0.46688118
C  0.71813178 2.76542661 -0.66969790
C  -0.89791189 -0.77428456 0.90824915
H  0.20451097 -0.11067842 0.04789236
H  0.27646327 -0.23291552 -0.02278730
H  0.29255034 0.33782628 0.09354060
H  0.27113579 -0.51694568 -0.02749995
H  0.99592000 -1.92035818 0.61604699
H  -0.02063975 0.22580242 -0.29333627
12
MD Step 63.5 Units = [eV / Ang.]
C  -0.06179405 -0.51543304 -0.78624159
C  -0.35466278 0.31510537 0.56366168
C  -1.22597599 1.68293060 -0.05856705
C  -0.16550413 -1.60693434 -0.47690351
C  0.81413860 2.62632654 -0.69649452
C  -1.43594391 -0.72769959 1.02803789
H  0.28903018 0.01034839 0.06730116
H  0.09388761 -0.04645853 -0.03813034
H  0.26605481 0.35511990 0.12317034
H  0.28325530 -0.41342229 0.00365316
H  0.97609679 -1.87537525 0.62846991
H  0.52141756 0.19549224 -0.35795714
12
MD Step 64.0 Units = [eV / Ang.]
C  0.07292858 -0.60401981 -0.87729818
C  -0.53347872 -0.13432858 0.66020103
C  -1.09948161 1.92723079 -0.15975078
C  -0.15129072 -1.65811905 -0.48144091
C  0.93690517 2.33722073 -0.69837400
C  -1.87488615 -0.64497965 1.14591529
H  0.36246727 0.11922974 0.08814660
H  -0.09230851 0.14270233 -0.05453396
H  0.20783615 0.36972629 0.15436629
H  0.29650839 -0.30140891 0.03275899
H  0.88920984 -1.70588818 0.61604925
H  0.98559030 0.15263430 -0.42603962
12
MD Step 64.5 Units = [eV / Ang.]
C  0.20774530 -0.66782286 -0.96324002
C  -0.70037225 -0.56393680 0.75096158
C  -0.93719655 2.14108696 -0.25940983
C  -0.12869785 -1.68021265 -0.48040960
C  1.08933459 1.89850418 -0.67372978
C  -2.19271980 -0.52944348 1.25606841
H  0.41938572 0.20730851 0.11005350
H  -0.26982302 0.31476175 -0.07207580
H  0.12457430 0.38095448 0.18707516
H  0.30685746 -0.18984134 0.05916382
H  0.73364455 -1.41057880 0.57719964
H  1.34726753 0.09922007 -0.49165707
12
MD Step 65.0 Units = [eV / Ang.]
C  0.34512622 -0.70030953 -1.04314164
C  -0.86030540 -0.95187578 0.83526082
C  -0.75243793 2.32105346 -0.35665079
C  -0.09237992 -1.66643189 -0.47417865
C  1.27446310 1.31467918 -0.62148267
C  -2.38061709 -0.38707838 1.35351529
H  0.45582498 0.26807081 0.13234520
H  -0.42819469 0.45387873 -0.09045189
H  0.02533959 0.38813974 0.22082259
H  0.30991264 -0.08755978 0.08260429
H  0.50883132 -0.99073781 0.51107227
H  1.59443717 0.03817124 -0.54971483
12
MD Step 65.5 Units = [eV / Ang.]
C  0.48628793 -0.69739476 -1.11601950
C  -1.01650800 -1.28042935 0.91248550
C  -0.55958046 2.46330562 -0.45046778
C  -0.03755587 -1.61090161 -0.46356226
C  1.49188435 0.59972977 -0.54227287
C  -2.43764210 -0.22538868 1.43415275
H  0.46940000 0.29733908 0.15416612
H  -0.55927418 0.54868176 -0.10911149
H  -0.07961228 0.39073281 0.25475673
H  0.30141902 -0.00230125 0.10321353
H  0.21857709 -0.45608030 0.41876704
H  1.72260448 -0.02729308 -0.59610777
12
MD Step 66.0 Units = [eV / Ang.]
C  0.63113510 -0.65756616 -1.18086769
C  -1.17052057 -1.53608266 0.98218792
C  -0.37257654 2.56377443 -0.53982683
C  0.03929798 -1.50953699 -0.44974166
C  1.73281630 -0.21582304 -0.44014164
C  -2.36646864 -0.05242263 1.49451268
H  0.45929876 0.29332796 0.17459924
H  -0.65724064 0.59202845 -0.12739073
H  -0.18002441 0.38835914 0.28775928
H  0.27783658 0.06029007 0.12145635
H  -0.12432781 0.16759156 0.30499638
H  1.73077390 -0.09394013 -0.62754331
12
MD Step 66.5 Units = [eV / Ang.]
C  0.77823383 -0.58193054 -1.23669712
C  -1.32248837 -1.70935007 1.04413026
C  -0.20372184 2.61842367 -0.62375339
C  0.13986056 -1.36079373 -0.43411411
C  1.97501248 -1.07841801 -0.32414185
C  -2.17079918 0.12398247 1.53151707
H  0.42624897 0.25666628 0.19277075
H  -0.71839228 0.58045686 -0.14462057
H  -0.26660874 0.38084159 0.31859042
H  0.23691153 0.09742815 0.13799974
H  -0.49344053 0.83125779 0.17963541
H  1.61918357 -0.15856447 -0.64131661
12
MD Step 67.0 Units = [eV / Ang.]
C  0.92480121 -0.47419467 -1.28258274
C  -1.47147721 -1.79470089 1.09827962
C  -0.06275645 2.62362388 -0.70139798
C  0.26362103 -1.16610980 -0.41809046
C  2.18019264 -1.90995638 -0.20877312
C  -1.85469042 0.29671785 1.54243128
H  0.37247452 0.19041717 0.20794040
H  -0.74093722 0.51370551 -0.16020336
H  -0.33173011 0.36818897 0.34603661
H  0.17812390 0.10955029 0.15354555
H  -0.84658216 1.46069580 0.05805654
H  1.38896026 -0.21793773 -0.63524236
12
MD Step 67.5 Units = [eV / Ang.]
C  1.06670147 -0.34058883 -1.31771608
C  -1.61563282 -1.79072500 1.14476625
C  0.04365390 2.57657741 -0.77207140
C  0.40790867 -0.92993653 -0.40287863
C  2.29751367 -2.61654739 -0.11197467
C  -1.42383342 0.45970327 1.52513112
H  0.30164083 0.10008794 0.21957587
H  -0.72493834 0.39450743 -0.17366255
H  -0.36980708 0.35056258 0.36903871
H  0.10289519 0.10017328 0.16866414
H  -1.12978677 1.96501256 -0.04100004
H  1.04368471 -0.26882672 -0.60787273
12
MD Step 68.0 Units = [eV / Ang.]
C  1.19851431 -0.18965197 -1.34146266
C  -1.75209102 -1.70056085 1.18382808
C  0.11212032 2.47573286 -0.83525365
C  0.56827434 -0.65937777 -0.38930864
C  2.27503729 -3.10930399 -0.05032534
C  -0.88878058 0.60804089 1.47873308
H  0.21873612 -0.00645997 0.22740800
H  -0.67248174 0.22871999 -0.18467480
H  -0.37750808 0.32823202 0.38679137
H  0.01450922 0.07528950 0.18366899
H  -1.28910354 2.25756622 -0.10033929
H  0.59277337 -0.30822693 -0.55906513
12
MD Step 68.5 Units = [eV / Ang.]
C  1.31375190 -0.03181666 -1.35341062
C  -1.87665459 -1.53244752 1.21575090
C  0.14249205 2.32113010 -0.89059234
C  0.73906217 -0.36352077 -0.37773924
C  2.07649346 -3.33114549 -0.03309317
C  -0.26969995 0.73822297 1.40453082
H  0.12983000 -0.11931174 0.23145634
H  -0.58803359 0.02569294 -0.19308415
H  -0.35382126 0.30153017 0.39881277
H  -0.08224684 0.04243678 0.19855708
H  -1.28738659 2.28314714 -0.11033760
H  0.05621324 -0.33391792 -0.49085081
12
MD Step 69.0 Units = [eV / Ang.]
C  1.40527896 0.12129458 -1.35339722
C  -1.98335723 -1.30014716 1.24081069
C  0.13766008 2.11463732 -0.93790095
C  0.91395992 -0.05262471 -0.36807077
C  1.69555611 -3.27649108 -0.05836716
C  0.39861054 0.84853770 1.30698449
H  0.04165423 -0.22712422 0.23201252
H  -0.47884007 -0.20136236 -0.19889325
H  -0.30006618 0.27081249 0.40498634
H  -0.18163463 0.00966255 0.21302036
H  -1.11821491 2.03812685 -0.07282967
H  -0.53060681 -0.34532196 -0.40835537
12
MD Step 69.5 Units = [eV / Ang.]
C  1.46598768 0.25789628 -1.34149905
C  -2.06418091 -1.02288428 1.25921196
C  0.10326480 1.86004744 -0.97716630
C  1.08633074 0.26270065 -0.35985366
C  1.15950811 -2.99220628 -0.11378965
C  1.06392281 0.93964525 1.19424731
H  -0.03901528 -0.31813845 0.22957240
H  -0.35511677 -0.43535629 -0.20222020
H  -0.21987541 0.23642298 0.40557630
H  -0.27759985 -0.01542639 0.22651222
H  -0.80883359 1.57171413 -0.00033743
H  -1.11439234 -0.34441503 -0.32025390
12
MD Step 70.0 Units = [eV / Ang.]
C  1.48965261 0.36731687 -1.31798915
C  -2.10922716 -0.72441560 1.27101293
C  0.04729964 1.56303418 -1.00855803
C  1.24931599 0.57221339 -0.35245692
C  0.52022757 -2.55913374 -0.18147528
C  1.65921521 1.01490396 1.07755474
H  -0.10611673 -0.38151715 0.22472362
H  -0.22971652 -0.65605675 -0.20321060
H  -0.11910878 0.19866569 0.40121128
H  -0.36437427 -0.02639269 0.23834836
H  -0.41024304 0.96754230 0.08892434
H  -1.62692452 -0.33616045 -0.23808530
12
MD Step 70.5 Units = [eV / Ang.]
C  1.47183298 0.44136867 -1.28326363
C  -2.10764765 -0.43100372 1.27604085
C  -0.02038018 1.23101419 -1.03242952
C  1.39586749 0.86659926 -0.34524050
C  -0.16174892 -2.06514784 -0.24409409
C  2.11294772 1.07976155 0.96904264
H  -0.15508226 -0.40881977 0.21800734
H  -0.11701821 -0.84185769 -0.20191396
H  -0.00565302 0.15778160 0.39282860
H  -0.43696703 -0.01843657 0.24781519
H  0.01954787 0.31658814 0.17721529
H  -1.99569878 -0.32784780 -0.17400819
12
MD Step 71.0 Units = [eV / Ang.]
C  1.41061301 0.47552137 -1.23776929
C  -2.04937460 -0.16833429 1.27381847
C  -0.08872799 0.87292219 -1.04929046
C  1.51889650 1.13784162 -0.33768991
C  -0.83150439 -1.58326021 -0.28906204
C  2.36570112 1.13988150 0.87838868
H  -0.18346111 -0.39529828 0.20979294
H  -0.03100173 -0.97255395 -0.19815474
H  0.11099389 0.11393381 0.38156999
H  -0.49151261 0.01137519 0.25426989
H  0.43029296 -0.30491787 0.25152381
H  -2.16091506 -0.32711109 -0.13739735
12
MD Step 71.5 Units = [eV / Ang.]
C  1.30700238 0.46962930 -1.18195437
C  -1.92738893 0.04208853 1.26354894
C  -0.14636652 0.49894173 -1.05973795
C  1.61164960 1.37943191 -0.32948945
C  -1.44712958 -1.16181469 -0.30973841
C  2.38731693 1.19850590 0.80965352
H  -0.19123422 -0.34070025 0.20020240
H  0.01717411 -1.03264535 -0.19145725
H  0.22040565 0.06720699 0.36862927
H  -0.52549126 0.06403990 0.25722367
H  0.78695460 -0.84544597 0.30479580
H  -2.09289275 -0.33923799 -0.13167618
12
MD Step 72.0 Units = [eV / Ang.]
C  1.16486904 0.42800386 -1.11626104
C  -1.73985736 0.18619654 1.24420284
C  -0.18265799 0.12017848 -1.06434824
C  1.66830907 1.58644287 -0.32053613
C  -1.98028324 -0.82562928 -0.30441990
C  2.18645829 1.25439046 0.76001797
H  -0.18073001 -0.24934781 0.18910885
H  0.02143174 -1.01429203 -0.18107862
H  0.31219458 0.01762988 0.35506621
H  -0.53785177 0.13864542 0.25640525
H  1.06986536 -1.27711791 0.33492446
H  -1.80174771 -0.36510049 -0.15308165
12
MD Step 72.5 Units = [eV / Ang.]
C  0.99044235 0.35882141 -1.04115718
C  -1.49140824 0.25928297 1.21472116
C  -0.18888036 -0.25173463 -1.06354999
C  1.68472914 1.75553665 -0.31091174
C  -2.41297566 -0.58287696 -0.27451853
C  1.80752063 1.30150687 0.72117482
H  -0.15617173 -0.12947583 0.17620727
H  -0.01788068 -0.91896758 -0.16617134
H  0.37717755 -0.03477095 0.34161912
H  -0.52907503 0.23243164 0.25180582
H  1.27073109 -1.58887990 0.34290463
H  -1.33420907 -0.40087370 -0.19212406
12
MD Step 73.0 Units = [eV / Ang.]
C  0.79152664 0.27299912 -0.95718820
C  -1.19301812 0.26601801 1.17428997
C  -0.15934772 -0.60511656 -1.05751820
C  1.65915206 1.88495721 -0.30083755
C  -2.73362387 -0.43293656 -0.22292625
C  1.31657906 1.33067658 0.68256587
H  -0.12298079 0.00799235 0.16113146
H  -0.09406245 -0.75721552 -0.14603369
H  0.40856000 -0.08988901 0.32856133
H  -0.50118991 0.34087402 0.24370531
H  1.38768808 -1.77871829 0.33117235
H  -0.75928298 -0.43964135 -0.23692241
12
MD Step 73.5 Units = [eV / Ang.]
C  0.57665277 0.18278447 -0.86502445
C  -0.86054483 0.21862633 1.12260359
C  -0.09224982 -0.92877833 -1.04612940
C  1.59273927 1.97452188 -0.29062603
C  -2.93405720 -0.37257539 -0.15296098
C  0.78350447 1.33214420 0.63472820
H  -0.08700880 0.15091692 0.14357754
H  -0.19551706 -0.54659559 -0.12036168
H  0.40290709 -0.14743805 0.31564419
H  -0.45772379 0.45781193 0.23267551
H  1.42130419 -1.84754349 0.30253676
H  -0.15000629 -0.47387487 -0.27666326
12
MD Step 74.0 Units = [eV / Ang.]
C  0.35434383 0.10034148 -0.76548370
C  -0.51240137 0.13392106 1.06002247
C  0.01000596 -1.21259797 -1.02900519
C  1.48978641 2.02561184 -0.28063906
C  -3.00796511 -0.39968164 -0.06788835
C  0.26779695 1.29781651 0.57134426
H  -0.05385580 0.28734092 0.12340256
H  -0.30806215 -0.30852155 -0.08941149
H  0.36066491 -0.20685954 0.30215416
H  -0.40354852 0.57566933 0.21955595
H  1.37218311 -1.79553194 0.25970617
H  0.43105176 -0.49750852 -0.30375778
12
MD Step 74.5 Units = [eV / Ang.]
C  0.13261195 0.03654602 -0.65952790
C  -0.16712612 0.03015415 0.98758628
C  0.14105089 -1.44806089 -1.00563712
C  1.35750280 2.04110835 -0.27124664
C  -2.95068600 -0.51457091 0.02911964
C  -0.18813620 1.22246505 0.48966482
H  -0.02836986 0.40658911 0.10067681
H  -0.41733324 -0.06497171 -0.05402473
H  0.28611308 -0.26726498 0.28707386
H  -0.34457263 0.68583066 0.20539218
H  1.24022500 -1.62090944 0.20526397
H  0.93872033 -0.50691541 -0.31434118
12
MD Step 75.0 Units = [eV / Ang.]
C  -0.08131241 0.00009741 -0.54823684
C  0.15853626 -0.07550837 0.90689932
C  0.29139875 -1.62870899 -0.97556387
C  1.20530896 2.02520235 -0.26277808
C  -2.76022909 -0.71893444 0.13473552
C  -0.55891705 1.10393563 0.38981921
H  -0.01434723 0.49998603 0.07569175
H  -0.51065381 0.16411156 -0.01553192
H  0.18674099 -0.32743404 0.26931018
H  -0.28723874 0.77922651 0.19133412
H  1.02549126 -1.32111935 0.14194022
H  1.34522211 -0.50085428 -0.30761962
12
MD Step 75.5 Units = [eV / Ang.]
C  -0.28108399 -0.00303587 -0.43277452
C  0.45076973 -0.16851821 0.81994224
C  0.44967900 -1.75045297 -0.93854460
C  1.04369298 1.98304514 -0.25545916
C  -2.43955375 -1.01230564 0.24507690
C  -0.83223509 0.94282454 0.27375325
H  -0.01439863 0.56122554 0.04893131
H  -0.57809773 0.36236006 0.02441534
H  0.07221971 -0.38587532 0.24793153
H  -0.23784118 0.84712627 0.17849784
H  0.73068305 -0.89653077 0.07303290
H  1.63616589 -0.47986274 -0.28480305
12
MD Step 76.0 Units = [eV / Ang.]
C  -0.46127159 0.03009747 -0.31435280
C  0.69908006 -0.23753307 0.72887764
C  0.60401531 -1.81171936 -0.89468719
C  0.88278668 1.92022478 -0.24933611
C  -2.00006565 -1.38589739 0.35532776
C  -1.00389410 0.74203458 0.14432239
H  -0.02991820 0.58650492 0.02102178
H  -0.61280013 0.51750765 0.06402118
H  -0.04680956 -0.44093506 0.22235916
H  -0.20173483 0.88207920 0.16780927
H  0.36510904 -0.35679690 0.00279630
H  1.80550296 -0.44556681 -0.24815938
12
MD Step 76.5 Units = [eV / Ang.]
C  -0.61740710 0.09932613 -0.19419873
C  0.89620465 -0.27437550 0.63588551
C  0.74328162 -1.81341813 -0.84450234
C  0.73087901 1.84211628 -0.24420107
C  -1.46567951 -1.81447935 0.45965215
C  -1.07367842 0.50642097 0.00474471
H  -0.06109126 0.57454374 -0.00733019
H  -0.61078341 0.62124089 0.10149596
H  -0.15988653 -0.49093041 0.19247923
H  -0.18257377 0.87886311 0.15985877
H  -0.05060266 0.27086642 -0.06347547
H  1.85133738 -0.40017415 -0.20040853
12
MD Step 77.0 Units = [eV / Ang.]
C  -0.74610995 0.20136788 -0.07352341
C  1.03782402 -0.27374277 0.54304190
C  0.85805939 -1.75875239 -0.78888761
C  0.59322474 1.75321151 -0.23953474
C  -0.87570434 -2.24889417 0.55171553
C  -1.04281947 0.24252974 -0.14159985
H  -0.10689991 0.52657842 -0.03540372
H  -0.57059726 0.66877611 0.13517141
H  -0.25766281 -0.53427860 0.15866674
H  -0.18174749 0.83525724 0.15480053
H  -0.48100144 0.93416928 -0.11999191
H  1.77343450 -0.34622225 -0.14445487
12
MD Step 77.5 Units = [eV / Ang.]
C  -0.84529364 0.32993901 0.04650952
C  1.12229563 -0.23298455 0.45222307
C  0.94121770 -1.65288218 -0.72905456
C  0.47140397 1.65656171 -0.23449525
C  -0.28351307 -2.61427668 0.62599172
C  -0.91330331 -0.04167391 -0.29113573
H  -0.16511620 0.44636023 -0.06253289
H  -0.49300466 0.65849808 0.16359616
H  -0.33253607 -0.56960401 0.12173449
H  -0.19815769 0.75245855 0.15232440
H  -0.87666309 1.55413797 -0.16180403
H  1.57267044 -0.28653423 -0.08335690
12
MD Step 78.0 Units = [eV / Ang.]
C  -0.91443786 0.47599243 0.16481837
C  1.15054284 -0.15212402 0.36500800
C  0.98813932 -1.50248372 -0.66643254
C  0.36345715 1.55343462 -0.22795998
C  0.25163041 -2.81975041 0.67952948
C  -0.68902666 -0.33718846 -0.43997412
H  -0.23229988 0.34012894 -0.08817327
H  -0.38083795 0.59186939 0.18563865
H  -0.37901590 -0.59581310 0.08283148
H  -0.22839227 0.63504024 0.15171086
H  -1.18219440 2.03516350 -0.18660142
H  1.25243520 -0.22426941 -0.02039554
12
MD Step 78.5 Units = [eV / Ang.]
C  -0.95483856 0.62815188 0.28043650
C  1.12611002 -0.03418215 0.28255780
C  0.99670584 -1.31527060 -0.60255981
C  0.26476528 1.44329343 -0.21862636
C  0.67904092 -2.78123522 0.71323797
C  -0.37872180 -0.63452354 -0.58387134
H  -0.30385037 0.21646642 -0.11196414
H  -0.23903691 0.47367402 0.20062027
H  -0.39388914 -0.61214219 0.04331065
H  -0.26725771 0.49044984 0.15195408
H  -1.35089158 2.28823434 -0.19600164
H  0.82186402 -0.16291623 0.04090604
12
MD Step 79.0 Units = [eV / Ang.]
C  -0.96974473 0.77343163 0.39253835
C  1.05530642 0.11431179 0.20545726
C  0.96714797 -1.09950981 -0.53897826
C  0.16944079 1.32405726 -0.20515337
C  0.97173569 -2.45017009 0.73163129
C  -0.00018957 -0.92444209 -0.71842891
H  -0.37417525 0.08590857 -0.13376971
H  -0.07477548 0.31248742 0.20848418
H  -0.37627008 -0.61818345 0.00458373
H  -0.30853136 0.32816948 0.15192583
H  -1.36034872 2.25998506 -0.19525668
H  0.30040430 -0.10604575 0.09696630
12
MD Step 79.5 Units = [eV / Ang.]
C  -0.96423928 0.89826637 0.50044160
C  0.94725831 0.28284676 0.13354807
C  0.90189203 -0.86361091 -0.47712276
C  0.07181131 1.19261979 -0.18631927
C  1.13386193 -1.83360355 0.74086335
C  0.41540079 -1.19883893 -0.83965792
H  -0.43703101 -0.03978791 -0.15368935
H  0.10248771 0.12112971 0.20997539
H  -0.32760332 -0.61389616 -0.03203281
H  -0.34577183 0.15871048 0.15053897
H  -1.22049684 1.95283568 -0.19119404
H  -0.27756981 -0.05667132 0.14464878
12
MD Step 80.0 Units = [eV / Ang.]
C  -0.94480019 0.98981384 0.60357874
C  0.81368208 0.45688125 0.06580386
C  0.80542148 -0.61579794 -0.41820624
C  -0.03243566 1.04547959 -0.16116540
C  1.19575478 -0.99359686 0.74617385
C  0.82139663 -1.45167634 -0.94489183
H  -0.48606187 -0.14876011 -0.17201782
H  0.28125264 -0.08329453 0.20677064
H  -0.25163132 -0.59960341 -0.06547423
H  -0.37303332 -0.00736600 0.14688394
H  -0.96909542 1.42413901 -0.18952963
H  -0.86044983 -0.01621850 0.18207412
12
MD Step 80.5 Units = [eV / Ang.]
C  -0.91849873 1.03738368 0.70143147
C  0.66815138 0.61861135 0.00033616
C  0.68415073 -0.36387604 -0.36309425
C  -0.14568403 0.87938213 -0.12909660
C  1.19966233 -0.02639324 0.75029172
C  1.15860351 -1.67968706 -1.03375972
H  -0.51550372 -0.23044592 -0.18915395
H  0.44870252 -0.28019165 0.20146733
H  -0.15430671 -0.57596855 -0.09508263
H  -0.38539572 -0.16027732 0.14031764
H  -0.65751328 0.76489585 -0.19313585
H  -1.38236827 0.01656677 0.20947869
12
MD Step 81.0 Units = [eV / Ang.]
C  -0.89197535 1.03373901 0.79344000
C  0.52480738 0.74883860 -0.06538199
C  0.54623317 -0.11507919 -0.31217802
C  -0.26837120 0.69186880 -0.08992652
C  1.18440997 0.96614531 0.75345899
C  1.36515758 -1.88235782 -1.10868208
H  -0.52094864 -0.27704729 -0.20546982
H  0.59198414 -0.44740847 0.19734222
H  -0.04358452 -0.54394004 -0.12074538
H  -0.37928107 -0.29163257 0.13050308
H  -0.33501348 0.07077823 -0.20197221
H  -1.77341797 0.04609544 0.22961175
12
MD Step 81.5 Units = [eV / Ang.]
C  -0.87038147 0.97599717 0.87891075
C  0.39664463 0.82988326 -0.13404174
C  0.40117394 0.12399910 -0.26527295
C  -0.39932531 0.48168710 -0.04386735
C  1.17596711 1.89864894 0.75454103
C  1.39194184 -2.06068488 -1.17435713
H  -0.50001571 -0.28472896 -0.22117206
H  0.69990196 -0.56423126 0.19784722
H  0.07100026 -0.50465525 -0.14298974
H  -0.35258500 -0.39484007 0.11740707
H  -0.03860660 -0.58017960 -0.21417024
H  -1.97571564 0.07910445 0.24716515
12
MD Step 82.0 Units = [eV / Ang.]
C  -0.85655325 0.86592306 0.95696015
C  0.29374025 0.84897089 -0.20783986
C  0.25918863 0.34741271 -0.22158298
C  -0.53621718 0.24907897 0.00852042
C  1.18566145 2.71139405 0.75225647
C  1.21805028 -2.21478261 -1.23618500
H  -0.45276777 -0.25424043 -0.23619728
H  0.76465873 -0.61489705 0.20591440
H  0.17902656 -0.45930380 -0.16299733
H  -0.30467889 -0.46536381 0.10126902
H  0.20958142 -1.13662393 -0.22730730
H  -1.95969022 0.12243196 0.26718928
12
MD Step 82.5 Units = [eV / Ang.]
C  -0.85061108 0.70954436 1.02651676
C  0.22191902 0.80115784 -0.28781733
C  0.13027502 0.54981084 -0.17976612
C  -0.67595452 -0.00401974 0.06639602
C  1.21363004 3.36853330 0.74591602
C  0.85890911 -2.34133097 -1.29828522
H  -0.38176346 -0.19078295 -0.25017543
H  0.78314288 -0.59165069 0.22325829
H  0.27016600 -0.40896586 -0.18250498
H  -0.23634205 -0.50089248 0.08255207
H  0.39965913 -1.57169789 -0.23924394
H  -1.73303009 0.18029424 0.29315386
12
MD Step 83.0 Units = [eV / Ang.]
C  -0.85008860 0.51621950 1.08639837
C  0.18226600 0.69078542 -0.37342228
C  0.02308945 0.72637322 -0.13813062
C  -0.81494493 -0.27382809 0.12871472
C  1.25406472 3.85114635 0.73558392
C  0.36262814 -2.43234896 -1.36213324
H  -0.29172693 -0.10315319 -0.26247516
H  0.75734498 -0.49633944 0.24991029
H  0.33536251 -0.35446275 -0.20357318
H  -0.14966219 -0.50146704 0.06188337
H  0.52937204 -1.87542509 -0.24842768
H  -1.33770519 0.25250007 0.32567149
12
MD Step 83.5 Units = [eV / Ang.]
C  -0.85050882 0.29739331 1.13544539
C  0.17159405 0.53091979 -0.46246718
C  -0.05618164 0.87277714 -0.09494315
C  -0.94922793 -0.55459572 0.19430131
C  1.29991071 4.14997691 0.72186249
C  -0.20364518 -2.47617902 -1.42644466
H  -0.18892384 -0.00239867 -0.27231671
H  0.69376868 -0.33998226 0.28415818
H  0.36802522 -0.29626401 -0.22824199
H  -0.04792467 -0.46958608 0.03998729
H  0.59987430 -2.04659022 -0.25385251
H  -0.83676087 0.33452883 0.36251155
12
MD Step 84.0 Units = [eV / Ang.]
C  -0.84623740 0.06531020 1.17267392
C  0.18365982 0.34095171 -0.55149466
C  -0.10470275 0.98524166 -0.04879847
C  -1.07454232 -0.83853272 0.26192518
C  1.34610635 4.26025493 0.70552868
C  -0.77072140 -2.46028574 -1.48811666
H  -0.08039195 0.09968329 -0.27891729
H  0.60205182 -0.14048148 0.32290827
H  0.36498998 -0.23449038 -0.25813316
H  0.06452578 -0.41024994 0.01761181
H  0.61279959 -2.08662892 -0.25489330
H  -0.29753752 0.41922741 0.39970568
12
MD Step 84.5 Units = [eV / Ang.]
C  -0.83139014 -0.16811212 1.19740926
C  0.21068073 0.14318152 -0.63641074
C  -0.12341081 1.06068250 0.00103788
C  -1.18641116 -1.11588330 0.33037588
C  1.39131467 4.17911287 0.68719650
C  -1.28075669 -2.37452985 -1.54349666
H  0.02681295 0.19189640 -0.28163098
H  0.49325464 0.08070730 0.36232565
H  0.32702041 -0.16902427 -0.29408745
H  0.18247855 -0.33086274 -0.00455036
H  0.56870464 -1.99620427 -0.25115821
H  0.22170220 0.49903595 0.43298923
12
MD Step 85.0 Units = [eV / Ang.]
C  -0.80061633 -0.39212571 1.20936949
C  0.24469487 -0.04059766 -0.71316609
C  -0.11682474 1.09696023 0.05440122
C  -1.28031773 -1.37523237 0.39853940
C  1.43831154 3.90537975 0.66710636
C  -1.69364690 -2.21363566 -1.58932009
H  0.12623637 0.26464656 -0.28005203
H  0.37829049 0.30192099 0.39853069
H  0.25870969 -0.09970281 -0.33592873
H  0.30013637 -0.24089214 -0.02593862
H  0.46671918 -1.77441582 -0.24242760
H  0.67830718 0.56769464 0.45888599
12
MD Step 85.5 Units = [eV / Ang.]
C  -0.74968108 -0.59769507 1.20869211
C  0.27849967 -0.19168533 -0.77829596
C  -0.09229795 1.09314656 0.11017297
C  -1.35199860 -1.60415493 0.46546656
C  1.49305732 3.44152353 0.64510576
C  -1.98696013 -1.97822336 -1.62309373
H  0.21245876 0.31054968 -0.27407007
H  0.26681449 0.50384486 0.42815966
H  0.16780739 -0.02653895 -0.38241474
H  0.41149740 -0.15119151 -0.04618924
H  0.30533514 -1.42057326 -0.22870677
H  1.04546758 0.62099778 0.47517344
12
MD Step 86.0 Units = [eV / Ang.]
C  -0.67582490 -0.77779954 1.19591074
C  0.30608416 -0.29592216 -0.82923083
C  -0.05887388 1.04976037 0.16640842
C  -1.39784936 -1.79024298 0.53041970
C  1.56232925 2.79779688 0.62084399
C  -2.15207827 -1.67448924 -1.64307439
H  0.28135467 0.32470860 -0.26387850
H  0.16665604 0.67095135 0.44869611
H  0.06413429 0.05009274 -0.43138119
H  0.51082515 -0.07296197 -0.06517183
H  0.08445756 -0.93863798 -0.21039324
H  1.30878530 0.65674393 0.48085102
12
MD Step 86.5 Units = [eV / Ang.]
C  -0.57797215 -0.92756374 1.17189463
C  0.32269838 -0.34410753 -0.86438918
C  -0.02601894 0.96889166 0.22059810
C  -1.41534766 -1.92243784 0.59287992
C  1.64973446 1.99850666 0.59413377
C  -2.18922129 -1.31299718 -1.64810858
H  0.33022530 0.30477757 -0.24994379
H  0.08369544 0.79194254 0.45858487
H  -0.04166099 0.12935196 -0.48003227
H  0.59315487 -0.01643704 -0.08298146
H  -0.19114076 -0.34420776 -0.18851374
H  1.46185334 0.67428070 0.47587774
12
MD Step 87.0 Units = [eV / Ang.]
C  -0.45684280 -1.04430635 1.13776911
C  0.32472673 -0.33172579 -0.88312628
C  -0.00247180 0.85417800 0.26999513
C  -1.40338047 -1.99246668 0.65250612
C  1.75040633 1.08926096 0.56534293
C  -2.10312225 -0.90707715 -1.63753845
H  0.35786440 0.25093250 -0.23294647
H  0.02200352 0.85954989 0.45719628
H  -0.13926820 0.20992900 -0.52530411
H  0.65475694 0.01049900 -0.09988232
H  -0.50725623 0.32723021 -0.16491157
H  1.50258382 0.67399641 0.46089963
12
MD Step 87.5 Units = [eV / Ang.]
C  -0.31501599 -1.12754357 1.09482160
C  0.30956133 -0.25841114 -0.88562013
C  0.00459437 0.71064129 0.31192771
C  -1.36234683 -1.99609281 0.70905174
C  1.84581005 0.14195375 0.53555313
C  -1.90021162 -0.47128226 -1.61124983
H  0.36459777 0.16582064 -0.21369915
H  -0.01594843 0.87011190 0.44472525
H  -0.21962317 0.29012593 -0.56421978
H  0.69347465 0.00347473 -0.11621028
H  -0.83595848 1.01423379 -0.14216481
H  1.43106635 0.65696776 0.43708455
12
MD Step 88.0 Units = [eV / Ang.]
C  -0.15697442 -1.17894146 1.04440084
C  0.27558854 -0.12746101 -0.87275812
C  -0.00993187 0.54442000 0.34405840
C  -1.29395664 -1.93388874 0.76225882
C  1.90155962 -0.74787546 0.50621554
C  -1.58762120 -0.02022129 -1.56983704
H  0.35230925 0.05450346 -0.19304355
H  -0.02914762 0.82324047 0.42208273
H  -0.27551725 0.36799388 -0.59418913
H  0.70887458 -0.03770474 -0.13225805
H  -1.13437626 1.63110552 -0.12301462
H  1.24919326 0.62482938 0.40608418
12
MD Step 88.5 Units = [eV / Ang.]
C  0.01092646 -1.20219509 0.98780922
C  0.22236656 0.05442613 -0.84604280
C  -0.04895057 0.36241884 0.36456391
C  -1.20074473 -1.81132622 0.81175978
C  1.87175797 -1.47602788 0.47826097
C  -1.17413159 0.43206267 -1.51479752
H  0.32442369 -0.07565470 -0.17173001
H  -0.01805196 0.72175405 0.39080234
H  -0.30191576 0.44149204 -0.61322413
H  0.70218746 -0.10906030 -0.14817462
H  -1.34990226 2.08227230 -0.10930559
H  0.96203474 0.57983817 0.37007843
12
MD Step 89.0 Units = [eV / Ang.]
C  0.18062651 -1.20276277 0.92619573
C  0.15095892 0.27714150 -0.80751057
C  -0.11320194 0.17194384 0.37225212
C  -1.08545304 -1.63818219 0.85702473
C  1.71122272 -1.95584329 0.45108227
C  -0.67292465 0.87217682 -1.44862601
H  0.28579233 -0.21524237 -0.15028570
H  0.01523215 0.57189224 0.35295100
H  -0.29609378 0.50864599 -0.62008048
H  0.67606262 -0.20310008 -0.16390561
H  -1.43297699 2.28830289 -0.10089545
H  0.58075515 0.52502741 0.33179799
12
MD Step 89.5 Units = [eV / Ang.]
C  0.34277167 -1.18740550 0.86045845
C  0.06435312 0.52701192 -0.75961573
C  -0.20141226 -0.01967494 0.36663529
C  -0.95055583 -1.42739231 0.89736683
C  1.39195664 -2.14540034 0.42216750
C  -0.10559453 1.28719821 -1.37466194
H  0.24240645 -0.35330764 -0.12888892
H  0.06666490 0.38366728 0.31100116
H  -0.25766816 0.56769196 -0.61433952
H  0.63419178 -0.30996170 -0.17918808
H  -1.35360422 2.21329555 -0.09530817
H  0.12649044 0.46427752 0.29437312
12
MD Step 90.0 Units = [eV / Ang.]
C  0.48743664 -1.16349935 0.79118254
C  -0.03218085 0.78676216 -0.70503920
C  -0.31043386 -0.20545242 0.34797897
C  -0.79815617 -1.19363997 0.93201254
C  0.91564139 -2.06088448 0.38787055
C  0.49396865 1.66468557 -1.29655309
H  0.20088576 -0.47818954 -0.10727906
H  0.13001210 0.17108010 0.26761960
H  -0.18860262 0.61720412 -0.59644854
H  0.58087341 -0.41875499 -0.19359348
H  -1.11331433 1.87860660 -0.08859553
H  -0.36613013 0.40208221 0.26084469
12
MD Step 90.5 Units = [eV / Ang.]
C  0.60515101 -1.13813690 0.71863495
C  -0.13102015 1.03594854 -0.64638266
C  -0.43530593 -0.37909241 0.31733517
C  -0.63032957 -0.95193067 0.96021599
C  0.31480613 -1.76778378 0.34495812
C  1.07808816 1.99329495 -1.21728993
H  0.16774100 -0.57866622 -0.08473886
H  0.19681888 -0.04818692 0.22534074
H  -0.09321170 0.65620311 -0.56772773
H  0.52058801 -0.51883210 -0.20660342
H  -0.74535702 1.35434884 -0.07700393
H  -0.84796881 0.34283356 0.23326157
12
MD Step 91.0 Units = [eV / Ang.]
C  0.68809756 -1.11709742 0.64283908
C  -0.22261290 1.25220287 -0.58576931
C  -0.56928725 -0.53528167 0.27654134
C  -0.44973841 -0.71636161 0.98138663
C  -0.35776249 -1.35531604 0.29193718
C  1.58874404 2.26402954 -1.13800264
H  0.14849663 -0.64528989 -0.06017970
H  0.25683938 -0.25393913 0.18614529
H  0.02187467 0.68423576 -0.53032799
H  0.45763429 -0.60079179 -0.21769389
H  -0.30297307 0.73394236 -0.05841973
H  -1.25931245 0.28966702 0.21154375
12
MD Step 91.5 Units = [eV / Ang.]
C  0.73127167 -1.10388070 0.56372887
C  -0.29655965 1.41343944 -0.52443750
C  -0.70391918 -0.66988747 0.22816129
C  -0.26022708 -0.49918957 0.99519382
C  -1.04464050 -0.90863666 0.22941757
C  1.96717940 2.47164587 -1.05703358
H  0.14683644 -0.67167052 -0.03233944
H  0.29908258 -0.42566128 0.15103329
H  0.14785360 0.70140953 -0.48711909
H  0.39585685 -0.65713786 -0.22640989
H  0.15721295 0.10629390 -0.03283084
H  -1.53994708 0.24327533 0.19263552
12
MD Step 92.0 Units = [eV / Ang.]
C  0.73331064 -1.09898648 0.48135265
C  -0.34329655 1.50079566 -0.46247137
C  -0.82928017 -0.77999881 0.17532946
C  -0.06711682 -0.31021685 1.00162536
C  -1.69628672 -0.49110547 0.15955168
C  2.16787604 2.61532399 -0.96997329
H  0.16397648 -0.65541596 -0.00006313
H  0.31343405 -0.54549832 0.11974144
H  0.27411612 0.70835543 -0.44147705
H  0.33845979 -0.68262814 -0.23242085
H  0.58833022 -0.46201189 -0.00184086
H  -1.64352309 0.20138684 0.17064595
12
MD Step 92.5 Units = [eV / Ang.]
C  0.69677725 -1.09966447 0.39607629
C  -0.35606907 1.50166001 -0.39881941
C  -0.93451934 -0.86379366 0.12147598
C  0.12290532 -0.15646138 1.00099407
C  -2.27646347 -0.13984887 0.08512007
C  2.17165922 2.69797466 -0.87103203
H  0.19844063 -0.59847822 0.03739663
H  0.29254775 -0.60136366 0.09075557
H  0.38892179 0.70610203 -0.39695868
H  0.28788867 -0.67439558 -0.23555233
H  0.95884834 -0.93118381 0.03219551
H  -1.55093710 0.15945296 0.13834833
12
MD Step 93.0 Units = [eV / Ang.]
C  0.62781059 -1.10019679 0.30872622
C  -0.33263579 1.41188543 -0.33166010
C  -1.00875713 -0.92024332 0.06993705
C  0.30229880 -0.04203502 0.99389856
C  -2.76150190 0.12940465 0.00879616
C  1.99174791 2.72429273 -0.75534219
H  0.24629920 -0.50681771 0.08013977
H  0.23347153 -0.58925194 0.06168305
H  0.48043376 0.69585600 -0.35687659
H  0.24574415 -0.63195055 -0.23579629
H  1.25156747 -1.28336652 0.06688486
H  -1.27647858 0.11242304 0.08960951
12
MD Step 93.5 Units = [eV / Ang.]
C  0.53524762 -1.09268288 0.22062897
C  -0.27612706 1.23644550 -0.25903641
C  -1.04229646 -0.94873805 0.02350603
C  0.46346797 0.03183805 0.98115317
C  -3.13658554 0.31409058 -0.06720174
C  1.66953777 2.69851642 -0.62108181
H  0.30180409 -0.38947822 0.12750266
H  0.13846284 -0.51397723 0.02990365
H  0.53804119 0.67872301 -0.32383440
H  0.21270237 -0.55712999 -0.23330190
H  1.45927625 -1.51435795 0.10014674
H  -0.86353103 0.05675076 0.02161502
12
MD Step 94.0 Units = [eV / Ang.]
C  0.42944014 -1.06816685 0.13353695
C  -0.19473521 0.98829198 -0.17954279
C  -1.02796262 -0.94874206 -0.01598794
C  0.59968325 0.06672514 0.96369784
C  -3.39181422 0.41724267 -0.14112064
C  1.26228440 2.62302518 -0.47035788
H  0.35825297 -0.25731119 0.17809065
H  0.01468927 -0.38807013 -0.00671124
H  0.55378587 0.65543196 -0.29931678
H  0.18842852 -0.45401991 -0.22834786
H  1.57997705 -1.62602345 0.13025521
H  -0.37202942 -0.00838335 -0.06419552
12
MD Step 94.5 Units = [eV / Ang.]
C  0.32105704 -1.01785669 0.04947190
C  -0.10032347 0.68582172 -0.09284079
C  -0.96229746 -0.91960375 -0.04795714
C  0.70597125 0.06683489 0.94249674
C  -3.51944609 0.44222831 -0.21149213
C  0.82859582 2.49829927 -0.30857698
H  0.40886786 -0.12165521 0.22993630
H  -0.12708382 -0.22922928 -0.04924759
H  0.52360256 0.62614875 -0.28344153
H  0.17149778 -0.32882258 -0.22129699
H  1.61322691 -1.62108068 0.15571047
H  0.13633161 -0.08108474 -0.16276225
12
MD Step 95.0 Units = [eV / Ang.]
C  0.22007256 -0.93423136 -0.02947390
C  -0.00640805 0.34982222 0.00015363
C  -0.84631605 -0.86060198 -0.07311213
C  0.77981195 0.03876295 0.91842538
C  -3.51265977 0.38997923 -0.27689536
C  0.41741924 2.32395162 -0.14289061
H  0.44752958 0.00679425 0.28073376
H  -0.27435944 -0.05718697 -0.09751709
H  0.44808320 0.59044644 -0.27495048
H  0.15936487 -0.18959595 -0.21253127
H  1.55809117 -1.50044838 0.17507174
H  0.60937073 -0.15769207 -0.26701369
12
MD Step 95.5 Units = [eV / Ang.]
C  0.13504513 -0.81187961 -0.10132518
C  0.07390060 0.00075564 0.09740256
C  -0.68559990 -0.77124366 -0.09326650
C  0.82150531 -0.00891502 0.89216045
C  -3.36578170 0.25847769 -0.33577647
C  0.06308875 2.10011438 0.01939682
H  0.46928128 0.11879516 0.32809052
H  -0.41476008 0.10912671 -0.15015072
H  0.33254323 0.54745723 -0.27145881
H  0.14843811 -0.04578914 -0.20237392
H  1.41277572 -1.26291674 0.18684786
H  1.00956355 -0.23398265 -0.36954661
12
MD Step 96.0 Units = [eV / Ang.]
C  0.07269656 -0.64801611 -0.16437672
C  0.12951818 -0.34306962 0.19609155
C  -0.48968172 -0.65174476 -0.11094296
C  0.83409862 -0.06627365 0.86407652
C  -3.07598813 0.04445094 -0.38641653
C  -0.21429969 1.82857685 0.17186008
H  0.47060048 0.20703921 0.36975526
H  -0.53742752 0.25354575 -0.20491135
H  0.18636603 0.49616459 -0.26990166
H  0.13432440 0.09248617 -0.19100756
H  1.17600127 -0.90706727 0.18953266
H  1.31379151 -0.30609210 -0.46375928
12
MD Step 96.5 Units = [eV / Ang.]
C  0.03770615 -0.44272090 -0.21730612
C  0.15236788 -0.66631244 0.29303892
C  -0.27088963 -0.50356101 -0.12888715
C  0.82283817 -0.12290457 0.83417717
C  -2.64658238 -0.25251434 -0.42715545
C  -0.40551186 1.51340201 0.30930123
H  0.44950060 0.26639016 0.40380534
H  -0.63379203 0.36360616 -0.25908179
H  0.02178259 0.43574858 -0.26706618
H  0.11227756 0.21542795 -0.17840858
H  0.85024611 -0.43561088 0.18187808
H  1.51005686 -0.37095071 -0.54429546
12
MD Step 97.0 Units = [eV / Ang.]
C  0.03264228 -0.19896971 -0.25925330
C  0.13775087 -0.95666089 0.38505613
C  -0.04290628 -0.32982406 -0.14960720
C  0.79417458 -0.16895173 0.80208175
C  -2.09177276 -0.62335564 -0.45695636
C  -0.50808394 1.16105037 0.42761872
H  0.40553011 0.29397972 0.42879297
H  -0.69779355 0.43068111 -0.30981813
H  -0.14762748 0.36588685 -0.26008497
H  0.07783567 0.31465739 -0.16431912
H  0.44674849 0.13782750 0.16348197
H  1.59350202 -0.42632091 -0.60699246
12
MD Step 97.5 Units = [eV / Ang.]
C  0.05795061 0.07745823 -0.28988278
C  0.08428149 -1.20449723 0.46920774
C  0.18062079 -0.13557339 -0.17502593
C  0.75450894 -0.19617004 0.76708734
C  -1.44199443 -1.04134969 -0.47629044
C  -0.52296265 0.78011264 0.52349407
H  0.33973411 0.28926551 0.44386389
H  -0.72575493 0.44966018 -0.35442033
H  -0.30839175 0.28693929 -0.24679745
H  0.02755808 0.38427595 -0.14827676
H  -0.00876602 0.78050528 0.13566384
H  1.56321576 -0.47062674 -0.64862319
12
MD Step 98.0 Units = [eV / Ang.]
C  0.11197803 0.37815004 -0.30943755
C  -0.00640206 -1.40255566 0.54298548
C  0.38721015 0.07228009 -0.20629083
C  0.70894936 -0.19880482 0.72831509
C  -0.74720429 -1.45547156 -0.48806387
C  -0.45257323 0.38079536 0.59416150
H  0.25460191 0.25409431 0.44885442
H  -0.71614877 0.41853456 -0.39052918
H  -0.44833622 0.19999409 -0.22594081
H  -0.04028896 0.42163109 -0.12970729
H  -0.47230598 1.43410965 0.10234572
H  1.42052006 -0.50275715 -0.66669267
12
MD Step 98.5 Units = [eV / Ang.]
C  0.19102080 0.69230360 -0.31877715
C  -0.12995755 -1.54579375 0.60443021
C  0.56626935 0.28525095 -0.24372581
C  0.66040718 -0.17413575 0.68491354
C  -0.07418443 -1.79069801 -0.49795769
C  -0.30053899 -0.02574348 0.63743561
H  0.15399467 0.19276529 0.44436472
H  -0.66943000 0.33812989 -0.41628530
H  -0.55738660 0.10679293 -0.19718079
H  -0.12526388 0.42760746 -0.10806504
H  -0.88386159 2.01549529 0.07031744
H  1.16893104 -0.52197442 -0.65946976
12
MD Step 99.0 Units = [eV / Ang.]
C  0.28946744 1.00708657 -0.31938445
C  -0.27960515 -1.63161665 0.65225470
C  0.70947550 0.49378724 -0.28688907
C  0.60928986 -0.12254985 0.63627705
C  0.50518878 -1.96049654 -0.51344119
C  -0.07306030 -0.42808534 0.65210869
H  0.04301130 0.11201712 0.43178653
H  -0.58802859 0.21210625 -0.43049412
H  -0.62801479 0.00957857 -0.16102590
H  -0.22463052 0.40635924 -0.08298856
H  -1.17883016 2.42981165 0.04815929
H  0.81573663 -0.52799826 -0.62636297
12
MD Step 99.5 Units = [eV / Ang.]
C  0.40005700 1.30819374 -0.31330378
C  -0.44627275 -1.66039508 0.68598982
C  0.81089240 0.68790486 -0.33468871
C  0.55387432 -0.04718953 0.58222025
C  0.93298238 -1.89140432 -0.54125932
C  0.21829721 -0.81512988 0.63872657
H  -0.07225954 0.02082737 0.41325394
H  -0.47650076 0.04721117 -0.43281696
H  -0.65541915 -0.08909350 -0.11867528
H  -0.33362037 0.36456642 -0.05443075
H  -1.30695606 2.59578818 0.04364476
H  0.37492533 -0.52127942 -0.56866053
12
MD Step 100.0 Units = [eV / Ang.]
C  0.51433704 1.58067711 -0.30298339
C  -0.61870220 -1.63612582 0.70615547
C  0.86698731 0.85786243 -0.38552453
C  0.49120023 0.04672686 0.52307268
C  1.18330051 -1.55042503 -0.58437249
C  0.55307860 -1.17641191 0.60061688
H  -0.18514952 -0.07011016 0.39147872
H  -0.34173885 -0.14636377 -0.42397832
H  -0.63756417 -0.18654962 -0.07183828
H  -0.44601320 0.31039917 -0.02273171
H  -1.25050954 2.47370734 0.06061171
H  -0.12922621 -0.50338659 -0.49050677
12
MD Step 100.5 Units = [eV / Ang.]
C  0.62331080 1.81006100 -0.29100175
C  -0.78363265 -1.56694726 0.71440044
C  0.87666895 0.99481192 -0.43744080
C  0.41814976 0.15272568 0.45967272
C  1.26896242 -0.96041531 -0.64016861
C  0.89907027 -1.50209078 0.54479992
H  -0.28898410 -0.14930215 0.36945543
H  -0.19306254 -0.35478141 -0.40592899
H  -0.57518909 -0.28018545 -0.02254904
H  -0.55489229 0.25242615 0.01138149
H  -1.03113034 2.08101271 0.09713151
H  -0.65927121 -0.47731511 -0.39975233
12
MD Step 101.0 Units = [eV / Ang.]
C  0.71825033 1.98368988 -0.27970377
C  -0.92627544 -1.46513766 0.71352178
C  0.84140025 1.09136937 -0.48828292
C  0.33232850 0.26388039 0.39328369
C  1.23248771 -0.19383742 -0.70120673
C  1.21211121 -1.78283952 0.48218628
H  -0.37777096 -0.20574867 0.35005031
H  -0.04195844 -0.56085875 -0.38187019
H  -0.47183263 -0.36764536 0.02701737
H  -0.65341139 0.19866884 0.04685853
H  -0.70084531 1.48589009 0.14622162
H  -1.16448383 -0.44743117 -0.30807596
12
MD Step 101.5 Units = [eV / Ang.]
C  0.79157246 2.09210633 -0.27081143
C  -1.03127220 -1.34627897 0.70725724
C  0.76536296 1.14210681 -0.53587716
C  0.23258203 0.37347272 0.32544859
C  1.12717974 0.65126203 -0.75801509
C  1.44058409 -2.01001136 0.42640272
H  -0.44688691 -0.23043696 0.33554706
H  0.09872606 -0.74517567 -0.35602528
H  -0.33386800 -0.44699083 0.07473353
H  -0.73544508 0.15591116 0.08243730
H  -0.32292401 0.78283442 0.19862692
H  -1.58561111 -0.41879968 -0.22972440
12
MD Step 102.0 Units = [eV / Ang.]
C  0.83761522 2.13021105 -0.26510305
C  -1.08421086 -1.22740431 0.69977743
C  0.65556141 1.14393984 -0.57822636
C  0.11913248 0.47547131 0.25782599
C  0.99923301 1.47911108 -0.80219761
C  1.53519625 -2.17635343 0.39101167
H  -0.49361955 -0.21774224 0.32724670
H  0.21620903 -0.88814262 -0.33309520
H  -0.17046581 -0.51685041 0.11871384
H  -0.79605551 0.12928506 0.11677407
H  0.04656453 0.06438432 0.24591245
H  -1.86516020 -0.39590966 -0.17863995
12
MD Step 102.5 Units = [eV / Ang.]
C  0.85316054 2.09791647 -0.26226328
C  -1.07353340 -1.12434986 0.69492009
C  0.52172564 1.09639341 -0.61372235
C  -0.00649179 0.56483971 0.19202304
C  0.87840754 2.21510775 -0.82832204
C  1.46183039 -2.27706193 0.38577841
H  -0.51743183 -0.16639110 0.32523728
H  0.29963132 -0.97280184 -0.31744018
H  0.00663350 -0.57652511 0.15751052
H  -0.83177354 0.12207780 0.14857521
H  0.36882712 -0.59797373 0.28235113
H  -1.96098547 -0.38123159 -0.16464784
12
MD Step 103.0 Units = [eV / Ang.]
C  0.83760241 2.00013705 -0.26095025
C  -0.99243093 -1.04885878 0.69533325
C  0.37584502 1.00167294 -0.64134434
C  -0.14160339 0.63772220 0.12944541
C  0.77789186 2.81157822 -0.83422917
C  1.21254451 -2.31056666 0.41352208
H  -0.51988989 -0.07972547 0.32840039
H  0.34192888 -0.98777855 -0.31216847
H  0.18368105 -0.62601364 0.19028795
H  -0.84073453 0.13568188 0.17671862
H  0.62325359 -1.15952767 0.30524987
H  -1.85808860 -0.37432152 -0.19026534
12
MD Step 103.5 Units = [eV / Ang.]
C  0.79274141 1.84610691 -0.25906682
C  -0.84016103 -1.00631083 0.70179910
C  0.23125792 0.86449852 -0.66080098
C  -0.28248378 0.69156320 0.07117057
C  0.69947872 3.24389383 -0.82031086
C  0.80945702 -2.27850895 0.46915901
H  -0.50428285 0.03480663 0.33465503
H  0.34114636 -0.92951710 -0.31841589
H  0.34590488 -0.66592380 0.21693907
H  -0.82271761 0.16961566 0.20036175
H  0.80283670 -1.59821491 0.31426888
H  -1.57317774 -0.37200917 -0.24975885
12
MD Step 104.0 Units = [eV / Ang.]
C  0.72230700 1.64821408 -0.25415730
C  -0.62237227 -0.99479734 0.71298697
C  0.10129128 0.69166089 -0.67257076
C  -0.42446557 0.72520945 0.01784783
C  0.63981212 3.50272500 -0.78848571
C  0.29935357 -2.18492179 0.54148420
H  -0.47504423 0.16678561 0.34136656
H  0.30075954 -0.80307547 -0.33506947
H  0.47892561 -0.69725395 0.23810019
H  -0.77912887 0.22156904 0.21903574
H  0.90822944 -1.90650882 0.31046501
H  -1.14966764 -0.36960670 -0.33100325
12
MD Step 104.5 Units = [eV / Ang.]
C  0.63135479 1.42060497 -0.24381875
C  -0.35029784 -1.00585323 0.72572652
C  -0.00237782 0.49134358 -0.67779615
C  -0.56200612 0.73900975 -0.03037482
C  0.59527366 3.58668994 -0.74134468
C  -0.25847666 -2.03516010 0.61674873
H  -0.43711679 0.30428205 0.34580649
H  0.22888183 -0.62118445 -0.35904035
H  0.57043774 -0.72107435 0.25503249
H  -0.71293651 0.28746741 0.23272270
H  0.94288098 -2.08362703 0.29552390
H  -0.64561726 -0.36249855 -0.41918608
12
MD Step 105.0 Units = [eV / Ang.]
C  0.52567823 1.17783120 -0.22603719
C  -0.03911526 -1.02654336 0.73570370
C  -0.07133387 0.27232271 -0.67804553
C  -0.68882604 0.73488884 -0.07388989
C  0.56483509 3.49719139 -0.68162734
C  -0.80567891 -1.83518577 0.68228645
H  -0.39538470 0.43530949 0.34555923
H  0.13664312 -0.40190485 -0.38597536
H  0.61186774 -0.73817880 0.26937269
H  -0.62853107 0.36159565 0.24190784
H  0.90998886 -2.12996053 0.27133067
H  -0.12014319 -0.34736598 -0.50058525
12
MD Step 105.5 Units = [eV / Ang.]
C  0.41133712 0.93372064 -0.19939037
C  0.29403070 -1.04217176 0.73832114
C  -0.10164728 0.04320229 -0.67497811
C  -0.79818871 0.71633204 -0.11361872
C  0.55112585 3.23575269 -0.61202436
C  -1.29465255 -1.59146519 0.72882551
H  -0.35424923 0.54901178 0.33880330
H  0.03626512 -0.16564124 -0.41115130
H  0.59963024 -0.74880982 0.28279661
H  -0.53147203 0.43683799 0.24758621
H  0.81113901 -2.04410683 0.23985235
H  0.37668175 -0.32266259 -0.56502227
12
MD Step 106.0 Units = [eV / Ang.]
C  0.29432424 0.70054361 -0.16311843
C  0.63181666 -1.03879794 0.72946176
C  -0.09438518 -0.18817865 -0.66999633
C  -0.88337293 0.68821083 -0.15093151
C  0.56004714 2.80365751 -0.53523507
C  -1.69268560 -1.31125945 0.75112070
H  -0.31736247 0.63647176 0.32445216
H  -0.06063859 0.06764594 -0.43027844
H  0.53566205 -0.75254618 0.29667490
H  -0.42807861 0.50510745 0.25120357
H  0.64634476 -1.82243372 0.20324576
H  0.80832853 -0.28842116 -0.60659908
12
MD Step 106.5 Units = [eV / Ang.]
C  0.18034043 0.48845199 -0.11709031
C  0.95804180 -1.00499982 0.70598976
C  -0.05529466 -0.41507431 -0.66397506
C  -0.93833770 0.65636992 -0.18748323
C  0.59910311 2.20393352 -0.45418955
C  -1.98125460 -1.00290728 0.74737447
H  -0.28749347 0.69115545 0.30217369
H  -0.14421258 0.28045382 -0.44003742
H  0.42709766 -0.74839190 0.31180811
H  -0.32485995 0.55800484 0.25451255
H  0.41536699 -1.46126687 0.16408885
H  1.15150298 -0.24572936 -0.62317186
12
MD Step 107.0 Units = [eV / Ang.]
C  0.07461607 0.30512274 -0.06170988
C  1.25837293 -0.93272391 0.66595611
C  0.00626643 -0.63189525 -0.65712447
C  -0.95851649 0.62696169 -0.22496394
C  0.67437368 1.44601605 -0.37230668
C  -2.15262499 -0.67578725 0.71817700
H  -0.26647484 0.70909190 0.27232711
H  -0.20689820 0.45879581 -0.43831195
H  0.28516873 -0.73503554 0.32830125
H  -0.22782614 0.58769668 0.25934305
H  0.12038566 -0.96204853 0.12559976
H  1.39315717 -0.19619440 -0.61528737
12
MD Step 107.5 Units = [eV / Ang.]
C  -0.01827260 0.15552236 0.00220114
C  1.52066641 -0.81738514 0.60858299
C  0.07884752 -0.83408070 -0.64901078
C  -0.94158510 0.60559392 -0.26478918
C  0.78614585 0.55324581 -0.29356795
C  -2.20583483 -0.33986703 0.66553131
H  -0.25518247 0.68890825 0.23585435
H  -0.24349902 0.59246496 -0.42418275
H  0.12362109 -0.71119244 0.34559374
H  -0.14179550 0.58790586 0.26731326
H  -0.22999613 -0.33953873 0.09163085
H  1.52688479 -0.14157711 -0.58515697
12
MD Step 108.0 Units = [eV / Ang.]
C  -0.09463721 0.04174697 0.07351911
C  1.73506476 -0.65753549 0.53413123
C  0.15050295 -1.01788419 -0.63869379
C  -0.88801236 0.59641840 -0.30778819
C  0.92380605 -0.42801019 -0.22210142
C  -2.14339551 -0.00494534 0.59223376
H  -0.25351058 0.63181278 0.19415037
H  -0.25098865 0.67482569 -0.39778892
H  -0.04297615 -0.67592673 0.36261066
H  -0.06983334 0.55484841 0.27953419
H  -0.61605274 0.36828249 0.06614575
H  1.55003278 -0.08363280 -0.53595275
12
MD Step 108.5 Units = [eV / Ang.]
C  -0.15197782 -0.03707074 0.15092653
C  1.89406921 -0.45444388 0.44374502
C  0.21015256 -1.18016114 -0.62493058
C  -0.80119435 0.60136362 -0.35396279
C  1.06186374 -1.42158268 -0.16102783
C  -1.96937527 0.32018849 0.50164255
H  -0.26033068 0.54156398 0.14892063
H  -0.22827256 0.70248068 -0.36015011
H  -0.20071196 -0.62887525 0.37797883
H  -0.01296141 0.48789909 0.29637858
H  -1.00342800 1.09275033 0.05195513
H  1.46216655 -0.02411249 -0.47147595
12
MD Step 109.0 Units = [eV / Ang.]
C  -0.18929991 -0.08471357 0.23301419
C  1.99266932 -0.21183886 0.33932183
C  0.24852772 -1.31819592 -0.60638936
C  -0.68706554 0.61967058 -0.40238402
C  1.16024898 -2.32379625 -0.11071476
C  -1.68912730 0.62839068 0.39772887
H  -0.27345247 0.42438835 0.10202556
H  -0.17603971 0.67506846 -0.31300237
H  -0.33742063 -0.57034274 0.39024916
H  0.02980116 0.38982394 0.31737349
H  -1.34395258 1.73638437 0.04888904
H  1.26511096 0.03516096 -0.39611164
12
MD Step 109.5 Units = [eV / Ang.]
C  -0.20741300 -0.10763780 0.31838103
C  2.02859122 0.06406830 0.22341364
C  0.25867591 -1.42958630 -0.58183223
C  -0.55321536 0.64784873 -0.45127000
C  1.17178023 -3.02083645 -0.06732168
C  -1.31072471 0.91437854 0.28523932
H  -0.28961996 0.28878015 0.05530865
H  -0.09676317 0.59532305 -0.25865912
H  -0.44333912 -0.50128024 0.39808535
H  0.06108442 0.26650604 0.34124773
H  -1.58362421 2.19019810 0.05232006
H  0.96456774 0.09223787 -0.31491276
12
MD Step 110.0 Units = [eV / Ang.]
C  -0.20909193 -0.11441845 0.40573426
C  2.00260512 0.36428375 0.09912499
C  0.23612849 -1.51217460 -0.55025854
C  -0.40770135 0.68004753 -0.49822914
C  1.05644014 -3.41978752 -0.02302915
C  -0.84789485 1.17440702 0.16975105
H  -0.30461031 0.14506112 0.01041220
H  0.00517113 0.46939316 -0.19987096
H  -0.51141948 -0.42318473 0.40040376
H  0.08460194 0.12622311 0.36612115
H  -1.67730068 2.36503449 0.05344216
H  0.57307178 0.14511512 -0.23360179
12
MD Step 110.5 Units = [eV / Ang.]
C  -0.19899477 -0.11485729 0.49397315
C  1.91878001 0.67661799 -0.03003798
C  0.17889615 -1.56402030 -0.51100893
C  -0.25794743 0.70873990 -0.54061364
C  0.79690593 -3.48047230 0.03129866
C  -0.32376888 1.40549432 0.05737968
H  -0.31349623 0.00461780 -0.03140021
H  0.12331207 0.30725879 -0.13964304
H  -0.53743482 -0.33796045 0.39646729
H  0.10452019 -0.02134154 0.38978367
H  -1.60437658 2.22390025 0.04204812
H  0.11360436 0.19202281 -0.15824678
12
MD Step 111.0 Units = [eV / Ang.]
C  -0.18324663 -0.11879346 0.58223946
C  1.78451399 0.98544763 -0.16041604
C  0.08744198 -1.58342123 -0.46384104
C  -0.11005852 0.72559010 -0.57589891
C  0.40686793 -3.22989117 0.10208014
C  0.22602613 1.60443824 -0.04605563
H  -0.31110702 -0.12118818 -0.06938079
H  0.24912783 0.12295764 -0.08097086
H  -0.52000752 -0.24776887 0.38594504
H  0.12487878 -0.16616040 0.41000006
H  -1.37689193 1.79684469 0.01070489
H  -0.37754502 0.23194502 -0.09440632
12
MD Step 111.5 Units = [eV / Ang.]
C  -0.16868344 -0.13474547 0.66990306
C  1.61016579 1.27202655 -0.28855098
C  -0.03527818 -1.56899107 -0.40898511
C  0.03125213 0.72235877 -0.60200321
C  -0.07290170 -2.74987832 0.19007042
C  0.75309065 1.76696900 -0.13640508
H  -0.29267824 -0.22234157 -0.10335467
H  0.37231879 -0.06576085 -0.02648618
H  -0.46064371 -0.15487912 0.36894719
H  0.14915158 -0.29880086 0.42478078
H  -1.03503152 1.16880160 -0.04217958
H  -0.85076216 0.26524134 -0.04573665
12
MD Step 112.0 Units = [eV / Ang.]
C  -0.16184819 -0.16863944 0.75647655
C  1.40815007 1.51570114 -0.41160115
C  -0.18371368 -1.51979085 -0.34717778
C  0.16230723 0.69173005 -0.61749763
C  -0.58813588 -2.14581922 0.29028879
C  1.20091118 1.88741408 -0.21272819
H  -0.25459712 -0.29149276 -0.13366849
H  0.48161176 -0.23869742 0.02193938
H  -0.36378926 -0.06151689 0.34603867
H  0.17996726 -0.41114779 0.43258208
H  -0.63283079 0.44820996 -0.11221308
H  -1.24803259 0.29404914 -0.01243916
12
MD Step 112.5 Units = [eV / Ang.]
C  -0.16791356 -0.22289358 0.84146755
C  1.19149576 1.69615043 -0.52770813
C  -0.34964266 -1.43549729 -0.27966047
C  0.27996775 0.62797643 -0.62168961
C  -1.08631598 -1.51457138 0.39442062
C  1.51497291 1.95917963 -0.27822311
H  -0.19509704 -0.32499116 -0.16102964
H  0.56605808 -0.37550964 0.06352737
H  -0.23684582 0.03029064 0.31822246
H  0.21898030 -0.49687341 0.43242373
H  -0.22231473 -0.26532424 -0.19141210
H  -1.51334502 0.32206357 0.00966133
12
MD Step 113.0 Units = [eV / Ang.]
C  -0.18980103 -0.29610167 0.92421465
C  0.97208805 1.79639524 -0.63617810
C  -0.52227695 -1.31657649 -0.20812625
C  0.38130798 0.52743516 -0.61460244
C  -1.52666441 -0.92559299 0.49383142
C  1.65594126 1.97608272 -0.33973105
H  -0.11471892 -0.32335674 -0.18627225
H  0.61665202 -0.45879117 0.09872757
H  -0.09002429 0.11887139 0.28687796
H  0.26684473 -0.55170743 0.42393465
H  0.15682689 -0.90015313 -0.27124845
H  -1.60617534 0.35349512 0.02857231
12
MD Step 113.5 Units = [eV / Ang.]
C  -0.22767831 -0.38337386 1.00376037
C  0.75898622 1.80586132 -0.73736841
C  -0.68870675 -1.16442761 -0.13460125
C  0.46356799 0.38880403 -0.59688647
C  -1.88291906 -0.41783404 0.58160303
C  1.61078879 1.93413639 -0.40559919
H  -0.01641667 -0.29107648 -0.21011120
H  0.62788133 -0.47720668 0.12905600
H  0.06411186 0.20304501 0.25364299
H  0.32324703 -0.57357176 0.40734284
H  0.48002141 -1.41584840 -0.34473341
H  -1.51288383 0.39149208 0.05389467
12
MD Step 114.0 Units = [eV / Ang.]
C  -0.27896533 -0.47724453 1.07881018
C  0.55730405 1.72259078 -0.83228889
C  -0.83481840 -0.98146185 -0.06125099
C  0.52436669 0.21330011 -0.56970003
C  -2.14103036 -0.00672301 0.65316149
C  1.39661501 1.83302038 -0.48268721
H  0.09473459 -0.23577847 -0.23295171
H  0.59874775 -0.42775370 0.15664389
H  0.21153827 0.28220162 0.22023360
H  0.38695862 -0.56265199 0.38342768
H  0.73524097 -1.79626556 -0.40709092
H  -1.25069187 0.43676622 0.09369292
12
MD Step 114.5 Units = [eV / Ang.]
C  -0.33882658 -0.56888196 1.14778683
C  0.36798236 1.55383198 -0.92203948
C  -0.94668073 -0.77108740 0.00986282
C  0.56209130 0.00472563 -0.53458504
C  -2.29500271 0.30582035 0.70592410
C  1.05525009 1.67649972 -0.57394719
H  0.21215358 -0.16700945 -0.25479600
H  0.53291294 -0.31637363 0.18362888
H  0.33811796 0.35628298 0.18822267
H  0.45588558 -0.52144381 0.35344352
H  0.91838182 -2.03951318 -0.45543404
H  -0.86226562 0.48714875 0.15193292
12
MD Step 115.0 Units = [eV / Ang.]
C  -0.40096777 -0.64932064 1.20895801
C  0.18848725 1.31481605 -1.00728803
C  -1.01227340 -0.53757647 0.07703666
C  0.57631667 -0.23054534 -0.49333989
C  -2.34305159 0.52278774 0.73856010
C  0.64136600 1.47165834 -0.67766207
H  0.32853069 -0.09492236 -0.27525620
H  0.43792454 -0.15670966 0.21159356
H  0.43128119 0.42563694 0.15881640
H  0.52711971 -0.45476025 0.31901373
H  1.02892527 -2.14933011 -0.48805005
H  -0.40365854 0.53826576 0.22761777
12
MD Step 115.5 Units = [eV / Ang.]
C  -0.45856497 -0.71051451 1.26059251
C  0.01417986 1.02615705 -1.08795947
C  -1.02322547 -0.28583650 0.13913221
C  0.56814384 -0.48367641 -0.44788269
C  -2.28494573 0.64645320 0.75028807
C  0.20956771 1.22744265 -0.78840397
H  0.43660899 -0.02911928 -0.29364900
H  0.32378559 0.03255042 0.24122450
H  0.48173227 0.49076094 0.13268444
H  0.59700790 -0.36964275 0.28198882
H  1.06686162 -2.12945237 -0.50371984
H  0.06884840 0.58487755 0.31570442
12
MD Step 116.0 Units = [eV / Ang.]
C  -0.50508766 -0.74608855 1.30110063
C  -0.16013518 0.71074668 -1.16319875
C  -0.97618239 -0.02113858 0.19567950
C  0.54034046 -0.74364509 -0.40008854
C  -2.12059697 0.67566986 0.74039876
C  -0.19485717 0.95326707 -0.89887262
H  0.52982949 0.02218334 -0.30913292
H  0.20132417 0.23086057 0.27225862
H  0.48480940 0.55199416 0.10989256
H  0.66127730 -0.27507521 0.24426185
H  1.03104505 -1.98095435 -0.50127475
H  0.50823348 0.62218009 0.40897565
12
MD Step 116.5 Units = [eV / Ang.]
C  -0.53494830 -0.75178486 1.32913777
C  -0.33888650 0.39099904 -1.23156268
C  -0.87344039 0.25112571 0.24685235
C  0.49722464 -0.99777804 -0.35159963
C  -1.84980115 0.60574300 0.70810082
C  -0.53977871 0.65817287 -1.00163854
H  0.60278728 0.05264985 -0.32085055
H  0.08078969 0.41865327 0.30366711
H  0.44114334 0.60925034 0.08996053
H  0.71524848 -0.18140784 0.20754914
H  0.91892851 -1.70220682 -0.47947958
H  0.88073311 0.64658345 0.49986325
12
MD Step 117.0 Units = [eV / Ang.]
C  -0.54392975 -0.72567405 1.34366355
C  -0.52489667 0.08697472 -1.29131897
C  -0.72267136 0.52557533 0.29332474
C  0.44425727 -1.23261232 -0.30362276
C  -1.47322742 0.43078062 0.65274876
C  -0.80558141 0.35065175 -1.09019958
H  0.65150839 0.05804679 -0.32805281
H  -0.02907767 0.57928017 0.33395914
H  0.35643998 0.66187624 0.07202912
H  0.75416277 -0.09943229 0.17315900
H  0.72775416 -1.29135768 -0.43730701
H  1.16526171 0.65589071 0.58161681
12
MD Step 117.5 Units = [eV / Ang.]
C  -0.52946298 -0.66820827 1.34396991
C  -0.71907022 -0.18452984 -1.34074524
C  -0.53581521 0.79685129 0.33605863
C  0.38738854 -1.43507040 -0.25675726
C  -0.99498109 0.14875497 0.57453084
C  -0.98213784 0.03889725 -1.15930789
H  0.67360471 0.03630525 -0.33019413
H  -0.12146132 0.69993618 0.36149188
H  0.24046587 0.70867805 0.05508474
H  0.77361959 -0.03915601 0.14179551
H  0.45745120 -0.75153830 -0.37466750
H  1.35039873 0.64907984 0.64874050
12
MD Step 118.0 Units = [eV / Ang.]
C  -0.49079607 -0.58219416 1.32969339
C  -0.92047151 -0.41017176 -1.37836085
C  -0.32743558 1.05952461 0.37607930
C  0.33223312 -1.59381563 -0.21090760
C  -0.42695994 -0.23070215 0.47561674
C  -1.06533246 -0.26882734 -1.20482070
H  0.66836178 -0.01247935 -0.32699982
H  -0.19149908 0.77180522 0.38471898
H  0.10552045 0.74809533 0.03818066
H  0.77008446 -0.00844099 0.11345197
H  0.11538057 -0.09875513 -0.29358763
H  1.43091426 0.62596135 0.69693555
12
MD Step 118.5 Units = [eV / Ang.]
C  -0.42912231 -0.47271846 1.30081924
C  -1.12662151 -0.57990417 -1.40307338
C  -0.11293590 1.30799187 0.41429132
C  0.28325796 -1.70055749 -0.16533021
C  0.20550510 -0.67705989 0.36151968
C  -1.05430858 -0.56399395 -1.22340008
H  0.63680661 -0.08604182 -0.31850803
H  -0.23611197 0.78978538 0.40235897
H  -0.03521988 0.77845585 0.02060298
H  0.74139019 -0.01177699 0.08743830
H  -0.27771451 0.62890485 -0.19957947
H  1.40507479 0.58691483 0.72286068
12
MD Step 119.0 Units = [eV / Ang.]
C  -0.34767614 -0.34704218 1.25768031
C  -1.33382137 -0.68680945 -1.41425802
C  0.09301512 1.53642446 0.45135807
C  0.24314958 -1.75101740 -0.11882781
C  0.85894060 -1.13205790 0.24198849
C  -0.95000587 -0.83793869 -1.21233262
H  0.58176049 -0.17992331 -0.30508666
H  -0.25381002 0.75214571 0.41350082
H  -0.16915359 0.79823307 0.00195794
H  0.68713318 -0.04948771 0.06255451
H  -0.68284705 1.36467081 -0.10250942
H  1.27331507 0.53280258 0.72397437
12
MD Step 119.5 Units = [eV / Ang.]
C  -0.25175494 -0.21437550 1.20094304
C  -1.53738291 -0.72716294 -1.41179974
C  0.27764588 1.73883996 0.48764640
C  0.21255101 -1.74532491 -0.07006085
C  1.47197276 -1.51157517 0.13037426
C  -0.75517576 -1.08238548 -1.16963746
H  0.50782607 -0.28749549 -0.28741900
H  -0.24460392 0.66035344 0.41767471
H  -0.28530861 0.80624456 -0.01781611
H  0.60887288 -0.11758602 0.03737712
H  -1.04309796 2.01539756 -0.01591586
H  1.03845550 0.46506999 0.69863351
12
MD Step 120.0 Units = [eV / Ang.]
C  -0.14857746 -0.08548924 1.13156767
C  -1.73169113 -0.70078105 -1.39611635
C  0.43075581 1.90928914 0.52322003
C  0.19027310 -1.68775283 -0.01789492
C  1.97450261 -1.72164510 0.04070337
C  -0.47589367 -1.29025223 -1.09455263
H  0.42123922 -0.40012000 -0.26644991
H  -0.21007935 0.51916388 0.41490559
H  -0.37495284 0.80176624 -0.03849266
H  0.51007616 -0.20832906 0.01058779
H  -1.29308321 2.47818060 0.04597977
H  0.70743077 0.38596964 0.64654225
12
MD Step 120.5 Units = [eV / Ang.]
C  -0.04690104 0.02794293 1.05073227
C  -1.91010020 -0.61158838 -1.36816917
C  0.54502361 2.04213656 0.55786530
C  0.17387148 -1.58587221 0.03830031
C  2.30576913 -1.68698871 -0.01696900
C  -0.12435605 -1.45658048 -0.98837780
H  0.32949342 -0.50757077 -0.24328351
H  -0.15362186 0.33691467 0.40575136
H  -0.43186135 0.78456776 -0.05962894
H  0.39580848 -0.31133276 -0.01873633
H  -1.37737477 2.66959548 0.07297525
H  0.29424915 0.29877591 0.56954027
12
MD Step 121.0 Units = [eV / Ang.]
C  0.04370023 0.11428708 0.95971719
C  -2.06473213 -0.46815789 -1.32943886
C  0.61605339 2.13235833 0.59113173
C  0.16040058 -1.44935199 0.09847850
C  2.43416890 -1.38006488 -0.04063870
C  0.27771457 -1.57919765 -0.85549067
H  0.24067843 -0.59881348 -0.21903479
H  -0.08070049 0.12582492 0.39130097
H  -0.45236480 0.75489182 -0.08064713
H  0.27223044 -0.41497127 -0.05093442
H  -1.27060133 2.55539843 0.06299974
H  -0.17654779 0.20779657 0.47255644
12
MD Step 121.5 Units = [eV / Ang.]
C  0.11387075 0.16314271 0.85977255
C  -2.18635733 -0.28390157 -1.28183401
C  0.64234738 2.17581854 0.62238504
C  0.14701091 -1.28867877 0.16189852
C  2.36774179 -0.83397639 -0.03723894
C  0.69648009 -1.65871234 -0.70412292
H  0.16255590 -0.66315179 -0.19465635
H  0.00096306 -0.09802513 0.37309527
H  -0.43532547 0.71340468 -0.10091270
H  0.14600150 -0.50775436 -0.08570339
H  -0.98792120 2.16386495 0.02300075
H  -0.66736737 0.11796947 0.36431617
12
MD Step 122.0 Units = [eV / Ang.]
C  0.15569719 0.16663332 0.75199873
C  -2.26455573 -0.07650472 -1.22749636
C  0.62526134 2.16946817 0.65086733
C  0.13122765 -1.11402231 0.22723884
C  2.14864754 -0.13092130 -0.01964678
C  1.08626591 -1.69755931 -0.54626987
H  0.10150203 -0.69161868 -0.17077782
H  0.08156336 -0.31539931 0.35293213
H  -0.38211982 0.66113313 -0.11980303
H  0.02369427 -0.57945321 -0.12215570
H  -0.57913731 1.57430311 -0.03407874
H  -1.12804644 0.03394108 0.25719126
12
MD Step 122.5 Units = [eV / Ang.]
C  0.16388529 0.12058389 0.63728268
C  -2.28840589 0.13363755 -1.16849140
C  0.56900044 2.11150702 0.67576831
C  0.11090912 -0.93439929 0.29279424
C  1.83539679 0.62652598 -0.00175661
C  1.39460910 -1.69836162 -0.39616968
H  0.06153376 -0.67837049 -0.14760459
H  0.14992837 -0.50556314 0.33254843
H  -0.29665813 0.59939303 -0.13676900
H  -0.08869425 -0.62185564 -0.15895818
H  -0.11025213 0.88809702 -0.09426815
H  -1.50125246 -0.04119431 0.16562395
12
MD Step 123.0 Units = [eV / Ang.]
C  0.13659258 0.02530281 0.51632024
C  -2.24778818 0.32600492 -1.10643281
C  0.48057928 2.00150416 0.69630290
C  0.08409208 -0.75714793 0.35669850
C  1.48356056 1.34479312 0.00555357
C  1.57239549 -1.66234633 -0.26730190
H  0.04368253 -0.62173819 -0.12491481
H  0.19486499 -0.64888247 0.31322995
H  -0.18539006 0.52970318 -0.15138763
H  -0.18610272 -0.62917498 -0.19451159
H  0.35662093 0.19894600 -0.14663110
H  -1.73310749 -0.10696430 0.10307469
12
MD Step 123.5 Units = [eV / Ang.]
C  0.07569020 -0.11420814 0.38972054
C  -2.13517741 0.48310035 -1.04214593
C  0.36965378 1.84053181 0.71178844
C  0.04891140 -0.58768071 0.41712902
C  1.13396347 1.95667744 -0.00394607
C  1.58653552 -1.58875360 -0.16875531
H  0.04589069 -0.52465863 -0.10216151
H  0.20697798 -0.72993778 0.29546096
H  -0.05719249 0.45367687 -0.16340389
H  -0.26464150 -0.59819672 -0.22713812
H  0.77580800 -0.42483331 -0.18489385
H  -1.78641965 -0.16571758 0.07834573
12
MD Step 124.0 Units = [eV / Ang.]
C  -0.01361282 -0.28868720 0.25815382
C  -1.94751513 0.59337506 -0.97550546
C  0.24808122 1.63132137 0.72171047
C  0.00371625 -0.42944396 0.47246953
C  0.81048205 2.42440041 -0.03229499
C  1.43013457 -1.47572108 -0.10252284
H  0.06346637 -0.39434478 -0.07865196
H  0.18053458 -0.74035492 0.27875411
H  0.07699623 0.37288687 -0.17275499
H  -0.32174562 -0.52828432 -0.25525894
H  1.12082180 -0.94353304 -0.20695060
H  -1.65135951 -0.22161442 0.09285185
12
MD Step 124.5 Units = [eV / Ang.]
C  -0.12366234 -0.48559325 0.12248651
C  -1.68758870 0.65302878 -0.90554036
C  0.12910697 1.37838847 0.72576378
C  -0.05259323 -0.28397818 0.52143627
C  0.52416345 2.73343898 -0.07873584
C  1.12526654 -1.32222559 -0.06310098
H  0.08996561 -0.24127514 -0.05375116
H  0.11480537 -0.68045768 0.26175642
H  0.20491192 0.28872157 -0.17956921
H  -0.35629210 -0.42133707 -0.27755825
H  1.38046928 -1.33992386 -0.21341693
H  -1.34855276 -0.27878701 0.14022975
12
MD Step 125.0 Units = [eV / Ang.]
C  -0.24551590 -0.69040657 -0.01615163
C  -1.36441976 0.66611095 -0.83079584
C  0.02614318 1.08809177 0.72385923
C  -0.12007894 -0.15103900 0.56317169
C  0.27927776 2.88350652 -0.14108329
C  0.71682949 -1.13004902 -0.03960704
H  0.11825063 -0.07777693 -0.02705158
H  0.01441200 -0.55916772 0.24262228
H  0.31411061 0.20226193 -0.18413104
H  -0.36871068 -0.28173986 -0.29313214
H  1.55270448 -1.61018407 -0.20621197
H  -0.92300287 -0.33960800 0.20851134
12
MD Step 125.5 Units = [eV / Ang.]
C  -0.37006512 -0.88799830 -0.15638896
C  -0.99250226 0.64294088 -0.74982960
C  -0.04876716 0.76854319 0.71609652
C  -0.19726408 -0.02874180 0.59732137
C  0.07842513 2.88069439 -0.21665008
C  0.26048404 -0.90477807 -0.01929315
H  0.14147884 0.08346528 0.00152827
H  -0.11145111 -0.39218221 0.21952750
H  0.39343580 0.11422345 -0.18681568
H  -0.36108142 -0.11628031 -0.30162074
H  1.63916595 -1.75598485 -0.18760630
H  -0.43185859 -0.40390165 0.28373083
12
MD Step 126.0 Units = [eV / Ang.]
C  -0.48890379 -1.06386151 -0.29670902
C  -0.59012522 0.59745737 -0.66167120
C  -0.08654091 0.42932235 0.70271304
C  -0.28073767 0.08624535 0.62408733
C  -0.07433552 2.73217200 -0.30270792
C  -0.18993681 -0.65552988 0.00917618
H  0.15384021 0.23067917 0.03172677
H  -0.25064895 -0.19905405 0.19114955
H  0.43455679 0.02500038 -0.18800384
H  -0.33717558 0.06603610 -0.30330918
H  1.64151696 -1.77919193 -0.15976186
H  0.06849047 -0.46927534 0.35331014
12
MD Step 126.5 Units = [eV / Ang.]
C  -0.59485763 -1.20509711 -0.43558265
C  -0.17728363 0.54437709 -0.56610568
C  -0.08237331 0.08100320 0.68402609
C  -0.36502430 0.19840196 0.64424167
C  -0.17228498 2.44342391 -0.39660209
C  -0.59111783 -0.39376695 0.05379838
H  0.15098672 0.35390078 0.06298748
H  -0.39005506 -0.00008684 0.15697018
H  0.43324876 -0.06518500 -0.18799828
H  -0.30236300 0.25436961 -0.29917340
H  1.55967042 -1.67922049 -0.12463914
H  0.53145384 -0.53212017 0.40807742
12
MD Step 127.0 Units = [eV / Ang.]
C  -0.68219197 -1.30112616 -0.57159257
C  0.22627353 0.49691593 -0.46373917
C  -0.03644222 -0.26545539 0.66039198
C  -0.44279939 0.31286938 0.65906870
C  -0.20653872 2.01775121 -0.49565240
C  -0.91354119 -0.13183969 0.11882978
H  0.13018763 0.44548289 0.09454643
H  -0.51727932 0.18617892 0.11735297
H  0.39007557 -0.15605899 -0.18696584
H  -0.26329738 0.43671664 -0.29083717
H  1.39173107 -1.45278853 -0.08413112
H  0.92382241 -0.58864621 0.44272840
12
MD Step 127.5 Units = [eV / Ang.]
C  -0.74661719 -1.34418159 -0.70352171
C  0.60252715 0.46543998 -0.35588716
C  0.04619861 -0.59936298 0.63219176
C  -0.50554504 0.43476592 0.67021420
C  -0.16813957 1.45805496 -0.59694070
C  -1.14043104 0.11831174 0.20540258
H  0.09030397 0.50030981 0.12553372
H  -0.62184339 0.34449765 0.07343516
H  0.31028772 -0.24707141 -0.18492134
H  -0.22732273 0.60088939 -0.28041575
H  1.13564397 -1.09609627 -0.04031604
H  1.22493754 -0.63555722 0.45522528
12
MD Step 128.0 Units = [eV / Ang.]
C  -0.78520315 -1.32965856 -0.83039117
C  0.93610566 0.45700433 -0.24437491
C  0.15650064 -0.91088240 0.59984831
C  -0.54460127 0.56834583 0.67943466
C  -0.05190252 0.77131055 -0.69708880
C  -1.26448371 0.34613482 0.31250834
H  0.03167982 0.51585320 0.15507040
H  -0.69574934 0.46349950 0.02691899
H  0.20296460 -0.33724067 -0.18175654
H  -0.20161759 0.73573185 -0.27024316
H  0.79272315 -0.60980210 0.00427888
H  1.42358371 -0.67029635 0.44579501
12
MD Step 128.5 Units = [eV / Ang.]
C  -0.79631507 -1.25637196 -0.95146135
C  1.21473464 0.47550807 -0.13132367
C  0.28284135 -1.19147623 0.56385756
C  -0.55247223 0.71614031 0.68827435
C  0.13801692 -0.02400767 -0.79216391
C  -1.28425209 0.54313222 0.43788065
H  -0.04397712 0.49218692 0.18235521
H  -0.73357738 0.53559851 -0.02015949
H  0.07963816 -0.42511647 -0.17729950
H  -0.19218781 0.83239446 -0.26251539
H  0.37302812 -0.00698106 0.04654557
H  1.51452251 -0.69100711 0.41600998
12
MD Step 129.0 Units = [eV / Ang.]
C  -0.77961666 -1.12675620 -1.06620257
C  1.42942294 0.52208073 -0.01897160
C  0.41263064 -1.43418455 0.52482254
C  -0.52412758 0.87827003 0.69773409
C  0.38182043 -0.88854723 -0.87790631
C  -1.20136249 0.70328827 0.57856298
H  -0.13369081 0.43202885 0.20673636
H  -0.73235657 0.55662080 -0.06563966
H  -0.04725908 -0.50886317 -0.17138551
H  -0.20291385 0.88541563 -0.25892036
H  -0.09842042 0.67705205 0.08299316
H  1.49587343 -0.69640519 0.36817687
12
MD Step 129.5 Units = [eV / Ang.]
C  -0.73612955 -0.94696433 -1.17426123
C  1.57453942 0.59542125 0.09047661
C  0.53375653 -1.63372997 0.48346949
C  -0.45796167 1.05208912 0.70801523
C  0.63978803 -1.75446073 -0.95043331
C  -1.01910785 0.82327634 0.73114247
H  -0.23329832 0.34079798 0.22777026
H  -0.69140906 0.52545364 -0.10741919
H  -0.16579468 -0.58642643 -0.16391834
H  -0.23488188 0.89336128 -0.26034347
H  -0.57739970 1.37689672 0.11043524
H  1.36789872 -0.68571486 0.30506627
12
MD Step 130.0 Units = [eV / Ang.]
C  -0.66831330 -0.72679295 -1.27541921
C  1.64791044 0.69190037 0.19499022
C  0.63566182 -1.78649162 0.44064318
C  -0.35613989 1.23227297 0.71841167
C  0.85442087 -2.52620286 -1.00734035
C  -0.74264246 0.90243824 0.89171610
H  -0.33755305 0.22661728 0.24525864
H  -0.61231013 0.44392193 -0.14363059
H  -0.26558347 -0.65573040 -0.15491004
H  -0.28618186 0.85886614 -0.26672473
H  -1.00264402 1.99795762 0.12709119
H  1.13337505 -0.65875672 0.22991394
12
MD Step 130.5 Units = [eV / Ang.]
C  -0.58008495 -0.47928198 -1.36955266
C  1.65096616 0.80538197 0.29287968
C  0.70997407 -1.89037616 0.39728411
C  -0.22422524 1.41130597 0.72738346
C  0.96246005 -3.09608970 -1.04868273
C  -0.38081120 0.94251289 1.05570696
H  -0.44031344 0.10011277 0.25925630
H  -0.49899716 0.31695112 -0.17284061
H  -0.33842297 -0.71485911 -0.14449617
H  -0.35221573 0.78808579 -0.27710025
H  -1.30786032 2.43245538 0.13358503
H  0.79953074 -0.61619893 0.14657687
12
MD Step 131.0 Units = [eV / Ang.]
C  -0.47668141 -0.21991483 -1.45657837
C  1.58885543 0.92686424 0.38300952
C  0.75077781 -1.94461633 0.35439293
C  -0.07020856 1.58026335 0.73279180
C  0.91497223 -3.37414802 -1.07706196
C  0.05066930 0.94720847 1.21768737
H  -0.53487044 -0.02613155 0.27003633
H  -0.35795179 0.15291958 -0.19428580
H  -0.37858476 -0.76219902 -0.13292930
H  -0.42642507 0.68970645 -0.28980586
H  -1.44179363 2.58994285 0.13305381
H  0.38124089 -0.55989517 0.05968952
12
MD Step 131.5 Units = [eV / Ang.]
C  -0.36434158 0.03469055 -1.53637617
C  1.47042995 1.04417283 0.46504247
C  0.75466829 -1.94955992 0.31299172
C  0.09671814 1.72969759 0.73223208
C  0.69650657 -3.32018155 -1.09642462
C  0.52551199 0.92161724 1.37140845
H  -0.61444665 -0.13858320 0.27800286
H  -0.19829097 -0.03601779 -0.20812911
H  -0.38289173 -0.79653943 -0.12055750
H  -0.50123969 0.57376528 -0.30277843
H  -1.38729169 2.43006623 0.12995632
H  -0.09533263 -0.49312783 -0.02536806
12
MD Step 132.0 Units = [eV / Ang.]
C  -0.24974486 0.26848112 -1.60869192
C  1.30785267 1.14201913 0.53965422
C  0.72074912 -1.90645836 0.27408290
C  0.26727817 1.85047892 0.72337935
C  0.33194845 -2.95984536 -1.11015960
C  1.00430657 0.87155420 1.51022549
H  -0.67284549 -0.22421503 0.28355963
H  -0.03153598 -0.23397608 -0.21567019
H  -0.35070668 -0.81714152 -0.10779004
H  -0.56902813 0.45052605 -0.31387484
H  -1.16801565 1.97906358 0.12815247
H  -0.59025819 -0.42048663 -0.10286748
12
MD Step 132.5 Units = [eV / Ang.]
C  -0.13928292 0.46785603 -1.67303073
C  1.11568149 1.20280003 0.60861553
C  0.65065647 -1.81728866 0.23860490
C  0.43282946 1.93447632 0.70427411
C  -0.12333688 -2.37424482 -1.11971242
C  1.43537864 0.80272187 1.62799559
H  -0.70516814 -0.27223043 0.28695842
H  0.12915501 -0.42212376 -0.21940771
H  -0.28392334 -0.82378879 -0.09505339
H  -0.62288298 0.32958269 -0.32114532
H  -0.83835755 1.31938922 0.12947176
H  -1.05074926 -0.34714969 -0.16757073
12
MD Step 133.0 Units = [eV / Ang.]
C  -0.03828401 0.62336138 -1.72858076
C  0.90934585 1.20835834 0.67461983
C  0.54863307 -1.68460860 0.20737968
C  0.58567844 1.97506001 0.67350291
C  -0.60356009 -1.66973589 -1.12447510
C  1.76098027 0.71967353 1.72026265
H  -0.70845922 -0.27571048 0.28817283
H  0.27037974 -0.58044428 -0.22283430
H  -0.18698318 -0.81682312 -0.08273614
H  -0.65716314 0.21925242 -0.32302624
H  -0.46313234 0.55920175 0.13355931
H  -1.41743538 -0.27758506 -0.21584466
12
MD Step 133.5 Units = [eV / Ang.]
C  0.04964729 0.73080428 -1.77420161
C  0.70318402 1.14264522 0.74079546
C  0.42157295 -1.51143795 0.18104555
C  0.71917416 1.96741530 0.63026654
C  -1.05119003 -0.94573703 -1.12267320
C  1.92878463 0.62484243 1.78526370
H  -0.68213541 -0.23278281 0.28684470
H  0.38036235 -0.69041101 -0.22990512
H  -0.06687686 -0.79715755 -0.07112297
H  -0.66779465 0.12623285 -0.31844775
H  -0.09871408 -0.20029486 0.13874562
H  -1.63601437 -0.21411887 -0.24661090
12
MD Step 134.0 Units = [eV / Ang.]
C  0.12301379 0.79149905 -1.80850798
C  0.50847680 0.99478962 0.80995125
C  0.27890466 -1.30120162 0.15998197
C  0.82777492 1.90872611 0.57436553
C  -1.42664005 -0.27511191 -1.11242541
C  1.90552079 0.51821330 1.82422449
H  -0.62808504 -0.14698309 0.28233203
H  0.45088003 -0.73807304 -0.24423823
H  0.06697697 -0.76624552 -0.06032289
H  -0.65239002 0.05543706 -0.30687367
H  0.21668666 -0.88491357 0.14311869
H  -1.67111950 -0.15613639 -0.26160578
12
MD Step 134.5 Units = [eV / Ang.]
C  0.18245172 0.81159032 -1.83003674
C  0.33202914 0.76176529 0.88375226
C  0.13215484 -1.05775356 0.14423602
C  0.90723405 1.79827179 0.50613962
C  -1.70871297 0.29966236 -1.09238869
C  1.68713623 0.39808780 1.84069520
H  -0.55041205 -0.02670012 0.27385171
H  0.47868527 -0.71673070 -0.26824831
H  0.20311278 -0.72597664 -0.05020292
H  -0.61026455 0.00990870 -0.28829690
H  0.46331401 -1.45161489 0.14520045
H  -1.51672847 -0.10051037 -0.26470171
12
MD Step 135.0 Units = [eV / Ang.]
C  0.23040538 0.80067093 -1.83746233
C  0.17578198 0.44976879 0.96210349
C  -0.00590350 -0.78551128 0.13347177
C  0.95488434 1.63750117 0.42640022
C  -1.88991156 0.75989516 -1.06191895
C  1.30056692 0.26279659 1.83922158
H  -0.45489121 0.11613457 0.26067662
H  0.46593476 -0.62831778 -0.30249843
H  0.32877451 -0.67848532 -0.04034603
H  -0.54240665 -0.00925600 -0.26320970
H  0.63485717 -1.88204375 0.14413123
H  -1.19809216 -0.04315308 -0.26056946
12
MD Step 135.5 Units = [eV / Ang.]
C  0.27056539 0.77007711 -1.82980608
C  0.03755946 0.07383566 1.04296517
C  -0.12255334 -0.48970075 0.12697234
C  0.96997246 1.43013646 0.33637097
C  -1.97077945 1.10073174 -1.02094858
C  0.79614632 0.11253792 1.82399529
H  -0.34826748 0.26775641 0.24232878
H  0.41948802 -0.48301844 -0.34549747
H  0.43109762 -0.62587807 -0.03005672
H  -0.45143842 -0.00302229 -0.23255868
H  0.73238625 -2.17258040 0.13956040
H  -0.76417684 0.01912466 -0.25332543
12
MD Step 136.0 Units = [eV / Ang.]
C  0.30721963 0.73123601 -1.80658335
C  -0.08734133 -0.34418615 1.12266417
C  -0.20676236 -0.17664270 0.12370881
C  0.95391366 1.18229147 0.23763753
C  -1.95548258 1.32247609 -0.96979858
C  0.23440587 -0.04956432 1.79804059
H  -0.23754486 0.41427973 0.21872027
H  0.34933054 -0.29725233 -0.39400805
H  0.49862758 -0.56992459 -0.01843231
H  -0.34154652 0.02545982 -0.19768120
H  0.75957173 -2.32556922 0.13145933
H  -0.27439136 0.08739621 -0.24572721
12
MD Step 136.5 Units = [eV / Ang.]
C  0.34466481 0.69436691 -1.76786866
C  -0.20428963 -0.77864986 1.19656803
C  -0.25086099 0.14603010 0.12248135
C  0.91035782 0.90256785 0.13209092
C  -1.84912843 1.42486928 -0.90903237
C  -0.32693666 -0.21755733 1.76307875
H  -0.12938584 0.54308422 0.19021471
H  0.26666117 -0.09072478 -0.44372720
H  0.52293229 -0.51179156 -0.00450242
H  -0.21833896 0.07079058 -0.16021314
H  0.71979134 -2.34345165 0.11997836
H  0.21453309 0.16046625 -0.23906834
12
MD Step 137.0 Units = [eV / Ang.]
C  0.38675317 0.66761896 -1.71427147
C  -0.31773797 -1.20321945 1.25987458
C  -0.25189935 0.46933827 0.12211523
C  0.84496338 0.60200671 0.02183811
C  -1.65650669 1.40438737 -0.83938346
C  -0.84147923 -0.38361350 1.71983888
H  -0.02967707 0.64374122 0.15761185
H  0.18218697 0.11656605 -0.49009134
H  0.49995114 -0.45190192 0.01258248
H  -0.08856615 0.12543131 -0.12195672
H  0.61489996 -2.22589175 0.10538886
H  0.65711185 0.23553673 -0.23354700
12
MD Step 137.5 Units = [eV / Ang.]
C  0.43660489 0.65662535 -1.64684939
C  -0.43028756 -1.59338568 1.30828473
C  -0.21232679 0.78318950 0.12166466
C  0.76482556 0.29376908 -0.09092678
C  -1.38191545 1.25424731 -0.76175641
C  -1.27699435 -0.53924514 1.66849523
H  0.05673689 0.70849074 0.12207443
H  0.10497754 0.30664971 -0.52896895
H  0.43074050 -0.38997502 0.03335666
H  0.04034400 0.18011332 -0.08470691
H  0.44533733 -1.96961364 0.08810599
H  1.02195741 0.30913447 -0.22877327
12
MD Step 138.0 Units = [eV / Ang.]
C  0.49643065 0.66435190 -1.56698681
C  -0.54243725 -1.92809562 1.33843449
C  -0.13976930 1.07690478 0.12057682
C  0.67756783 -0.00760904 -0.20409568
C  -1.02998410 0.96712192 -0.67727968
C  -1.61406237 -0.67629126 1.60901553
H  0.12619546 0.73239521 0.08501904
H  0.04194550 0.46493779 -0.55710947
H  0.32139006 -0.32524712 0.05788996
H  0.16094769 0.22464991 -0.05004809
H  0.21144629 -1.57096916 0.06876982
H  1.29032953 0.37785068 -0.22418593
12
MD Step 138.5 Units = [eV / Ang.]
C  0.56741919 0.69109702 -1.47626176
C  -0.65287724 -2.19054775 1.34807805
C  -0.04593605 1.33994019 0.11877305
C  0.59023765 -0.28737653 -0.31582977
C  -0.60768278 0.54088153 -0.58738267
C  -1.84272645 -0.78747709 1.54137078
H  0.17629873 0.71332809 0.04798699
H  -0.00217516 0.58068688 -0.57233834
H  0.18212667 -0.25680524 0.08572467
H  0.26656613 0.24911891 -0.01915862
H  -0.08392812 -1.03157245 0.04834331
H  1.45267742 0.43872643 -0.21930569
12
MD Step 139.0 Units = [eV / Ang.]
C  0.64961085 0.73456408 -1.37630908
C  -0.75905015 -2.36844676 1.33608960
C  0.05507041 1.56268994 0.11663660
C  0.50819634 -0.53206875 -0.42471281
C  -0.12765642 -0.01255109 -0.49382438
C  -1.95901556 -0.86660473 1.46564581
H  0.20597265 0.65191929 0.01250034
H  -0.02457992 0.64689048 -0.57356647
H  0.02584846 -0.18393762 0.11591220
H  0.35206077 0.24528268 0.00733237
H  -0.43154818 -0.36707951 0.02814880
H  1.50509073 0.48934199 -0.21385297
12
MD Step 139.5 Units = [eV / Ang.]
C  0.74173876 0.78996062 -1.26868609
C  -0.85776006 -2.45404407 1.30238588
C  0.14866195 1.73723503 0.11491721
C  0.43428865 -0.73108171 -0.52982744
C  0.38753549 -0.65665749 -0.39856408
C  -1.96239872 -0.90855659 1.38211400
H  0.21555319 0.55152473 -0.02009822
H  -0.02408455 0.65995848 -0.56070897
H  -0.13355644 -0.10640614 0.14713383
H  0.41442879 0.20795397 0.02939261
H  -0.81118801 0.38234963 0.00972832
H  1.44678094 0.52776353 -0.20778704
12
MD Step 140.0 Units = [eV / Ang.]
C  0.84101931 0.85015962 -1.15473378
C  -0.94561029 -2.44419736 1.24783526
C  0.22148404 1.85791193 0.11458832
C  0.36851861 -0.87796432 -0.63072578
C  0.90196766 -1.32249422 -0.30336713
C  -1.85462539 -0.90932455 1.29130704
H  0.20688463 0.41820334 -0.04882222
H  -0.00090724 0.61947710 -0.53458498
H  -0.28274986 -0.02459068 0.17786937
H  0.45307491 0.13596995 0.04751883
H  -1.18812952 1.14435404 -0.00557574
H  1.27907315 0.55249515 -0.20130919
12
MD Step 140.5 Units = [eV / Ang.]
C  0.94296636 0.90602358 -1.03544624
C  -1.01920222 -2.34056719 1.17419155
C  0.26267900 1.92165492 0.11669532
C  0.30839358 -0.97114255 -0.72730144
C  1.36668687 -1.91092188 -0.20918014
C  -1.64007932 -0.86623552 1.19408026
H  0.18338475 0.26061085 -0.07322514
H  0.04338606 0.52820358 -0.49683238
H  -0.41010655 0.06050107 0.20657084
H  0.46970607 0.03251998 0.06257144
H  -1.51384318 1.81680784 -0.01727913
H  1.00602860 0.56254532 -0.19484494
12
MD Step 141.0 Units = [eV / Ang.]
C  1.04129863 0.94698318 -0.91135884
C  -1.07503015 -2.14994104 1.08403575
C  0.26459191 1.92810104 0.12221916
C  0.24990554 -1.01389521 -0.81959852
C  1.72679523 -2.31121142 -0.11558888
C  -1.32764328 -0.77845753 1.09162984
H  0.14999891 0.08968426 -0.09356319
H  0.10576490 0.39231490 -0.44982748
H  -0.50642653 0.14732314 0.23181252
H  0.46789043 -0.09527068 0.07555863
H  -1.73375910 2.28671298 -0.02633193
H  0.63661351 0.55765638 -0.18898707
12
MD Step 141.5 Units = [eV / Ang.]
C  1.12808707 0.96196565 -0.78249754
C  -1.10916917 -1.88451326 0.98068023
C  0.22298832 1.87944381 0.13196841
C  0.18886399 -1.01361478 -0.90760898
C  1.93522311 -2.43412364 -0.02086868
C  -0.93374366 -0.64770715 0.98540667
H  0.11294624 -0.08202322 -0.11089032
H  0.18151669 0.22176525 -0.39656362
H  -0.56525509 0.23393861 0.25240266
H  0.45240821 -0.23737074 0.08742746
H  -1.80188143 2.46357206 -0.03509456
H  0.18801574 0.53866740 -0.18436175
12
MD Step 142.0 Units = [eV / Ang.]
C  1.19424277 0.94065295 -0.64843319
C  -1.11688815 -1.56187261 0.86796957
C  0.13692502 1.78010566 0.14649984
C  0.12215403 -0.98058366 -0.99112446
C  1.96800362 -2.24523783 0.07710113
C  -0.48574766 -0.47890589 0.87687553
H  0.07918765 -0.24141497 -0.12702643
H  0.26405940 0.03047391 -0.34042759
H  -0.58294207 0.31818699 0.26745851
H  0.42854970 -0.38220907 0.09891107
H  -1.69673273 2.31292633 -0.04643325
H  -0.31081157 0.50787819 -0.18137072
12
MD Step 142.5 Units = [eV / Ang.]
C  1.23039560 0.87493610 -0.50847118
C  -1.09242600 -1.20434895 0.74992586
C  0.00847123 1.63624012 0.16605667
C  0.04842907 -0.92653229 -1.06967336
C  1.83275553 -1.77909446 0.17947027
C  -0.02401227 -0.28035269 0.76710790
H  0.05561243 -0.37627618 -0.14435599
H  0.34497310 -0.16402738 -0.28482809
H  -0.55858128 0.39785406 0.27645616
H  0.40148943 -0.51806707 0.11045175
H  -1.43000887 1.87050597 -0.06233895
H  -0.81709797 0.46916278 -0.17980104
12
MD Step 143.0 Units = [eV / Ang.]
C  1.22808554 0.76030964 -0.36197904
C  -1.02917774 -0.83742211 0.63024649
C  -0.15759335 1.45512648 0.19052024
C  -0.03192332 -0.86327073 -1.14255851
C  1.56507068 -1.12489843 0.28550216
C  0.39962832 -0.06304843 0.65630454
H  0.04804717 -0.47682827 -0.16545109
H  0.41445059 -0.34183299 -0.23268577
H  -0.49392991 0.47084114 0.27926540
H  0.37581509 -0.63424643 0.12219647
H  -1.04254004 1.22771879 -0.08296882
H  -1.27593302 0.42755136 -0.17839206
12
MD Step 143.5 Units = [eV / Ang.]
C  1.18105236 0.59688107 -0.20878923
C  -0.92045787 -0.48710212 0.51174314
C  -0.35402914 1.24451663 0.21936915
C  -0.11735586 -0.80157614 -1.20895634
C  1.21506530 -0.39308611 0.39269591
C  0.72869735 0.16093197 0.54346357
H  0.06028798 -0.53708498 -0.19257619
H  0.46228989 -0.48292041 -0.18588116
H  -0.39334973 0.53533619 0.27617505
H  0.35523332 -0.72189241 0.13404239
H  -0.59001539 0.49784816 -0.10670828
H  -1.62741820 0.38814815 -0.17457801
12
MD Step 144.0 Units = [eV / Ang.]
C  1.08632460 0.38974406 -0.04957855
C  -0.76085744 -0.17657527 0.39589676
C  -0.57133817 1.01201422 0.25165582
C  -0.20591207 -0.75039360 -1.26803840
C  0.83200437 0.31774403 0.49772037
C  0.91388994 0.38056903 0.42649400
H  0.09340608 -0.55566032 -0.22718882
H  0.47938731 -0.57018130 -0.14483469
H  -0.26374637 0.58998559 0.26790591
H  0.34242922 -0.77447652 0.14570890
H  -0.12668221 -0.21740422 -0.13104325
H  -1.81890524 0.35463428 -0.16469805
12
MD Step 144.5 Units = [eV / Ang.]
C  0.94483570 0.14858797 0.11390082
C  -0.54789854 0.07716616 0.28271798
C  -0.79801674 0.76455157 0.28601280
C  -0.29583071 -0.71631570 -1.31906696
C  0.45416727 0.93929406 0.59745308
C  0.92633077 0.58769357 0.30293721
H  0.14552355 -0.53580904 -0.26957254
H  0.45943234 -0.59252266 -0.10841026
H  -0.11441515 0.63405040 0.25559769
H  0.33902994 -0.78802818 0.15681283
H  0.30555489 -0.84668072 -0.15355427
H  -1.81871331 0.32801258 -0.14482837
12
MD Step 145.0 Units = [eV / Ang.]
C  0.76141822 -0.11334086 0.27881320
C  -0.28352897 0.26576088 0.17102240
C  -1.02094764 0.50803053 0.32070876
C  -0.38584478 -0.70325353 -1.36145475
C  0.10612716 1.43559334 0.68959732
C  0.76665688 0.77758133 0.17112377
H  0.21212188 -0.48469715 -0.31870513
H  0.40033670 -0.54711356 -0.07424438
H  0.04330729 0.66751584 0.24075412
H  0.34561850 -0.76123204 0.16693567
H  0.68031538 -1.35116076 -0.17251270
H  -1.62558063 0.30631598 -0.11203828
12
MD Step 145.5 Units = [eV / Ang.]
C  0.54420434 -0.38068234 0.44146792
C  0.02507865 0.39019627 0.05905977
C  -1.22606516 0.24718275 0.35376824
C  -0.47515926 -0.71224509 -1.39478592
C  -0.19864809 1.79505459 0.77279798
C  0.46539370 0.94810156 0.03123446
H  0.28679011 -0.41211437 -0.37239182
H  0.30490930 -0.43999013 -0.03943431
H  0.19670507 0.69110858 0.22512887
H  0.36175277 -0.69548805 0.17567608
H  0.98427265 -1.71664744 -0.18699877
H  -1.26923409 0.28552368 -0.06552249
12
MD Step 146.0 Units = [eV / Ang.]
C  0.30365054 -0.63750689 0.59771970
C  0.36571958 0.45960772 -0.05472049
C  -1.39934453 -0.01434467 0.38316118
C  -0.56316671 -0.74136859 -1.41881309
C  -0.45321004 2.01997076 0.84644882
C  0.07431072 1.09798194 -0.11428924
H  0.36219567 -0.32897504 -0.42760921
H  0.18052589 -0.28479872 -0.00136006
H  0.33270207 0.70618303 0.21054853
H  0.38596660 -0.59496704 0.18268639
H  1.21239774 -1.94299695 -0.19673191
H  -0.80174753 0.26121443 -0.00704063
12
MD Step 146.5 Units = [eV / Ang.]
C  0.05143444 -0.86871142 0.74343384
C  0.72230993 0.48861283 -0.17103244
C  -1.52806259 -0.27369188 0.40704118
C  -0.64901942 -0.78576862 -1.43343601
C  -0.65291404 2.11784915 0.91041471
C  -0.34707695 1.22518664 -0.26117507
H  0.43104136 -0.24594350 -0.48095201
H  0.03789687 -0.10011975 0.04163396
H  0.43917999 0.71446426 0.19868657
H  0.41575723 -0.46662756 0.18769185
H  1.36336715 -2.03534930 -0.20183069
H  -0.28391396 0.23009917 0.05952412
12
MD Step 147.0 Units = [eV / Ang.]
C  -0.20054799 -1.06113136 0.87490869
C  1.07663257 0.49408683 -0.28943361
C  -1.60217938 -0.52833920 0.42399932
C  -0.73121287 -0.83786257 -1.43867166
C  -0.79251977 2.09590011 0.96480490
C  -0.74410088 1.32616110 -0.40429323
H  0.48683507 -0.17239613 -0.52907395
H  -0.11065938 0.09373995 0.08988888
H  0.50642528 0.71767826 0.19082350
H  0.44759434 -0.32008518 0.19049225
H  1.43620995 -1.99854969 -0.20263186
H  0.22752305 0.19079789 0.12918677
12
MD Step 147.5 Units = [eV / Ang.]
C  -0.44097556 -1.20431188 0.98918306
C  1.41018309 0.49229186 -0.40834813
C  -1.61555931 -0.77561529 0.43327619
C  -0.80730668 -0.88783426 -1.43461642
C  -0.86473811 1.95845685 1.00984946
C  -1.07469656 1.39606994 -0.53866162
H  0.52439311 -0.11579478 -0.56904342
H  -0.25291959 0.27757817 0.14244546
H  0.52841947 0.71715288 0.18764555
H  0.47700937 -0.16718428 0.19094491
H  1.42842157 -1.83458621 -0.19961412
H  0.68776920 0.14377701 0.19693909
12
MD Step 148.0 Units = [eV / Ang.]
C  -0.65967589 -1.29096852 1.08420499
C  1.70572959 0.49693577 -0.52533644
C  -1.56675299 -1.01230444 0.43487866
C  -0.87389884 -0.92450815 -1.42140029
C  -0.86017087 1.70680628 1.04588879
C  -1.31156505 1.42970835 -0.66010174
H  0.54009688 -0.08141080 -0.59858570
H  -0.37805046 0.43519325 0.19732314
H  0.50367968 0.71349702 0.18913528
H  0.49883002 -0.02114751 0.18893097
H  1.33554844 -1.54257782 -0.19342810
H  1.06622949 0.09077656 0.25849045
12
MD Step 148.5 Units = [eV / Ang.]
C  -0.84805203 -1.31721989 1.15888247
C  1.94840873 0.51825714 -0.63745756
C  -1.45912681 -1.23444803 0.42957104
C  -0.92689682 -0.93663315 -1.39914211
C  -0.76879090 1.34129318 1.07346996
C  -1.44034782 1.42259840 -0.76544665
H  0.53198508 -0.07226519 -0.61622391
H  -0.47734439 0.55424115 0.25191043
H  0.43543835 0.70645243 0.19458371
H  0.50760799 0.10473404 0.18431314
H  1.15239681 -1.12115551 -0.18501645
H  1.34472180 0.03414544 0.31055594
12
MD Step 149.0 Units = [eV / Ang.]
C  -0.99941314 -1.28265448 1.21305533
C  2.12635869 0.56292420 -0.74160836
C  -1.30030010 -1.43740332 0.41874040
C  -0.96210836 -0.91447569 -1.36792057
C  -0.58334222 0.86590441 1.09351712
C  -1.45603474 1.37193750 -0.85242719
H  0.49975903 -0.08916449 -0.62134698
H  -0.54446015 0.62628308 0.30334333
H  0.33111745 0.69496157 0.20272432
H  0.49824322 0.19875939 0.17689983
H  0.87624338 -0.57342036 -0.17577878
H  1.51393693 -0.02365181 0.35080155
12
MD Step 149.5 Units = [eV / Ang.]
C  -1.10928289 -1.19031694 1.24742974
C  2.23105613 0.63435605 -0.83478290
C  -1.10102300 -1.61613350 0.40416930
C  -0.97602937 -0.85143435 -1.32777670
C  -0.30501222 0.29546477 1.10748180
C  -1.35938487 1.27722123 -0.91943722
H  0.44477167 -0.13072752 -0.61423458
H  -0.57536846 0.64641910 0.34881010
H  0.20123054 0.67742329 0.21195301
H  0.46672638 0.25252086 0.16643440
H  0.51233991 0.08549049 -0.16768157
H  1.56997618 -0.08028347 0.37763461
12
MD Step 150.0 Units = [eV / Ang.]
C  -1.17568061 -1.04661423 1.26349251
C  2.25749735 0.73311764 -0.91426076
C  -0.87377320 -1.76563138 0.38777248
C  -0.96666478 -0.74532220 -1.27876523
C  0.04919930 -0.33562750 1.11728066
C  -1.15433631 1.14049433 -0.96534849
H  0.37001332 -0.19337672 -0.59604733
H  -0.56821293 0.61286516 0.38578377
H  0.05798299 0.65205497 0.22057944
H  0.41086069 0.26225807 0.15262473
H  0.08111218 0.81938967 -0.16311863
H  1.51200200 -0.13360781 0.39000684
12
MD Step 150.5 Units = [eV / Ang.]
C  -1.19932850 -0.86113347 1.26340676
C  2.20435191 0.85714498 -0.97776665
C  -0.63137624 -1.88137129 0.37134767
C  -0.93412890 -0.59897034 -1.22104899
C  0.43997287 -0.96656781 1.12476611
C  -0.84684729 0.96624689 -0.98948590
H  0.28006900 -0.27132102 -0.56877249
H  -0.52325340 0.52672963 0.41221765
H  -0.08613380 0.61726074 0.22705572
H  0.33078179 0.22948777 0.13521448
H  -0.37554006 1.56413663 -0.16427710
H  1.34143262 -0.18164271 0.38734275
12
MD Step 151.0 Units = [eV / Ang.]
C  -1.18369903 -0.64627379 1.24985822
C  2.07413573 1.00167101 -1.02365077
C  -0.38587926 -1.95966776 0.35638308
C  -0.88082574 -0.41998403 -1.15501001
C  0.80499454 -1.51120970 1.13060014
C  -0.44533728 0.76098817 -0.99180747
H  0.18097483 -0.35663114 -0.53509106
H  -0.44297269 0.39210288 0.42674788
H  -0.21952322 0.57192482 0.23014475
H  0.22913039 0.16072125 0.11407948
H  -0.79378268 2.22891479 -0.17190944
H  1.06278441 -0.22255649 0.36965520
12
MD Step 151.5 Units = [eV / Ang.]
C  -1.13479280 -0.41660764 1.22582453
C  1.87338605 1.15890706 -1.05111898
C  -0.14780936 -1.99789678 0.34393671
C  -0.81109879 -0.21972325 -1.08134068
C  1.06927835 -1.87257351 1.13288799
C  0.03727697 0.53255750 -0.97327731
H  0.07989172 -0.43953532 -0.49813263
H  -0.33232470 0.21641710 0.42892509
H  -0.33232421 0.51558967 0.22901647
H  0.11081807 0.06634503 0.08932143
H  -1.09833908 2.71128670 -0.18390099
H  0.68603776 -0.25476657 0.33785836
12
MD Step 152.0 Units = [eV / Ang.]
C  -1.06055868 -0.18788068 1.19424556
C  1.61270999 1.31763794 -1.06048906
C  0.07420843 -1.99456786 0.33458426
C  -0.73048167 -0.01179754 -1.00107494
C  1.16683251 -1.97004826 1.12653807
C  0.58030597 0.28927224 -0.93634472
H  -0.01546651 -0.50906476 -0.46110251
H  -0.19899979 0.01089773 0.41945753
H  -0.41690374 0.44851756 0.22327597
H  -0.01755110 -0.04101131 0.06132672
H  -1.22416761 2.92524231 -0.19463357
H  0.23007220 -0.27719736 0.29421670
12
MD Step 152.5 Units = [eV / Ang.]
C  -0.96996664 0.02435246 1.15761821
C  1.30655602 1.46304135 -1.05340986
C  0.27358377 -1.94929402 0.32842225
C  -0.64480977 0.18957031 -0.91554941
C  1.06513810 -1.76841656 1.10435952
C  1.15180413 0.03915878 -0.88535162
H  -0.09765052 -0.55411376 -0.42680633
H  -0.05348888 -0.20921639 0.40039808
H  -0.46808346 0.37165788 0.21294344
H  -0.14845856 -0.14821314 0.03077490
H  -1.14074488 2.83114773 -0.19616132
H  -0.27387931 -0.28967464 0.24276215
12
MD Step 153.0 Units = [eV / Ang.]
C  -0.87182728 0.20633305 1.11758653
C  0.97247314 1.57713854 -1.03292375
C  0.44577202 -1.86272464 0.32511859
C  -0.55952152 0.37098154 -0.82631570
C  0.77846805 -1.29247083 1.05983735
C  1.70679388 -0.21047273 -0.82659332
H  -0.16043716 -0.56484357 -0.39715922
H  0.09132136 -0.42508337 0.37516152
H  -0.48319332 0.28655137 0.19840280
H  -0.27426575 -0.24309552 -0.00140331
H  -0.86500128 2.45100872 -0.18110310
H  -0.78058213 -0.29332256 0.18939161
12
MD Step 153.5 Units = [eV / Ang.]
C  -0.77359064 0.34770126 1.07464093
C  0.62971931 1.64021279 -1.00323885
C  0.58828373 -1.73647663 0.32398857
C  -0.47932193 0.52092737 -0.73502976
C  0.36138038 -0.61790934 0.99004897
C  2.18955590 -0.45304116 -0.76772942
H  -0.19974775 -0.53421615 -0.37280473
H  0.22123650 -0.61565443 0.34824755
H  -0.46204857 0.19519446 0.18033396
H  -0.38788674 -0.31548074 -0.03410402
H  -0.45435498 1.85946412 -0.14566599
H  -1.23322521 -0.29072153 0.14131279
12
MD Step 154.0 Units = [eV / Ang.]
C  -0.68037671 0.44273660 1.02804080
C  0.29722482 1.63330015 -0.96914641
C  0.70072234 -1.57306883 0.32409413
C  -0.40817620 0.63044544 -0.64334433
C  -0.11311290 0.15570858 0.89688995
C  2.54153217 -0.68257123 -0.71640752
H  -0.21428530 -0.45930065 -0.35297328
H  0.32254340 -0.76015445 0.32460947
H  -0.40688921 0.09987595 0.15963496
H  -0.48326372 -0.35771499 -0.06614444
H  0.01553800 1.15631229 -0.09093396
H  -1.57145667 -0.28556886 0.10568063
12
MD Step 154.5 Units = [eV / Ang.]
C  -0.59448029 0.49094550 0.97601620
C  -0.00876842 1.54144936 -0.93514275
C  0.78480416 -1.37584584 0.32435980
C  -0.34939771 0.69343014 -0.55281061
C  -0.57727676 0.93420820 0.78608977
C  2.71395873 -0.89380390 -0.67836676
H  -0.20571157 -0.34200973 -0.33564818
H  0.38421711 -0.84132399 0.30873669
H  -0.32228216 0.00299344 0.13733529
H  -0.55565571 -0.36483937 -0.09635802
H  0.47478184 0.43657161 -0.02190497
H  -1.74418922 -0.28177544 0.08769354
12
MD Step 155.0 Units = [eV / Ang.]
C  -0.51544512 0.49681977 0.91621677
C  -0.27682782 1.35695891 -0.90447965
C  0.84428494 -1.14886504 0.32369885
C  -0.30564999 0.70671227 -0.46479278
C  -0.98306030 1.64708668 0.66504265
C  2.68114101 -1.08259930 -0.65575677
H  -0.17830128 -0.18902832 -0.31801228
H  0.39997015 -0.84863771 0.30368062
H  -0.21494239 -0.09314524 0.11450036
H  -0.60179526 -0.33455400 -0.12368260
H  0.87375679 -0.22847066 0.05468417
H  -1.72313072 -0.28227737 0.08890067
12
MD Step 155.5 Units = [eV / Ang.]
C  -0.44064894 0.46885036 0.84628445
C  -0.50156117 1.08161522 -0.87845626
C  0.88467776 -0.89675417 0.32114104
C  -0.27873295 0.67001963 -0.38038713
C  -1.30473631 2.25159264 0.54084762
C  2.44859078 -1.24628213 -0.64653129
H  -0.13817633 -0.01094577 -0.29705312
H  0.36948209 -0.78050375 0.31034317
H  -0.09339539 -0.18651731 0.09212906
H  -0.61999465 -0.26713309 -0.14724307
H  1.18569862 -0.79582631 0.13232911
H  -1.51120350 -0.28811533 0.10659642
12
MD Step 156.0 Units = [eV / Ang.]
C  -0.36619877 0.41806146 0.76439220
C  -0.68354071 0.72716376 -0.85621165
C  0.91270808 -0.62457833 0.31594845
C  -0.26918574 0.58589826 -0.30034364
C  -1.53392917 2.72715963 0.41929116
C  2.05196783 -1.38351994 -0.64530023
H  -0.09233207 0.17917575 -0.27016033
H  0.29836821 -0.64467507 0.32728900
H  0.03257318 -0.27554959 0.07105214
H  -0.61025545 -0.16537141 -0.16643247
H  1.40153676 -1.24551192 0.20578102
H  -1.14171216 -0.29825259 0.13469434
12
MD Step 156.5 Units = [eV / Ang.]
C  -0.28787184 0.35642532 0.66962244
C  -0.82797268 0.31383109 -0.83508389
C  0.93549430 -0.33775795 0.30770055
C  -0.27581238 0.45964197 -0.22499139
C  -1.67240277 3.06655582 0.30473441
C  1.54726198 -1.49367493 -0.64523033
H  -0.04769519 0.36742863 -0.23557355
H  0.19689699 -0.45671266 0.35114624
H  0.15271283 -0.35921247 0.05184396
H  -0.57440343 -0.03458425 -0.18099316
H  1.52244313 -1.57175751 0.27115898
H  -0.66865093 -0.31018307 0.16566572
12
MD Step 157.0 Units = [eV / Ang.]
C  -0.20189293 0.29546694 0.56212796
C  -0.94260526 -0.13257894 -0.81137084
C  0.95955206 -0.04206559 0.29632962
C  -0.29525634 0.29922122 -0.15417323
C  -1.72599160 3.26801949 0.20051341
C  0.99687950 -1.57598721 -0.64006229
H  -0.01039286 0.54052856 -0.19260871
H  0.07792283 -0.23705422 0.37742632
H  0.25729057 -0.43701190 0.03476640
H  -0.51621512 0.11739681 -0.19109399
H  1.55354026 -1.77499597 0.32554118
H  -0.15283111 -0.32093920 0.19260417
12
MD Step 157.5 Units = [eV / Ang.]
C  -0.10542439 0.24521886 0.44308909
C  -1.03557344 -0.58408971 -0.78119781
C  0.98976100 0.25630805 0.28209254
C  -0.32180681 0.11510921 -0.08720959
C  -1.70070955 3.32999572 0.10949160
C  0.45733503 -1.62903269 -0.62543576
H  0.01469584 0.68690782 -0.14166870
H  -0.04529664 -0.00764613 0.40146182
H  0.33814400 -0.50886478 0.01975963
H  -0.44144321 0.28035971 -0.19738431
H  1.49991407 -1.85628233 0.36640172
H  0.35040410 -0.32798376 0.21059977
12
MD Step 158.0 Units = [eV / Ang.]
C  0.00323865 0.21357107 0.31453880
C  -1.11375867 -1.01357671 -0.74122542
C  1.02851976 0.55064792 0.26548040
C  -0.34756682 -0.08009090 -0.02292198
C  -1.60091225 3.24849569 0.03455001
C  -0.02790131 -1.65066847 -0.59926623
H  0.02412177 0.79736458 -0.08409708
H  -0.16082989 0.21094684 0.41918186
H  0.38960715 -0.57487928 0.00648716
H  -0.35762382 0.44212252 -0.20099733
H  1.36481548 -1.81425913 0.39111901
H  0.79828994 -0.32967413 0.21715080
12
MD Step 158.5 Units = [eV / Ang.]
C  0.12468222 0.20592119 0.17912306
C  -1.18193979 -1.39688572 -0.68905521
C  1.07527299 0.83364613 0.24707763
C  -0.36311823 -0.27234754 0.04025253
C  -1.42906799 3.01676181 -0.02111529
C  -0.43006271 -1.63840860 -0.56140880
H  0.01586787 0.86536099 -0.02194661
H  -0.25907054 0.40141608 0.42757514
H  0.40913131 -0.63509615 -0.00557039
H  -0.27354909 0.58934848 -0.20347050
H  1.14963766 -1.64442765 0.39669453
H  1.16221629 -0.32528900 0.21184392
12
MD Step 159.0 Units = [eV / Ang.]
C  0.25849727 0.22501155 0.03984996
C  -1.24268416 -1.71398475 -0.62334305
C  1.12654326 1.09744376 0.22740556
C  -0.35868295 -0.44727644 0.10403444
C  -1.18697503 2.62717498 -0.05401798
C  -0.73300263 -1.58996545 -0.51303276
H  -0.01073873 0.88710709 0.04228129
H  -0.33304418 0.55051584 0.42484049
H  0.39745734 -0.68926409 -0.01699352
H  -0.19836349 0.70879613 -0.20656329
H  0.85543183 -1.34076576 0.37981715
H  1.42556148 -0.31479287 0.19572172
12
MD Step 159.5 Units = [eV / Ang.]
C  0.40339984 0.27084772 -0.10014972
C  -1.29673994 -1.94940395 -0.54371845
C  1.17645878 1.33385502 0.20678141
C  -0.32568271 -0.59152332 0.16997217
C  -0.87841831 2.07580074 -0.06091623
C  -0.92958981 -1.50375655 -0.45604049
H  -0.05512430 0.86158154 0.10589727
H  -0.37824623 0.64907787 0.41031922
H  0.35832627 -0.73671583 -0.02830078
H  -0.14035976 0.78889570 -0.21197803
H  0.48591645 -0.90012322 0.33745856
H  1.58005971 -0.29853572 0.17067508
12
MD Step 160.0 Units = [eV / Ang.]
C  0.55729349 0.34062382 -0.23784801
C  -1.34364081 -2.09231635 -0.45063115
C  1.21766921 1.53478030 0.18522852
C  -0.25837950 -0.69424232 0.23906640
C  -0.51325321 1.37002316 -0.04007583
C  -1.01824253 -1.37922380 -0.39269272
H  -0.11553083 0.79058600 0.16628026
H  -0.39228216 0.69163842 0.38432592
H  0.29780063 -0.77637498 -0.03985192
H  -0.10569989 0.82137227 -0.22103333
H  0.05184372 -0.32985060 0.26820729
H  1.62242188 -0.27701593 0.13902458
12
MD Step 160.5 Units = [eV / Ang.]
C  0.71724113 0.42865996 -0.37055011
C  -1.38224938 -2.13658571 -0.34521344
C  1.24243726 1.69276733 0.16245308
C  -0.15520381 -0.74834505 0.31144187
C  -0.11216687 0.53871227 0.00667374
C  -1.00050834 -1.21694827 -0.32544140
H  -0.18903865 0.67885269 0.22113981
H  -0.37454202 0.67605607 0.34796983
H  0.22336758 -0.80688403 -0.05179287
H  -0.09738010 0.80253414 -0.23436921
H  -0.42409617 0.34193968 0.17438222
H  1.55213937 -0.25075908 0.10330648
12
MD Step 161.0 Units = [eV / Ang.]
C  0.87938310 0.52644635 -0.49612798
C  -1.41109481 -2.08096642 -0.22919718
C  1.24368712 1.80164381 0.13789016
C  -0.01938255 -0.75123788 0.38617146
C  0.28991802 -0.35821872 0.07154863
C  -0.88006463 -1.01861124 -0.25690214
H  -0.27157914 0.53413029 0.26878424
H  -0.32604420 0.60336005 0.30300802
H  0.14300179 -0.82680743 -0.06404798
H  -0.11473121 0.73388496 -0.25177267
H  -0.90393641 1.05668788 0.06444314
H  1.37084292 -0.22031165 0.06620231
12
MD Step 161.5 Units = [eV / Ang.]
C  1.03883520 0.62291236 -0.61324985
C  -1.42839549 -1.92949190 -0.10487402
C  1.21582748 1.85711452 0.11080065
C  0.14135291 -0.70487480 0.46132013
C  0.64507508 -1.22744723 0.13940395
C  -0.66327087 -0.78687761 -0.18985534
H  -0.35799160 0.36711392 0.30838035
H  -0.24949701 0.47792868 0.25173050
H  0.06433208 -0.83485510 -0.07635074
H  -0.15359997 0.62188296 -0.27217926
H  -1.33594632 1.72292040 -0.04563897
H  1.08327851 -0.18632619 0.03051261
12
MD Step 162.0 Units = [eV / Ang.]
C  1.18966101 0.70510498 -0.72155036
C  -1.43180494 -1.69196310 0.02494351
C  1.15526734 1.85721464 0.08039904
C  0.31597397 -0.61513896 0.53421264
C  0.90091107 -1.95467266 0.18920313
C  -0.36121466 -0.52531154 -0.12716410
H  -0.44219611 0.19102924 0.34015452
H  -0.14953483 0.30793113 0.19684054
H  -0.00600392 -0.83007620 -0.08830084
H  -0.20715212 0.47690987 -0.29385210
H  -1.66365709 2.22866515 -0.13394908
H  0.69975028 -0.14969254 -0.00093690
12
MD Step 162.5 Units = [eV / Ang.]
C  1.32498355 0.75936995 -0.82168288
C  -1.41797027 -1.38428022 0.15703033
C  1.06061892 1.80255109 0.04598415
C  0.49201953 -0.49081841 0.60186182
C  1.01535716 -2.43383480 0.19943641
C  0.00713378 -0.23836759 -0.07149662
H  -0.51754131 0.02071520 0.36546407
H  -0.03299917 0.10580069 0.14127927
H  -0.06280342 -0.81199592 -0.09943340
H  -0.26703950 0.31175178 -0.31468218
H  -1.84130562 2.47076061 -0.17819352
H  0.23954636 -0.11165240 -0.02556743
12
MD Step 163.0 Units = [eV / Ang.]
C  1.43732308 0.77301723 -0.91517312
C  -1.38214991 -1.02827305 0.28797392
C  0.93266129 1.69628896 0.00705889
C  0.65764203 -0.34246479 0.66144212
C  0.97136368 -2.60305177 0.15594899
C  0.41171119 0.06853187 -0.02480187
H  -0.57735135 -0.12883284 0.38666228
H  0.09094662 -0.11163529 0.08795093
H  -0.10255691 -0.78068514 -0.10929039
H  -0.32462591 0.13996726 -0.33252516
H  -1.84921133 2.39094438 -0.16368067
H  -0.26575248 -0.07380681 -0.04156594
12
MD Step 163.5 Units = [eV / Ang.]
C  1.51916341 0.73626914 -1.00404516
C  -1.31815798 -0.65063195 0.41453468
C  0.77416230 1.54390610 -0.03658143
C  0.80326824 -0.18139084 0.71069615
C  0.78311212 -2.46787740 0.05796973
C  0.80993643 0.38888879 0.01240809
H  -0.61563532 -0.24431990 0.40672021
H  0.21111585 -0.32381368 0.03934797
H  -0.12357308 -0.73676843 -0.11748655
H  -0.37201209 -0.02552488 -0.34549692
H  -1.70046250 1.99919692 -0.08946089
H  -0.77091738 -0.03793388 -0.04860588
12
MD Step 164.0 Units = [eV / Ang.]
C  1.56370097 0.64408785 -1.09026097
C  -1.21891604 -0.28066262 0.53408285
C  0.58964894 1.35275899 -0.08478770
C  0.92239801 -0.01888150 0.74818000
C  0.48994114 -2.09722930 -0.08154588
C  1.14928733 0.71506682 0.04172257
H  -0.62784913 -0.31605590 0.42864217
H  0.31521510 -0.50822770 -0.00286871
H  -0.12599858 -0.68137714 -0.12376813
H  -0.40272386 -0.17344500 -0.35217827
H  -1.43484584 1.36955679 0.03131134
H  -1.21985805 -0.00559128 -0.04852927
12
MD Step 164.5 Units = [eV / Ang.]
C  1.56564121 0.49743811 -1.17509976
C  -1.07769713 0.05309250 0.64498314
C  0.38515144 1.13152719 -0.13703566
C  1.01151085 0.13441126 0.77333098
C  0.14201169 -1.59488076 -0.24139775
C  1.37525219 1.03832774 0.06702828
H  -0.61155147 -0.33944625 0.45480088
H  0.39140597 -0.64336208 -0.03820149
H  -0.11175066 -0.61605612 -0.12805881
H  -0.41206239 -0.29472298 -0.35171871
H  -1.10401547 0.61128075 0.17693638
H  -1.55389624 0.02239064 -0.04556748
12
MD Step 165.0 Units = [eV / Ang.]
C  1.52187723 0.30361000 -1.25866160
C  -0.88988798 0.32681814 0.74677330
C  0.16792704 0.88962586 -0.19243636
C  1.06940847 0.26896766 0.78638999
C  -0.21403865 -1.06424756 -0.39976533
C  1.44358413 1.34906290 0.09385502
H  -0.56679316 -0.31565724 0.48637122
H  0.43027226 -0.71228628 -0.06741608
H  -0.08435165 -0.54263147 -0.13049063
H  -0.39719558 -0.38273338 -0.34385495
H  -0.75637437 -0.16681482 0.32493177
H  -1.72442773 0.04628619 -0.04569633
12
MD Step 165.5 Units = [eV / Ang.]
C  1.43188979 0.07549132 -1.33965015
C  -0.65476196 0.52499410 0.84002376
C  -0.05388529 0.63662795 -0.24978516
C  1.09646973 0.37684372 0.78824252
C  -0.54342723 -0.58395625 -0.53982848
C  1.33276501 1.63726000 0.12784089
H  -0.49613447 -0.25125917 0.52302983
H  0.42667044 -0.70593232 -0.09230978
H  -0.04863975 -0.46304734 -0.13141147
H  -0.35709669 -0.43333578 -0.32887043
H  -0.42802873 -0.88115611 0.45779796
H  -1.70582085 0.06746988 -0.05507948
12
MD Step 166.0 Units = [eV / Ang.]
C  1.29782393 -0.17004345 -1.41550640
C  -0.37667170 0.64249111 0.92590788
C  -0.27170353 0.38174088 -0.30764181
C  1.09411159 0.45211342 0.78023536
C  -0.82463434 -0.20035061 -0.65168228
C  1.05113617 1.89321094 0.17285960
H  -0.40429204 -0.15697109 0.56299846
H  0.38087032 -0.62499577 -0.11518800
H  -0.01033497 -0.37919024 -0.13136519
H  -0.29243260 -0.44486586 -0.30752272
H  -0.14093612 -1.48109117 0.56503890
H  -1.50293670 0.08795184 -0.07813379
12
MD Step 166.5 Units = [eV / Ang.]
C  1.12425199 -0.41421221 -1.48282793
C  -0.06519369 0.68451486 1.00563030
C  -0.47706506 0.13337194 -0.36444297
C  1.06455316 0.49129777 0.76400560
C  -1.04647868 0.06739857 -0.73136584
C  0.63508716 2.10824444 0.22966938
H  -0.29750992 -0.04586877 0.60339410
H  0.29856337 -0.47975985 -0.13821382
H  0.02454369 -0.29272491 -0.13103804
H  -0.20545547 -0.41815814 -0.28095162
H  0.09428206 -1.94375777 0.64223973
H  -1.14957862 0.10965407 -0.11609890
12
MD Step 167.0 Units = [eV / Ang.]
C  0.91773605 -0.63842341 -1.53793465
C  0.26582495 0.66448091 1.07993337
C  -0.66227060 -0.10120041 -0.41863171
C  1.01081813 0.49378938 0.74132651
C  -1.20394859 0.21722756 -0.77871734
C  0.13912806 2.27525738 0.29571630
H  -0.18281287 0.06847506 0.64075829
H  0.18973411 -0.28791760 -0.16285880
H  0.05037279 -0.20497496 -0.13117572
H  -0.09991732 -0.35663542 -0.25057131
H  0.27400611 -2.26386203 0.68892574
H  -0.69867081 0.13378355 -0.16677068
12
MD Step 167.5 Units = [eV / Ang.]
C  0.68631162 -0.82603189 -1.57741120
C  0.59999052 0.60063452 1.14883692
C  -0.82104765 -0.31603212 -0.46879734
C  0.93683867 0.46218953 0.71396396
C  -1.29464624 0.25469355 -0.79534309
C  -0.37750063 2.38890402 0.36605367
H  -0.06730020 0.17353137 0.67160916
H  0.06679674 -0.07117542 -0.18961734
H  0.06264173 -0.11687610 -0.13247772
H  0.01902483 -0.26640772 -0.21793861
H  0.39774332 -2.44399678 0.70651140
H  -0.20885269 0.16056704 -0.22538981
12
MD Step 168.0 Units = [eV / Ang.]
C  0.43899235 -0.96358100 -1.59850820
C  0.92028063 0.51250655 1.21164789
C  -0.94911719 -0.50657655 -0.51380629
C  0.84752898 0.40245641 0.68352955
C  -1.31643552 0.18638242 -0.78325260
C  -0.86228320 2.44547651 0.43477832
H  0.04241739 0.25884523 0.69289716
H  -0.05740326 0.14827245 -0.21802255
H  0.05857882 -0.02901696 -0.13548706
H  0.14497403 -0.15626459 -0.18458943
H  0.46542165 -2.48786527 0.69690703
H  0.26704532 0.18936481 -0.28609384
12
MD Step 168.5 Units = [eV / Ang.]
C  0.18533102 -1.04151834 -1.59935977
C  1.21068279 0.41811428 1.26716149
C  -1.04454818 -0.66962595 -0.55289952
C  0.74868960 0.32373562 0.65131498
C  -1.26620171 0.01643026 -0.74420854
C  -1.27582549 2.44267526 0.49629882
H  0.14059741 0.31654510 0.70230480
H  -0.17120307 0.35050033 -0.24688103
H  0.03755892 0.05824131 -0.14049638
H  0.27059684 -0.03740159 -0.15184606
H  0.47586110 -2.39668417 0.66184908
H  0.68846077 0.21898790 -0.34323788
12
MD Step 169.0 Units = [eV / Ang.]
C  -0.06498311 -1.05447738 -1.57904076
C  1.45729090 0.33231886 1.31392837
C  -1.10781936 -0.80315344 -0.58574588
C  0.64665657 0.23771621 0.61812661
C  -1.13953133 -0.25423131 -0.67969597
C  -1.59306639 2.37944273 0.54605056
H  0.22258857 0.34146364 0.69839793
H  -0.26509604 0.51943509 -0.27459468
H  0.00120723 0.14459759 -0.14748988
H  0.38812113 0.07728395 -0.12061411
H  0.42629096 -2.16840746 0.60285578
H  1.02834087 0.24801154 -0.39217796
12
MD Step 169.5 Units = [eV / Ang.]
C  -0.30252507 -1.00126801 -1.53752000
C  1.64885976 0.26626731 1.35049028
C  -1.14156470 -0.90611463 -0.61243763
C  0.54768350 0.15746182 0.58415441
C  -0.93134350 -0.62607337 -0.59140925
C  -1.80108651 2.25595912 0.58065026
H  0.28495735 0.33104806 0.68066572
H  -0.33208638 0.64334601 -0.29946138
H  -0.04682530 0.22964130 -0.15613389
H  0.49002298 0.17439766 -0.09121478
H  0.31295227 -1.79963286 0.52170780
H  1.27095559 0.27496759 -0.42949155
12
MD Step 170.0 Units = [eV / Ang.]
C  -0.51860790 -0.88469691 -1.47556874
C  1.77700369 0.22754675 1.37554043
C  -1.15005340 -0.97825221 -0.63343172
C  0.45714738 0.09577838 0.54893049
C  -0.63779274 -1.09641507 -0.48218158
C  -1.89562571 2.07381334 0.59770167
H  0.32558636 0.28521597 0.64949468
H  -0.36762232 0.71461968 -0.31990022
H  -0.10136490 0.31272571 -0.16581726
H  0.56983059 0.24167871 -0.06330683
H  0.13306317 -1.29041742 0.42137246
H  1.40843579 0.29840307 -0.45283340
12
MD Step 170.5 Units = [eV / Ang.]
C  -0.70583470 -0.71130293 -1.39466026
C  1.83623598 0.22063022 1.38801404
C  -1.13851503 -1.01994647 -0.64944776
C  0.37874524 0.06336528 0.51142994
C  -0.25988189 -1.65194296 -0.35719273
C  -1.87784590 1.83628638 0.59550036
H  0.34379409 0.20625387 0.60610756
H  -0.36935434 0.72925868 -0.33459823
H  -0.15639040 0.39291218 -0.17573221
H  0.62290016 0.26978565 -0.03594963
H  -0.11148280 -0.65216082 0.30719541
H  1.43762960 0.31686090 -0.46066648
12
MD Step 171.0 Units = [eV / Ang.]
C  -0.85872250 -0.49104084 -1.29687124
C  1.82402641 0.24725154 1.38714598
C  -1.11243778 -1.03212492 -0.66134718
C  0.31389699 0.06713784 0.47033083
C  0.19120209 -2.25922802 -0.22501352
C  -1.75215643 1.54860899 0.57282872
H  0.34049148 0.09878244 0.55247449
H  -0.33692585 0.68646877 -0.34260522
H  -0.20575233 0.46899218 -0.18497717
H  0.64699238 0.25383448 -0.00781960
H  -0.40874027 0.08246257 0.18790542
H  1.35812582 0.32885498 -0.45205152
12
MD Step 171.5 Units = [eV / Ang.]
C  -0.97433769 -0.23687974 -1.18476550
C  1.74096393 0.30650483 1.37252801
C  -1.07695081 -1.01621203 -0.67000824
C  0.26155838 0.10912280 0.42438535
C  0.68829270 -2.85672693 -0.09765373
C  -1.52539823 1.21802125 0.52895358
H  0.31834582 -0.03026154 0.49118081
H  -0.27191598 0.58854226 -0.34340768
H  -0.24383143 0.53957248 -0.19266475
H  0.64250411 0.19426664 0.02246009
H  -0.73100334 0.85113941 0.07559444
H  1.17177252 0.33291057 -0.42660239
12
MD Step 172.0 Units = [eV / Ang.]
C  -1.05279657 0.03576421 -1.06123037
C  1.59101486 0.39461548 1.34418618
C  -1.03637516 -0.97410754 -0.67622156
C  0.21854909 0.18619483 0.37281588
C  1.18528717 -3.35466733 0.01132431
C  -1.20746825 0.85344880 0.46387080
H  0.28186783 -0.17174232 0.42522466
H  -0.17796333 0.44108946 -0.33699791
H  -0.26605788 0.60319932 -0.19801764
H  0.61230733 0.09680386 0.05595928
H  -1.03210364 1.56167389 -0.01626026
H  0.88373854 0.32772733 -0.38465337
12
MD Step 172.5 Units = [eV / Ang.]
C  -1.09748997 0.30984561 -0.92924362
C  1.38180290 0.50447880 1.30267154
C  -0.99394736 -0.90816106 -0.68061007
C  0.18034437 0.29068428 0.31561598
C  1.62158319 -3.64935822 0.09081600
C  -0.81324753 0.46473279 0.37876594
H  0.23731112 -0.31467336 0.35772530
H  -0.06100400 0.25350589 -0.32393510
H  -0.26927998 0.65849352 -0.20044624
H  0.56124415 -0.02849848 0.09314938
H  -1.25224655 2.10645579 -0.07688501
H  0.50492967 0.31249444 -0.32762411
12
MD Step 173.0 Units = [eV / Ang.]
C  -1.11484171 0.56783980 -0.79157009
C  1.12473274 0.62521881 1.24912822
C  -0.95170408 -0.82113400 -0.68358190
C  0.14211904 0.41164873 0.25366945
C  1.93633593 -3.65215453 0.13677559
C  -0.36540069 0.06151327 0.27657151
H  0.19225966 -0.44693210 0.29155023
H  0.07053357 0.03940720 -0.30536692
H  -0.25198147 0.70427567 -0.19960276
H  0.49541689 -0.16881841 0.13375444
H  -1.33271630 2.39179182 -0.10283396
H  0.05524642 0.28734374 -0.25849381
12
MD Step 173.5 Units = [eV / Ang.]
C  -1.11351287 0.79318151 -0.65043373
C  0.83474318 0.74216429 1.18528286
C  -0.91047387 -0.71615009 -0.68531221
C  0.09972086 0.53645825 0.18867001
C  2.08859460 -3.32191893 0.15448593
C  0.10299204 -0.34794604 0.16240175
H  0.15484638 -0.55637133 0.22891282
H  0.20580561 -0.18337616 -0.28296520
H  -0.21438201 0.73966673 -0.19541443
H  0.42143076 -0.31034146 0.17676251
H  -1.23633215 2.37080119 -0.10020044
H  -0.43343252 0.25383204 -0.18218988
12
MD Step 174.0 Units = [eV / Ang.]
C  -1.10308948 0.97184978 -0.50724948
C  0.52948905 0.83764681 1.11330368
C  -0.86991998 -0.59664257 -0.68574493
C  0.05025666 0.65235999 0.12288028
C  2.07288400 -2.68285718 0.15645009
C  0.54771218 -0.75753808 0.04354858
H  0.13264325 -0.63224815 0.17103592
H  0.33213748 -0.39367132 -0.25873273
H  -0.15844296 0.76415782 -0.18809840
H  0.34572698 -0.43985727 0.22057012
H  -0.96307833 2.06156457 -0.08236778
H  -0.91631884 0.21523559 -0.10559534
12
MD Step 174.5 Units = [eV / Ang.]
C  -1.09244938 1.09383409 -0.36251154
C  0.22782190 0.89294791 1.03551314
C  -0.82861951 -0.46632275 -0.68461570
C  -0.00784687 0.74777329 0.05882202
C  1.92037319 -1.81626472 0.15693639
C  0.91657744 -1.16327170 -0.07125113
H  0.13140988 -0.66673090 0.11798849
H  0.43626575 -0.56900673 -0.23467333
H  -0.08778410 0.77764283 -0.17815721
H  0.27408728 -0.54593090 0.26320128
H  -0.55099750 1.53896325 -0.06437701
H  -1.33883808 0.17636635 -0.03687540
12
MD Step 175.0 Units = [eV / Ang.]
C  -1.08820087 1.15413884 -0.21590890
C  -0.05229368 0.89128891 0.95399613
C  -0.78417139 -0.32914032 -0.68148582
C  -0.07519376 0.81321979 -0.00101802
C  1.68489866 -0.83165368 0.16665859
C  1.15757932 -1.56214711 -0.17335411
H  0.15400753 -0.65613218 0.06877489
H  0.50616108 -0.68873334 -0.21238057
H  -0.00750974 0.78041016 -0.16635457
H  0.21132610 -0.61959839 0.30254409
H  -0.06171253 0.90564406 -0.05744280
H  -1.64489072 0.14270326 0.01597108
12
MD Step 175.5 Units = [eV / Ang.]
C  -1.09356215 1.15309260 -0.06666282
C  -0.29605959 0.82130112 0.87022810
C  -0.73339127 -0.18922885 -0.67579522
C  -0.15190673 0.84188743 -0.05441372
C  1.42287994 0.16541252 0.19041839
C  1.23071600 -1.95023420 -0.25620300
H  0.19977906 -0.60155067 0.02167403
H  0.53307186 -0.73762297 -0.19266842
H  0.07608952 0.77308847 -0.15366434
H  0.16113846 -0.65466729 0.33656732
H  0.44023887 0.25958241 -0.06649731
H  -1.78899397 0.11893945 0.04701697
12
MD Step 176.0 Units = [eV / Ang.]
C  -1.10797815 1.09587053 0.08600262
C  -0.49371792 0.67996960 0.78486298
C  -0.67262668 -0.05080533 -0.66693175
C  -0.23798766 0.82990751 -0.09955000
C  1.17794403 1.09378428 0.22790280
C  1.11949369 -2.32069562 -0.31702478
H  0.26459044 -0.50872794 -0.02525969
H  0.51321437 -0.70893193 -0.17538624
H  0.15597892 0.75654553 -0.14119129
H  0.12604475 -0.64778117 0.36350367
H  0.90330596 -0.32659958 -0.09097187
H  -1.74826177 0.10746411 0.05404354
12
MD Step 176.5 Units = [eV / Ang.]
C  -1.12752947 0.99138190 0.24239960
C  -0.64146934 0.47401786 0.69777620
C  -0.59821703 0.08198982 -0.65431857
C  -0.33336878 0.77643863 -0.13511913
C  0.97524021 1.90167291 0.27595797
C  0.83698507 -2.66275120 -0.35745163
H  0.34152469 -0.38715491 -0.07367939
H  0.44854085 -0.60588564 -0.15950854
H  0.22496921 0.73174998 -0.13006322
H  0.10736073 -0.59840777 0.38200538
H  1.29501028 -0.81055593 -0.12713105
H  -1.52904644 0.10750435 0.03913239
12
MD Step 177.0 Units = [eV / Ang.]
C  -1.14595052 0.85081825 0.40205744
C  -0.74115906 0.21921004 0.60835183
C  -0.50708076 0.20527773 -0.63751817
C  -0.43763737 0.68365427 -0.16039835
C  0.82377699 2.56112161 0.33066138
C  0.42331755 -2.96216529 -0.38275464
H  0.42201471 -0.24867863 -0.12455320
H  0.34631231 -0.44104503 -0.14347731
H  0.27642658 0.69961731 -0.12130321
H  0.10514243 -0.50884989 0.39128459
H  1.59986480 -1.17435420 -0.17025311
H  -1.16502765 0.11539383 0.00790274
12
MD Step 177.5 Units = [eV / Ang.]
C  -1.15591744 0.68620180 0.56361626
C  -0.79891972 -0.06223106 0.51589190
C  -0.39734856 0.31565164 -0.61633577
C  -0.54954641 0.55667531 -0.17533020
C  0.72244505 3.05908208 0.38846341
C  -0.06439684 -3.20312476 -0.40008072
H  0.49710418 -0.10596208 -0.17797874
H  0.21763083 -0.23377760 -0.12566831
H  0.30502416 0.66087057 -0.11569760
H  0.11808606 -0.38429361 0.39124337
H  1.81353999 -1.41491548 -0.21589954
H  -0.70770128 0.12582319 -0.03222406
12
MD Step 178.0 Units = [eV / Ang.]
C  -1.15030020 0.50918173 0.72492501
C  -0.82325449 -0.34519266 0.41998722
C  -0.26891745 0.41032435 -0.59090379
C  -0.66647689 0.40347463 -0.18060466
C  0.66616218 3.38975366 0.44646208
C  -0.56521693 -3.37076082 -0.41650606
H  0.55855265 0.02888663 -0.23320583
H  0.07544048 -0.00672151 -0.10481302
H  0.30742320 0.61595254 -0.11368204
H  0.14340282 -0.23282997 0.38258377
H  1.93690112 -1.53549627 -0.26032040
H  -0.21371648 0.13342769 -0.07392228
12
MD Step 178.5 Units = [eV / Ang.]
C  -1.12310529 0.33018754 0.88327676
C  -0.82321641 -0.60518247 0.32074127
C  -0.12380303 0.48724707 -0.56172853
C  -0.78400209 0.23461327 -0.17770718
C  0.65043812 3.54974795 0.50216783
C  -1.02556514 -3.45339322 -0.43761801
H  0.59961239 0.14531680 -0.28881594
H  -0.06739903 0.21766985 -0.08025829
H  0.28275405 0.56501546 -0.11526865
H  0.17674099 -0.06529600 0.36686355
H  1.97162622 -1.53995302 -0.30033919
H  0.26591922 0.13402679 -0.11131361
12
MD Step 179.0 Units = [eV / Ang.]
C  -1.07005337 0.15793414 1.03569632
C  -0.80707680 -0.82094667 0.21881269
C  0.03380284 0.54512804 -0.52968172
C  -0.89572940 0.06269639 -0.16888222
C  0.67398779 3.53594182 0.55308738
C  -1.40555881 -3.44397558 -0.46689969
H  0.61544300 0.23492763 -0.34297553
H  -0.19952520 0.41968694 -0.05202903
H  0.23280194 0.50799452 -0.12003053
H  0.21225851 0.10523637 0.34645226
H  1.91777246 -1.42980943 -0.33304231
H  0.69187705 0.12518583 -0.14050763
12
MD Step 179.5 Units = [eV / Ang.]
C  -0.98882392 -0.00081355 1.17921704
C  -0.78166817 -0.97592501 0.11532636
C  0.19783044 0.58339067 -0.49593269
C  -0.99352338 -0.09858839 -0.15695935
C  0.73943228 3.34540757 0.59636642
C  -1.68032880 -3.34062405 -0.50578485
H  0.60323953 0.29173315 -0.39370310
H  -0.31181472 0.58372739 -0.02074164
H  0.16183765 0.44474938 -0.12715018
H  0.24295644 0.26445988 0.32433828
H  1.77317058 -1.20369306 -0.35549796
H  1.03769208 0.10617604 -0.15947833
12
MD Step 180.0 Units = [eV / Ang.]
C  -0.87907818 -0.14134675 1.31111271
C  -0.75227262 -1.05866816 0.01172541
C  0.36091369 0.60207910 -0.46183412
C  -1.06819319 -0.23589068 -0.14501061
C  0.85207273 2.97714595 0.62866042
C  -1.83793720 -3.14639089 -0.55407557
H  0.56218863 0.31223516 -0.43910987
H  -0.39755265 0.69862136 0.01255805
H  0.07613517 0.37523589 -0.13552213
H  0.26134817 0.39834499 0.30376556
H  1.53462287 -0.85897928 -0.36466826
H  1.28775258 0.07761330 -0.16760158
12
MD Step 180.5 Units = [eV / Ang.]
C  -0.74234895 -0.26107844 1.42907911
C  -0.72285230 -1.06263259 -0.09037387
C  0.51516931 0.60173955 -0.42878234
C  -1.11061064 -0.33786600 -0.13587336
C  1.01651852 2.43581283 0.64640666
C  -1.87587590 -2.86855497 -0.61045041
H  0.49335548 0.29543538 -0.47760198
H  -0.45225574 0.75732667 0.04656785
H  -0.01673400 0.29966387 -0.14388924
H  0.26043241 0.49497276 0.28773917
H  1.20110057 -0.39586696 -0.35767946
H  1.43410124 0.04104789 -0.16514212
12
MD Step 181.0 Units = [eV / Ang.]
C  -0.58191524 -0.35963486 1.53138152
C  -0.69633965 -0.98574906 -0.18929844
C  0.65301650 0.58331283 -0.39807848
C  -1.11309285 -0.39679976 -0.13162552
C  1.23102408 1.73779401 0.64666650
C  -1.79759124 -2.51764625 -0.67290976
H  0.39956679 0.24287162 -0.50804818
H  -0.47339803 0.75642930 0.07987885
H  -0.10869899 0.21860602 -0.15098748
H  0.23482221 0.54633203 0.27849162
H  0.77908476 0.17583165 -0.33261488
H  1.47352168 -0.00134755 -0.15285574
12
MD Step 181.5 Units = [eV / Ang.]
C  -0.40266152 -0.43897561 1.61697287
C  -0.67481988 -0.83008925 -0.28340507
C  0.76790367 0.54805112 -0.37081635
C  -1.07075086 -0.40973187 -0.13315732
C  1.48025521 0.91917254 0.62857701
C  -1.60991143 -2.10639548 -0.73909802
H  0.28529881 0.15870247 -0.52991617
H  -0.46022676 0.69578221 0.11110020
H  -0.19195158 0.13303742 -0.15567702
H  0.18176481 0.54960885 0.27705538
H  0.28937912 0.82779724 -0.28987440
H  1.40572044 -0.04695964 -0.13176112
12
MD Step 182.0 Units = [eV / Ang.]
C  -0.21091266 -0.50345525 1.68557895
C  -0.65947990 -0.60178588 -0.37116084
C  0.85484171 0.49746375 -0.34780942
C  -0.98242891 -0.37878747 -0.13996801
C  1.72896647 0.04300603 0.59509015
C  -1.32175682 -1.64875249 -0.80650158
H  0.15652496 0.04976886 -0.54336606
H  -0.41377812 0.57846438 0.13897303
H  -0.25958322 0.04430892 -0.15704341
H  0.10177178 0.50759953 0.28306678
H  -0.22707140 1.50500648 -0.23378695
H  1.23290612 -0.09283686 -0.10307264
12
MD Step 182.5 Units = [eV / Ang.]
C  -0.01418748 -0.55971731 1.73773121
C  -0.65031216 -0.31122222 -0.45124255
C  0.91070021 0.43331048 -0.32956182
C  -0.85094398 -0.31062771 -0.15026007
C  1.92122348 -0.79950441 0.55408182
C  -0.94434186 -1.15911169 -0.87253446
H  0.02045973 -0.07447780 -0.54928022
H  -0.33710604 0.41107131 0.16249431
H  -0.30605475 -0.04593349 -0.15446333
H  -0.00132731 0.42811851 0.29486303
H  -0.70890381 2.12389594 -0.17357241
H  0.96079397 -0.13580162 -0.06825552
12
MD Step 183.0 Units = [eV / Ang.]
C  0.17918747 -0.61625722 1.77470866
C  -0.64564041 0.02665419 -0.52266882
C  0.93427491 0.35762266 -0.31627481
C  -0.68254126 -0.21520968 -0.16130266
C  1.98986119 -1.50033239 0.51751948
C  -0.49282384 -0.65175938 -0.93453390
H  -0.11487196 -0.20234677 -0.54919276
H  -0.23564312 0.20419414 0.18106044
H  -0.32749873 -0.13586126 -0.14763685
H  -0.12092415 0.32258061 0.30983692
H  -1.08421042 2.58339393 -0.12236338
H  0.60083033 -0.17267883 -0.02915232
12
MD Step 183.5 Units = [eV / Ang.]
C  0.36065609 -0.68254372 1.79836148
C  -0.64166227 0.39218765 -0.58495624
C  0.92619173 0.27274952 -0.30787621
C  -0.48578411 -0.10424025 -0.16994790
C  1.87644198 -1.96021147 0.49796052
C  0.01100133 -0.14047225 -0.98970481
H  -0.24127275 -0.32071293 -0.54509132
H  -0.11750898 -0.02722394 0.19461779
H  -0.32189283 -0.22359179 -0.13659249
H  -0.24858910 0.20417472 0.32493216
H  -1.29068276 2.79060156 -0.09358781
H  0.17310168 -0.20071712 0.01188482
12
MD Step 184.0 Units = [eV / Ang.]
C  0.52215343 -0.76768606 1.81080777
C  -0.63226043 0.76142459 -0.63825723
C  0.88871818 0.18140532 -0.30406179
C  -0.27025996 0.01028487 -0.17315832
C  1.55383391 -2.12024199 0.50349043
C  0.53603841 0.36196447 -1.03509422
H  -0.35117495 -0.41629540 -0.53908849
H  0.00649907 -0.26406631 0.20377942
H  -0.28913269 -0.30731821 -0.12167068
H  -0.37518147 0.08609043 0.33714304
H  -1.29810325 2.69264726 -0.09583372
H  -0.29113025 -0.21820897 0.05194381
12
MD Step 184.5 Units = [eV / Ang.]
C  0.65688614 -0.87879983 1.81404614
C  -0.60937837 1.10747206 -0.68340773
C  0.82556360 0.08668844 -0.30433717
C  -0.04552775 0.11719461 -0.16841837
C  1.03861729 -1.98302315 0.53397312
C  1.04100826 0.84442155 -1.06769100
H  -0.43849209 -0.47729920 -0.53301108
H  0.12351104 -0.48417736 0.20983893
H  -0.23103683 -0.38543169 -0.10349349
H  -0.49186289 -0.01986369 0.34390727
H  -1.12039173 2.29798779 -0.12908080
H  -0.74889667 -0.22516953 0.08767418
12
MD Step 185.0 Units = [eV / Ang.]
C  0.76001557 -1.01938616 1.80957242
C  -0.56417458 1.40299816 -0.72181826
C  0.74171684 -0.00792159 -0.30805918
C  0.17943219 0.20679671 -0.15397374
C  0.38533230 -1.61010874 0.58113787
C  1.47724072 1.29810447 -1.08473409
H  -0.49933697 -0.49512223 -0.52799886
H  0.21995961 -0.66467726 0.21461901
H  -0.15128971 -0.45662963 -0.08291987
H  -0.59084988 -0.10410004 0.34334529
H  -0.80931333 1.67381675 -0.18481789
H  -1.14873275 -0.22377043 0.11564729
12
MD Step 185.5 Units = [eV / Ang.]
C  0.82907683 -1.18809899 1.79811175
C  -0.48886658 1.62366056 -0.75517363
C  0.64329741 -0.09860925 -0.31447567
C  0.39632198 0.27117250 -0.12889385
C  -0.33340818 -1.09729076 0.63234441
C  1.79605590 1.71677277 -1.08420791
H  -0.53243409 -0.46573671 -0.52423049
H  0.28362614 -0.78525576 0.22012810
H  -0.05529919 -0.52000063 -0.06098876
H  -0.66587764 -0.15960518 0.33435338
H  -0.43402268 0.92114688 -0.24989342
H  -1.43846989 -0.21815544 0.13292611
12
MD Step 186.0 Units = [eV / Ang.]
C  0.86404383 -1.37824686 1.77955615
C  -0.37888322 1.75174717 -0.78499584
C  0.53738746 -0.18128617 -0.32276501
C  0.59739995 0.30425452 -0.09300952
C  -1.04863999 -0.54267155 0.67540231
C  1.95945186 2.09615438 -1.06538134
H  -0.53911781 -0.39037124 -0.52086913
H  0.30592018 -0.83173581 0.22808571
H  0.05005790 -0.57507524 -0.03884910
H  -0.71242461 -0.18196173 0.31659139
H  -0.05888349 0.14263651 -0.31146118
H  -1.57631206 -0.21344397 0.13769557
12
MD Step 186.5 Units = [eV / Ang.]
C  0.86703266 -1.57820258 1.75312669
C  -0.23463028 1.77900876 -0.81220322
C  0.43175585 -0.25169489 -0.33208149
C  0.77545401 0.30185761 -0.04678498
C  -1.70836839 -0.02339318 0.70177170
C  1.95042781 2.43267160 -1.02915995
H  -0.52292529 -0.27529807 -0.51625229
H  0.28370975 -0.79886265 0.23945753
H  0.15684280 -0.62182715 -0.01767640
H  -0.72780532 -0.16922916 0.29041239
H  0.27004822 -0.58087858 -0.36032761
H  -1.54154182 -0.21415171 0.12971763
12
MD Step 187.0 Units = [eV / Ang.]
C  0.84176175 -1.77260169 1.71770429
C  -0.06223111 1.70773834 -0.83683163
C  0.33441539 -0.30556557 -0.34160838
C  0.92403319 0.26177640 0.00881268
C  -2.28021687 0.41252592 0.70729174
C  1.77844859 2.72207644 -0.97806576
H  -0.48891315 -0.13080639 -0.50826726
H  0.22005580 -0.69136188 0.25416977
H  0.25663701 -0.66061223 0.00142070
H  -0.71122577 -0.12183338 0.25677286
H  0.52755110 -1.19865334 -0.39180700
H  -1.34031595 -0.22268261 0.11040800
12
MD Step 187.5 Units = [eV / Ang.]
C  0.79294402 -1.94410541 1.67221180
C  0.12706856 1.54974695 -0.85802879
C  0.25301728 -0.33885631 -0.35061407
C  1.03797243 0.18400157 0.07242199
C  -2.74724786 0.74246098 0.69120826
C  1.47732866 2.95874305 -0.91580143
H  -0.44287157 0.03035902 -0.49480058
H  0.12357271 -0.52288851 0.27111281
H  0.34127020 -0.69204230 0.01749440
H  -0.66386579 -0.04255051 0.21713830
H  0.70462861 -1.68626299 -0.40482868
H  -1.00381726 -0.23860554 0.08248599
12
MD Step 188.0 Units = [eV / Ang.]
C  0.72575485 -2.07532427 1.61593148
C  0.31863880 1.32362855 -0.87430916
C  0.19413730 -0.34808100 -0.35850714
C  1.11408655 0.07103609 0.14236574
C  -3.10189412 0.96028036 0.65469829
C  1.09650112 3.13595655 -0.84655630
H  -0.39061469 0.19468317 -0.47413924
H  0.00664898 -0.31325210 0.28842445
H  0.40363035 -0.71680669 0.02984241
H  -0.58899005 0.06341641 0.17338434
H  0.80179050 -2.03652857 -0.40047866
H  -0.57968958 -0.25900852 0.04934381
12
MD Step 188.5 Units = [eV / Ang.]
C  0.64548687 -2.15059860 1.54868376
C  0.49674393 1.05126376 -0.88395757
C  0.16255013 -0.33068110 -0.36487649
C  1.15186674 -0.07176889 0.21672513
C  -3.34104395 1.06751983 0.59967419
C  0.68951651 3.24700396 -0.77428550
H  -0.33745139 0.34935147 -0.44524398
H  -0.11684382 -0.08487728 0.30393118
H  0.43844836 -0.73547326 0.03806901
H  -0.49203333 0.18833538 0.12767594
H  0.82340093 -2.25044231 -0.38077230
H  -0.12064098 -0.27963295 0.01437662
12
MD Step 189.0 Units = [eV / Ang.]
C  0.55739701 -2.15740571 1.47085829
C  0.64667520 0.75458907 -0.88542679
C  0.16065928 -0.28539075 -0.36950647
C  1.15391244 -0.23600572 0.29343820
C  -3.46315012 1.06696956 0.52812191
C  0.30416050 3.28650606 -0.70218229
H  -0.28786956 0.48330526 -0.40786788
H  -0.23366208 0.14046465 0.31559032
H  0.44291119 -0.74831422 0.04211145
H  -0.38053365 0.32197630 0.08230497
H  0.77411964 -2.33052540 -0.34792659
H  0.32538017 -0.29616910 -0.01951512
12
MD Step 189.5 Units = [eV / Ang.]
C  0.46666311 -2.08732233 1.38333102
C  0.75629046 0.45332791 -0.87761532
C  0.18818615 -0.21252207 -0.37235948
C  1.12591995 -0.41031526 0.37044397
C  -3.46711574 0.95907612 0.44191996
C  -0.02324920 3.25148033 -0.63242600
H  -0.24539721 0.58785645 -0.36254113
H  -0.33265372 0.34394931 0.32181195
H  0.41699318 -0.75519985 0.04222551
H  -0.26377670 0.45195444 0.03947664
H  0.65728946 -2.27708630 -0.30410254
H  0.72085027 -0.30519874 -0.05016459
12
MD Step 190.0 Units = [eV / Ang.]
C  0.37837536 -1.93656145 1.28732865
C  0.81680409 0.16386056 -0.85998814
C  0.24220246 -0.11411087 -0.37353319
C  1.07604636 -0.58098784 0.44587771
C  -3.35242663 0.74092581 0.34299432
C  -0.26922215 3.14189421 -0.56618641
H  -0.21257600 0.65695593 -0.31046430
H  -0.40544930 0.51082741 0.32161837
H  0.36343027 -0.75559053 0.03893342
H  -0.15203517 0.56456033 0.00105588
H  0.47484136 -2.08716991 -0.25148903
H  1.04000934 -0.30460364 -0.07614727
12
MD Step 190.5 Units = [eV / Ang.]
C  0.29746080 -1.70614576 1.18428658
C  0.82295866 -0.10097760 -0.83257041
C  0.31749501 0.00610121 -0.37319908
C  1.01365658 -0.73315145 0.51827620
C  -3.12024696 0.40773721 0.23368273
C  -0.42147806 2.96074312 -0.50380207
H  -0.19098184 0.68725130 -0.25334811
H  -0.44652986 0.63060544 0.31466545
H  0.28734915 -0.74862803 0.03294411
H  -0.05540022 0.64613652 -0.03168112
H  0.22843915 -1.75612517 -0.19260216
H  1.26727759 -0.29354677 -0.09665213
12
MD Step 191.0 Units = [eV / Ang.]
C  0.22848039 -1.40184390 1.07572302
C  0.77283844 -0.33158162 -0.79587107
C  0.40719069 0.14284774 -0.37154038
C  0.94762910 -0.85248518 0.58674018
C  -2.77544747 -0.04279115 0.11716551
C  -0.47609658 2.71383726 -0.44503115
H  -0.18123194 0.67807939 -0.19322509
H  -0.45294873 0.69669450 0.30118035
H  0.19562677 -0.73330354 0.02506071
H  0.01764468 0.68489001 -0.05822725
H  -0.07820138 -1.28210100 -0.13066470
H  1.39451604 -0.27224250 -0.11131014
12
MD Step 191.5 Units = [eV / Ang.]
C  0.17530217 -1.03389642 0.96312706
C  0.66754839 -0.52115054 -0.75078893
C  0.50351382 0.28964739 -0.36870333
C  0.88460902 -0.92715097 0.65098253
C  -2.32958409 -0.60293488 -0.00222454
C  -0.43474879 2.40944347 -0.38930702
H  -0.18295949 0.63145322 -0.13223818
H  -0.42396974 0.70593321 0.28186700
H  0.09610669 -0.70865903 0.01609141
H  0.06158411 0.67279112 -0.07888829
H  -0.43589003 -0.67378023 -0.06987077
H  1.41848794 -0.24169633 -0.12004694
12
MD Step 192.0 Units = [eV / Ang.]
C  0.14067705 -0.61657548 0.84784280
C  0.51094323 -0.66544595 -0.69853297
C  0.59854789 0.43920604 -0.36476814
C  0.82765849 -0.94952235 0.71123038
C  -1.80441865 -1.24483528 -0.11911220
C  -0.30280319 2.05786797 -0.33594833
H  -0.19475585 0.55205086 -0.07240480
H  -0.36080813 0.65828638 0.25781017
H  -0.00319904 -0.67397844 0.00677491
H  0.07479456 0.60709263 -0.09466069
H  -0.82594082 0.03936572 -0.01523503
H  1.33930445 -0.20351210 -0.12299610
12
MD Step 192.5 Units = [eV / Ang.]
C  0.12578771 -0.16752556 0.73093235
C  0.30948206 -0.76288841 -0.64055448
C  0.68488561 0.58387683 -0.35974494
C  0.77571784 -0.91726044 0.76800056
C  -1.23463553 -1.91103273 -0.22794595
C  -0.08861569 1.67095524 -0.28429537
H  -0.21411556 0.44713372 -0.01535777
H  -0.26655617 0.55686372 0.23038045
H  -0.09481611 -0.62893395 -0.00227184
H  0.05973975 0.49101286 -0.10696646
H  -1.21702586 0.79757637 0.02830766
H  1.16015194 -0.15977767 -0.12048420
12
MD Step 193.0 Units = [eV / Ang.]
C  0.12988077 0.29318447 0.61302431
C  0.07220041 -0.81496640 -0.57847578
C  0.75610333 0.71611810 -0.35358375
C  0.72406619 -0.83347381 0.82181288
C  -0.66733407 -2.51210944 -0.32470172
C  0.19592700 1.26142831 -0.23375802
H  -0.23744684 0.32626742 0.03791483
H  -0.14627314 0.40824130 0.20112512
H  -0.17235921 -0.57366890 -0.01058369
H  0.02237877 0.33335955 -0.11732151
H  -1.56545084 1.50860377 0.05763044
H  0.88830763 -0.11298437 -0.11308309
12
MD Step 193.5 Units = [eV / Ang.]
C  0.15009102 0.74434957 0.49417468
C  -0.18928114 -0.82681158 -0.51397742
C  0.80705048 0.82893958 -0.34619425
C  0.66570878 -0.70601345 0.87293458
C  -0.15587685 -2.93885338 -0.40883905
C  0.53381112 0.84202206 -0.18377650
H  -0.26021801 0.20072061 0.08728608
H  -0.00713956 0.22292052 0.17161716
H  -0.23091927 -0.50881650 -0.01785704
H  -0.02901044 0.14720761 -0.12703314
H  -1.82138237 2.06023649 0.07337374
H  0.53716623 -0.06590152 -0.10170882
12
MD Step 194.0 Units = [eV / Ang.]
C  0.18155050 1.16527787 0.37380384
C  -0.46085525 -0.80761917 -0.44862304
C  0.83398680 0.91627080 -0.33745998
C  0.59332032 -0.54617096 0.92122319
C  0.25197572 -3.09081059 -0.48419417
C  0.90084068 0.42441350 -0.13372328
H  -0.27730407 0.08246173 0.13359096
H  0.14149454 0.01561465 0.14324410
H  -0.26729656 -0.43546444 -0.02394484
H  -0.08523908 -0.05198519 -0.13700031
H  -1.94111496 2.34932891 0.08080723
H  0.12864134 -0.02131712 -0.08772369
12
MD Step 194.5 Units = [eV / Ang.]
C  0.21784921 1.53762941 0.25077386
C  -0.72633339 -0.77051124 -0.38362007
C  0.83461552 0.97325407 -0.32725022
C  0.50116009 -0.36718057 0.96610587
C  0.52758072 -2.91144640 -0.55761795
C  1.26417241 0.01814392 -0.08281115
H  -0.28354762 -0.01719496 0.17854292
H  0.28837984 -0.19505746 0.11694428
H  -0.28010973 -0.35507696 -0.02883982
H  -0.13748348 -0.24832117 -0.14764386
H  -1.90112590 2.31736015 0.08838953
H  -0.30515767 0.01840121 -0.07297338
12
MD Step 195.0 Units = [eV / Ang.]
C  0.25182158 1.84720908 0.12364858
C  -0.96832454 -0.73146141 -0.31956570
C  0.80808820 0.99641293 -0.31541853
C  0.38633561 -0.18280611 1.00667845
C  0.66967594 -2.41109751 -0.63564003
C  1.58296065 -0.37019975 -0.03009082
H  -0.27448560 -0.08911088 0.22442504
H  0.42112712 -0.38784219 0.09294066
H  -0.26981475 -0.26938935 -0.03265282
H  -0.17820352 -0.42706968 -0.15894796
H  -1.70672182 1.97347508 0.10430093
H  -0.72245885 0.05187978 -0.05967782
12
MD Step 195.5 Units = [eV / Ang.]
C  0.27653304 2.08530947 -0.00888503
C  -1.16964712 -0.70711546 -0.25626852
C  0.75498088 0.98371148 -0.30180153
C  0.24907897 -0.00620935 1.04187937
C  0.70250793 -1.66330562 -0.72116535
C  1.81238909 -0.73722546 0.02537605
H  -0.24710029 -0.12767297 0.27359062
H  0.52751258 -0.54125379 0.07056923
H  -0.23862822 -0.18028119 -0.03558620
H  -0.20163503 -0.57572895 -0.17056769
H  -1.39012437 1.39052402 0.13297663
H  -1.07586747 0.07924782 -0.05011758
12
MD Step 196.0 Units = [eV / Ang.]
C  0.28626743 2.24931264 -0.14752619
C  -1.31513452 -0.71176880 -0.19275549
C  0.67726232 0.93451235 -0.28621953
C  0.09216483 0.15086345 1.07067043
C  0.66495308 -0.77713852 -0.81230841
C  1.91132623 -1.08216937 0.08417803
H  -0.20042174 -0.13164476 0.32787591
H  0.59716663 -0.63683357 0.04830943
H  -0.19036770 -0.08963901 -0.03790439
H  -0.20392765 -0.68456212 -0.18195765
H  -0.99915244 0.67678492 0.17378218
H  -1.32013646 0.10228279 -0.04614433
12
MD Step 196.5 Units = [eV / Ang.]
C  0.27729824 2.34238172 -0.29193518
C  -1.39347738 -0.75421743 -0.12753393
C  0.57818407 0.84946252 -0.26848386
C  -0.08005796 0.27862654 1.09217295
C  0.59689034 0.13743522 -0.90372778
C  1.85185035 -1.40554912 0.14616230
H  -0.13581320 -0.10427476 0.38808210
H  0.62327136 -0.66252420 0.02407945
H  -0.13017678 0.00078301 -0.03990267
H  -0.18306256 -0.74676514 -0.19249002
H  -0.58295868 -0.05930991 0.22223731
H  -1.42194781 0.12395155 -0.04866066
12
MD Step 197.0 Units = [eV / Ang.]
C  0.24826751 2.37232978 -0.44051212
C  -1.39860561 -0.83549674 -0.05906929
C  0.46206618 0.73034496 -0.24841913
C  -0.26255922 0.36964845 1.10573774
C  0.52924752 0.99385171 -0.98909530
C  1.62724753 -1.70733545 0.21019731
H  -0.05685406 -0.05263284 0.45367430
H  0.60377155 -0.61512539 -0.00424296
H  -0.06412575 0.08948714 -0.04187214
H  -0.13868628 -0.75847110 -0.20154893
H  -0.18148683 -0.73398981 0.27244460
H  -1.36828255 0.14738929 -0.05729409
12
MD Step 197.5 Units = [eV / Ang.]
C  0.20016484 2.34998062 -0.59043669
C  -1.33023274 -0.94832864 0.01365870
C  0.33393683 0.57992743 -0.22589503
C  -0.45021501 0.41921493 1.11096063
C  0.48041616 1.73669172 -1.06310487
C  1.25496769 -1.98527534 0.27425265
H  0.03114033 0.01362239 0.52277288
H  0.54170522 -0.50098184 -0.03822540
H  0.00131404 0.17532163 -0.04406380
H  -0.07195879 -0.71877099 -0.20860015
H  0.17858715 -1.29611809 0.31912394
H  -1.16982572 0.17471618 -0.07044287
12
MD Step 198.0 Units = [eV / Ang.]
C  0.13596600 2.28742641 -0.73794776
C  -1.19342863 -1.07851937 0.09071752
C  0.19904830 0.40182400 -0.20085803
C  -0.63803477 0.42575472 1.10766575
C  0.45782920 2.33696843 -1.12233238
C  0.77305318 -2.23401207 0.33581627
H  0.12183208 0.08371924 0.59241537
H  0.44454740 -0.33464559 -0.07841433
H  0.05989347 0.25751379 -0.04665485
H  0.01452882 -0.62986625 -0.21324237
H  0.48261481 -1.72240287 0.35853811
H  -0.85784987 0.20623957 -0.08570328
12
MD Step 198.5 Units = [eV / Ang.]
C  0.06009125 2.19651571 -0.87877263
C  -0.99743438 -1.20782884 0.17104743
C  0.06233393 0.20039892 -0.17336241
C  -0.82110201 0.39130044 1.09588404
C  0.46197815 2.78255211 -1.16513647
C  0.23154479 -2.44534219 0.39246151
H  0.20863321 0.14715757 0.65899883
H  0.32279678 -0.13599292 -0.12414512
H  0.10623562 0.33563398 -0.04972157
H  0.11677463 -0.49735369 -0.21524288
H  0.72420016 -2.00742476 0.38848497
H  -0.47605212 0.24038365 -0.10049570
12
MD Step 199.0 Units = [eV / Ang.]
C  -0.02216406 2.08777676 -1.00859056
C  -0.75413219 -1.31732698 0.25257938
C  -0.07211908 -0.01930898 -0.14358875
C  -0.99433916 0.32188227 1.07583177
C  0.49064043 3.06930673 -1.19110564
C  -0.31763513 -2.60945412 0.44233268
H  0.28538354 0.19476715 0.71877380
H  0.18826376 0.07323623 -0.17365954
H  0.13642098 0.40949186 -0.05322407
H  0.22937082 -0.33053760 -0.21455546
H  0.90114776 -2.15410787 0.40784348
H  -0.07083766 0.27427454 -0.11263710
12
MD Step 199.5 Units = [eV / Ang.]
C  -0.10514210 1.96979330 -1.12344049
C  -0.47660212 -1.39028521 0.33255823
C  -0.20146301 -0.25164777 -0.11184364
C  -1.15228210 0.22765986 1.04788391
C  0.54222900 3.19522842 -1.20045263
C  -0.82888175 -2.71664165 0.48437392
H  0.34685675 0.21937010 0.76829255
H  0.05252096 0.27249880 -0.22444194
H  0.14840395 0.47898619 -0.05700775
H  0.34558766 -0.14253919 -0.21131316
H  1.01226324 -2.16703071 0.41607112
H  0.31650951 0.30460787 -0.12068012
12
MD Step 200.0 Units = [eV / Ang.]
C  -0.18324914 1.84894094 -1.22003101
C  -0.17803271 -1.41399061 0.40793607
C  -0.32429243 -0.49044006 -0.07854242
C  -1.28900991 0.12253239 1.01252863
C  0.61794584 3.15772950 -1.19356258
C  -1.26743595 -2.75892296 0.51828590
H  0.38908420 0.21609352 0.80475645
H  -0.07418148 0.44449664 -0.27363193
H  0.14218724 0.54394359 -0.06082170
H  0.45763604 0.05009011 -0.20578618
H  1.05531772 -2.04887933 0.41285510
H  0.65403059 0.32840626 -0.12398632
12
MD Step 200.5 Units = [eV / Ang.]
C  -0.25129780 1.72934751 -1.29594595
C  0.12892822 -1.38039767 0.47571309
C  -0.44060485 -0.72911912 -0.04417576
C  -1.39837819 0.02299880 0.97029093
C  0.72270379 2.95352332 -1.17077496
C  -1.61035861 -2.73121139 0.54429970
H  0.40953811 0.18245243 0.82625580
H  -0.18346582 0.57609296 -0.31839022
H  0.11971944 0.60398689 -0.06435160
H  0.55719068 0.22851890 -0.19829877
H  1.02620819 -1.79965491 0.39799018
H  0.91981682 0.34346227 -0.12261245
12
MD Step 201.0 Units = [eV / Ang.]
C  -0.30484345 1.61293731 -1.34977645
C  0.43250351 -1.28588429 0.53317395
C  -0.55154330 -0.96094185 -0.00926657
C  -1.47458783 -0.05382196 0.92163273
C  0.86463463 2.58070930 -1.13243934
C  -1.84515103 -2.63189064 0.56290423
H  0.40724285 0.11833865 0.83192415
H  -0.26894632 0.65834946 -0.35615825
H  0.08454632 0.65846529 -0.06726133
H  0.63618978 0.37365668 -0.18911808
H  0.91943010 -1.41838797 0.37150802
H  1.10052475 0.34847001 -0.11712306
12
MD Step 201.5 Units = [eV / Ang.]
C  -0.34052135 1.49949324 -1.38119760
C  0.72195318 -1.13055012 0.57802093
C  -0.65898703 -1.17927094 0.02567710
C  -1.51299920 -0.09280946 0.86685305
C  1.05278972 2.04307862 -1.07926117
C  -1.96742043 -2.46285381 0.57462709
H  0.38285699 0.02599644 0.82202738
H  -0.32611155 0.68609546 -0.38481242
H  0.04128893 0.70645990 -0.06923628
H  0.68781753 0.46883263 -0.17834381
H  0.73021200 -0.90743679 0.33406205
H  1.18912120 0.34296482 -0.10841631
12
MD Step 202.0 Units = [eV / Ang.]
C  -0.35640353 1.38669554 -1.39100119
C  0.98773939 -0.91746526 0.60844760
C  -0.76505579 -1.37790700 0.06020553
C  -1.51100048 -0.08354945 0.80603224
C  1.29256959 1.35667612 -1.01290799
C  -1.97862785 -2.22913184 0.57992300
H  0.33874905 -0.08997419 0.79799678
H  -0.35216271 0.65741326 -0.40275251
H  -0.00495743 0.74685943 -0.07001996
H  0.70747789 0.50258005 -0.16584217
H  0.45873742 -0.27940127 0.28751884
H  1.18293447 0.32720461 -0.09760016
12
MD Step 202.5 Units = [eV / Ang.]
C  -0.35233969 1.27019852 -1.38106773
C  1.22182053 -0.65214893 0.62320336
C  -0.87163226 -1.55142390 0.09396449
C  -1.46865333 -0.02241455 0.73905722
C  1.57892688 0.55780354 -0.93668556
C  -1.88450258 -1.93826376 0.57917827
H  0.27903308 -0.22263439 0.76238511
H  -0.34595689 0.57331347 -0.40897463
H  -0.04920916 0.77848422 -0.06944047
H  0.69351182 0.47076198 -0.15126030
H  0.11639914 0.43424732 0.23555884
H  1.08260245 0.30207648 -0.08591860
12
MD Step 203.0 Units = [eV / Ang.]
C  -0.33017863 1.14382649 -1.35423557
C  1.41810054 -0.34241920 0.62169004
C  -0.97996058 -1.69545513 0.12672063
C  -1.38887534 0.08663608 0.66573615
C  1.88890188 -0.29042125 -0.85585300
C  -1.69440686 -1.59956505 0.57278993
H  0.20949648 -0.36283272 0.71870555
H  -0.30813341 0.43772109 -0.40316636
H  -0.08709635 0.80023050 -0.06742272
H  0.64745613 0.37736936 -0.13412931
H  -0.26744342 1.17585203 0.18386105
H  0.89213956 0.26905781 -0.07469640
12
MD Step 203.5 Units = [eV / Ang.]
C  -0.29376874 1.00001796 -1.31403053
C  1.57302302 0.00139523 0.60410422
C  -1.09035869 -1.80689014 0.15837557
C  -1.27706053 0.23278546 0.58596962
C  2.17738688 -1.09827589 -0.77698680
C  -1.42170408 -1.22344543 0.56126195
H  0.13732479 -0.49957292 0.67111052
H  -0.24142807 0.25776039 -0.38583708
H  -0.11524538 0.81120734 -0.06398770
H  0.57377041 0.23372886 -0.11402465
H  -0.64199879 1.86108987 0.13930639
H  0.62005917 0.23019928 -0.06526153
12
MD Step 204.0 Units = [eV / Ang.]
C  -0.24862970 0.83062510 -1.26422815
C  1.68618713 0.36603964 0.57160131
C  -1.20205353 -1.88392752 0.18896271
C  -1.14018977 0.40033992 0.49992096
C  2.38141505 -1.76195463 -0.70607986
C  -1.08495597 -0.82091416 0.54522587
H  0.07054290 -0.62074025 0.62388934
H  -0.15108296 0.04417344 -0.35845908
H  -0.13154005 0.81084708 -0.05923955
H  0.47911919 0.05638415 -0.09072777
H  -0.94003518 2.39106367 0.10793060
H  0.28122288 0.18806356 -0.05879638
12
MD Step 204.5 Units = [eV / Ang.]
C  -0.20124392 0.62808202 -1.20829154
C  1.76078398 0.73499353 0.52642135
C  -1.31312555 -1.92598927 0.21862740
C  -0.98571946 0.57133129 0.40812839
C  2.43593018 -2.18886273 -0.64597364
C  -0.70943164 -0.40331623 0.52532282
H  0.01715598 -0.71422555 0.58082869
H  -0.04516641 -0.18840542 -0.32355820
H  -0.13526111 0.79897461 -0.05334392
H  0.37141541 -0.13567799 -0.06433637
H  -1.09407438 2.67756429 0.09226460
H  -0.10126307 0.14553145 -0.05608956
12
MD Step 205.0 Units = [eV / Ang.]
C  -0.15802531 0.38685140 -1.14877769
C  1.80356989 1.08858198 0.47187762
C  -1.42053337 -1.93350016 0.24758800
C  -0.82059982 0.72800538 0.31152998
C  2.29676190 -2.32668904 -0.59468032
C  -0.32792847 0.01777421 0.50191602
H  -0.01592739 -0.76937328 0.54454552
H  0.06546473 -0.42169508 -0.28466259
H  -0.12711886 0.77583010 -0.04649987
H  0.25886518 -0.32369149 -0.03529396
H  -1.05935985 2.67248656 0.08965463
H  -0.49516863 0.10541941 -0.05719734
12
MD Step 205.5 Units = [eV / Ang.]
C  -0.12417902 0.10487746 -1.08687859
C  1.82411822 1.40490486 0.41211708
C  -1.52018535 -1.90756857 0.27608263
C  -0.65074757 0.85470149 0.21140940
C  1.95911353 -2.18092949 -0.54605795
C  0.02043108 0.43078812 0.47472458
H  -0.02398460 -0.77850903 0.51596858
H  0.16784294 -0.63488802 -0.24601917
H  -0.10918606 0.74204301 -0.03890926
H  0.14919628 -0.49111611 -0.00434676
H  -0.83188530 2.38576351 0.09301215
H  -0.86053415 0.06993279 -0.06110268
12
MD Step 206.0 Units = [eV / Ang.]
C  -0.10271846 -0.21527235 -1.02224107
C  1.83322030 1.66178118 0.35160745
C  -1.60707555 -1.84963383 0.30430199
C  -0.48108349 0.93894169 0.10929522
C  1.46024595 -1.81014988 -0.49268796
C  0.29446751 0.82465153 0.44255947
H  -0.00531981 -0.73821874 0.49413347
H  0.24836138 -0.80680792 -0.21204314
H  -0.08472155 0.69855989 -0.03074623
H  0.04915535 -0.62477026 0.02754469
H  -0.45028161 1.88080885 0.09381474
H  -1.15425003 0.04010985 -0.06553864
12
MD Step 206.5 Units = [eV / Ang.]
C  -0.09393307 -0.56589508 -0.95315761
C  1.84058727 1.83951480 0.29441103
C  -1.67548536 -1.76110983 0.33232351
C  -0.31597043 0.97183341 0.00683895
C  0.86496584 -1.30217877 -0.42912253
C  0.45815669 1.18942330 0.40338713
H  0.03839097 -0.65003303 0.47638925
H  0.29491912 -0.91889382 -0.18656563
H  -0.05787728 0.64653315 -0.02213028
H  -0.03573863 -0.71519675 0.05930889
H  0.01954964 1.25049089 0.08548522
H  -1.33756476 0.01551175 -0.06716795
12
MD Step 207.0 Units = [eV / Ang.]
C  -0.09544364 -0.93443566 -0.87708614
C  1.85237030 1.92389707 0.24342920
C  -1.71930741 -1.64307654 0.36005213
C  -0.15972621 0.94802896 -0.09430015
C  0.24357718 -0.74539219 -0.35359866
C  0.48889984 1.51669781 0.35483765
H  0.10235658 -0.52031802 0.45897786
H  0.29926994 -0.95837495 -0.17206733
H  -0.03328227 0.58718348 -0.01310752
H  -0.10126354 -0.75653833 0.08985967
H  0.50717565 0.58794348 0.06521818
H  -1.38462642 -0.00561512 -0.06221489
12
MD Step 207.5 Units = [eV / Ang.]
C  -0.10283276 -1.30451285 -0.79134984
C  1.86926113 1.90855474 0.19986424
C  -1.73250099 -1.49605999 0.38718307
C  -0.01688525 0.86548891 -0.19255528
C  -0.34571591 -0.20874099 -0.26774973
C  0.38375674 1.79951251 0.29504402
H  0.17946169 -0.35938926 0.43782725
H  0.25886257 -0.92071375 -0.16914786
H  -0.01552024 0.52165864 -0.00364560
H  -0.14448760 -0.74622257 0.11817846
H  0.95557066 -0.03389444 0.03377412
H  -1.28897003 -0.02568094 -0.04742286
12
MD Step 208.0 Units = [eV / Ang.]
C  -0.11061661 -1.65746614 -0.69381044
C  1.88584425 1.79586205 0.16309635
C  -1.70968229 -1.31993873 0.41319641
C  0.10795074 0.72525134 -0.28653880
C  -0.86408374 0.26466501 -0.17518111
C  0.16087288 2.03188952 0.22348258
H  0.26136438 -0.18009175 0.40933888
H  0.17751763 -0.81050620 -0.17642880
H  -0.00854034 0.45091803 0.00635393
H  -0.16378864 -0.68470135 0.14338742
H  1.32836992 -0.56902868 -0.00589926
H  -1.06520818 -0.04685311 -0.02099715
12
MD Step 208.5 Units = [eV / Ang.]
C  -0.11328849 -1.97409407 -0.58335664
C  1.89149033 1.59612948 0.13102085
C  -1.64677190 -1.11403358 0.43738849
C  0.21066553 0.53132514 -0.37511977
C  -1.29054855 0.65376787 -0.08001731
C  -0.14465439 2.20838692 0.14143490
H  0.33961929 0.00379834 0.37098429
H  0.06468231 -0.64053056 -0.19092986
H  -0.01508574 0.37567302 0.01702478
H  -0.15896269 -0.57536362 0.16482167
H  1.60801484 -0.99474358 -0.05010836
H  -0.74516055 -0.07031535 0.01685697
12
MD Step 209.0 Units = [eV / Ang.]
C  -0.10615529 -2.23631104 -0.46012127
C  1.87250201 1.32538966 0.10070567
C  -1.54161240 -0.87738954 0.45894077
C  0.28843416 0.29073316 -0.45750148
C  -1.61633026 0.95157042 0.01398573
C  -0.48873357 2.32403263 0.05187847
H  0.40659250 0.17901028 0.32161321
H  -0.06647647 -0.42927725 -0.20877737
H  -0.03622489 0.29640393 0.02848996
H  -0.13144250 -0.42462645 0.18210680
H  1.78959944 -1.30355321 -0.09531705
H  -0.37015271 -0.09598259 0.06399656
12
MD Step 209.5 Units = [eV / Ang.]
C  -0.08583469 -2.42851670 -0.32545579
C  1.81481739 1.00260083 0.06912537
C  -1.39442284 -0.60924121 0.47701543
C  0.34059250 0.01363126 -0.53329545
C  -1.83900880 1.15741079 0.10371492
C  -0.82696374 2.37471985 -0.04108946
H  0.45605054 0.33383777 0.26148360
H  -0.20147352 -0.19779546 -0.22599478
H  -0.07109160 0.21345441 0.04080941
H  -0.08458037 -0.24208693 0.19523742
H  1.87448204 -1.49531670 -0.13845866
H  0.01743307 -0.12269791 0.11690798
12
MD Step 210.0 Units = [eV / Ang.]
C  -0.05040888 -2.53861721 -0.18173867
C  1.70650408 0.64711073 0.03374950
C  -1.20800822 -0.30959852 0.49086373
C  0.36934569 -0.28667305 -0.60257390
C  -1.95835331 1.27143722 0.18657207
C  -1.12128334 2.35789085 -0.13300285
H  0.48343099 0.45877389 0.19208844
H  -0.32668934 0.03325013 -0.23914785
H  -0.11688216 0.12718172 0.05393196
H  -0.02388586 -0.04052422 0.20463801
H  1.86562825 -1.57151802 -0.17685909
H  0.38060210 -0.14871350 0.17147866
12
MD Step 210.5 Units = [eV / Ang.]
C  0.00069056 -2.55871105 -0.03210753
C  1.53950517 0.27697000 -0.00713539
C  -0.98768693 0.02013166 0.49992978
C  0.38009703 -0.59405258 -0.66587064
C  -1.97417636 1.29154316 0.26018017
C  -1.34338940 2.27324088 -0.21965943
H  0.48587675 0.54679353 0.11587394
H  -0.43085892 0.24568587 -0.24572166
H  -0.16912329 0.03812379 0.06766240
H  0.04295250 0.16451221 0.21117338
H  1.76511234 -1.53204204 -0.20800027
H  0.69100055 -0.17219542 0.22367524
12
MD Step 211.0 Units = [eV / Ang.]
C  0.06692007 -2.48549137 0.11981256
C  1.31046133 -0.09177609 -0.05436540
C  -0.74093995 0.37657524 0.50393495
C  0.38117735 -0.89045662 -0.72409220
C  -1.88599749 1.21250587 0.32209607
C  -1.47519357 2.12322602 -0.29747813
H  0.46215111 0.59343040 0.03592514
H  -0.50574515 0.42491683 -0.24422875
H  -0.22216681 -0.05286074 0.08165291
H  0.10644971 0.35575526 0.21607268
H  1.57360485 -1.37423989 -0.22929579
H  0.92927855 -0.19158490 0.26996597
12
MD Step 211.5 Units = [eV / Ang.]
C  0.14684686 -2.32044698 0.27016659
C  1.02074330 -0.44504043 -0.10801620
C  -0.47686343 0.75397664 0.50293081
C  0.38283682 -1.15746672 -0.77831533
C  -1.69432456 1.02723878 0.36968213
C  -1.50742477 1.91329381 -0.36358739
H  0.41253373 0.59679550 -0.04434544
H  -0.54615887 0.56016650 -0.23413122
H  -0.26980902 -0.14451782 0.09541888
H  0.15623928 0.51598651 0.22074238
H  1.29167171 -1.09421444 -0.23802770
H  1.08370894 -0.20577136 0.30748249
12
MD Step 212.0 Units = [eV / Ang.]
C  0.23829932 -2.06991179 0.41511763
C  0.67594199 -0.77027159 -0.16760058
C  -0.20550670 1.14398930 0.49732020
C  0.39555494 -1.37834048 -0.82948652
C  -1.40352675 0.73046568 0.40029141
C  -1.43757623 1.65181522 -0.41574620
H  0.33875452 0.55763716 -0.12150242
H  -0.54961096 0.64421948 -0.21567276
H  -0.30593854 -0.23520325 0.10837682
H  0.18248718 0.63031725 0.22648269
H  0.92284769 -0.69059537 -0.23159391
H  1.14827353 -0.21412161 0.33401364
12
MD Step 212.5 Units = [eV / Ang.]
C  0.33839586 -1.74497234 0.55110720
C  0.28510845 -1.05606900 -0.23225802
C  0.06283166 1.53573232 0.48783941
C  0.42794618 -1.54014059 -0.87808546
C  -1.02617638 0.32515524 0.41193058
C  -1.26805587 1.34975857 -0.45222170
H  0.24397361 0.47946873 -0.19240028
H  -0.51587353 0.67303596 -0.18970117
H  -0.32512498 -0.32296716 0.11989854
H  0.17756748 0.68852065 0.23416887
H  0.47830643 -0.17108501 -0.20822696
H  1.12110109 -0.21643738 0.34794898
12
MD Step 213.0 Units = [eV / Ang.]
C  0.44350198 -1.36119393 0.67515357
C  -0.14006734 -1.29213498 -0.30089464
C  0.31828295 1.91613494 0.47550636
C  0.48478937 -1.63536656 -0.92386095
C  -0.58800430 -0.16873054 0.40449039
C  -1.00505736 1.02012203 -0.47173595
H  0.13277168 0.36871367 -0.25451900
H  -0.44663707 0.64550990 -0.15752176
H  -0.32308964 -0.40569780 0.12937237
H  0.13756397 0.68676756 0.24399526
H  -0.01780032 0.43877642 -0.16825615
H  1.00374607 -0.21290073 0.34827049
12
MD Step 213.5 Units = [eV / Ang.]
C  0.54919146 -0.93807456 0.78517395
C  -0.58600252 -1.46972321 -0.37226382
C  0.55202919 2.27056583 0.46153830
C  0.56575692 -1.66263485 -0.96574046
C  -0.13123677 -0.70574436 0.38131627
C  -0.65836340 0.67715826 -0.47355047
H  0.01107403 0.23473009 -0.30630947
H  -0.34535116 0.56352687 -0.12078724
H  -0.29704443 -0.48129810 0.13626529
H  0.06315006 0.62824122 0.25537569
H  -0.52467220 1.08729408 -0.11567409
H  0.80146882 -0.20404127 0.33465604
12
MD Step 214.0 Units = [eV / Ang.]
C  0.65031125 -0.49810357 0.88028577
C  -1.03784022 -1.58258464 -0.44499873
C  0.75685950 2.58371880 0.44723627
C  0.66525354 -1.62621072 -1.00195848
C  0.28723018 -1.21213953 0.35035736
C  -0.24207593 0.33541747 -0.45771834
H  -0.11407884 0.08953668 -0.34750117
H  -0.21723720 0.43232946 -0.08140621
H  -0.24592135 -0.54787165 0.14018217
H  -0.04044559 0.52241925 0.26704383
H  -0.98647541 1.69421749 -0.05923171
H  0.52442007 -0.19072903 0.30770925
12
MD Step 214.5 Units = [eV / Ang.]
C  0.74124061 -0.06532002 0.96099513
C  -1.47995512 -1.62823137 -0.51764111
C  0.92763511 2.84067733 0.43385119
C  0.77341032 -1.53462139 -1.03037619
C  0.60574762 -1.59521823 0.32368018
C  0.22402024 0.00868208 -0.42545845
H  -0.23498441 -0.05293805 -0.37928093
H  -0.06938381 0.26106071 -0.04143571
H  -0.17050967 -0.60389584 0.14091884
H  -0.16435744 0.38327362 0.27732163
H  -1.34220767 2.16070365 -0.01184889
H  0.18934423 -0.17417248 0.26927431
12
MD Step 215.0 Units = [eV / Ang.]
C  0.81636802 0.33663783 1.02916334
C  -1.89640787 -1.60918782 -0.58869040
C  1.06166025 3.02806213 0.42243374
C  0.87794515 -1.39883186 -1.04888632
C  0.77473161 -1.76707115 0.31449222
C  0.71311485 -0.29108445 -0.37953015
H  -0.34397056 -0.17816734 -0.40423789
H  0.08922405 0.06320928 -0.00293158
H  -0.07352859 -0.64836836 0.13850754
H  -0.29757679 0.22694137 0.28446585
H  -1.54264695 2.39373948 0.01249475
H  -0.17891318 -0.15587912 0.22271890
12
MD Step 215.5 Units = [eV / Ang.]
C  0.87073430 0.68678571 1.08767791
C  -2.27145698 -1.53372298 -0.65671393
C  1.15892900 3.13509680 0.41369099
C  0.96637243 -1.23053992 -1.05579105
C  0.77325128 -1.67514051 0.33236356
C  1.19110006 -0.55458254 -0.32439696
H  -0.43424696 -0.27279490 -0.42600035
H  0.24792498 -0.14344248 0.03226029
H  0.04036703 -0.68090952 0.13325304
H  -0.42857548 0.06949602 0.28699018
H  -1.56725089 2.33728625 0.00367059
H  -0.54714879 -0.13753191 0.17299574
12
MD Step 216.0 Units = [eV / Ang.]
C  0.90071034 0.96900880 1.13983652
C  -2.59025783 -1.41558610 -0.72050608
C  1.22220938 3.15448083 0.40786445
C  1.02795348 -1.04096702 -1.05006301
C  0.61589519 -1.32371835 0.37912823
C  1.61855324 -0.77564556 -0.26594552
H  -0.50076119 -0.32656315 -0.44857627
H  0.39500545 -0.33777937 0.06275087
H  0.16467624 -0.70180642 0.12575195
H  -0.54667574 -0.07473176 0.28388873
H  -1.43138760 1.99406340 -0.04040200
H  -0.87592098 -0.12075530 0.12627212
12
MD Step 216.5 Units = [eV / Ang.]
C  0.90450552 1.17373376 1.18856114
C  -2.83978821 -1.27237892 -0.77925793
C  1.25690692 3.08292109 0.40465854
C  1.05491960 -0.84023113 -1.03146182
C  0.34550691 -0.77307373 0.44807715
C  1.95562479 -0.95123844 -0.21062159
H  -0.54084967 -0.33394010 -0.47552230
H  0.51878941 -0.49748153 0.08783510
H  0.29128414 -0.71197889 0.11689068
H  -0.64296289 -0.19411851 0.27473771
H  -1.17929367 1.42459230 -0.11291240
H  -1.12464286 -0.10680591 0.08901572
12
MD Step 217.0 Units = [eV / Ang.]
C  0.88237894 1.29865794 1.23566134
C  -3.00997226 -1.12266893 -0.83266572
C  1.27064226 2.92128612 0.40323778
C  1.04284294 -0.63715479 -1.00051666
C  0.01646213 -0.11685515 0.52691012
C  2.16924333 -1.08103455 -0.16410007
H  -0.55451491 -0.29500213 -0.50915772
H  0.60907931 -0.60218815 0.10761624
H  0.41090441 -0.71285250 0.10780769
H  -0.71073898 -0.28009350 0.25969200
H  -0.86728946 0.72419330 -0.20114354
H  -1.25903772 -0.09628767 0.06665855
12
MD Step 217.5 Units = [eV / Ang.]
C  0.83644787 1.34836162 1.28135556
C  -3.09475456 -0.98245126 -0.88090470
C  1.27250750 2.67437914 0.40230905
C  0.99035686 -0.43927456 -0.95841684
C  -0.32185844 0.54830907 0.60239224
C  2.24056419 -1.16671269 -0.12989375
H  -0.54425835 -0.21531658 -0.55004673
H  0.65864986 -0.63706607 0.12295449
H  0.51376501 -0.70613746 0.09981403
H  -0.74563416 -0.32708789 0.23941261
H  -0.54691830 -0.00797662 -0.29121867
H  -1.25886746 -0.08902670 0.06224274
12
MD Step 218.0 Units = [eV / Ang.]
C  0.77017966 1.33293969 1.32419292
C  -3.09282854 -0.86197677 -0.92444900
C  1.27201415 2.35039020 0.40028726
C  0.89859389 -0.25285378 -0.90685064
C  -0.63434064 1.14561205 0.66405985
C  2.16979143 -1.21114562 -0.10846357
H  -0.51453084 -0.10487151 -0.59688926
H  0.66438941 -0.59577480 0.13522400
H  0.59053097 -0.69353606 0.09426730
H  -0.74554412 -0.33233816 0.21495839
H  -0.25520737 -0.69225978 -0.37192787
H  -1.12304800 -0.08418547 0.07559063
12
MD Step 218.5 Units = [eV / Ang.]
C  0.68770321 1.26606805 1.36136141
C  -3.00774180 -0.76398661 -0.96378685
C  1.27783546 1.96014950 0.39552525
C  0.77070193 -0.08276317 -0.84782805
C  -0.90125153 1.62658785 0.70567912
C  1.97626314 -1.21767694 -0.09721960
H  -0.47096738 0.02361494 -0.64681601
H  0.62774230 -0.48184700 0.14594233
H  0.63338219 -0.67642955 0.09240824
H  -0.71053791 -0.29573904 0.18766373
H  -0.01315268 -1.27739664 -0.43630525
H  -0.86997693 -0.08058139 0.10337567
12
MD Step 219.0 Units = [eV / Ang.]
C  0.59314499 1.16298058 1.38925411
C  -2.84730020 -0.68391538 -0.99913626
C  1.29654357 1.51633508 0.38657048
C  0.61156787 0.06777888 -0.78350121
C  -1.11436375 1.96802650 0.72480206
C  1.69367930 -1.18965890 -0.09140089
H  -0.41959736 0.15655191 -0.69595954
H  0.55431480 -0.30798387 0.15639339
H  0.63707383 -0.65562063 0.09518343
H  -0.64281306 -0.21983909 0.15900380
H  0.17066427 -1.73758647 -0.48127518
H  -0.53291427 -0.07706861 0.14006583
12
MD Step 219.5 Units = [eV / Ang.]
C  0.49013153 1.03874744 1.40410628
C  -2.62240713 -0.61184625 -1.03026586
C  1.33156133 1.03273483 0.37240656
C  0.42777105 0.19759191 -0.71599169
C  -1.27180592 2.16363370 0.72146844
C  1.36247099 -1.13032766 -0.08541871
H  -0.36618450 0.28109322 -0.74011701
H  0.45278944 -0.09352670 0.16736314
H  0.59977446 -0.63120273 0.10308746
H  -0.54670903 -0.10998406 0.13044120
H  0.29500571 -2.06408519 -0.50639933
H  -0.15239792 -0.07282849 0.17931952
12
MD Step 220.0 Units = [eV / Ang.]
C  0.38154337 0.90705841 1.40255418
C  -2.34568354 -0.53543504 -1.05647469
C  1.38256292 0.52369381 0.35262847
C  0.22761822 0.30791016 -0.64720069
C  -1.37382509 2.21557029 0.69691140
C  1.02216656 -1.04296791 -0.07412257
H  -0.31577593 0.38627164 -0.77534297
H  0.33349314 0.13902893 0.17904977
H  0.52348127 -0.60260571 0.11606012
H  -0.42870048 0.02550467 0.10324203
H  0.36169214 -2.25654404 -0.51259270
H  0.23142743 -0.06748521 0.21528764
12
MD Step 220.5 Units = [eV / Ang.]
C  0.26949502 0.77948918 1.38202134
C  -2.03019405 -0.44276412 -1.07670715
C  1.44543198 0.00372614 0.32752575
C  0.02109563 0.40258710 -0.57861708
C  -1.42013584 2.12826901 0.65267706
C  0.70597557 -0.93121118 -0.05360950
H  -0.27245183 0.46362546 -0.79838254
H  0.20701231 0.36742553 0.19113407
H  0.41390093 -0.56880730 0.13346533
H  -0.29724129 0.17531033 0.07826653
H  0.37281255 -2.31658763 -0.50122162
H  0.58429902 -0.06106253 0.24344780
12
MD Step 221.0 Units = [eV / Ang.]
C  0.15547747 0.66514719 1.34093534
C  -1.68853782 -0.32440558 -1.08974373
C  1.51279352 -0.51273611 0.29805528
C  -0.18047445 0.48793509 -0.51112528
C  -1.40869408 1.90500396 0.59022319
C  0.43837859 -0.79931560 -0.02149315
H  -0.23922582 0.50741783 -0.80693126
H  0.08313582 0.57216835 0.20294591
H  0.27980760 -0.52865659 0.15415789
H  -0.16231723 0.32549371 0.05575883
H  0.32933076 -2.24419776 -0.47366650
H  0.88032564 -0.05385449 0.26088347
12
MD Step 221.5 Units = [eV / Ang.]
C  0.04056675 0.57051499 1.27880553
C  -1.33235811 -0.17440474 -1.09439375
C  1.57496144 -1.01154662 0.26572417
C  -0.36520054 0.57199629 -0.44487195
C  -1.33560019 1.54700514 0.51093750
C  0.23521114 -0.65228710 0.02323041
H  -0.21802202 0.51462205 -0.79975509
H  -0.02976570 0.73788758 0.21365213
H  0.13202478 -0.48121679 0.17662189
H  -0.03459981 0.46047956 0.03519470
H  0.23081890 -2.03676325 -0.43129661
H  1.10196336 -0.04628711 0.26615109
12
MD Step 222.0 Units = [eV / Ang.]
C  -0.07439340 0.49936697 1.19621964
C  -0.97220995 0.00966352 -1.08964532
C  1.62111378 -1.47909937 0.23240811
C  -0.52182096 0.66321058 -0.37925391
C  -1.19600487 1.05504569 0.41649244
C  0.10515325 -0.49580329 0.08050041
H  -0.20966385 0.48482698 -0.77672134
H  -0.12497243 0.85368201 0.22241720
H  -0.01775399 -0.42604093 0.19914987
H  0.07576708 0.56471441 0.01526048
H  0.07620849 -1.69075030 -0.37578110
H  1.23857685 -0.03881628 0.25895353
12
MD Step 222.5 Units = [eV / Ang.]
C  -0.18869464 0.45267699 1.09479523
C  -0.61761782 0.22718000 -1.07476010
C  1.64046883 -1.90267156 0.20014178
C  -0.64115027 0.76862260 -0.31308698
C  -0.98613480 0.43373817 0.30945156
C  0.05155833 -0.33592370 0.14951965
H  -0.21383351 0.42016191 -0.73877753
H  -0.19740715 0.91283027 0.22851574
H  -0.15809109 -0.36332704 0.22002681
H  0.16056684 0.62482765 -0.00597360
H  -0.13433877 -1.20624313 -0.30965406
H  1.28467407 -0.03187217 0.23980151
12
MD Step 223.0 Units = [eV / Ang.]
C  -0.30179701 0.42852942 0.97709481
C  -0.27716331 0.47511829 -1.04931834
C  1.62331544 -2.27085946 0.17091526
C  -0.71742723 0.89204011 -0.24496944
C  -0.70660642 -0.30123759 0.19397158
C  0.07388148 -0.17866385 0.22898709
H  -0.22899329 0.32526019 -0.68788848
H  -0.24354154 0.91227480 0.23140242
H  -0.27872082 -0.29393884 0.23769037
H  0.21475555 0.63183820 -0.03067870
H  -0.39628609 -0.59452296 -0.23697452
H  1.23858323 -0.02583830 0.20976795
12
MD Step 223.5 Units = [eV / Ang.]
C  -0.41345967 0.42210872 0.84649491
C  0.04154512 0.74852627 -1.01323767
C  1.56180229 -2.57405600 0.14649572
C  -0.74917457 1.03265920 -0.17376944
C  -0.36685157 -1.11386017 0.07626709
C  0.16830595 -0.02950568 0.31720186
H  -0.25229994 0.20720081 -0.62691568
H  -0.26136026 0.85220387 0.23075306
H  -0.37119445 -0.21931622 0.25085207
H  0.23720315 0.58282424 -0.06076174
H  -0.69650374 0.11225849 -0.16374584
H  1.10198768 -0.02104353 0.17036567
12
MD Step 224.0 Units = [eV / Ang.]
C  -0.52392071 0.42589952 0.70696662
C  0.33209435 1.04069242 -0.96677331
C  1.45050525 -2.80489449 0.12828564
C  -0.73927471 1.18463167 -0.09910191
C  0.01049592 -1.93973554 -0.03569722
C  0.32745520 0.10700433 0.41206118
H  -0.27957682 0.07530965 -0.55940410
H  -0.25046722 0.73589928 0.22648774
H  -0.42927796 -0.14131668 0.25857719
H  0.23069367 0.48152823 -0.09736918
H  -1.00915773 0.85272629 -0.09755917
H  0.88043077 -0.01774469 0.12352653
12
MD Step 224.5 Units = [eV / Ang.]
C  -0.63402185 0.43023591 0.56275088
C  0.58971320 1.34299975 -0.91051211
C  1.28679586 -2.95859450 0.11721894
C  -0.69420768 1.33772789 -0.02163969
C  0.38782072 -2.68555737 -0.13378464
C  0.53927272 0.22744132 0.51099592
H  -0.30543478 -0.05932026 -0.48924885
H  -0.21235557 0.56986489 0.21878022
H  -0.44917548 -0.06202781 0.26033080
H  0.20120186 0.33771054 -0.14054940
H  -1.29427214 1.53560003 -0.04597196
H  0.58466314 -0.01608039 0.07162989
12
MD Step 225.0 Units = [eV / Ang.]
C  -0.74516114 0.42429780 0.41792371
C  0.81186156 1.64458857 -0.84534818
C  1.07108182 -3.03315413 0.11369496
C  -0.62265009 1.47888660 0.05684144
C  0.71658741 -3.24259630 -0.21241245
C  0.78546678 0.32935606 0.61092952
H  -0.32362868 -0.18469232 -0.42024434
H  -0.15079145 0.36411793 0.20804535
H  -0.42966608 0.01642143 0.25599939
H  0.15668752 0.16545926 -0.18917044
H  -1.50217582 2.05330081 -0.01376139
H  0.23238816 -0.01598572 0.01750245
12
MD Step 225.5 Units = [eV / Ang.]
C  -0.85898209 0.39752584 0.27590514
C  0.99880816 1.93207540 -0.77242639
C  0.80696746 -3.02937126 0.11754630
C  -0.53386357 1.59417965 0.13368530
C  0.94874025 -3.51495221 -0.27118368
C  1.04023122 0.41082969 0.70834563
H  -0.32770004 -0.28916560 -0.35556715
H  -0.07216642 0.13238524 0.19489053
H  -0.37221314 0.09203539 0.24589562
H  0.10577165 -0.01901504 -0.24109013
H  -1.58522568 2.31054697 -0.00031345
H  -0.15036778 -0.01707408 -0.03568775
12
MD Step 226.0 Units = [eV / Ang.]
C  -0.97677897 0.34125870 0.13901904
C  1.15392807 2.18966505 -0.69303710
C  0.50134983 -2.95070308 0.12804544
C  -0.43633233 1.67067263 0.20575981
C  1.05227596 -3.45228523 -0.31552514
C  1.27033827 0.46989192 0.79954018
H  -0.31186184 -0.36295093 -0.29730397
H  0.01440891 -0.10813371 0.18001675
H  -0.28105975 0.16310991 0.23074653
H  0.05660920 -0.19952076 -0.29349807
H  -1.51352044 2.25751252 0.00093991
H  -0.52935690 -0.01851702 -0.08470339
12
MD Step 226.5 Units = [eV / Ang.]
C  -1.09872202 0.25026545 0.00822373
C  1.28344714 2.39995594 -0.60845878
C  0.16442738 -2.80298800 0.14395127
C  -0.33703381 1.69782260 0.26990477
C  1.02331899 -3.06919577 -0.35436512
C  1.43769935 0.50408441 0.88106833
H  -0.27198356 -0.39956013 -0.24615567
H  0.09752473 -0.33775431 0.16407140
H  -0.16326426 0.22836946 0.21165903
H  0.01613478 -0.36153003 -0.34331273
H  -1.28680697 1.90951288 0.00008011
H  -0.86474174 -0.01898251 -0.12666634
12
MD Step 227.0 Units = [eV / Ang.]
C  -1.22310754 0.12378055 -0.11688591
C  1.39541646 2.54560322 -0.51977060
C  -0.19047962 -2.59404676 0.16360687
C  -0.24139553 1.66827357 0.32330494
C  0.88743269 -2.43897419 -0.39607146
C  1.50485044 0.51044145 0.95028340
H  -0.20644092 -0.39683945 -0.20142167
H  0.16459820 -0.53620892 0.14747745
H  -0.02856978 0.28707536 0.19005011
H  -0.01030210 -0.49316495 -0.38753631
H  -0.93534223 1.34077121 0.00650503
H  -1.11666007 -0.01671110 -0.15954186
12
MD Step 227.5 Units = [eV / Ang.]
C  -1.34588362 -0.03422534 -0.23779197
C  1.49793847 2.61169541 -0.42768896
C  -0.54741881 -2.33319203 0.18509192
C  -0.15371766 1.57813497 0.36373223
C  0.68938076 -1.66574544 -0.44520437
C  1.44250444 0.48598399 1.00578432
H  -0.11659804 -0.35730547 -0.16128676
H  0.20368786 -0.68530352 0.13029418
H  0.11102357 0.33908316 0.16752877
H  -0.01900742 -0.58560299 -0.42352058
H  -0.50907110 0.65626400 0.02556357
H  -1.25283846 -0.00978674 -0.18250235
12
MD Step 228.0 Units = [eV / Ang.]
C  -1.46065360 -0.21561114 -0.35655780
C  1.59699641 2.58832607 -0.33249036
C  -0.88874545 -2.03063482 0.20642785
C  -0.07769124 1.42690057 0.38965775
C  0.47771607 -0.85178432 -0.50173949
C  1.23686205 0.42858585 1.04757664
H  -0.00676672 -0.28767458 -0.12333338
H  0.20566540 -0.77178347 0.11217161
H  0.24210466 0.38481931 0.14572614
H  -0.00784778 -0.63310296 -0.44914255
H  -0.06168127 -0.04146384 0.05770517
H  -1.25595855 0.00342335 -0.19600159
12
MD Step 228.5 Units = [eV / Ang.]
C  -1.55920073 -0.40926154 -0.47527378
C  1.69450706 2.47260045 -0.23407100
C  -1.19652811 -1.69682263 0.22581638
C  -0.01668885 1.21723256 0.40028190
C  0.29225536 -0.07566222 -0.56242226
C  0.89384409 0.33788347 1.07688047
H  0.11634629 -0.19773428 -0.08512764
H  0.16615499 -0.78961512 0.09244212
H  0.35113115 0.42515536 0.12608894
H  0.02387960 -0.63289864 -0.46292043
H  0.36226149 -0.67466683 0.09981710
H  -1.12796233 0.02378943 -0.20151178
12
MD Step 229.0 Units = [eV / Ang.]
C  -1.63241180 -0.60259875 -0.59558493
C  1.78726989 2.26940580 -0.13213721
C  -1.45433115 -1.34175201 0.24187845
C  0.02628966 0.95475557 0.39554123
C  0.15862782 0.61378084 -0.62279098
C  0.43838722 0.21590266 1.09567839
H  0.24454858 -0.09886455 -0.04472439
H  0.08660216 -0.74096091 0.07033324
H  0.42604409 0.46117840 0.10966800
H  0.07553256 -0.58514046 -0.46410954
H  0.73289632 -1.19679858 0.14727981
H  -0.88945534 0.05109199 -0.20103208
12
MD Step 229.5 Units = [eV / Ang.]
C  -1.67139410 -0.78303322 -0.71839973
C  1.86724340 1.99064857 -0.02646530
C  -1.64908855 -0.97435380 0.25383892
C  0.04901364 0.64795663 0.37613653
C  0.08910666 1.19210434 -0.67868821
C  -0.09090701 0.06716917 1.10620873
H  0.36918956 -0.00257066 -0.00098371
H  -0.02591670 -0.63552056 0.04523497
H  0.45794325 0.49389645 0.09695563
H  0.14512194 -0.49298577 -0.45280385
H  1.03416960 -1.58730118 0.19554061
H  -0.57448168 0.08399004 -0.19657460
12
MD Step 230.0 Units = [eV / Ang.]
C  -1.66852249 -0.93912050 -0.84379152
C  1.92305877 1.65322876 0.08285915
C  -1.77267137 -0.60205345 0.26161348
C  0.05061108 0.30820122 0.34359593
C  0.08666358 1.64974489 -0.72689472
C  -0.64957889 -0.10168202 1.11057975
H  0.48208298 0.08069700 0.04632688
H  -0.16006977 -0.48849411 0.01692409
H  0.44244884 0.52395121 0.08781657
H  0.22923515 -0.36282211 -0.43004714
H  1.25961290 -1.84194099 0.24082483
H  -0.22287079 0.12029011 -0.18980731
12
MD Step 230.5 Units = [eV / Ang.]
C  -1.61826028 -1.06134090 -0.97104636
C  1.94229232 1.27644056 0.19529358
C  -1.82280832 -0.23060118 0.26576910
C  0.03218025 -0.05024322 0.30034604
C  0.14948083 1.98338884 -0.76509858
C  -1.19475187 -0.28262032 1.11057315
H  0.57619351 0.14232312 0.09660693
H  -0.30235155 -0.31784277 -0.01432498
H  0.38041361 0.55142125 0.08153991
H  0.32294739 -0.20448347 -0.39792082
H  1.40763558 -1.96383054 0.28017928
H  0.12702854 0.15738864 -0.18191725
12
MD Step 231.0 Units = [eV / Ang.]
C  -1.51767028 -1.14253698 -1.09879547
C  1.91379795 0.87954343 0.30980820
C  -1.80311958 0.13579578 0.26736713
C  -0.00279958 -0.41034690 0.24972592
C  0.27452503 2.19026109 -0.79153923
C  -1.69023967 -0.46700818 1.10759774
H  0.64605309 0.17592056 0.14860707
H  -0.43922188 -0.14163507 -0.04776293
H  0.27778056 0.57577606 0.07700217
H  0.41982175 -0.03123202 -0.35954765
H  1.47783108 -1.95724867 0.31118808
H  0.44324152 0.19271088 -0.17365103
12
MD Step 231.5 Units = [eV / Ang.]
C  -1.36662986 -1.17813693 -1.22517582
C  1.82951063 0.48007120 0.42495019
C  -1.72231023 0.49406959 0.26773260
C  -0.04842355 -0.75289806 0.19585652
C  0.45976162 2.26544256 -0.80460035
C  -2.10876739 -0.64628384 1.10271659
H  0.68796728 0.17746708 0.20065619
H  -0.55877055 0.02393877 -0.08228696
H  0.14463775 0.59599101 0.07289686
H  0.51212320 0.14078328 -0.31893247
H  1.46875057 -1.82446782 0.33163106
H  0.70215054 0.22402315 -0.16544443
12
MD Step 232.0 Units = [eV / Ang.]
C  -1.16783122 -1.16627823 -1.34798773
C  1.68546755 0.09301551 0.53895590
C  -1.59275988 0.84170453 0.26820813
C  -0.09680382 -1.05772585 0.14329605
C  0.70495999 2.20174848 -0.80252552
C  -2.43190061 -0.81242338 1.09668172
H  0.70009929 0.14531991 0.25088935
H  -0.65168254 0.16568718 -0.11660479
H  -0.00627383 0.61077807 0.06797197
H  0.59135036 0.29381418 -0.28057820
H  1.37718397 -1.56522165 0.33925689
H  0.88819073 0.24958123 -0.15756374
12
MD Step 232.5 Units = [eV / Ang.]
C  -0.92663751 -1.10791725 -1.46485530
C  1.48203592 -0.26925403 0.64987581
C  -1.42887447 1.17612277 0.26994683
C  -0.13901261 -1.30564795 0.09647177
C  1.01099142 1.99192786 -0.78338503
C  -2.64875663 -0.95821155 1.08995500
H  0.68251318 0.08022474 0.29745997
H  -0.71154322 0.27376690 -0.14939173
H  -0.16122720 0.61885555 0.06122053
H  0.64911579 0.41058468 -0.24887666
H  1.19903017 -1.17860623 0.33179612
H  0.99236518 0.26815451 -0.15021732
12
MD Step 233.0 Units = [eV / Ang.]
C  -0.65087475 -1.00695497 -1.57339474
C  1.22357407 -0.59665330 0.75569256
C  -1.24553457 1.49413976 0.27377624
C  -0.16639745 -1.48087545 0.05897470
C  1.37726110 1.63324685 -0.74541782
C  -2.75443734 -1.07735155 1.08271722
H  0.63722203 -0.01462375 0.33873222
H  -0.73470464 0.34155227 -0.17941414
H  -0.30701216 0.61918314 0.05199399
H  0.67827722 0.47686566 -0.22737153
H  0.93204064 -0.66752009 0.30733842
H  1.01058584 0.27899144 -0.14362713
12
MD Step 233.5 Units = [eV / Ang.]
C  -0.35057742 -0.87033605 -1.67140397
C  0.91779211 -0.88098594 0.85442934
C  -1.05686493 1.79160456 0.28014104
C  -0.17200568 -1.57333774 0.03289994
C  1.79698487 1.13449592 -0.68787272
C  -2.74883289 -1.16449640 1.07488098
H  0.56822858 -0.13348843 0.37346017
H  -0.71996677 0.36533118 -0.20561771
H  -0.43205222 0.61111352 0.04003643
H  0.67408943 0.48396435 -0.21807576
H  0.58068531 -0.04565392 0.26518106
H  0.94251961 0.28178893 -0.13805882
12
MD Step 234.0 Units = [eV / Ang.]
C  -0.03764869 -0.70801571 -1.75706212
C  0.57502267 -1.11572947 0.94426018
C  -0.87538575 2.06325328 0.28910895
C  -0.15176188 -1.58025879 0.01844193
C  2.25067729 0.52446271 -0.61230656
C  -2.63608444 -1.21526721 1.06611532
H  0.48148714 -0.26805733 0.40094208
H  -0.66826853 0.34406954 -0.22719180
H  -0.52708835 0.59445134 0.02545509
H  0.63507832 0.43042213 -0.22105878
H  0.16270445 0.65396878 0.20710983
H  0.79126777 0.27670073 -0.13381411
12
MD Step 234.5 Units = [eV / Ang.]
C  0.27461963 -0.53266344 -1.82911503
C  0.20757047 -1.29614753 1.02362870
C  -0.71150175 2.30279463 0.30041843
C  -0.10505210 -1.50647063 0.01389930
C  2.69991345 -0.14120103 -0.52396734
C  -2.42479012 -1.22632598 1.05587522
H  0.38468602 -0.40760882 0.42113126
H  -0.58249636 0.27937634 -0.24362563
H  -0.58549365 0.56943476 0.00865314
H  0.56337267 0.32235753 -0.23444938
H  -0.28476001 1.37206429 0.13872892
H  0.56393175 0.26438988 -0.13117759
12
MD Step 235.0 Units = [eV / Ang.]
C  0.57227671 -0.35892668 -1.88699382
C  -0.17082669 -1.41975870 1.09137239
C  -0.57321173 2.50320726 0.31354698
C  -0.03454366 -1.36335634 0.01609841
C  3.08562876 -0.78022687 -0.43238387
C  -2.12882795 -1.19555722 1.04340975
H  0.28673115 -0.53955105 0.43466281
H  -0.46742277 0.17569661 -0.25476272
H  -0.60335464 0.53666961 -0.00975341
H  0.46439248 0.17233858 -0.25485778
H  -0.70371084 2.02337310 0.06996856
H  0.27286918 0.24609171 -0.13030731
12
MD Step 235.5 Units = [eV / Ang.]
C  0.84172302 -0.20219961 -1.93081788
C  -0.54543922 -1.48702866 1.14683927
C  -0.46591826 2.65720162 0.32778440
C  0.05467305 -1.16678475 0.02109687
C  3.33584830 -1.29650305 -0.35009011
C  -1.76844863 -1.12236953 1.02771825
H  0.19688491 -0.65043602 0.44275988
H  -0.32970135 0.04063263 -0.26084920
H  -0.57946025 0.49704049 -0.02901969
H  0.34599788 -0.00284462 -0.27807334
H  -1.02332841 2.50966845 0.01371292
H  -0.06283105 0.22362304 -0.13106138
12
MD Step 236.0 Units = [eV / Ang.]
C  1.07095676 -0.07693185 -1.96124991
C  -0.90099531 -1.50206509 1.18996261
C  -0.39225295 2.75779717 0.34230878
C  0.15633398 -0.93466208 0.02494886
C  3.38414890 -1.60537603 -0.28912274
C  -1.37099749 -1.00809077 1.00744519
H  0.12361095 -0.72744300 0.44700229
H  -0.17778673 -0.11480723 -0.26255276
H  -0.51529197 0.45161758 -0.04835114
H  0.21734830 -0.18483501 -0.29982158
H  -1.17864444 2.74553836 -0.01779459
H  -0.41643000 0.19925795 -0.13277503
12
MD Step 236.5 Units = [eV / Ang.]
C  1.25087370 0.00527162 -1.97921896
C  -1.22226373 -1.47298577 1.22126403
C  -0.35189450 2.79895242 0.35625980
C  0.26417295 -0.68475697 0.02432626
C  3.19253760 -1.66205174 -0.25654677
C  -0.97031386 -0.85623212 0.98074965
H  0.07332185 -0.76014080 0.44898397
H  -0.02162323 -0.27631279 -0.26092257
H  -0.41504573 0.40156115 -0.06697837
H  0.08777659 -0.35608751 -0.31638361
H  -1.13336467 2.68737640 -0.01748746
H  -0.75417698 0.17540612 -0.13404595
12
MD Step 237.0 Units = [eV / Ang.]
C  1.37631573 0.03738576 -1.98558148
C  -1.49487372 -1.41161585 1.24174243
C  -0.34142096 2.77616759 0.36881976
C  0.37264990 -0.43315047 0.01687654
C  2.76650290 -1.47780446 -0.25155807
C  -0.60390032 -0.67234906 0.94525624
H  0.04933054 -0.74216431 0.44993921
H  0.12802612 -0.42703013 -0.25725765
H  -0.28564404 0.34802525 -0.08422744
H  -0.03410888 -0.50155035 -0.32497630
H  -0.89452005 2.34997880 0.01360361
H  -1.03835720 0.15410723 -0.13263685
12
MD Step 237.5 Units = [eV / Ang.]
C  1.44658957 0.01807958 -1.98082981
C  -1.70640249 -1.33228204 1.25264964
C  -0.35429807 2.68700177 0.37929715
C  0.47707322 -0.19342166 0.00131229
C  2.15290230 -1.11396503 -0.26605797
C  -0.30760234 -0.46336707 0.89821244
H  0.05130516 -0.67237767 0.45044710
H  0.26063413 -0.54914922 -0.25287781
H  -0.13663621 0.29205668 -0.09958743
H  -0.14099046 -0.60952382 -0.32389072
H  -0.50967327 1.80047750 0.06695476
H  -1.23290153 0.13647099 -0.12562964
12
MD Step 238.0 Units = [eV / Ang.]
C  1.46525890 -0.04805366 -1.96494239
C  -1.84759408 -1.24973057 1.25517881
C  -0.38116274 2.53144827 0.38720613
C  0.57327684 0.02361196 -0.02270010
C  1.42236333 -0.65764202 -0.28823744
C  -0.10877108 -0.23662597 0.83693357
H  0.07539915 -0.55519211 0.45030770
H  0.36721904 -0.62625232 -0.24882857
H  0.02016500 0.23449225 -0.11276474
H  -0.22710870 -0.67186918 -0.31245236
H  -0.04856687 1.13352023 0.13020611
H  -1.31047879 0.12229311 -0.10990673
12
MD Step 238.5 Units = [eV / Ang.]
C  1.43925907 -0.15122717 -1.93742290
C  -1.91346995 -1.17656992 1.25015587
C  -0.41052327 2.31213800 0.39232684
C  0.65718108 0.20983639 -0.05474636
C  0.64723188 -0.19350606 -0.30681145
C  -0.02009485 0.00090191 0.75947735
H  0.11502642 -0.39993052 0.44862734
H  0.44162099 -0.64599626 -0.24560124
H  0.17143181 0.17587131 -0.12371817
H  -0.28833240 -0.68384433 -0.29088992
H  0.41952166 0.44226205 0.19150249
H  -1.25885245 0.11006460 -0.08289984
12
MD Step 239.0 Units = [eV / Ang.]
C  1.37756357 -0.27790837 -1.89750020
C  -1.90399280 -1.12090483 1.23783296
C  -0.42995022 2.03434951 0.39472651
C  0.72456563 0.35969832 -0.09387475
C  -0.11391641 0.21509893 -0.31373646
C  -0.03655470 0.24289195 0.66532841
H  0.16204309 -0.21943062 0.44407591
H  0.48139286 -0.60244681 -0.24296723
H  0.30351831 0.11638707 -0.13265369
H  -0.32215534 -0.64384691 -0.26017749
H  0.84151998 -0.20132495 0.24231178
H  -1.08403398 0.09743672 -0.04336575
12
MD Step 239.5 Units = [eV / Ang.]
C  1.28976358 -0.41261457 -1.84440274
C  -1.82405399 -1.08491149 1.21786712
C  -0.42766347 1.70581686 0.39472942
C  0.77124139 0.47013957 -0.13876076
C  -0.82127281 0.53152183 -0.30479695
C  -0.13687762 0.48345741 0.55579857
H  0.20801517 -0.02826195 0.43522322
H  0.48802600 -0.49733909 -0.24000268
H  0.40401436 0.05590860 -0.13997317
H  -0.32773056 -0.55326253 -0.22188918
H  1.18541581 -0.75242828 0.27808842
H  -0.80887785 0.08197365 0.00811875
12
MD Step 240.0 Units = [eV / Ang.]
C  1.18487346 -0.53964855 -1.77761582
C  -1.68273464 -1.06478533 1.18949486
C  -0.39428065 1.33634628 0.39283461
C  0.79361642 0.54066640 -0.18781471
C  -1.45099467 0.74126765 -0.27877009
C  -0.28887803 0.71677398 0.43395664
H  0.24527971 0.15901004 0.42085451
H  0.46644520 -0.33985024 -0.23530942
H  0.46341587 -0.00591153 -0.14617707
H  -0.30599852 -0.41649503 -0.17807014
H  1.43696426 -1.18925349 0.29746495
H  -0.46770841 0.06187983 0.06915168
12
MD Step 240.5 Units = [eV / Ang.]
C  1.07055938 -0.64452159 -1.69705388
C  -1.49203489 -1.05204118 1.15183821
C  -0.32433568 0.93727103 0.38959781
C  0.78952427 0.57354441 -0.23926173
C  -1.98940016 0.84360883 -0.23616263
C  -0.45657195 0.93684499 0.30410922
H  0.26764333 0.32920431 0.40019505
H  0.42394504 -0.14495298 -0.22736278
H  0.47654467 -0.06945196 -0.15174004
H  -0.25990609 -0.24113808 -0.13110466
H  1.59316519 -1.50479962 0.30097198
H  -0.09913310 0.03643184 0.13597345
12
MD Step 241.0 Units = [eV / Ang.]
C  0.95281002 -0.71495476 -1.60312870
C  -1.26539951 -1.03565547 1.10423146
C  -0.21720693 0.52081868 0.38550509
C  0.75910178 0.57398872 -0.29123238
C  -2.42764954 0.84368250 -0.17817589
C  -0.60656478 1.13757239 0.17105836
H  0.27070267 0.47141230 0.37301970
H  0.36889776 0.06911181 -0.21487043
H  0.44335712 -0.13490373 -0.15699053
H  -0.19463604 -0.03813308 -0.08355182
H  1.65613757 -1.69896164 0.28994846
H  0.26044988 0.00602229 0.20418667
12
MD Step 241.5 Units = [eV / Ang.]
C  0.83596737 -0.74149324 -1.49672983
C  -1.01638037 -1.00436822 1.04646660
C  -0.07720634 0.09946723 0.38087435
C  0.70545742 0.55016447 -0.34190397
C  -2.75832620 0.74690836 -0.10610694
C  -0.71213863 1.31308194 0.03940562
H  0.25187609 0.57743391 0.33966128
H  0.30957007 0.28351000 -0.19704057
H  0.36891550 -0.20207814 -0.16202872
H  -0.11769496 0.17832681 -0.03792284
H  1.62893317 -1.77286216 0.26587156
H  0.58102688 -0.02809095 0.26945348
12
MD Step 242.0 Units = [eV / Ang.]
C  0.72294571 -0.71786800 -1.37915454
C  -0.75764312 -0.94853234 0.97890720
C  0.08717306 -0.31463019 0.37580621
C  0.63486973 0.51275741 -0.38970314
C  -2.97403303 0.55594687 -0.02115246
C  -0.75472681 1.45817197 -0.08691028
H  0.21027963 0.64191387 0.30094993
H  0.25327176 0.48100910 -0.17370721
H  0.26253077 -0.27030057 -0.16670344
H  -0.03866737 0.39140900 0.00359972
H  1.51348982 -1.72572307 0.23008680
H  0.84050985 -0.06415404 0.32798122
12
MD Step 242.5 Units = [eV / Ang.]
C  0.61552028 -0.64120457 -1.25201481
C  -0.50038709 -0.86123149 0.90248071
C  0.26461550 -0.71012251 0.37018800
C  0.55629117 0.47394745 -0.43354093
C  -3.06769363 0.26998008 0.07549355
C  -0.72342913 1.56873488 -0.20480158
H  0.14655783 0.66233861 0.25811035
H  0.20589481 0.64738397 -0.14532101
H  0.13631938 -0.33841520 -0.17065061
H  0.03153363 0.58296358 0.03946378
H  1.31048981 -1.55411864 0.18384457
H  1.02428745 -0.10025615 0.37674797
12
MD Step 243.0 Units = [eV / Ang.]
C  0.51455181 -0.51219300 -1.11713790
C  -0.25410479 -0.73866773 0.81858168
C  0.44260220 -1.07680821 0.36374391
C  0.48008267 0.44576936 -0.47301565
C  -3.03436156 -0.11368706 0.18234084
C  -0.61357271 1.64207195 -0.31201066
H  0.06274608 0.63903589 0.21263351
H  0.17178167 0.77202683 -0.11284594
H  0.00353344 -0.40489378 -0.17337423
H  0.08196531 0.73554400 0.06899343
H  1.02095660 -1.25363287 0.12855842
H  1.12381927 -0.13456537 0.41353259
12
MD Step 243.5 Units = [eV / Ang.]
C  0.42012415 -0.33523588 -0.97646032
C  -0.02655431 -0.58005025 0.72894655
C  0.60891783 -1.40590556 0.35610360
C  0.41613443 0.43811951 -0.50849546
C  -2.87448905 -0.59535592 0.29718295
C  -0.42517700 1.67708120 -0.40699299
H  -0.03781580 0.57523385 0.16612455
H  0.15378653 0.84800129 -0.07761533
H  -0.12297075 -0.46800529 -0.17434440
H  0.10334485 0.83483913 0.09248883
H  0.64953495 -0.82326095 0.06620676
H  1.13516416 -0.16546112 0.43685527
12
MD Step 244.0 Units = [eV / Ang.]
C  0.33159059 -0.11851760 -0.83190312
C  0.17617042 -0.38727617 0.63551904
C  0.75282511 -1.69023064 0.34687701
C  0.37178583 0.45688955 -0.54102126
C  -2.59839496 -1.16565092 0.41667196
C  -0.16191756 1.67428566 -0.48881113
H  -0.15054648 0.47714692 0.12012154
H  0.15340219 0.87182006 -0.04117807
H  -0.23189936 -0.52599971 -0.17308620
H  0.08974048 0.87194768 0.11111348
H  0.20918197 -0.27281266 -0.00023653
H  1.05806176 -0.19160216 0.44593328
12
MD Step 244.5 Units = [eV / Ang.]
C  0.24758323 0.12610378 -0.68522121
C  0.34958447 -0.16462558 0.54032884
C  0.86580016 -1.92431601 0.33570963
C  0.35013145 0.50276203 -0.57202333
C  -2.23090991 -1.79598789 0.53608538
C  0.16913951 1.63573850 -0.55711559
H  -0.26971819 0.35397585 0.07588652
H  0.17085233 0.84319993 -0.00515135
H  -0.31424235 -0.57726395 -0.16924423
H  0.03978268 0.84486709 0.12657704
H  -0.27385023 0.36752844 -0.06655081
H  0.89584685 -0.21198219 0.44071912
12
MD Step 245.0 Units = [eV / Ang.]
C  0.16606985 0.38356865 -0.53783334
C  0.49082193 0.08138873 0.44536520
C  0.94187761 -2.10444633 0.32232823
C  0.34921978 0.57105928 -0.60293920
C  -1.81371149 -2.43003402 0.64956769
C  0.55695670 1.56476785 -0.61224497
H  -0.38866391 0.21763848 0.03418424
H  0.20509613 0.76493918 0.02892775
H  -0.36361206 -0.62043376 -0.16261897
H  -0.04300737 0.75871960 0.14069876
H  -0.75728188 1.03884358 -0.12748260
H  0.65623470 -0.22601125 0.42204720
12
MD Step 245.5 Units = [eV / Ang.]
C  0.08452766 0.63659196 -0.39066291
C  0.59873180 0.34200072 0.35243849
C  0.97772296 -2.22859806 0.30656098
C  0.36238642 0.65266365 -0.63484044
C  -1.40190675 -2.98241251 0.75105000
C  0.98527859 1.46557122 -0.65542185
H  -0.50015595 0.08205771 -0.00490684
H  0.25374100 0.64294546 0.05976028
H  -0.37633197 -0.65446051 -0.15317946
H  -0.15087251 0.62466470 0.15498671
H  -1.18586090 1.65261106 -0.17763931
H  0.35273964 -0.23363539 0.39185435
12
MD Step 246.0 Units = [eV / Ang.]
C  0.00028447 0.86723948 -0.24404759
C  0.67401915 0.60612688 0.26301195
C  0.97256053 -2.29628233 0.28834643
C  0.37962826 0.73566760 -0.66818167
C  -1.05269268 -3.35132733 0.83569073
C  1.43120133 1.34266159 -0.68895004
H  -0.59698390 -0.03810814 -0.04208803
H  0.31291277 0.48630467 0.08646234
H  -0.35141086 -0.67864640 -0.14105832
H  -0.27322828 0.45786108 0.17035167
H  -1.50248323 2.10396938 -0.21291461
H  0.00619243 -0.23546647 0.35337713
12
MD Step 246.5 Units = [eV / Ang.]
C  -0.08900192 1.05896720 -0.09777590
C  0.71938257 0.86043824 0.17801747
C  0.92807217 -2.30832243 0.26772801
C  0.38962871 0.80723258 -0.70271081
C  -0.80851496 -3.44601626 0.90118709
C  1.86439222 1.20025317 -0.71625976
H  -0.67268387 -0.12921300 -0.07877236
H  0.37716709 0.30720991 0.10874751
H  -0.29050167 -0.69266137 -0.12653681
H  -0.39837592 0.27509528 0.18701030
H  -1.66505726 2.29986449 -0.23179675
H  -0.35450718 -0.23284779 0.31116202
12
MD Step 247.0 Units = [eV / Ang.]
C  -0.18478857 1.19882232 0.04870949
C  0.73949695 1.08983129 0.09769060
C  0.84834730 -2.26662004 0.24483902
C  0.38189183 0.85515718 -0.73752063
C  -0.68261445 -3.21890461 0.94813946
C  2.24808420 1.04170047 -0.74161390
H  -0.72230849 -0.18058506 -0.11682039
H  0.43957299 0.12049279 0.12707638
H  -0.19788804 -0.69655030 -0.11002214
H  -0.51505955 0.09267930 0.20455756
H  -1.66127429 2.19172942 -0.23573905
H  -0.69345988 -0.22775278 0.27070360
12
MD Step 247.5 Units = [eV / Ang.]
C  -0.28716922 1.27928532 0.19596698
C  0.74073133 1.27847436 0.02148649
C  0.73986723 -2.17395600 0.21987597
C  0.34844610 0.86892425 -0.77119330
C  -0.65562387 -2.68484389 0.97920240
C  2.54272415 0.86912948 -0.76936890
H  -0.74306655 -0.18623986 -0.15811152
H  0.49209155 -0.05744034 0.14271140
H  -0.08045182 -0.69072584 -0.09201635
H  -0.61357750 -0.07502488 0.22214277
H  -1.51250846 1.79485593 -0.22830407
H  -0.97146294 -0.22243854 0.23760813
12
MD Step 248.0 Units = [eV / Ang.]
C  -0.39457673 1.29928633 0.34415339
C  0.73048450 1.41148439 -0.05185133
C  0.61144593 -2.03387072 0.19306341
C  0.28471880 0.84023978 -0.80198825
C  -0.68547257 -1.91535383 0.99761292
C  2.71227046 0.68335466 -0.80288505
H  -0.73468132 -0.14589198 -0.20404947
H  0.52633070 -0.21032694 0.15761065
H  0.05246761 -0.67593463 -0.07307461
H  -0.68636954 -0.21637211 0.23867396
H  -1.26434181 1.18226481 -0.21364975
H  -1.15227601 -0.21887974 0.21638412
12
MD Step 248.5 Units = [eV / Ang.]
C  -0.50378633 1.26410632 0.49268745
C  0.71615240 1.47701100 -0.12402711
C  0.47398685 -1.85060950 0.16461106
C  0.18955849 0.76324137 -0.82803444
C  -0.72436664 -1.01183006 1.00600877
C  2.73174418 0.48409997 -0.84342540
H  -0.69936802 -0.06495553 -0.25514486
H  0.53464169 -0.32422010 0.17412202
H  0.18945126 -0.65318003 -0.05375240
H  -0.72818053 -0.32264923 0.25300091
H  -0.96976594 0.45714145 -0.19527265
H  -1.21006742 -0.21815567 0.20922664
12
MD Step 249.0 Units = [eV / Ang.]
C  -0.61019902 1.18420568 0.64009156
C  0.70388702 1.46828630 -0.19675883
C  0.33987729 -1.62914229 0.13466869
C  0.06466140 0.63458601 -0.84750561
C  -0.73349445 -0.07409744 1.00601422
C  2.59348441 0.27054518 -0.88953206
H  -0.64144363 0.04645671 -0.31079772
H  0.51137528 -0.38965928 0.19450911
H  0.31774472 -0.62358899 -0.03454449
H  -0.73597433 -0.38798131 0.26405660
H  -0.67435677 -0.27955039 -0.17550510
H  -1.13556192 -0.22006016 0.21530362
12
MD Step 249.5 Units = [eV / Ang.]
C  -0.70835696 1.07336406 0.78405218
C  0.69746073 1.38505446 -0.27127279
C  0.22193906 -1.37521574 0.10328781
C  -0.08616414 0.45356658 -0.85876407
C  -0.68999354 0.82054193 0.99844248
C  2.30961253 0.04211243 -0.93723447
H  -0.56668116 0.17522512 -0.36933209
H  0.45399045 -0.40324415 0.22041536
H  0.42441293 -0.58823086 -0.01582668
H  -0.70877816 -0.40918334 0.27095987
H  -0.40900451 -0.95084719 -0.15564546
H  -0.93843725 -0.22314330 0.23091786
12
MD Step 250.0 Units = [eV / Ang.]
C  -0.79255368 0.94661042 0.92166910
C  0.69756759 1.23391573 -0.34787994
C  0.13199066 -1.09541173 0.07040117
C  -0.25762220 0.22233562 -0.86048264
C  -0.58650436 1.62301382 0.98371880
C  1.90964469 -0.20062388 -0.98106973
H  -0.48156452 0.30714927 -0.42825095
H  0.36369059 -0.36812467 0.25242430
H  0.49782562 -0.54792084 0.00218574
H  -0.64757306 -0.38572120 0.27309570
H  -0.18998199 -1.51003430 -0.13633858
H  -0.64491936 -0.22518825 0.25052703
12
MD Step 250.5 Units = [eV / Ang.]
C  -0.85740525 0.81841173 1.04980021
C  0.70178974 1.02744609 -0.42577288
C  0.07922645 -0.79716121 0.03583373
C  -0.44327662 -0.05374066 -0.85175061
C  -0.42675354 2.30725569 0.96223808
C  1.43427317 -0.45516636 -1.01549580
H  -0.39260321 0.42865784 -0.48461539
H  0.24537846 -0.29324598 0.28985670
H  0.52925181 -0.50306088 0.01944836
H  -0.55529259 -0.31987808 0.27018434
H  -0.02298225 -1.93561147 -0.11792653
H  -0.29160616 -0.22390670 0.26819980
12
MD Step 251.0 Units = [eV / Ang.]
C  -0.89829788 0.70135692 1.16540374
C  0.70523921 0.78234705 -0.50309646
C  0.06878792 -0.48866377 -0.00065559
C  -0.63567510 -0.36565675 -0.83217127
C  -0.22043509 2.86098332 0.93457990
C  0.92775829 -0.71669247 -1.03614618
H  -0.30580137 0.52804395 -0.53544097
H  0.10693710 -0.19159463 0.33086124
H  0.51421575 -0.45357974 0.03605959
H  -0.43689212 -0.21708778 0.26234596
H  0.09212856 -2.22190219 -0.10068154
H  0.08203473 -0.21755391 0.27894157
12
MD Step 251.5 Units = [eV / Ang.]
C  -0.91166246 0.60537859 1.26581184
C  0.70165121 0.51717761 -0.57725165
C  0.10087043 -0.17867710 -0.03930132
C  -0.82638025 -0.70042826 -0.80193961
C  0.02093302 3.27734914 0.90160607
C  0.43141491 -0.97814199 -1.04053200
H  -0.22631316 0.59616188 -0.57803370
H  -0.04193733 -0.07799062 0.37275122
H  0.45327878 -0.39900510 0.05219843
H  -0.29938886 -0.08628905 0.25014589
H  0.15755488 -2.37027393 -0.08494459
H  0.43997884 -0.20526117 0.27948943
12
MD Step 252.0 Units = [eV / Ang.]
C  -0.89511109 0.53740349 1.34891024
C  0.68460508 0.25021541 -0.64531329
C  0.17063297 0.12382491 -0.08025232
C  -1.00610076 -1.04105121 -0.76186942
C  0.28679275 3.54948096 0.86449252
C  -0.02040154 -1.23075673 -1.02812482
H  -0.15825270 0.62669249 -0.61023277
H  -0.19103146 0.03300505 0.41246630
H  0.35202032 -0.33866189 0.06804665
H  -0.15171680 0.05994747 0.23459605
H  0.17520605 -2.38304556 -0.07121703
H  0.75335718 -0.18705440 0.26849791
12
MD Step 252.5 Units = [eV / Ang.]
C  -0.84749583 0.50124421 1.41323578
C  0.64858079 -0.00212031 -0.70443203
C  0.26892909 0.41006206 -0.12350597
C  -1.16511664 -1.36705310 -0.71333951
C  0.56917428 3.66809966 0.82473094
C  -0.40173482 -1.46489775 -0.99999485
H  -0.10459793 0.61615786 -0.63056560
H  -0.33073318 0.12864273 0.44702300
H  0.22021545 -0.27194262 0.08371665
H  -0.00423520 0.20583756 0.21708037
H  0.14551879 -2.26037145 -0.06023372
H  1.00149519 -0.16365885 0.24628493
12
MD Step 253.0 Units = [eV / Ang.]
C  -0.76893637 0.49758696 1.45802883
C  0.58964740 -0.22618948 -0.75213931
C  0.38365512 0.67187571 -0.16887201
C  -1.29411346 -1.65588948 -0.65813454
C  0.86339334 3.62189382 0.78411061
C  -0.69468017 -1.67094484 -0.95827541
H  -0.06712045 0.56385818 -0.63834153
H  -0.45280827 0.19886475 0.47386245
H  0.07042990 -0.19857188 0.09920580
H  0.13220550 0.33362052 0.19918103
H  0.06722124 -1.99987627 -0.05301819
H  1.17110622 -0.13622799 0.21439227
12
MD Step 253.5 Units = [eV / Ang.]
C  -0.66089730 0.52397220 1.48325841
C  0.50578946 -0.41147187 -0.78652274
C  0.50139107 0.90208775 -0.21597942
C  -1.38538538 -1.88523211 -0.59818321
C  1.16776151 3.40051674 0.74465264
C  -0.88823722 -1.84008583 -0.90565900
H  -0.04629089 0.47184544 -0.63370623
H  -0.55081223 0.23659970 0.49106205
H  -0.08362762 -0.11879704 0.11438610
H  0.24758522 0.42567972 0.18241540
H  -0.06198269 -1.59901565 -0.05088148
H  1.25470608 -0.10609903 0.17515749
12
MD Step 254.0 Units = [eV / Ang.]
C  -0.52632097 0.57476560 1.48964034
C  0.39693816 -0.55056091 -0.80630478
C  0.60896948 1.09476006 -0.26431205
C  -1.43414278 -2.03588612 -0.53525200
C  1.48199023 3.00037528 0.70843438
C  -0.97715914 -1.96488947 -0.84503940
H  -0.04113896 0.34496336 -0.61766521
H  -0.62022912 0.23769023 0.49743156
H  -0.22864064 -0.03346633 0.12902489
H  0.33417861 0.46727610 0.16793507
H  -0.24357456 -1.06040901 -0.05528616
H  1.24912969 -0.07461880 0.13139336
12
MD Step 254.5 Units = [eV / Ang.]
C  -0.36979782 0.64118537 1.47862401
C  0.26485456 -0.63902961 -0.81086040
C  0.69473203 1.24535534 -0.31327018
C  -1.43952140 -2.09471778 -0.47067304
C  1.80385114 2.43315454 0.67719505
C  -0.96127196 -2.03961118 -0.77931651
H  -0.04909549 0.19088833 -0.59205640
H  -0.65846889 0.20068136 0.49253469
H  -0.35287799 0.05600027 0.14282697
H  0.38777661 0.44926359 0.15627655
H  -0.47488155 -0.40013355 -0.06745607
H  1.15470077 -0.04303666 0.08617534
12
MD Step 255.0 Units = [eV / Ang.]
C  -0.19770730 0.71154121 1.45231599
C  0.11300345 -0.67533914 -0.80022271
C  0.74936007 1.35080722 -0.36223600
C  -1.40488014 -2.05680029 -0.40519788
C  2.12402804 1.73560298 0.65161523
C  -0.84542849 -2.06025923 -0.71130382
H  -0.06588801 0.02003280 -0.55943709
H  -0.66485023 0.12664945 0.47667932
H  -0.44695339 0.14771934 0.15548263
H  0.40829084 0.36999421 0.14725169
H  -0.74425938 0.34248691 -0.08762347
H  0.97528453 -0.01243546 0.04267612
12
MD Step 255.5 Units = [eV / Ang.]
C  -0.01820069 0.77185340 1.41329877
C  -0.05350831 -0.66085581 -0.77509425
C  0.76629007 1.40953965 -0.41063251
C  -1.33716118 -1.92615141 -0.33902232
C  2.42034904 0.97640884 0.63031189
C  -0.64008680 -2.02451908 -0.64364954
H  -0.08560558 -0.15487039 -0.52284337
H  -0.64063934 0.01915259 0.45089764
H  -0.50419610 0.23949305 0.16671182
H  0.39954345 0.23578293 0.14002310
H  -1.02598720 1.09783645 -0.11396187
H  0.71920264 0.01632979 0.00396062
12
MD Step 256.0 Units = [eV / Ang.]
C  0.15910349 0.80699572 1.36431672
C  -0.22791049 -0.59997196 -0.73685821
C  0.74182100 1.42145355 -0.45797031
C  -1.24539680 -1.71486154 -0.27195265
C  2.65447916 0.25333894 0.60891956
C  -0.36228989 -1.93165840 -0.57865283
H  -0.10105762 -0.31965782 -0.48540355
H  -0.58915325 -0.11570189 0.41691517
H  -0.52075552 0.32896986 0.17629804
H  0.36832691 0.05977066 0.13333893
H  -1.27788865 1.76861478 -0.14160589
H  0.40072167 0.04270808 -0.02734498
12
MD Step 256.5 Units = [eV / Ang.]
C  0.32380833 0.80237435 1.30786039
C  -0.40172355 -0.50022586 -0.68755828
C  0.67503603 1.38787117 -0.50387655
C  -1.13876664 -1.44095088 -0.20364321
C  2.77540152 -0.32506865 0.58005084
C  -0.03660231 -1.78254432 -0.51790012
H  -0.10450492 -0.46013824 -0.44984077
H  -0.51585973 -0.26917088 0.37708217
H  -0.49557678 0.41380278 0.18411004
H  0.32305328 -0.14042081 0.12584232
H  -1.44578898 2.24793396 -0.16257306
H  0.04152375 0.06653738 -0.04955377
12
MD Step 257.0 Units = [eV / Ang.]
C  0.46583493 0.74595052 1.24573227
C  -0.56485373 -0.37224989 -0.62980277
C  0.56765025 1.31144692 -0.54810437
C  -1.02480728 -1.12567009 -0.13381354
C  2.73213714 -0.67111865 0.53490220
C  0.30477892 -1.57980967 -0.46172855
H  -0.08874332 -0.56387928 -0.41796135
H  -0.42834005 -0.42994291 0.33422761
H  -0.43034329 0.49180399 0.19011186
H  0.27239479 -0.34550022 0.11635586
H  -1.47694470 2.45086443 -0.16737984
H  -0.32876366 0.08810485 -0.06253936
12
MD Step 257.5 Units = [eV / Ang.]
C  0.57673911 0.63020704 1.17872942
C  -0.70597708 -0.22937239 -0.56655158
C  0.42387305 1.19602062 -0.59052500
C  -0.90833369 -0.79094268 -0.06239316
C  2.49228766 -0.74914086 0.46639374
C  0.62363337 -1.32813887 -0.40867864
H  -0.04835570 -0.62202363 -0.39027711
H  -0.33595413 -0.58455592 0.29140352
H  -0.32943584 0.56109850 0.19436101
H  0.22421916 -0.53703958 0.10407014
H  -1.33870255 2.34576442 -0.14823909
H  -0.67399336 0.10812335 -0.06829326
12
MD Step 258.0 Units = [eV / Ang.]
C  0.65099294 0.45358688 1.10656935
C  -0.81338825 -0.08669521 -0.50077594
C  0.25028604 1.04640605 -0.63109659
C  -0.79135858 -0.45742958 0.01041772
C  2.05682012 -0.58799393 0.37235337
C  0.87980521 -1.03441710 -0.35524972
H  0.01915661 -0.63070293 -0.36590039
H  -0.24907045 -0.71833990 0.25151188
H  -0.19987730 0.62027717 0.19699326
H  0.18495684 -0.69925399 0.08861624
H  -1.03273047 1.96699176 -0.10232791
H  -0.95559271 0.12757079 -0.07111126
12
MD Step 258.5 Units = [eV / Ang.]
C  0.68683982 0.22098396 1.02811368
C  -0.87631152 0.04038536 -0.43503364
C  0.05571014 0.86812994 -0.66981571
C  -0.67390670 -0.14332992 0.08415830
C  1.46187240 -0.26665332 0.25675486
C  1.03757205 -0.70752464 -0.29629042
H  0.11270387 -0.59162954 -0.34277680
H  -0.17784113 -0.81692567 0.21686331
H  -0.05119481 0.66853273 0.19819075
H  0.15936373 -0.81992169 0.07004175
H  -0.59577319 1.40056611 -0.03310361
H  -1.13903466 0.14738667 -0.07710247
12
MD Step 259.0 Units = [eV / Ang.]
C  0.68648399 -0.05681318 0.94183640
C  -0.88651078 0.13807866 -0.37105693
C  -0.14907363 0.66713893 -0.70665232
C  -0.55527969 0.13623812 0.15815172
C  0.76659304 0.11766537 0.12823600
C  1.07282031 -0.35772367 -0.22615355
H  0.22760545 -0.51170615 -0.31820157
H  -0.13067896 -0.86816139 0.18876690
H  0.10493246 0.70575004 0.19813358
H  0.15055614 -0.89061544 0.04873368
H  -0.08636028 0.75204284 0.05113524
H  -1.20108804 0.16810588 -0.09292916
12
MD Step 259.5 Units = [eV / Ang.]
C  0.65554294 -0.36454049 0.84638733
C  -0.83984334 0.19614103 -0.30948412
C  -0.35185749 0.44955771 -0.74147551
C  -0.43525282 0.36953327 0.23157033
C  0.03506814 0.48020580 -0.00300379
C  0.97855376 0.00412677 -0.14033743
H  0.35626917 -0.40176763 -0.28946707
H  -0.11277943 -0.86405463 0.16728076
H  0.25533985 0.73250668 0.19693583
H  0.16016422 -0.90655878 0.02532088
H  0.43413139 0.11527384 0.14034537
H  -1.13533640 0.18957644 -0.12407258
12
MD Step 260.0 Units = [eV / Ang.]
C  0.60195202 -0.68432934 0.74107836
C  -0.73730213 0.20939269 -0.24983827
C  -0.53990772 0.22155077 -0.77398434
C  -0.31481694 0.54838277 0.30349711
C  -0.67789177 0.76506709 -0.12804215
C  0.76646523 0.36723588 -0.03700079
H  0.48933742 -0.27483420 -0.25445188
H  -0.12510598 -0.80224708 0.15122522
H  0.38642792 0.74994889 0.19457807
H  0.18848204 -0.86640335 0.00058296
H  0.91607812 -0.44466600 0.22560682
H  -0.95371822 0.21090186 -0.17325110
12
MD Step 260.5 Units = [eV / Ang.]
C  0.53464796 -0.99755209 0.62617146
C  -0.58522356 0.17835072 -0.19077886
C  -0.70118652 -0.01067941 -0.80366127
C  -0.19630282 0.66839893 0.37299068
C  -1.33253810 0.94611811 -0.24066027
C  0.46390054 0.72120797 0.08228610
H  0.61697822 -0.14432679 -0.21201221
H  -0.16417743 -0.68657139 0.13847871
H  0.48554044 0.75953422 0.19085258
H  0.23453496 -0.77212935 -0.02462985
H  1.32726685 -0.89299925 0.30059049
H  -0.68344052 0.23064834 -0.23962755
12
MD Step 261.0 Units = [eV / Ang.]
C  0.46235873 -1.28634407 0.50293035
C  -0.39454034 0.10882614 -0.13055133
C  -0.82576405 -0.24078400 -0.82976630
C  -0.08291409 0.72925061 0.43915294
C  -1.90290934 1.01887502 -0.33735757
C  0.10747846 1.05609131 0.21282172
H  0.73001297 -0.02261383 -0.16212107
H  -0.22273507 -0.52652034 0.12647552
H  0.54249478 0.76267708 0.18534408
H  0.29602735 -0.62915378 -0.04946881
H  1.65107343 -1.21752752 0.36161535
H  -0.36058284 0.24722339 -0.31907489
12
MD Step 261.5 Units = [eV / Ang.]
C  0.39271956 -1.53466992 0.37348450
C  -0.17929907 0.01060895 -0.06749052
C  -0.90712351 -0.46213272 -0.85138761
C  0.02212855 0.73492964 0.50120689
C  -2.37231002 0.99035872 -0.41658506
C  -0.26416428 1.36232138 0.34786017
H  0.82070313 0.07993673 -0.10579137
H  -0.29108568 -0.33577308 0.11275726
H  0.55097433 0.76038025 0.17746327
H  0.36920137 -0.44655803 -0.07315851
H  1.88113929 -1.41866280 0.40691419
H  -0.02288367 0.25926089 -0.40527321
12
MD Step 262.0 Units = [eV / Ang.]
C  0.33178658 -1.72899048 0.24059089
C  0.04514793 -0.10433126 -0.00043600
C  -0.94305615 -0.66775690 -0.86754559
C  0.11659172 0.69387530 0.55857578
C  -2.72867754 0.87092467 -0.47780643
C  -0.61621775 1.63077066 0.47996788
H  0.88316287 0.15540943 -0.04486137
H  -0.35871145 -0.13021622 0.09542618
H  0.50946114 0.75296005 0.16653730
H  0.44867585 -0.23724204 -0.09507217
H  2.01584813 -1.50127516 0.43572384
H  0.29598866 0.26587193 -0.49110031
12
MD Step 262.5 Units = [eV / Ang.]
C  0.28387821 -1.85868167 0.10736662
C  0.26385340 -0.22363721 0.07103647
C  -0.93590071 -0.85048792 -0.87733713
C  0.20009571 0.61872662 0.61095183
C  -2.96131610 0.66914688 -0.52073743
C  -0.92101867 1.85300704 0.60215709
H  0.91348262 0.19844077 0.01827615
H  -0.41573171 0.07404104 0.07340761
H  0.42147688 0.73995185 0.15194397
H  0.52739822 -0.01768987 -0.11480338
H  2.05421892 -1.46952907 0.44755044
H  0.56956321 0.26671154 -0.56981223
12
MD Step 263.0 Units = [eV / Ang.]
C  0.25161781 -1.91634117 -0.02295450
C  0.46358414 -0.33597612 0.14657162
C  -0.89205747 -1.00329656 -0.88008475
C  0.27461158 0.52541070 0.65832908
C  -3.05937262 0.38943259 -0.54488341
C  -1.15895061 2.02174965 0.70854300
H  0.90969289 0.20614016 0.08094692
H  -0.45393805 0.26225611 0.04650874
H  0.29505738 0.72022962 0.13325721
H  0.59686820 0.19297507 -0.13221615
H  1.99366274 -1.32447788 0.44173887
H  0.77922404 0.26189783 -0.63575664
12
MD Step 263.5 Units = [eV / Ang.]
C  0.23603486 -1.89809571 -0.14723390
C  0.63361973 -0.43190783 0.22513686
C  -0.82089809 -1.11981127 -0.87545412
C  0.34437479 0.43142852 0.70097198
C  -3.01206496 0.03186815 -0.54941301
C  -1.31773350 2.13143522 0.79453701
H  0.87169592 0.17800115 0.14045186
H  -0.46732646 0.42207105 0.01532065
H  0.14160654 0.69229800 0.11036802
H  0.64776955 0.37482567 -0.14744663
H  1.82966089 -1.06397268 0.41738829
H  0.91326072 0.25185973 -0.68462701
12
MD Step 264.0 Units = [eV / Ang.]
C  0.23663214 -1.80392960 -0.26262010
C  0.76610068 -0.50425079 0.30519491
C  -0.73335422 -1.19489246 -0.86351461
C  0.41513158 0.35340755 0.73930473
C  -2.81081350 -0.40574559 -0.53342486
C  -1.39108044 2.17876742 0.85675796
H  0.80123675 0.11588828 0.19431396
H  -0.45221307 0.54399006 -0.01896493
H  -0.02559485 0.65466560 0.08355262
H  0.67105158 0.50975579 -0.16083559
H  1.55755652 -0.68484066 0.37366550
H  0.96534682 0.23718440 -0.71342960
12
MD Step 264.5 Units = [eV / Ang.]
C  0.25138095 -1.63802079 -0.36674674
C  0.85607312 -0.54812125 0.38489268
C  -0.64047989 -1.22516228 -0.84473283
C  0.49279635 0.30439984 0.77372957
C  -2.45364854 -0.92328275 -0.49668929
C  -1.37743523 2.16316599 0.89286405
H  0.70192993 0.02412743 0.24053236
H  -0.40710157 0.62149322 -0.05476355
H  -0.19290974 0.60619702 0.05347528
H  0.65933163 0.58440202 -0.17279465
H  1.17684478 -0.18770757 0.31059354
H  0.93321819 0.21850911 -0.72036041
12
MD Step 265.0 Units = [eV / Ang.]
C  0.27668696 -1.40895465 -0.45794823
C  0.90135639 -0.56085548 0.46223175
C  -0.55227551 -1.20936130 -0.81990881
C  0.58181440 0.29163951 0.80442322
C  -1.95197269 -1.51068441 -0.44090569
C  -1.27924247 2.08697156 0.90147894
H  0.57928544 -0.09037251 0.27784921
H  -0.33246037 0.65098606 -0.09029658
H  -0.34762028 0.54636529 0.02113465
H  0.60830372 0.59257872 -0.18364076
H  0.69809013 0.41521772 0.23033660
H  0.81803427 0.19646950 -0.70475430
12
MD Step 265.5 Units = [eV / Ang.]
C  0.30743278 -1.12968583 -0.53548010
C  0.90235059 -0.54197802 0.53521680
C  -0.47688052 -1.14849678 -0.79007532
C  0.68367066 0.31547263 0.83118148
C  -1.33851864 -2.13813578 -0.37124605
C  -1.10291242 1.95536056 0.88230661
H  0.44062796 -0.21810178 0.30600931
H  -0.23052607 0.63176740 -0.12377191
H  -0.47884441 0.47537487 -0.01222953
H  0.51775102 0.53645305 -0.19345632
H  0.15126898 1.09027142 0.13873426
H  0.62458005 0.17169826 -0.66718923
12
MD Step 266.0 Units = [eV / Ang.]
C  0.33721823 -0.81704386 -0.59969498
C  0.86183915 -0.49331885 0.60199507
C  -0.42018325 -1.04574840 -0.75638410
C  0.79600455 0.36979266 0.85338341
C  -0.67274034 -2.74748160 -0.29744971
C  -0.85949759 1.77587112 0.83644971
H  0.29478150 -0.34722111 0.32595558
H  -0.10517528 0.56611109 -0.15355568
H  -0.57806788 0.39416346 -0.04524751
H  0.39182694 0.42604921 -0.20203035
H  -0.40825920 1.77397624 0.04632804
H  0.36225316 0.14485003 -0.60974948
12
MD Step 266.5 Units = [eV / Ang.]
C  0.35894451 -0.49063513 -0.65209212
C  0.78475955 -0.41924400 0.66100419
C  -0.38575837 -0.90617869 -0.71999876
C  0.91262310 0.44379315 0.87009764
C  -0.03751850 -3.25161132 -0.23324222
C  -0.56584666 1.55755192 0.76684756
H  0.15141216 -0.46430775 0.33987194
H  0.03816041 0.45945136 -0.17834700
H  -0.63937618 0.30431612 -0.07653267
H  0.23850124 0.27723889 -0.20890154
H  -0.90240735 2.37300141 -0.03234948
H  0.04650610 0.11662401 -0.53635754
12
MD Step 267.0 Units = [eV / Ang.]
C  0.36571238 -0.17110041 -0.69515453
C  0.67793567 -0.32690559 0.71113095
C  -0.37499789 -0.73627742 -0.68200041
C  1.02439231 0.52436382 0.88029559
C  0.47776829 -3.54881641 -0.19310710
C  -0.24568849 1.30981544 0.67862663
H  0.02002897 -0.55564872 0.35098652
H  0.19260293 0.32056866 -0.19735556
H  -0.65950745 0.20792435 -0.10478961
H  0.06835961 0.10889451 -0.21348200
H  -1.24672003 2.77942676 -0.08216827
H  -0.29988631 0.08775502 -0.45298221
12
MD Step 267.5 Units = [eV / Ang.]
C  0.35196599 0.12211407 -0.73193194
C  0.54969279 -0.22629002 0.75186897
C  -0.38732850 -0.54343970 -0.64330687
C  1.12074394 0.59839898 0.88309056
C  0.80510138 -3.55256596 -0.18701331
C  0.07020165 1.04127531 0.57908155
H  -0.09123469 -0.60899633 0.36309203
H  0.35005480 0.16157562 -0.21046440
H  -0.63781698 0.10741695 -0.12891552
H  -0.10688085 -0.05997187 -0.21521200
H  -1.37787785 2.90152575 -0.09282417
H  -0.64662167 0.05895719 -0.36746488
12
MD Step 268.0 Units = [eV / Ang.]
C  0.31457165 0.37309751 -0.76540856
C  0.40932487 -0.12981993 0.78343453
C  -0.42039210 -0.33544299 -0.60460263
C  1.19133860 0.65445049 0.87792856
C  0.92333462 -3.22501127 -0.21582263
C  0.34583155 0.75894670 0.47699858
H  -0.17678818 -0.61546933 0.37983624
H  0.50163242 -0.00254329 -0.21833463
H  -0.57622761 0.00537384 -0.14809751
H  -0.27574559 -0.21241311 -0.21369507
H  -1.27917920 2.69800182 -0.06351478
H  -0.95770104 0.03082956 -0.28872211
12
MD Step 268.5 Units = [eV / Ang.]
C  0.25354367 0.57140209 -0.79780271
C  0.26639381 -0.05130737 0.80678645
C  -0.47016224 -0.11999993 -0.56626929
C  1.22743779 0.68357941 0.86468050
C  0.86519022 -2.59499716 -0.27053240
C  0.54445332 0.46814449 0.38123951
H  -0.23438384 -0.57113755 0.40394001
H  0.63834029 -0.15503509 -0.22239721
H  -0.47917016 -0.09567115 -0.16190780
H  -0.42801220 -0.33482276 -0.20878357
H  -0.98779807 2.19608327 -0.00367293
H  -1.19583261 0.00376176 -0.22528056
12
MD Step 269.0 Units = [eV / Ang.]
C  0.17215808 0.71307175 -0.82999908
C  0.12990492 -0.00422703 0.82349839
C  -0.53102345 0.09559847 -0.52832404
C  1.22271512 0.67954201 0.84364366
C  0.70057893 -1.74855558 -0.33609510
C  0.63523915 0.17306791 0.29885862
H  -0.26530440 -0.47783454 0.43656295
H  0.75194096 -0.27917157 -0.22468515
H  -0.35346859 -0.19343284 -0.17038879
H  -0.55528350 -0.41735486 -0.20060902
H  -0.57850259 1.48140408 0.07096935
H  -1.32895463 -0.02210781 -0.18343180
12
MD Step 269.5 Units = [eV / Ang.]
C  0.07640696 0.80053695 -0.86128833
C  0.00747188 0.00047605 0.83546867
C  -0.59591269 0.30475744 -0.49037682
C  1.17352009 0.63860165 0.81548083
C  0.50733337 -0.79811417 -0.39727048
C  0.60035438 -0.12228050 0.23339196
H  -0.27388584 -0.34294390 0.47700958
H  0.83588253 -0.36051950 -0.22749682
H  -0.20809252 -0.28606765 -0.17411506
H  -0.65120279 -0.45378026 -0.18956968
H  -0.13471759 0.66618329 0.14439904
H  -1.33715778 -0.04684939 -0.16563289
12
MD Step 270.0 Units = [eV / Ang.]
C  -0.02604345 0.84145321 -0.88949773
C  -0.09536984 -0.04342553 0.84451726
C  -0.65663819 0.50177280 -0.45162840
C  1.07879899 0.55927716 0.78113094
C  0.34652859 0.15082151 -0.44304194
C  0.43985329 -0.41325792 0.18404021
H  -0.26653073 -0.17821372 0.52285534
H  0.88608094 -0.38922196 -0.23294814
H  -0.05368702 -0.37232707 -0.17420702
H  -0.71147523 -0.44112795 -0.17629001
H  0.27604195 -0.14512469 0.20490608
H  -1.21755931 -0.07062584 -0.16983659
12
MD Step 270.5 Units = [eV / Ang.]
C  -0.12708832 0.84690932 -0.91143519
C  -0.17554879 -0.13588983 0.85196629
C  -0.70445316 0.68196068 -0.41093001
C  0.93993781 0.44220755 0.74171665
C  0.25209424 1.01986756 -0.46797243
C  0.17232990 -0.69411819 0.14612900
H  -0.25051862 0.00203803 0.57042447
H  0.90136026 -0.36167770 -0.24252171
H  0.09817508 -0.45162953 -0.17227248
H  -0.73385089 -0.37937236 -0.16156411
H  0.61267764 -0.87673614 0.24656462
H  -0.98511516 -0.09355940 -0.19010509
12
MD Step 271.0 Units = [eV / Ang.]
C  -0.21929191 0.82948262 -0.92349463
C  -0.23244317 -0.27013825 0.85833355
C  -0.73091129 0.84166735 -0.36692196
C  0.76071682 0.29024606 0.69845635
C  0.23332977 1.76145982 -0.47115294
C  -0.16899775 -0.95797023 0.11264515
H  -0.23291824 0.18285127 0.61545116
H  0.88344280 -0.28113376 -0.25674580
H  0.23600320 -0.52401213 -0.17025989
H  -0.71820022 -0.27133889 -0.14628598
H  0.85828182 -1.48547212 0.26824809
H  -0.66901185 -0.11564176 -0.21827310
12
MD Step 271.5 Units = [eV / Ang.]
C  -0.29665977 0.80156435 -0.92224361
C  -0.26750908 -0.43347473 0.86322911
C  -0.72888224 0.97815095 -0.31824621
C  0.54740781 0.10876723 0.65257346
C  0.28351283 2.35193926 -0.45428418
C  -0.54318108 -1.19712167 0.07617235
H  -0.21980178 0.35026834 0.65373515
H  0.83650350 -0.15700278 -0.27509613
H  0.34956041 -0.58994588 -0.17022615
H  -0.66671799 -0.12284329 -0.13136040
H  1.01190578 -1.95358376 0.27171895
H  -0.30613837 -0.13671804 -0.24597234
12
MD Step 272.0 Units = [eV / Ang.]
C  -0.35498919 0.77417306 -0.90486564
C  -0.28368726 -0.60913575 0.86546542
C  -0.69354050 1.08934008 -0.26380029
C  0.30896819 -0.09390651 0.60518523
C  0.38872033 2.78157710 -0.42003798
C  -0.90890294 -1.40369915 0.03050921
H  -0.21582638 0.49245359 0.68165303
H  0.76643171 -0.00314385 -0.29613390
H  0.43099719 -0.65004037 -0.17405105
H  -0.58421483 0.05702183 -0.11758447
H  1.08014010 -2.27810802 0.25994820
H  0.06590357 -0.15653200 -0.26628778
12
MD Step 272.5 Units = [eV / Ang.]
C  -0.39188791 0.75624541 -0.86942314
C  -0.28474540 -0.77865028 0.86332969
C  -0.62310438 1.17354106 -0.20298542
C  0.05714804 -0.30617154 0.55716086
C  0.53419864 3.04621727 -0.37110470
C  -1.23014734 -1.57041586 -0.02844943
H  -0.22411580 0.60028480 0.69647823
H  0.67999257 0.16437594 -0.31781804
H  0.47572779 -0.70470724 -0.18315109
H  -0.47834503 0.25567237 -0.10549556
H  1.07115611 -2.46159762 0.23609090
H  0.41412271 -0.17479431 -0.27463230
12
MD Step 273.0 Units = [eV / Ang.]
C  -0.40655294 0.75429062 -0.81496158
C  -0.27474518 -0.92413744 0.85490865
C  -0.51913515 1.22917044 -0.13588950
C  -0.19374160 -0.51316502 0.50895660
C  0.70799976 3.14199486 -0.30987332
C  -1.47924105 -1.69134573 -0.10256509
H  -0.24633044 0.66754022 0.69652778
H  0.58407061 0.32945990 -0.33788104
H  0.48286741 -0.75387391 -0.19825314
H  -0.35953666 0.45719328 -0.09519759
H  0.99147514 -2.50589305 0.20307668
H  0.71287008 -0.19123418 -0.26884844
12
MD Step 273.5 Units = [eV / Ang.]
C  -0.39948666 0.77222765 -0.74151798
C  -0.25768092 -1.03009917 0.83838350
C  -0.38631226 1.25461954 -0.06335626
C  -0.42763643 -0.69746000 0.46046132
C  0.90249619 3.06293497 -0.23853914
C  -1.63748584 -1.76257843 -0.19178391
H  -0.28280514 0.69088331 0.68119495
H  0.48510540 0.47766849 -0.35417183
H  0.45512822 -0.79683397 -0.21928178
H  -0.24037441 0.64318570 -0.08620562
H  0.84483313 -2.40893023 0.16362527
H  0.94421872 -0.20561786 -0.24880852
12
MD Step 274.0 Units = [eV / Ang.]
C  -0.37222850 0.81124951 -0.65008848
C  -0.23731654 -1.08454505 0.81223669
C  -0.23175175 1.24827402 0.01307213
C  -0.62826356 -0.84060420 0.41092104
C  1.11434938 2.80099402 -0.15945637
C  -1.69427542 -1.78264139 -0.29462812
H  -0.33266882 0.66981838 0.65092504
H  0.38874802 0.59725157 -0.36490191
H  0.39824218 -0.83227365 -0.24537823
H  -0.13428083 0.79449513 -0.07737249
H  0.63254178 -2.16428380 0.12050916
H  1.09690408 -0.21773453 -0.21583848
12
MD Step 274.5 Units = [eV / Ang.]
C  -0.32718371 0.86965456 -0.54258749
C  -0.21715218 -1.07950284 0.77536770
C  -0.06402744 1.20871127 0.09132629
C  -0.78130599 -0.92546148 0.35901812
C  1.34314254 2.34861667 -0.07558883
C  -1.64562578 -1.75263465 -0.40863930
H  -0.39390606 0.60671821 0.60716890
H  0.29969950 0.67958759 -0.36878506
H  0.32004511 -0.85845931 -0.27504058
H  -0.05358215 0.89373075 -0.06696986
H  0.35510207 -1.76359302 0.07692012
H  1.16479410 -0.22736774 -0.17219001
12
MD Step 275.0 Units = [eV / Ang.]
C  -0.26756180 0.94264475 -0.42179215
C  -0.20043254 -1.01108969 0.72714460
C  0.10787786 1.13499390 0.16904180
C  -0.87676756 -0.93892641 0.30314895
C  1.58855284 1.70447367 0.00911851
C  -1.49283308 -1.67602732 -0.53068661
H  -0.46336024 0.50693531 0.55231504
H  0.22165947 0.71922646 -0.36509086
H  0.22944182 -0.87352436 -0.30634287
H  -0.00734979 0.92811695 -0.05296133
H  0.01512994 -1.20255414 0.03677078
H  1.14564309 -0.23426911 -0.12066587
12
MD Step 275.5 Units = [eV / Ang.]
C  -0.19739725 1.02220764 -0.29124504
C  -0.19012025 -0.87936174 0.66742066
C  0.27550449 1.02700243 0.24380946
C  -0.91086708 -0.87431761 0.24187436
C  1.84596979 0.88307949 0.08970474
C  -1.24164725 -1.55814271 -0.65714868
H  -0.53672265 0.37889578 0.48956926
H  0.15730788 0.71375830 -0.35364439
H  0.13542960 -0.87577415 -0.33718284
H  0.00036035 0.89191775 -0.03343647
H  -0.37836220 -0.49111395 0.00466841
H  1.04054456 -0.23815122 -0.06438949
12
MD Step 276.0 Units = [eV / Ang.]
C  -0.12157608 1.09725320 -0.15506449
C  -0.18876094 -0.68808806 0.59654685
C  0.43158041 0.88572834 0.31339029
C  -0.88681318 -0.73273333 0.17442712
C  2.10110495 -0.07256794 0.16088281
C  -0.90213344 -1.40540672 -0.78404051
H  -0.60857489 0.23400376 0.42273897
H  0.10825416 0.66367501 -0.33480172
H  0.04631151 -0.86394230 -0.36551536
H  -0.02872311 0.78766692 -0.00709086
H  -0.80491115 0.33312015 -0.01481088
H  0.85424177 -0.23870903 -0.00666224
12
MD Step 276.5 Units = [eV / Ang.]
C  -0.04579986 1.15423697 -0.01762519
C  -0.19820992 -0.44454810 0.51538462
C  0.57040371 0.71348942 0.37587349
C  -0.81409894 -0.52293790 0.10111625
C  2.32548772 -1.07996085 0.21873178
C  -0.48917275 -1.22452670 -0.90716870
H  -0.67257446 0.08612979 0.35588125
H  0.07491909 0.57231194 -0.30941227
H  -0.03086444 -0.83735814 -0.38954043
H  -0.08758709 0.62576603 0.02639990
H  -1.22870927 1.19306920 -0.01882653
H  0.59620622 -0.23567167 0.04918583
12
MD Step 277.0 Units = [eV / Ang.]
C  0.02362324 1.17843386 0.11689173
C  -0.21924059 -0.15930516 0.42530904
C  0.68794161 0.51402505 0.42977257
C  -0.70647396 -0.25988458 0.02348675
C  2.47631075 -2.01693381 0.26312816
C  -0.02336631 -1.02181684 -1.02239781
H  -0.72185881 -0.04949058 0.29281906
H  0.05635427 0.44583986 -0.27876507
H  -0.09064800 -0.79601855 -0.40783766
H  -0.16550719 0.42258704 0.06623431
H  -1.59927069 1.97144111 -0.00867004
H  0.28213567 -0.22887740 0.10002895
12
MD Step 277.5 Units = [eV / Ang.]
C  0.08021359 1.15585186 0.24501503
C  -0.25109849 0.15409587 0.32817951
C  0.78173657 0.29248981 0.47406518
C  -0.57910789 0.03757706 -0.05581313
C  2.50390301 -2.74207420 0.29959259
C  0.46816003 -0.80284011 -1.12606040
H  -0.74969926 -0.15797372 0.23658916
H  0.05004290 0.29321150 -0.24450376
H  -0.12936618 -0.74057718 -0.41944824
H  -0.25014236 0.19769543 0.11059941
H  -1.85986372 2.53089371 0.00847375
H  -0.06477819 -0.21835004 0.14331089
12
MD Step 278.0 Units = [eV / Ang.]
C  0.11796972 1.07553900 0.36444568
C  -0.29113762 0.47966695 0.22624642
C  0.85072485 0.05533228 0.50819753
C  -0.44575805 0.34906355 -0.13340583
C  2.36666886 -3.13571104 0.33861100
C  0.95185762 -0.57249147 -1.21548288
H  -0.75035279 -0.22690451 0.18895131
H  0.05178268 0.12588707 -0.20848893
H  -0.14519932 -0.67227634 -0.42391411
H  -0.32950426 -0.02897011 0.15697872
H  -1.96331096 2.75520704 0.02034975
H  -0.41374073 -0.20434242 0.17751135
12
MD Step 278.5 Units = [eV / Ang.]
C  0.13216953 0.93177850 0.47432156
C  -0.33471926 0.79986981 0.12197755
C  0.89504539 -0.18992959 0.53205953
C  -0.31668606 0.65453366 -0.20566743
C  2.04746063 -3.14434741 0.39158829
C  1.38968897 -0.33539833 -1.28948513
H  -0.71997039 -0.24840812 0.15011094
H  0.05577527 -0.04282163 -0.17260151
H  -0.13818597 -0.59284013 -0.42128102
H  -0.39336260 -0.23931364 0.20253568
H  -1.88885485 2.59418689 0.01386295
H  -0.72836067 -0.18731002 0.20257860
12
MD Step 279.0 Units = [eV / Ang.]
C  0.12012342 0.72554547 0.57517294
C  -0.37552658 1.09693709 0.01781417
C  0.91591748 -0.43501622 0.54594166
C  -0.19788156 0.93547855 -0.26918011
C  1.56218728 -2.80185563 0.46533995
C  1.74346188 -0.09637308 -1.34863969
H  -0.65734216 -0.22060075 0.11877007
H  0.05505271 -0.19890029 -0.13849892
H  -0.11018417 -0.50434303 -0.41207261
H  -0.43395028 -0.41839485 0.24446314
H  -1.65060465 2.08532234 -0.01922290
H  -0.97125338 -0.16779960 0.22011230
12
MD Step 279.5 Units = [eV / Ang.]
C  0.08170504 0.46478102 0.66857138
C  -0.40637893 1.35453658 -0.08410292
C  0.91558735 -0.67128153 0.55047460
C  -0.09165790 1.17556013 -0.32105193
C  0.95525029 -2.21290383 0.55876151
C  1.98113505 0.13934469 -1.39507732
H  -0.56427428 -0.14797797 0.09251230
H  0.04229213 -0.32920627 -0.10737078
H  -0.06476248 -0.40906142 -0.39723218
H  -0.44608466 -0.55490077 0.28023705
H  -1.29213301 1.33739397 -0.07881456
H  -1.11067860 -0.14628459 0.23309286
12
MD Step 280.0 Units = [eV / Ang.]
C  0.01948362 0.16336982 0.75657739
C  -0.42047449 1.55954869 -0.18216954
C  0.89730715 -0.89015543 0.54654753
C  0.00191966 1.36095309 -0.35907489
C  0.28487831 -1.50997167 0.66376691
C  2.08340153 0.36617136 -1.43179090
H  -0.44546916 -0.04059581 0.06841365
H  0.01095592 -0.42323495 -0.07975699
H  -0.00699836 -0.30931375 -0.37802906
H  -0.42694705 -0.64106345 0.30776799
H  -0.87065769 0.48731378 -0.15737217
H  -1.12739943 -0.12302167 0.24512007
12
MD Step 280.5 Units = [eV / Ang.]
C  -0.06159245 -0.16084433 0.84116365
C  -0.41277989 1.70356014 -0.27544006
C  0.86525631 -1.08361112 0.53520438
C  0.08351286 1.48065191 -0.38176035
C  -0.39283295 -0.81049521 0.76921992
C  2.04812465 0.57851283 -1.46163817
H  -0.30793877 0.08769150 0.04369296
H  -0.04347132 -0.47466655 -0.05549371
H  0.05686494 -0.20730120 -0.35592607
H  -0.37576160 -0.67236217 0.32548232
H  -0.44007498 -0.34312150 -0.24388299
H  -1.01930682 -0.09801430 0.25937812
12
MD Step 281.0 Units = [eV / Ang.]
C  -0.15485213 -0.48843994 0.92377426
C  -0.38123553 1.78370338 -0.36359862
C  0.82432831 -1.24458578 0.51751624
C  0.15348890 1.52687529 -0.38831451
C  -1.03388009 -0.19360960 0.86491810
C  1.89073768 0.77117153 -1.48643700
H  -0.16010950 0.22142354 0.01622688
H  -0.12246404 -0.48228718 -0.03381520
H  0.11992259 -0.10496729 -0.33241248
H  -0.29354272 -0.64729593 0.33237687
H  -0.04047765 -1.07087705 -0.32796003
H  -0.80191583 -0.07111097 0.27772550
12
MD Step 281.5 Units = [eV / Ang.]
C  -0.25272495 -0.80059844 1.00510438
C  -0.32740273 1.80257585 -0.44678858
C  0.77974734 -1.36731543 0.49444325
C  0.21158845 1.49564724 -0.37862408
C  -1.60859237 0.30142013 0.94369678
C  1.64039152 0.93965866 -1.50651805
H  -0.01084941 0.34558851 -0.01517084
H  -0.22396831 -0.45000425 -0.01359049
H  0.17526433 -0.00390158 -0.30882013
H  -0.18299839 -0.56739971 0.32808693
H  0.30408730 -1.65348124 -0.40208853
H  -0.50454278 -0.04218974 0.30026935
12
MD Step 282.0 Units = [eV / Ang.]
C  -0.34751814 -1.08071134 1.08509097
C  -0.25638469 1.76728923 -0.52536337
C  0.73652733 -1.44753581 0.46670424
C  0.25722377 1.38750682 -0.35329013
C  -2.09878451 0.66425863 1.00157018
C  1.33342092 1.08031354 -1.52085066
H  0.13137601 0.44715180 -0.05071027
H  -0.34259666 -0.38596805 0.00637654
H  0.21671752 0.09468977 -0.28615106
H  -0.04859510 -0.43755824 0.31298762
H  0.58236395 -2.07810453 -0.46189609
H  -0.16375041 -0.01133182 0.32553201
12
MD Step 282.5 Units = [eV / Ang.]
C  -0.43203397 -1.31529852 1.16304015
C  -0.17606751 1.68792574 -0.59964065
C  0.69888081 -1.48254735 0.43468426
C  0.29015506 1.20823515 -0.31371101
C  -2.49329903 0.89997048 1.03680283
C  1.00654495 1.19024168 -1.52757246
H  0.25910333 0.51591949 -0.08976076
H  -0.47043658 -0.30107589 0.02707142
H  0.23957419 0.18993665 -0.26495058
H  0.10329372 -0.26651276 0.28831735
H  0.79078839 -2.34788492 -0.50531800
H  0.18349665 0.02109026 0.35103744
12
MD Step 283.0 Units = [eV / Ang.]
C  -0.49997608 -1.49436018 1.23781091
C  -0.09592239 1.57582801 -0.66972617
C  0.66968891 -1.47115599 0.39840516
C  0.31129024 0.96937798 -0.26217442
C  -2.78414899 1.01834631 1.04878141
C  0.69178001 1.26715057 -1.52462493
H  0.36621139 0.54482993 -0.13107549
H  -0.59823008 -0.20726924 0.04908539
H  0.24116621 0.28119001 -0.24525637
H  0.26428680 -0.06732567 0.25628110
H  0.92890434 -2.47103834 -0.53151755
H  0.50494965 0.05442660 0.37401094
12
MD Step 283.5 Units = [eV / Ang.]
C  -0.54619813 -1.61138629 1.30798779
C  -0.02568780 1.44211440 -0.73543766
C  0.65016480 -1.41354198 0.35757912
C  0.32327260 0.68824572 -0.20187620
C  -2.96397000 1.02736798 1.03714053
C  0.41385443 1.30920224 -1.51023987
H  0.44806981 0.52988375 -0.17303257
H  -0.71660391 -0.11601735 0.07254893
H  0.22117370 0.36787079 -0.22663858
H  0.42413187 0.14258241 0.22005516
H  0.99614287 -2.45414766 -0.54002421
H  0.77564974 0.08782598 0.39193754
12
MD Step 284.0 Units = [eV / Ang.]
C  -0.56688188 -1.66323046 1.37201563
C  0.02578026 1.29665884 -0.79631377
C  0.63977849 -1.31110219 0.31172789
C  0.33059291 0.38701820 -0.13676928
C  -3.02475058 0.93019945 1.00127775
C  0.18984505 1.31495366 -1.48318436
H  0.50159595 0.46993925 -0.21385005
H  -0.81708794 -0.03723575 0.09716996
H  0.18160919 0.44932599 -0.20832087
H  0.57126067 0.34225118 0.18360668
H  0.99000793 -2.29910189 -0.53023607
H  0.97824994 0.12032372 0.40287649
12
MD Step 284.5 Units = [eV / Ang.]
C  -0.55972294 -1.65003176 1.42830547
C  0.05135912 1.14756697 -0.85168196
C  0.63646288 -1.16633195 0.26035254
C  0.33905460 0.09070438 -0.07117686
C  -2.95768634 0.72493056 0.94027521
C  0.03013085 1.28344971 -1.44279877
H  0.52531966 0.36655151 -0.25176880
H  -0.89280491 0.02132490 0.12233637
H  0.12647931 0.52473175 -0.18935630
H  0.69385698 0.50915473 0.15126548
H  0.90556586 -2.00295550 -0.50131064
H  1.10198493 0.15090469 0.40555826
12
MD Step 285.0 Units = [eV / Ang.]
C  -0.52419041 -1.57523745 1.47532340
C  0.04618206 1.00105782 -0.90074668
C  0.63703439 -0.98275408 0.20310636
C  0.35463074 -0.17599223 -0.00917881
C  -2.75430965 0.40689523 0.85324431
C  -0.06023354 1.21447016 -1.38892187
H  0.51951649 0.22393277 -0.28520709
H  -0.93882808 0.05429534 0.14724400
H  0.06120916 0.59306796 -0.16881657
H  0.78136031 0.62227566 0.12707028
H  0.73638682 -1.56054998 -0.45247318
H  1.14124171 0.17853878 0.39935583
12
MD Step 285.5 Units = [eV / Ang.]
C  -0.46185732 -1.44570411 1.51169186
C  0.00790866 0.86157321 -0.94267839
C  0.63771927 -0.76491093 0.13993606
C  0.38198416 -0.39235970 0.04609739
C  -2.40940437 -0.02593237 0.74014922
C  -0.08039042 1.10887647 -1.32180359
H  0.48641840 0.04902802 -0.31290121
H  -0.95230653 0.05867927 0.17102144
H  -0.00804672 0.65316412 -0.14595610
H  0.82611160 0.66572071 0.11401982
H  0.47743037 -0.97034125 -0.38379774
H  1.09443290 0.20220656 0.38422126
12
MD Step 286.0 Units = [eV / Ang.]
C  -0.37673973 -1.27177123 1.53630573
C  -0.06316895 0.73194273 -0.97669379
C  0.63468926 -0.51836300 0.07116609
C  0.42308872 -0.54497590 0.09306918
C  -1.92631429 -0.56394627 0.60310190
C  -0.03316019 0.96898320 -1.24206370
H  0.43044041 -0.14840404 -0.33403571
H  -0.93246789 0.03377075 0.19283820
H  -0.07509394 0.70379777 -0.12032531
H  0.82469322 0.63188161 0.11344900
H  0.13046363 -0.24385792 -0.29745572
H  0.96356975 0.22094230 0.36064413
12
MD Step 286.5 Units = [eV / Ang.]
C  -0.27549970 -1.06711729 1.54845613
C  -0.16411586 0.61349859 -1.00213069
C  0.62449793 -0.24966941 -0.00248385
C  0.47643609 -0.62962400 0.13195355
C  -1.32459107 -1.17413566 0.44786738
C  0.07476038 0.79878297 -1.15072004
H  0.35829545 -0.35587896 -0.34834983
H  -0.88058280 -0.01890248 0.21199452
H  -0.13428316 0.74381819 -0.09182146
H  0.77854245 0.52310220 0.12474797
H  -0.28811014 0.58220093 -0.19916221
H  0.75465044 0.23392491 0.32964853
12
MD Step 287.0 Units = [eV / Ang.]
C  -0.16733598 -0.84819071 1.54792824
C  -0.28940495 0.50608099 -1.01851664
C  0.60437101 0.03370276 -0.07994249
C  0.53709686 -0.65123726 0.16457756
C  -0.64777158 -1.78977187 0.28479816
C  0.23200143 0.60388933 -1.04925829
H  0.27882537 -0.55864630 -0.35619095
H  -0.79992844 -0.09556712 0.22799395
H  -0.18095131 0.77226691 -0.06068249
H  0.69363245 0.35124285 0.14553177
H  -0.73925324 1.43560501 -0.09904041
H  0.47871840 0.24062540 0.29280158
12
MD Step 287.5 Units = [eV / Ang.]
C  -0.06338086 -0.63304319 1.53502785
C  -0.43106909 0.40796272 -1.02563376
C  0.57233687 0.32357624 -0.15987044
C  0.59762278 -0.62202450 0.19381210
C  0.03397452 -2.30982864 0.12799633
C  0.42145056 0.39113138 -0.93967702
H  0.20238069 -0.74069758 -0.35847583
H  -0.69571423 -0.19017223 0.24059850
H  -0.21170281 0.78847585 -0.02743664
H  0.57934384 0.13531230 0.17219388
H  -1.15843838 2.20831295 -0.01071032
H  0.15319610 0.24099470 0.25217534
12
MD Step 288.0 Units = [eV / Ang.]
C  0.02448690 -0.43956150 1.51050284
C  -0.57902920 0.31580704 -1.02356820
C  0.52723056 0.61134402 -0.24076464
C  0.64950650 -0.55851776 0.22283259
C  0.63296903 -2.61668196 -0.00811922
C  0.61951643 0.16782106 -0.82441885
H  0.13968271 -0.88634404 -0.35653311
H  -0.57489183 -0.29444092 0.24985867
H  -0.22456202 0.79213333 0.00717615
H  0.44689602 -0.10200630 0.20064512
H  -1.46459556 2.77480909 0.05220003
H  -0.19720953 0.23563795 0.21018863
12
MD Step 288.5 Units = [eV / Ang.]
C  0.08530345 -0.28329045 1.47535390
C  -0.72167363 0.22478604 -1.01272671
C  0.46862392 0.88832071 -0.32106512
C  0.68476442 -0.47852627 0.25445001
C  1.06708037 -2.61212612 -0.11395830
C  0.79658681 -0.05910842 -0.70611710
H  0.10026914 -0.98220573 -0.35183408
H  -0.44575472 -0.39814790 0.25610468
H  -0.21902221 0.78331480 0.04229712
H  0.30779011 -0.33784934 0.22700489
H  -1.58303571 3.02894899 0.08121535
H  -0.54093195 0.22588369 0.16927536
12
MD Step 289.0 Units = [eV / Ang.]
C  0.11083102 -0.17531005 1.43058117
C  -0.84674938 0.12901892 -0.99380393
C  0.39675822 1.14610092 -0.39925406
C  0.69716732 -0.39873932 0.29067903
C  1.28842171 -2.25655466 -0.18871820
C  0.91950472 -0.28382372 -0.58716255
H  0.09084775 -1.01920168 -0.34566797
H  -0.31725154 -0.48976915 0.25988674
H  -0.19602447 0.76248061 0.07704538
H  0.17259918 -0.55184134 0.24808575
H  -1.47399727 2.92398170 0.07692863
H  -0.84210725 0.21365776 0.13140001
12
MD Step 289.5 Units = [eV / Ang.]
C  0.09706810 -0.12068171 1.37694625
C  -0.94254758 0.02241711 -0.96769206
C  0.31252325 1.37687569 -0.47394165
C  0.68280020 -0.33327009 0.33259286
C  1.30113455 -1.58786233 -0.24026047
C  0.95643369 -0.50180728 -0.46920363
H  0.11399068 -0.99405405 -0.33885355
H  -0.19802387 -0.55757731 0.26185952
H  -0.15787826 0.73044463 0.11061117
H  0.05024473 -0.72759239 0.26162353
H  -1.15022579 2.49198935 0.04876949
H  -1.06551970 0.20111838 0.09754856
12
MD Step 290.0 Units = [eV / Ang.]
C  0.04499484 -0.11791853 1.31483947
C  -0.99920826 -0.10012446 -0.93534392
C  0.21748192 1.57368009 -0.54394091
C  0.63992113 -0.29304306 0.38040444
C  1.15627205 -0.70719720 -0.28085002
C  0.88333792 -0.70938285 -0.35278383
H  0.16758517 -0.90985566 -0.33158230
H  -0.09530159 -0.59110454 0.26262648
H  -0.10811791 0.68831563 0.14233931
H  -0.05227891 -0.85313436 0.26629842
H  -0.67160296 1.82964481 0.01058078
H  -1.18308340 0.19012013 0.06741208
12
MD Step 290.5 Units = [eV / Ang.]
C  -0.03965090 -0.15959546 1.24429643
C  -1.00992395 -0.24139907 -0.89762165
C  0.11391592 1.73057654 -0.60832382
C  0.56837047 -0.28570424 0.43365572
C  0.92759078 0.25869311 -0.32176699
C  0.69015268 -0.90277083 -0.23731144
H  0.24521625 -0.77553813 -0.32344099
H  -0.01388443 -0.58274251 0.26258087
H  -0.05128654 0.63741737 0.17179541
H  -0.12988328 -0.92068655 0.26163519
H  -0.12064749 1.06006288 -0.02495862
H  -1.17996952 0.18168688 0.03945988
12
MD Step 291.0 Units = [eV / Ang.]
C  -0.14748596 -0.23387487 1.16514800
C  -0.97175028 -0.40076464 -0.85517658
C  0.00480901 1.84280496 -0.66645810
C  0.46892233 -0.31572982 0.49141283
C  0.68409468 1.19539597 -0.36999631
C  0.38426255 -1.07722127 -0.12141908
H  0.33735786 -0.60439767 -0.31359655
H  0.04451950 -0.52910937 0.26179076
H  0.00738060 0.57918997 0.19880619
H  -0.17924167 -0.92618398 0.24786410
H  0.42525092 0.29417580 -0.04981733
H  -1.05811953 0.17571492 0.01144208
12
MD Step 291.5 Units = [eV / Ang.]
C  -0.26709641 -0.32648467 1.07723722
C  -0.88582281 -0.57359685 -0.80840211
C  -0.10628214 1.90692729 -0.71801349
C  0.34289831 -0.38447775 0.55239627
C  0.47324743 2.02189109 -0.42790320
C  -0.01027137 -1.22672319 -0.00357672
H  0.43299048 -0.41211034 -0.30106729
H  0.08139587 -0.43180112 0.25997015
H  0.06237481 0.51508489 0.22346365
H  -0.19868077 -0.86891883 0.22579841
H  0.91095347 -0.39083471 -0.06104698
H  -0.83570686 0.17104418 -0.01885590
12
MD Step 292.0 Units = [eV / Ang.]
C  -0.38671202 -0.42264247 0.98062071
C  -0.75694619 -0.75151503 -0.75747361
C  -0.21549350 1.92095295 -0.76293567
C  0.19220115 -0.49004995 0.61503529
C  0.31812432 2.69267556 -0.49474609
C  -0.45748157 -1.34444136 0.11731398
H  0.52120397 -0.21473654 -0.28498949
H  0.10094145 -0.29730328 0.25654989
H  0.10841842 0.44646818 0.24608795
H  -0.18821338 -0.75149566 0.19675287
H  1.30673878 -0.95377285 -0.05929743
H  -0.54278143 0.16586045 -0.05291840
12
MD Step 292.5 Units = [eV / Ang.]
C  -0.49556310 -0.50855991 0.87569654
C  -0.59269822 -0.92338139 -0.70245784
C  -0.31902353 1.88443469 -0.80137893
C  0.01974448 -0.62695737 0.67746565
C  0.22357016 3.18884391 -0.56846742
C  -0.91643911 -1.42367541 0.24157626
H  0.59243899 -0.02711307 -0.26481132
H  0.10914008 -0.13606899 0.25082508
H  0.14100975 0.37454798 0.26714673
H  -0.14975292 -0.58013138 0.16249046
H  1.60241393 -1.38018360 -0.04696520
H  -0.21484050 0.15824454 -0.09112002
12
MD Step 293.0 Units = [eV / Ang.]
C  -0.58474544 -0.57241617 0.76324205
C  -0.40230356 -1.07678799 -0.64345091
C  -0.41355176 1.79849601 -0.83361186
C  -0.16985340 -0.78570620 0.73752467
C  0.18489528 3.50676474 -0.64690412
C  -1.34800105 -1.45895266 0.36872954
H  0.63922735 0.13819048 -0.24038806
H  0.11266645 0.03897426 0.24213430
H  0.15693049 0.30034199 0.28714394
H  -0.08746380 -0.36515829 0.12517009
H  1.79879617 -1.67039760 -0.02685323
H  0.11340328 0.14665143 -0.13273642
12
MD Step 293.5 Units = [eV / Ang.]
C  -0.64762184 -0.60483321 0.64437991
C  -0.19556206 -1.19967047 -0.58069439
C  -0.49660092 1.66576785 -0.85990643
C  -0.36958644 -0.95253420 0.79280167
C  0.19515376 3.64914100 -0.72828243
C  -1.71958782 -1.44697168 0.49767913
H  0.65647398 0.27137562 -0.21199150
H  0.11788809 0.21410580 0.23001551
H  0.15463342 0.22468855 0.30649539
H  -0.00810701 -0.12142304 0.08724697
H  1.90053011 -1.82983212 -0.00150611
H  0.41238674 0.13018591 -0.17623772
12
MD Step 294.0 Units = [eV / Ang.]
C  -0.67988299 -0.59905871 0.52050192
C  0.01800141 -1.28168375 -0.51464428
C  -0.56677840 1.49023468 -0.88043621
C  -0.56968379 -1.10967231 0.84078601
C  0.24978195 3.61953565 -0.81121206
C  -2.00743566 -1.38716971 0.62696373
H  0.64143125 0.36554400 -0.18025862
H  0.13014448 0.37631746 0.21430666
H  0.13443236 0.14829624 0.32541821
H  0.07885555 0.13184812 0.05129069
H  1.91146299 -1.86285120 0.02696441
H  0.65967085 0.10865951 -0.21968047
12
MD Step 294.5 Units = [eV / Ang.]
C  -0.67944368 -0.55102013 0.39318244
C  0.22968967 -1.31513431 -0.44598283
C  -0.62384021 1.27699293 -0.89520316
C  -0.75784659 -1.23651406 0.87912560
C  0.34876223 3.41979160 -0.89442722
C  -2.19671315 -1.28189158 0.75494084
H  0.59353860 0.41665480 -0.14611175
H  0.15335942 0.51441651 0.19517887
H  0.09845737 0.07181526 0.34385702
H  0.16167729 0.37216167 0.01970392
H  1.83240277 -1.76977431 0.05678878
H  0.83995628 0.08250162 -0.26105250
12
MD Step 295.0 Units = [eV / Ang.]
C  -0.64629921 -0.45940941 0.26409300
C  0.43193013 -1.29542962 -0.37558901
C  -0.66858073 1.03195095 -0.90400989
C  -0.92031028 -1.31191730 0.90596036
C  0.49673600 3.04962494 -0.97646952
C  -2.28036246 -1.13617225 0.87987455
H  0.51425551 0.42348397 -0.11066129
H  0.18993244 0.61967768 0.17311345
H  0.05038649 -0.00409049 0.36146227
H  0.22747407 0.57608692 -0.00562065
H  1.66083029 -1.54641934 0.08635012
H  0.94400777 0.05261396 -0.29850339
12
MD Step 295.5 Units = [eV / Ang.]
C  -0.58241812 -0.32587144 0.13492050
C  0.61841132 -1.22116191 -0.30448345
C  -0.70257349 0.76151481 -0.90648247
C  -1.04372774 -1.31744790 0.92024236
C  0.70118651 2.50829757 -1.05543483
C  -2.25754568 -0.95719602 0.99996001
H  0.40695052 0.38768503 -0.07509852
H  0.24080616 0.68612984 0.14884138
H  -0.00500282 -0.07869196 0.37762466
H  0.26408651 0.72261525 -0.02362072
H  1.39248025 -1.18610652 0.11400226
H  0.96734657 0.02023326 -0.33047117
12
MD Step 296.0 Units = [eV / Ang.]
C  -0.49165958 -0.15527313 0.00728080
C  0.78413943 -1.09396270 -0.23376633
C  -0.72785043 0.47228399 -0.90213561
C  -1.11750873 -1.24085714 0.92192692
C  0.96837813 1.79895371 -1.12888490
C  -2.13228673 -0.75352447 1.11334647
H  0.27683106 0.31395541 -0.04057228
H  0.30560555 0.71061840 0.12326250
H  -0.06236849 -0.15117453 0.39155380
H  0.26230729 0.79681949 -0.03424735
H  1.02511119 -0.68466708 0.13798604
H  0.90930131 -0.01317195 -0.35575006
12
MD Step 296.5 Units = [eV / Ang.]
C  -0.37965265 0.04407262 -0.11738382
C  0.92546954 -0.91830878 -0.16455394
C  -0.74656210 0.17080347 -0.89046203
C  -1.13599617 -1.07876163 0.91195049
C  1.29677348 0.93643622 -1.19402950
C  -1.91266456 -0.53420824 1.21821921
H  0.13083665 0.21020354 -0.00804729
H  0.38277243 0.69279470 0.09735441
H  -0.11635339 -0.22065053 0.40238389
H  0.21784626 0.79273870 -0.03842565
H  0.56479564 -0.04913915 0.15654470
H  0.77273488 -0.04598093 -0.37355047
12
MD Step 297.0 Units = [eV / Ang.]
C  -0.25354512 0.26040862 -0.23791770
C  1.04016031 -0.70135724 -0.09791175
C  -0.76070499 -0.13661207 -0.87102892
C  -1.09974532 -0.83758861 0.89198630
C  1.66854492 -0.04169925 -1.24824802
C  -1.61065291 -0.30788345 1.31296449
H  -0.02261103 0.08753289 0.02184697
H  0.46965862 0.63511719 0.07207284
H  -0.16207190 -0.28619799 0.40928573
H  0.13235546 0.71448935 -0.03778717
H  0.03411731 0.69029937 0.16831919
H  0.56449465 -0.07650882 -0.38358194
12
MD Step 297.5 Units = [eV / Ang.]
C  -0.12152268 0.47903051 -0.35356272
C  1.12742780 -0.45283428 -0.03477556
C  -0.77193979 -0.44396045 -0.84356159
C  -1.01541815 -0.53245610 0.86405873
C  2.04210294 -1.06437318 -1.28988419
C  -1.24253663 -0.08203883 1.39641017
H  -0.17411047 -0.04019894 0.04895041
H  0.56258486 0.54287618 0.04824182
H  -0.19549595 -0.34691178 0.41156697
H  0.01313987 0.57520641 -0.03426064
H  -0.52065753 1.46879886 0.17298011
H  0.29642573 -0.10313842 -0.38616351
12
MD Step 298.0 Units = [eV / Ang.]
C  0.00794410 0.68344389 -0.46402583
C  1.18797116 -0.18490005 0.02414393
C  -0.78150328 -0.74554337 -0.80800361
C  -0.89430627 -0.18442586 0.83014532
C  2.35137071 -2.02417960 -1.31895912
C  -0.82959861 0.13743369 1.46806944
H  -0.31407736 -0.15743646 0.07364602
H  0.65690019 0.42416611 0.02643424
H  -0.21372945 -0.40195766 0.40874985
H  -0.12832930 0.39421763 -0.02965855
H  -1.02916018 2.18370470 0.17177920
H  -0.01348170 -0.12452302 -0.38232091
12
MD Step 298.5 Units = [eV / Ang.]
C  0.12706025 0.85723275 -0.56945951
C  1.22393003 0.08813621 0.07846360
C  -0.79019961 -1.03588261 -0.76454772
C  -0.74994289 0.18288540 0.79187977
C  2.51775709 -2.79197641 -1.33720324
C  -0.39854945 0.34626605 1.52827865
H  -0.43377792 -0.24864491 0.09682415
H  0.74709449 0.28967764 0.00685438
H  -0.21517707 -0.45061947 0.40062170
H  -0.27855069 0.19343953 -0.02537886
H  -1.40917399 2.70933282 0.16746055
H  -0.34047024 -0.13984700 -0.37379347
12
MD Step 299.0 Units = [eV / Ang.]
C  0.22970646 0.98639079 -0.67033121
C  1.23871439 0.35041849 0.12822164
C  -0.79841879 -1.30959461 -0.71363879
C  -0.59556168 0.54632259 0.75040831
C  2.47486750 -3.25137867 -1.34701405
C  0.01903653 0.54144849 1.57810978
H  -0.52641721 -0.30048913 0.11971093
H  0.82702757 0.15213785 -0.01075494
H  -0.19962539 -0.49233730 0.38725659
H  -0.42409268 -0.00592755 -0.02227418
H  -1.59151533 2.93209171 0.16316314
H  -0.65372137 -0.14908266 -0.36285723
12
MD Step 299.5 Units = [eV / Ang.]
C  0.31222343 1.06161730 -0.76718748
C  1.23667271 0.58558124 0.17392392
C  -0.80614763 -1.56126854 -0.65595283
C  -0.44212321 0.88518769 0.70638935
C  2.19541539 -3.34049723 -1.34978493
C  0.38905545 0.72064059 1.61899319
H  -0.58802045 -0.30400876 0.14357767
H  0.89031833 0.02528546 -0.02714499
H  -0.16824622 -0.52673467 0.36901048
H  -0.55314354 -0.18568220 -0.02066958
H  -1.54692106 2.79300648 0.16074801
H  -0.91908319 -0.15312737 -0.35190280
12
MD Step 300.0 Units = [eV / Ang.]
C  0.37377911 1.07996473 -0.86037194
C  1.22257602 0.77822112 0.21650464
C  -0.81292885 -1.78541363 -0.59235207
C  -0.29737699 1.18213006 0.66008436
C  1.70399837 -3.07688026 -1.34483087
C  0.67922074 0.88163252 1.65211733
H  -0.61786853 -0.25621606 0.16940075
H  0.93090338 -0.07762040 -0.04349752
H  -0.12353386 -0.55363273 0.34649119
H  -0.65632777 -0.33169869 -0.02046982
H  -1.29855836 2.31321551 0.15973868
H  -1.10388327 -0.15370216 -0.34281473
12
MD Step 300.5 Units = [eV / Ang.]
C  0.41621018 1.04533422 -0.94978937
C  1.20095994 0.91561622 0.25717749
C  -0.81776991 -1.97650316 -0.52382190
C  -0.16602148 1.42323565 0.61148672
C  1.06703376 -2.54874428 -1.32981347
C  0.86473482 1.02203258 1.67780918
H  -0.61836476 -0.16063061 0.19757539
H  0.94371467 -0.14557139 -0.06124553
H  -0.06916583 -0.57305049 0.32050440
H  -0.72689321 -0.43403332 -0.02129397
H  -0.91147749 1.58527916 0.15774724
H  -1.18296070 -0.15296457 -0.33633619
12
MD Step 301.0 Units = [eV / Ang.]
C  0.44339837 0.96769295 -1.03478731
C  1.17541427 0.98935545 0.29718817
C  -0.81905392 -2.12910702 -0.45139425
C  -0.05059754 1.59775464 0.56043787
C  0.36703760 -1.87842164 -1.30226275
C  0.93356871 1.13919027 1.69516365
H  -0.59438853 -0.02659280 0.22777111
H  0.92537230 -0.17151394 -0.08179536
H  -0.00977371 -0.58518893 0.29197868
H  -0.76052095 -0.48648827 -0.02259757
H  -0.46631932 0.73624589 0.15199199
H  -1.14413729 -0.15292659 -0.33169423
12
MD Step 301.5 Units = [eV / Ang.]
C  0.46039308 0.86127568 -1.11420014
C  1.14796273 0.99644740 0.33751983
C  -0.81450707 -2.23810340 -0.37606533
C  0.04745501 1.69787556 0.50670072
C  -0.32258963 -1.18119821 -1.26096443
C  0.88930098 1.23031159 1.70213249
H  -0.55234370 0.13240640 0.25896974
H  0.87473975 -0.15354273 -0.10620537
H  0.04938536 -0.59039802 0.26187475
H  -0.75503027 -0.48605841 -0.02376387
H  -0.03363313 -0.11412140 0.14070519
H  -0.99113311 -0.15489448 -0.32670356
12
MD Step 302.0 Units = [eV / Ang.]
C  0.47252052 0.74231912 -1.18651699
C  1.11866979 0.93958796 0.37862804
C  -0.80130063 -2.29891636 -0.29871538
C  0.12708886 1.71875191 0.44999396
C  -0.95081750 -0.53986279 -1.20639021
C  0.75027926 1.29271406 1.69606668
H  -0.49916094 0.30087627 0.28965564
H  0.79320843 -0.09524916 -0.13490587
H  0.10286226 -0.58912638 0.23108670
H  -0.71017774 -0.43256193 -0.02416935
H  0.33958000 -0.87937744 0.12362543
H  -0.74275232 -0.15915525 -0.31835866
12
MD Step 302.5 Units = [eV / Ang.]
C  0.48467320 0.62690282 -1.25011059
C  1.08559341 0.82648671 0.42028743
C  -0.77630796 -2.30777051 -0.22004179
C  0.18751244 1.65886612 0.39000502
C  -1.48948994 0.00015072 -1.14027731
C  0.54539968 1.32417935 1.67449693
H  -0.44147080 0.46339169 0.31808610
H  0.68462351 -0.00510320 -0.16754146
H  0.14552795 -0.58185856 0.20034917
H  -0.62766236 -0.32861708 -0.02323421
H  0.63026034 -1.51160877 0.10166924
H  -0.42865947 -0.16501928 -0.30368853
12
MD Step 303.0 Units = [eV / Ang.]
C  0.50087799 0.52927823 -1.30345222
C  1.04508763 0.66844614 0.46158978
C  -0.73650369 -2.26192617 -0.14051625
C  0.22861205 1.52066285 0.32641162
C  -1.92683406 0.42220667 -1.06491644
C  0.30811422 1.32328773 1.63582736
H  -0.38505483 0.60618354 0.34256086
H  0.55486583 0.10494762 -0.20297747
H  0.17311683 -0.56904808 0.17016525
H  -0.51134447 -0.17997322 -0.02047358
H  0.83242770 -1.99291440 0.07632072
H  -0.08336519 -0.17115091 -0.28053962
12
MD Step 303.5 Units = [eV / Ang.]
C  0.52413254 0.46083256 -1.34526735
C  0.99238163 0.47858525 0.50108448
C  -0.67943095 -2.15990324 -0.06037722
C  0.25171247 1.31131559 0.25893041
C  -2.25987342 0.72599177 -0.98259359
C  0.07073010 1.28963775 1.57970877
H  -0.33457626 0.71809931 0.36163584
H  0.41118493 0.22128418 -0.23945898
H  0.18272529 -0.55105802 0.14077045
H  -0.36758762 0.00392982 -0.01556019
H  0.94907400 -2.32270416 0.04916067
H  0.25952729 -0.17601079 -0.24803330
12
MD Step 304.0 Units = [eV / Ang.]
C  0.55642990 0.42958253 -1.37461727
C  0.92230419 0.27015477 0.53700640
C  -0.60365082 -2.00167435 0.02034007
C  0.26034541 1.04335874 0.18740023
C  -2.48876099 0.91695728 -0.89532936
C  -0.13956938 1.22391970 1.50703896
H  -0.29351660 0.79101646 0.37425935
H  0.26143658 0.33038156 -0.27486709
H  0.17318649 -0.52812309 0.11214094
H  -0.20552599 0.20946032 -0.00840155
H  0.98596490 -2.50679802 0.02166515
H  0.57135631 -0.17823590 -0.20663583
12
MD Step 304.5 Units = [eV / Ang.]
C  0.59887100 0.44002683 -1.39092798
C  0.82998985 0.05526503 0.56752435
C  -0.50906994 -1.78882082 0.10173463
C  0.26066019 0.73481910 0.11189207
C  -2.61359999 0.99947883 -0.80487585
C  -0.30250658 1.12785353 1.41970608
H  -0.26421867 0.81990315 0.37984128
H  0.11337106 0.42020850 -0.30700012
H  0.14524531 -0.50034257 0.08404646
H  -0.03699021 0.41875322 0.00077719
H  0.94800791 -2.55027993 -0.00477493
H  0.83024006 -0.17686487 -0.15794319
12
MD Step 305.0 Units = [eV / Ang.]
C  0.65177421 0.49313943 -1.39398919
C  0.71147653 -0.15583988 0.59095082
C  -0.39709181 -1.52465220 0.18394923
C  0.26111931 0.40843172 0.03281530
C  -2.63320944 0.97340800 -0.71286919
C  -0.40472718 1.00406114 1.32023863
H  -0.24794709 0.80274682 0.37827523
H  -0.02593104 0.48111735 -0.33382087
H  0.10150214 -0.46770637 0.05613646
H  0.12418671 0.61058713 0.01136923
H  0.83772613 -2.45388496 -0.02871067
H  1.02112155 -0.17140818 -0.10434497
12
MD Step 305.5 Units = [eV / Ang.]
C  0.71470445 0.58637244 -1.38394673
C  0.56413893 -0.35500535 0.60588864
C  -0.27057073 -1.21426455 0.26707309
C  0.27130719 0.08964085 -0.04901489
C  -2.54526834 0.83336786 -0.62105380
C  -0.43881556 0.85592921 1.21149693
H  -0.24490162 0.74051179 0.36993289
H  -0.15044060 0.50625252 -0.35363928
H  0.04612880 -0.43014865 0.02804166
H  0.26362382 0.76247173 0.02237603
H  0.65529216 -2.21331317 -0.04845470
H  1.13480150 -0.16181466 -0.04869983
12
MD Step 306.0 Units = [eV / Ang.]
C  0.78640253 0.71360777 -1.36129531
C  0.38697477 -0.53605894 0.61131320
C  -0.13357197 -0.86454558 0.35106172
C  0.29994745 -0.19653782 -0.13238795
C  -2.34761566 0.57066944 -0.53148082
C  -0.40209396 0.68753344 1.09646471
H  -0.25415843 0.63719044 0.35563687
H  -0.25540827 0.49162645 -0.36522986
H  -0.01559477 -0.38761848 -0.00053058
H  0.36848052 0.85386456 0.03248334
H  0.39989009 -1.82133564 -0.06195289
H  1.16674771 -0.14839567 0.00591757
12
MD Step 306.5 Units = [eV / Ang.]
C  0.86461877 0.86512017 -1.32686112
C  0.18078178 -0.69456030 0.60660824
C  0.00898406 -0.48409401 0.43568889
C  0.35262465 -0.42923312 -0.21580855
C  -2.04084762 0.17843054 -0.44655473
C  -0.29571731 0.50362733 0.97812340
H  -0.27355166 0.49990604 0.33660412
H  -0.33749718 0.43602734 -0.36789756
H  -0.07784239 -0.34015116 -0.02972312
H  0.42970797 0.86988512 0.04023712
H  0.07250794 -1.27321169 -0.06682854
H  1.11623099 -0.13174626 0.05641184
12
MD Step 307.0 Units = [eV / Ang.]
C  0.94590818 1.02768514 -1.28175258
C  -0.05171426 -0.82757711 0.59158125
C  0.15174638 -0.08304321 0.52053879
C  0.42992206 -0.59499993 -0.29768681
C  -1.63245208 -0.33934564 -0.36873262
C  -0.12434799 0.30970242 0.85935529
H  -0.29955046 0.33892239 0.31434020
H  -0.39488658 0.34089796 -0.36151490
H  -0.13482085 -0.28792981 -0.05948992
H  0.44377883 0.80445850 0.04429110
H  -0.31967149 -0.57608787 -0.06078557
H  0.98608825 -0.11268284 0.09985577
12
MD Step 307.5 Units = [eV / Ang.]
C  1.02548848 1.18504940 -1.22725699
C  -0.30575010 -0.93357432 0.56647123
C  0.28935916 0.32722038 0.60503661
C  0.52666268 -0.68963972 -0.37655967
C  -1.14217773 -0.95517594 -0.29966524
C  0.10356428 0.11203706 0.74279531
H  -0.32722907 0.16734390 0.29046726
H  -0.42739098 0.21025360 -0.34654093
H  -0.18130024 -0.23132676 -0.08959064
H  0.41328760 0.66180890 0.04366296
H  -0.75766891 0.23819383 -0.04256429
H  0.78315484 -0.09219032 0.13374440
12
MD Step 308.0 Units = [eV / Ang.]
C  1.09728466 1.31897160 -1.16467022
C  -0.57442939 -1.01243456 0.53195290
C  0.41682600 0.73445898 0.68850978
C  0.63254417 -0.71800600 -0.45127573
C  -0.60689129 -1.60582361 -0.23874797
C  0.37504880 -0.08237694 0.63055866
H  -0.35044425 0.00029533 0.26648259
H  -0.43660006 0.05063068 -0.32402353
H  -0.21303912 -0.17092153 -0.11961612
H  0.34621031 0.45573748 0.03792295
H  -1.20570528 1.10083203 -0.01346018
H  0.51919545 -0.07136347 0.15636689
12
MD Step 308.5 Units = [eV / Ang.]
C  1.15428653 1.41093500 -1.09508468
C  -0.84868331 -1.06553611 0.48912569
C  0.52979589 1.12607968 0.77026132
C  0.73398228 -0.69200276 -0.52109475
C  -0.08133637 -2.18881738 -0.18157094
C  0.67180147 -0.26613924 0.52381819
H  -0.36232678 -0.14653721 0.24347997
H  -0.42599940 -0.12900736 -0.29556985
H  -0.22709371 -0.10749580 -0.14903424
H  0.25411896 0.20694633 0.02726030
H  -1.61045540 1.90289700 0.02110902
H  0.21190985 -0.05132216 0.16729997
12
MD Step 309.0 Units = [eV / Ang.]
C  1.18925165 1.44443566 -1.01918909
C  -1.11737229 -1.09577429 0.43946338
C  0.62476981 1.48969496 0.84964034
C  0.81666593 -0.62761865 -0.58569180
C  0.36922214 -2.57779780 -0.11946727
C  0.96987752 -0.43203965 0.42229846
H  -0.35611567 -0.25890958 0.22189954
H  -0.40098017 -0.31753146 -0.26326126
H  -0.22201123 -0.04200697 -0.17724800
H  0.14998969 -0.06064799 0.01242368
H  -1.90866884 2.51128429 0.05119624
H  -0.11462855 -0.03308851 0.16793578
12
MD Step 309.5 Units = [eV / Ang.]
C  1.19570132 1.40743558 -0.93716533
C  -1.36765097 -1.10737627 0.38470232
C  0.69922883 1.81369974 0.92609342
C  0.86813951 -0.54203499 -0.64509239
C  0.68527205 -2.65914320 -0.04146254
C  1.24060369 -0.57383489 0.32386488
H  -0.32623804 -0.32620676 0.20139866
H  -0.36862057 -0.50220457 -0.22949094
H  -0.19791098 0.02445451 -0.20365593
H  0.04625942 -0.32346109 -0.00542538
H  -2.04392376 2.80610732 0.06438024
H  -0.43086050 -0.01743537 0.16185299
12
MD Step 310.0 Units = [eV / Ang.]
C  1.16899116 1.29441819 -0.84874035
C  -1.58569438 -1.10541881 0.32665744
C  0.75173151 2.08779792 0.99918991
C  0.87978487 -0.45148756 -0.69957435
C  0.83237757 -2.37606443 0.06136670
C  1.45329340 -0.68698911 0.22448738
H  -0.26941113 -0.34327955 0.18091169
H  -0.33713461 -0.66961761 -0.19671696
H  -0.15646983 0.09072191 -0.22770966
H  -0.04647447 -0.56082159 -0.02488699
H  -1.98647745 2.72548167 0.05025862
H  -0.70451667 -0.00474103 0.15475656
12
MD Step 310.5 Units = [eV / Ang.]
C  1.10719201 1.10743122 -0.75341449
C  -1.75783929 -1.09504764 0.26698224
C  0.78198700 2.30345617 1.06861508
C  0.84769588 -0.37009089 -0.74958100
C  0.81294646 -1.75454145 0.19134864
C  1.57980308 -0.76907010 0.11882832
H  -0.18545799 -0.31137553 0.15891589
H  -0.31495412 -0.80698320 -0.16715240
H  -0.10081074 0.15561715 -0.24896004
H  -0.12003989 -0.75629592 -0.04447561
H  -1.74526851 2.29180449 0.00513065
H  -0.90525389 0.00509570 0.15376270
12
MD Step 311.0 Units = [eV / Ang.]
C  1.01149980 0.85580846 -0.65080028
C  -1.87202751 -1.08050829 0.20692410
C  0.79091399 2.45421457 1.13413465
C  0.77229455 -0.30937582 -0.79565689
C  0.66295180 -0.89352478 0.34256453
C  1.60004092 -0.81963447 0.00148953
H  -0.07758208 -0.23786832 0.13383421
H  -0.30953200 -0.90362809 -0.14244921
H  -0.03529180 0.21802178 -0.26708896
H  -0.16872850 -0.89795775 -0.06272902
H  -1.36432906 1.60182815 -0.06623816
H  -1.01021009 0.01262455 0.16601550
12
MD Step 311.5 Units = [eV / Ang.]
C  0.88606487 0.55464601 -0.54096601
C  -1.91931744 -1.06423039 0.14714145
C  0.78064003 2.53589384 1.19554011
C  0.65712227 -0.27823421 -0.83840796
C  0.43584214 0.07382735 0.50322367
C  1.50671939 -0.83965046 -0.13138050
H  0.04799867 -0.13486081 0.10445676
H  -0.32609429 -0.95239681 -0.12345242
H  0.03480683 0.27694382 -0.28192201
H  -0.18904071 -0.97803394 -0.07827606
H  -0.90595658 0.78741038 -0.15291568
H  -1.00878518 0.01868521 0.19695865
12
MD Step 312.0 Units = [eV / Ang.]
C  0.73730447 0.22253619 -0.42466958
C  -1.89513247 -1.04624041 0.08764925
C  0.75440136 2.54667408 1.25258283
C  0.50746908 -0.28290375 -0.87846160
C  0.18364826 1.02324250 0.66021647
C  1.30755135 -0.83077705 -0.28069177
H  0.18294291 -0.01709969 0.07025559
H  -0.36664976 -0.95063139 -0.11009804
H  0.10370110 0.33157558 -0.29341965
H  -0.17937593 -0.99239759 -0.08988313
H  -0.43094683 -0.02814191 -0.24232629
H  -0.90491354 0.02416342 0.24884591
12
MD Step 312.5 Units = [eV / Ang.]
C  0.57291792 -0.12082040 -0.30342018
C  -1.79990692 -1.02409233 0.02791950
C  0.71628308 2.48707685 1.30491310
C  0.32936531 -0.32680512 -0.91640120
C  -0.05539307 1.86561703 0.80296047
C  1.02394337 -0.79479814 -0.44379645
H  0.31793716 0.10021689 0.03152028
H  -0.42954252 -0.90046931 -0.10148974
H  0.16561212 0.38132807 -0.30164859
H  -0.13982608 -0.94024532 -0.09650722
H  0.01454055 -0.75676022 -0.32411232
H  -0.71593091 0.02975201 0.32006234
12
MD Step 313.0 Units = [eV / Ang.]
C  0.40089469 -0.45660327 -0.17937947
C  -1.63900081 -0.99335093 -0.03288824
C  0.67083122 2.35985140 1.35203088
C  0.12912603 -0.41007586 -0.95265857
C  -0.25985460 2.55174147 0.92499788
C  0.68667705 -0.73341162 -0.61487640
H  0.44380945 0.20324814 -0.01068757
H  -0.50967202 -0.80839600 -0.09613209
H  0.21531272 0.42583674 -0.30673650
H  -0.07215803 -0.82416674 -0.09737900
H  0.40255482 -1.35047553 -0.39178360
H  -0.46852051 0.03580219 0.40549267
12
MD Step 313.5 Units = [eV / Ang.]
C  0.22871844 -0.76819458 -0.05515510
C  -1.42190636 -0.94850540 -0.09563263
C  0.62256175 2.16979301 1.39326206
C  -0.08661226 -0.52886019 -0.98736326
C  -0.42153996 3.06323265 1.02362466
C  0.33018246 -0.64837292 -0.78612426
H  0.55238938 0.28067658 -0.05470813
H  -0.59932147 -0.68417335 -0.09225487
H  0.24866125 0.46493123 -0.30881995
H  0.02001957 -0.65060648 -0.09213291
H  0.72013635 -1.79222381 -0.44241764
H  -0.19328913 0.04230328 0.49772203
12
MD Step 314.0 Units = [eV / Ang.]
C  0.06287105 -1.04186547 0.06644006
C  -1.16100442 -0.88402643 -0.16091982
C  0.57546466 1.92348582 1.42776517
C  -0.31052052 -0.67450317 -1.02015645
C  -0.53958593 3.39963598 1.09861717
C  -0.01276070 -0.54185266 -0.94920199
H  0.63703596 0.32423524 -0.09851514
H  -0.68934151 -0.53944741 -0.08813744
H  0.26303730 0.49857476 -0.30799547
H  0.13097587 -0.43056976 -0.08098513
H  0.96358768 -2.08263264 -0.47546379
H  0.08024056 0.04896575 0.58855282
12
MD Step 314.5 Units = [eV / Ang.]
C  -0.09141023 -1.26700404 0.18260927
C  -0.87017025 -0.79530714 -0.22891719
C  0.53258292 1.62900345 1.45457479
C  -0.53410949 -0.83301680 -1.05000340
C  -0.61514201 3.56772841 1.15093592
C  -0.31466424 -0.41683756 -1.09647759
H  0.69288128 0.32877171 -0.13994819
H  -0.77038809 -0.38635252 -0.08236386
H  0.25761279 0.52678425 -0.30428722
H  0.25262926 -0.18019723 -0.06493022
H  1.13314835 -2.22892241 -0.49152074
H  0.32702973 0.05534988 0.67032843
12
MD Step 315.0 Units = [eV / Ang.]
C  -0.23020369 -1.43612701 0.29075301
C  -0.56351247 -0.67928402 -0.29928017
C  0.49574513 1.29555637 1.47267622
C  -0.74747347 -0.98526388 -1.07505596
C  -0.64770500 3.57475595 1.18180445
C  -0.55499205 -0.27739887 -1.22176225
H  0.71689916 0.29207789 -0.17691930
H  -0.83395786 -0.23636397 -0.07397159
H  0.23341153 0.54954972 -0.29763818
H  0.37459820 0.07930654 -0.04589520
H  1.22918287 -2.23779316 -0.49148434
H  0.52800764 0.06098443 0.73677331
12
MD Step 315.5 Units = [eV / Ang.]
C  -0.35093866 -1.54487644 0.38861727
C  -0.25438037 -0.53470693 -0.37117950
C  0.46548738 0.93311752 1.48110715
C  -0.93951973 -1.10833986 -1.09265230
C  -0.63314159 3.42515493 1.19222772
C  -0.72026078 -0.12873821 -1.32054519
H  0.70792679 0.21469285 -0.20759541
H  -0.87309916 -0.09950399 -0.06249742
H  0.19314492 0.56677309 -0.28792896
H  0.48477212 0.32293111 -0.02675606
H  1.24994791 -2.11194956 -0.47613042
H  0.67006117 0.06544552 0.78333313
12
MD Step 316.0 Units = [eV / Ang.]
C  -0.45247191 -1.59208154 0.47442243
C  0.04531900 -0.36209688 -0.44339354
C  0.44113897 0.55202813 1.47906683
C  -1.09888947 -1.17840703 -1.09954111
C  -0.56318235 3.11992909 1.18290958
C  -0.80325235 0.02300546 -1.38988885
H  0.66671925 0.09979254 -0.23057024
H  -0.88279197 0.01610469 -0.04794540
H  0.14087026 0.57823890 -0.27501812
H  0.57054838 0.52460711 -0.01111977
H  1.19077092 -1.84951476 -0.44608777
H  0.74522127 0.06839428 0.80716598
12
MD Step 316.5 Units = [eV / Ang.]
C  -0.53523046 -1.57993482 0.54700151
C  0.32555151 -0.16354623 -0.51443156
C  0.42106249 0.16259825 1.46602013
C  -1.21551149 -1.17471450 -1.09237003
C  -0.42643700 2.65838014 1.15452810
C  -0.80203185 0.17118807 -1.42820878
H  0.59607121 -0.04679996 -0.24504394
H  -0.86008790 0.10444916 -0.03071054
H  0.08151526 0.58362437 -0.25879577
H  0.62065502 0.66121090 -0.00282652
H  1.04470963 -1.44604465 -0.40215570
H  0.74973359 0.06958927 0.80699310
12
MD Step 317.0 Units = [eV / Ang.]
C  -0.60139959 -1.51416847 0.60594284
C  0.57843209 0.05750529 -0.58265399
C  0.40296516 -0.22525982 1.44177368
C  -1.28242381 -1.08390528 -1.06837503
C  -0.21137237 2.04254154 1.10835312
C  -0.71918530 0.30925068 -1.43510683
H  0.50095414 -0.21656082 -0.25100757
H  -0.80411691 0.16171786 -0.01148465
H  0.02035942 0.58254228 -0.23923592
H  0.62717319 0.71690172 -0.00523671
H  0.80515435 -0.89945717 -0.34593880
H  0.68345961 0.06889220 0.78296986
12
MD Step 317.5 Units = [eV / Ang.]
C  -0.65502322 -1.40410200 0.65172126
C  0.79839810 0.29640196 -0.64638056
C  0.38423781 -0.60234643 1.40651861
C  -1.29729294 -0.90328900 -1.02610124
C  0.08810192 1.28489048 1.04712870
C  -0.56152837 0.43137033 -1.41136087
H  0.38856029 -0.39830948 -0.24940759
H  -0.71605115 0.18638500 0.00884134
H  -0.03746574 0.57460703 -0.21643837
H  0.58717207 0.68645016 -0.02048447
H  0.47103983 -0.21834435 -0.28070255
H  0.54985141 0.06628631 0.73666573
12
MD Step 318.0 Units = [eV / Ang.]
C  -0.70187897 -1.26233670 0.68576781
C  0.98232254 0.54725112 -0.70398306
C  0.36227686 -0.96041408 1.36082681
C  -1.26305035 -0.64189082 -0.96591059
C  0.46431347 0.41888043 0.97591121
C  -0.34026338 0.53305094 -1.35907135
H  0.26809417 -0.57855003 -0.24223292
H  -0.59906437 0.17934430 0.02927335
H  -0.08741144 0.55950941 -0.19065051
H  0.50338498 0.57633979 -0.04894580
H  0.05478844 0.56690026 -0.21213134
H  0.35648804 0.06191538 0.67114638
12
MD Step 318.5 Units = [eV / Ang.]
C  -0.74895994 -1.10392785 0.71040468
C  1.12954006 0.80279195 -0.75396967
C  0.33474224 -1.29230967 1.30560831
C  -1.18735317 -0.31889888 -0.89009894
C  0.88662026 -0.49089541 0.90220505
C  -0.07144896 0.61150752 -1.28187936
H  0.15016042 -0.74228653 -0.23244801
H  -0.45826391 0.14407391 0.04881186
H  -0.12584844 0.53708688 -0.16226679
H  0.38367552 0.40321735 -0.08910975
H  -0.40883411 1.39350065 -0.14832763
H  0.11597003 0.05614006 0.59107025
12
MD Step 319.0 Units = [eV / Ang.]
C  -0.80349543 -0.94494036 0.72859296
C  1.24171444 1.05423336 -0.79506810
C  0.29976023 -1.59202019 1.24203178
C  -1.08102876 0.03989073 -0.80258440
C  1.29637509 -1.34602654 0.83455790
C  0.22360232 0.66573545 -1.18508287
H  0.04568691 -0.87438991 -0.22370877
H  -0.30052730 0.08675088 0.06655153
H  -0.15030962 0.50737972 -0.13180570
H  0.23949977 0.19029925 -0.13788424
H  -0.85799034 2.16349476 -0.09823638
H  -0.15328730 0.04959285 0.50263629
12
MD Step 319.5 Units = [eV / Ang.]
C  -0.87158584 -0.80049592 0.74347177
C  1.32247000 1.29123722 -0.82630906
C  0.25605387 -1.85461923 1.17142265
C  -0.95598508 0.40635546 -0.70828441
C  1.61326258 -2.02748220 0.77936615
C  0.51850514 0.69616861 -1.07542893
H  -0.03552868 -0.96141924 -0.21984476
H  -0.13414918 0.01616260 0.08178013
H  -0.15963640 0.47066334 -0.09986885
H  0.08390017 -0.03699190 -0.19120459
H  -1.21030556 2.75721997 -0.06829360
H  -0.42700102 0.04320128 0.41319350
12
MD Step 320.0 Units = [eV / Ang.]
C  -0.95673661 -0.68264683 0.75776147
C  1.37673669 1.50220979 -0.84709867
C  0.20303155 -2.07614669 1.09514921
C  -0.82322978 0.75378735 -0.61239428
C  1.75688188 -2.42689669 0.73721155
C  0.78315568 0.70392793 -0.96041486
H  -0.08636182 -0.99357440 -0.22418148
H  0.03176802 -0.05674695 0.09406258
H  -0.15403814 0.42745316 -0.06708651
H  -0.07036074 -0.25483987 -0.24472042
H  -1.38445191 3.06533048 -0.05867124
H  -0.67639482 0.03814271 0.33038264
12
MD Step 320.5 Units = [eV / Ang.]
C  -1.05869117 -0.59859231 0.77317300
C  1.40982560 1.67506059 -0.85726393
C  0.14085189 -2.25344947 1.01451183
C  -0.69154212 1.05931971 -0.51975987
C  1.67708886 -2.48468522 0.70141176
C  0.98671406 0.68990035 -0.84709357
H  -0.10359282 -0.96631173 -0.23886144
H  0.18818685 -0.11983119 0.10329128
H  -0.13506687 0.37847873 -0.03405570
H  -0.21211148 -0.44349530 -0.29436672
H  -1.33024843 3.02789948 -0.06184101
H  -0.87141437 0.03570635 0.26085437
12
MD Step 321.0 Units = [eV / Ang.]
C  -1.17296200 -0.54971233 0.78999730
C  1.42637671 1.79842731 -0.85704596
C  0.07049211 -2.38405518 0.93064498
C  -0.56709378 1.30499729 -0.43445929
C  1.37638677 -2.21353002 0.66064369
C  1.10212343 0.65407093 -0.74065882
H  -0.08844968 -0.88116625 -0.26436083
H  0.32716354 -0.16118201 0.10968185
H  -0.10550324 0.32462949 -0.00127835
H  -0.33241181 -0.58826503 -0.33672003
H  -1.05059807 2.65871674 -0.06530748
H  -0.98552398 0.03706905 0.20886296
12
MD Step 321.5 Units = [eV / Ang.]
C  -1.29125464 -0.53169971 0.80701013
C  1.42940605 1.86321633 -0.84703284
C  -0.00620451 -2.46611171 0.84444374
C  -0.45392571 1.47786202 -0.35961480
C  0.90947694 -1.69176421 0.60434384
C  1.11124085 0.59549610 -0.64330273
H  -0.04628469 -0.74552708 -0.29935346
H  0.44283238 -0.17087549 0.11370455
H  -0.06913767 0.26687880 0.03089394
H  -0.42464632 -0.67939438 -0.36914537
H  -0.60052850 2.03888564 -0.05717803
H  -1.00097419 0.04303370 0.17523105
12
MD Step 322.0 Units = [eV / Ang.]
C  -1.40268594 -0.53569166 0.82171465
C  1.41970399 1.86409455 -0.82803718
C  -0.08653248 -2.49839799 0.75652701
C  -0.35491052 1.56959566 -0.29737826
C  0.36053698 -1.03125737 0.52725012
C  1.00895330 0.51294348 -0.55385302
H  0.01450585 -0.57143668 -0.34095796
H  0.53209872 -0.14264770 0.11596201
H  -0.03044519 0.20619540 0.06229649
H  -0.48430985 -0.71139475 -0.38980301
H  -0.06406752 1.28418962 -0.03087460
H  -0.91284732 0.05380744 0.15715373
12
MD Step 322.5 Units = [eV / Ang.]
C  -1.49546485 -0.55003953 0.83083093
C  1.39576940 1.80053004 -0.80094570
C  -0.16704733 -2.48037091 0.66724243
C  -0.27262417 1.57612211 -0.24899665
C  -0.18649948 -0.34002870 0.43048285
C  0.80463700 0.40579389 -0.46839486
H  0.08398460 -0.37376357 -0.38527593
H  0.59484978 -0.07506963 0.11704251
H  0.00584609 0.14345890 0.09296031
H  -0.50873160 -0.68231693 -0.39760391
H  0.47563768 0.50678461 0.01365175
H  -0.73035713 0.06889972 0.14900626
12
MD Step 323.0 Units = [eV / Ang.]
C  -1.55857121 -0.56219875 0.83087295
C  1.35429870 1.67703613 -0.76658313
C  -0.24383976 -2.41221725 0.57671954
C  -0.20972255 1.49741993 -0.21487838
C  -0.66860148 0.30184168 0.31957143
C  0.52028996 0.27478798 -0.38164567
H  0.15217445 -0.16824504 -0.42804556
H  0.63362707 0.02812450 0.11739141
H  0.03526584 0.07939492 0.12308498
H  -0.49692691 -0.59330526 -0.39218454
H  0.95687785 -0.20981763 0.07181742
H  -0.47487195 0.08717881 0.14387956
12
MD Step 323.5 Units = [eV / Ang.]
C  -1.58309104 -0.56033303 0.81866149
C  1.29108375 1.50253815 -0.72562575
C  -0.31295241 -2.29486704 0.48496597
C  -0.16863788 1.33758977 -0.19459614
C  -1.04957436 0.84784109 0.20156574
C  0.18602098 0.12235172 -0.28852585
H  0.21023907 0.03018828 -0.46524051
H  0.65287642 0.15864057 0.11723289
H  0.05413029 0.01454969 0.15297412
H  -0.44968513 -0.44857816 -0.37394512
H  1.34501450 -0.81698780 0.13726673
H  -0.17542419 0.10706675 0.13526643
12
MD Step 324.0 Units = [eV / Ang.]
C  -1.56299652 -0.53441627 0.79167986
C  1.20205203 1.28906344 -0.67858052
C  -0.37087247 -2.13001150 0.39199171
C  -0.15069562 1.10515977 -0.18682272
C  -1.31536980 1.27806584 0.08294724
C  -0.16545024 -0.04746132 -0.18537547
H  0.25119031 0.20856003 -0.49350049
H  0.65800113 0.30496807 0.11655901
H  0.06001742 -0.05068510 0.18294356
H  -0.36990726 -0.25580615 -0.34415036
H  1.62737152 -1.29424052 0.20396815
H  0.13665949 0.12680371 0.11834003
12
MD Step 324.5 Units = [eV / Ang.]
C  -1.49540422 -0.47684128 0.74825873
C  1.08419130 1.05012231 -0.62582288
C  -0.41500263 -1.92010059 0.29794118
C  -0.15492215 0.81345914 -0.18922259
C  -1.46561766 1.58818330 -0.03119760
C  -0.50359016 -0.22930020 -0.07052638
H  0.27015901 0.35645918 -0.51036918
H  0.65446277 0.45407800 0.11517442
H  0.05209887 -0.11600014 0.21321629
H  -0.26310562 -0.02669655 -0.30505895
H  1.80436507 -1.63806361 0.26706691
H  0.43236541 0.14470044 0.09054003
12
MD Step 325.0 Units = [eV / Ang.]
C  -1.38042014 -0.38266422 0.68762716
C  0.93616426 0.79919419 -0.56766621
C  -0.44400880 -1.66836841 0.20320272
C  -0.17693885 0.48080589 -0.19838760
C  -1.50607248 1.77981527 -0.13708030
C  -0.80312201 -0.41694905 0.05573060
H  0.26436022 0.46623564 -0.51437077
H  0.64710609 0.59305532 0.11277370
H  0.03127186 -0.18106332 0.24382797
H  -0.13784960 0.22257600 -0.25999594
H  1.88164079 -1.85195544 0.32282428
H  0.68786865 0.15931813 0.05151440
12
MD Step 325.5 Units = [eV / Ang.]
C  -1.22075046 -0.24968477 0.60989279
C  0.75855740 0.54860118 -0.50443793
C  -0.45798429 -1.37887383 0.10847484
C  -0.20836336 0.13010509 -0.20992265
C  -1.44361430 1.85419661 -0.23169234
C  -1.04524037 -0.60375583 0.19154570
H  0.23291607 0.53298220 -0.50498880
H  0.63977169 0.71037277 0.10902393
H  0.00005848 -0.24540970 0.27456278
H  -0.00584788 0.47155806 -0.21326155
H  1.86492228 -1.93965171 0.36813846
H  0.88557474 0.16955993 0.00266479
12
MD Step 326.0 Units = [eV / Ang.]
C  -1.02124761 -0.07850789 0.51600160
C  0.55380711 0.30884337 -0.43654093
C  -0.45839702 -1.05654844 0.01477246
C  -0.23712205 -0.21254771 -0.21879626
C  -1.28373851 1.80891776 -0.31221571
C  -1.21745242 -0.78300161 0.33401533
H  0.17666901 0.55449179 -0.48260519
H  0.63516546 0.79670158 0.10363422
H  -0.03770638 -0.30835575 0.30493421
H  0.11868511 0.69679444 -0.16976987
H  1.75750453 -1.90147686 0.40000129
H  1.01383278 0.17468932 -0.05343114
12
MD Step 326.5 Units = [eV / Ang.]
C  -0.78848175 0.12731032 0.40770239
C  0.32591148 0.08834330 -0.36448817
C  -0.44785863 -0.70725127 -0.07662956
C  -0.24890524 -0.52044834 -0.21999049
C  -1.03002166 1.63712575 -0.37556735
C  -1.31274342 -0.94817104 0.47961818
H  0.09805183 0.53130668 -0.44843433
H  0.63490207 0.84530734 0.09640294
H  -0.07733338 -0.36896027 0.33421463
H  0.22058784 0.87440997 -0.13438711
H  1.55986736 -1.73328400 0.41509782
H  1.06602351 0.17431158 -0.11353895
12
MD Step 327.0 Units = [eV / Ang.]
C  -0.53039187 0.36104370 0.28751052
C  0.08004319 -0.10658154 -0.28891589
C  -0.42977324 -0.33778407 -0.16429925
C  -0.22966695 -0.76981744 -0.20937833
C  -0.68528033 1.32901594 -0.41823082
C  -1.32867932 -1.09315132 0.62452186
H  0.00102220 0.46689346 -0.40445287
H  0.63962714 0.85218543 0.08724582
H  -0.11380755 -0.42604268 0.36150680
H  0.28613170 0.98373875 -0.11106170
H  1.27112096 -1.42785027 0.40971135
H  1.03965407 0.16835005 -0.17415748
12
MD Step 327.5 Units = [eV / Ang.]
C  -0.25600171 0.61256328 0.15864532
C  -0.17783412 -0.27168076 -0.21057745
C  -0.40792231 0.04413333 -0.24677727
C  -0.16861652 -0.94346578 -0.18459393
C  -0.25452289 0.87608766 -0.43658037
C  -1.26684142 -1.21236116 0.76478879
H  -0.10898218 0.36788412 -0.35330635
H  0.64914282 0.81609153 0.07620922
H  -0.14230552 -0.47825393 0.38584175
H  0.30568887 1.01116064 -0.10198276
H  0.89233319 -0.97919622 0.38013495
H  0.93586178 0.15703727 -0.23180190
12
MD Step 328.0 Units = [eV / Ang.]
C  0.02485907 0.86828652 0.02489451
C  -0.44126105 -0.40480319 -0.13032891
C  -0.38607183 0.42997116 -0.32270956
C  -0.06081416 -1.03347861 -0.14560862
C  0.25022470 0.27895107 -0.42794383
C  -1.13276960 -1.30085982 0.89655489
H  -0.22516002 0.24421047 -0.29814927
H  0.66248627 0.73859063 0.06347633
H  -0.15864470 -0.52418505 0.40628771
H  0.27585159 0.95294764 -0.10706487
H  0.43179605 -0.39055579 0.32383520
H  0.75950368 0.14092496 -0.28324360
12
MD Step 328.5 Units = [eV / Ang.]
C  0.30191561 1.11152799 -0.10963264
C  -0.70346696 -0.50602021 -0.04910969
C  -0.36762170 0.81058906 -0.39096294
C  0.09149034 -1.04198370 -0.09478516
C  0.80381515 -0.44135404 -0.39256848
C  -0.93635547 -1.35443866 1.01626648
H  -0.33963393 0.10889873 -0.24238408
H  0.67794805 0.62414700 0.04936790
H  -0.15964018 -0.56249535 0.42205410
H  0.20023272 0.81610138 -0.12397136
H  -0.08846195 0.31413400 0.24150379
H  0.51977834 0.12089381 -0.32577792
12
MD Step 329.0 Units = [eV / Ang.]
C  0.56496651 1.32349096 -0.24087191
C  -0.95742919 -0.57780775 0.03207737
C  -0.35532876 1.17653978 -0.45071599
C  0.27923181 -0.97976002 -0.03637863
C  1.36293067 -1.23130363 -0.33615701
C  -0.69247744 -1.36973888 1.12101989
H  -0.44399008 -0.02271733 -0.18928861
H  0.69303645 0.48021138 0.03433886
H  -0.14336382 -0.59204036 0.43258141
H  0.08864250 0.61685871 -0.14868296
H  -0.62734067 1.07813466 0.13963724
H  0.23112202 0.09813249 -0.35755964
12
MD Step 329.5 Units = [eV / Ang.]
C  0.80456841 1.48501312 -0.36525315
C  -1.19583323 -0.62511073 0.11218786
C  -0.35109970 1.51844072 -0.50152018
C  0.48843241 -0.86325601 0.02433751
C  1.86636989 -1.99921280 -0.27172592
C  -0.42144057 -1.34440529 1.20899755
H  -0.53008172 -0.13449481 -0.14157297
H  0.70442902 0.31715225 0.01896606
H  -0.10931920 -0.61198562 0.43760935
H  -0.04503065 0.37741412 -0.17640225
H  -1.12488678 1.80640014 0.03236502
H  -0.08610788 0.07404491 -0.37798889
12
MD Step 330.0 Units = [eV / Ang.]
C  1.01281957 1.57895789 -0.48013568
C  -1.41101245 -0.65510955 0.19016345
C  -0.35584154 1.82739106 -0.54333606
C  0.70293204 -0.71112969 0.08202733
C  2.24492512 -2.62552420 -0.21873631
C  -0.14865241 -1.27727854 1.27989260
H  -0.59100594 -0.21159974 -0.10096121
H  0.70797721 0.14784481 0.00392299
H  -0.05854744 -0.62189499 0.43722127
H  -0.18544915 0.12200349 -0.20247926
H  -1.51233461 2.37628152 -0.05953352
H  -0.40581040 0.05005793 -0.38804561
12
MD Step 330.5 Units = [eV / Ang.]
C  1.18408421 1.59282400 -0.58410232
C  -1.59497775 -0.67649962 0.26496984
C  -0.36934530 2.09537663 -0.57654247
C  0.90712513 -0.54135049 0.13207181
C  2.44053049 -2.99363483 -0.19804106
C  0.09704647 -1.16857845 1.33514011
H  -0.62205986 -0.24285943 -0.06792536
H  0.69884829 -0.01325630 -0.01006309
H  0.00633204 -0.62178536 0.43185979
H  -0.31815041 -0.12650987 -0.22309970
H  -1.73162314 2.66893092 -0.11386410
H  -0.69781015 0.02734280 -0.39040345
12
MD Step 331.0 Units = [eV / Ang.]
C  1.31546659 1.52097262 -0.67701184
C  -1.73965293 -0.69822280 0.33564595
C  -0.39021589 2.31561150 -0.60191649
C  1.08807312 -0.36947721 0.17104598
C  2.42661099 -3.03168382 -0.22392951
C  0.28672012 -1.02000515 1.37775685
H  -0.62144213 -0.22277456 -0.04167392
H  0.67188493 -0.15161968 -0.02227207
H  0.08116370 -0.61213773 0.42230909
H  -0.43106104 -0.34884512 -0.23562770
H  -1.75622677 2.61165943 -0.11518514
H  -0.93132069 0.00652252 -0.38914119
12
MD Step 331.5 Units = [eV / Ang.]
C  1.40687824 1.36580097 -0.75977558
C  -1.83740455 -0.72779832 0.40136241
C  -0.41584035 2.48279133 -0.62057360
C  1.23664169 -0.20811615 0.19688505
C  2.21759961 -2.74254672 -0.29766380
C  0.39600095 -0.83466507 1.41169015
H  -0.59049168 -0.15257681 -0.02042490
H  0.62222009 -0.25457134 -0.03206310
H  0.16039860 -0.59385801 0.40963961
H  -0.51512303 -0.53021230 -0.23864137
H  -1.60107946 2.20826701 -0.06145709
H  -1.07980011 -0.01251460 -0.38897778
12
MD Step 332.0 Units = [eV / Ang.]
C  1.46068790 1.13753459 -0.83393226
C  -1.88186828 -0.76961192 0.46148000
C  -0.44246552 2.59323393 -0.63385935
C  1.34757814 -0.06717794 0.20881220
C  1.86135664 -2.20237806 -0.40688945
C  0.40998595 -0.61683286 1.44078737
H  -0.53339949 -0.04000923 -0.00188678
H  0.54609507 -0.31328949 -0.03894757
H  0.23739247 -0.56817776 0.39510777
H  -0.56425288 -0.66023165 -0.23177757
H  -1.31508980 1.53752083 0.03526662
H  -1.12602020 -0.03058044 -0.39416099
12
MD Step 332.5 Units = [eV / Ang.]
C  1.48103983 0.85271834 -0.90115877
C  -1.86893166 -0.82367546 0.51559690
C  -0.46540865 2.64493294 -0.64319634
C  1.41879934 0.04561473 0.20712526
C  1.41977946 -1.52882586 -0.53123202
C  0.32672641 -0.37166735 1.46771385
H  -0.45648136 0.10209617 0.01619823
H  0.44172687 -0.32434865 -0.04264781
H  0.30487198 -0.53649995 0.38001428
H  -0.57497611 -0.73236840 -0.21550893
H  -0.96144557 0.72092599 0.15445245
H  -1.06570055 -0.04890250 -0.40735710
12
MD Step 333.0 Units = [eV / Ang.]
C  1.47302518 0.53187615 -0.96286607
C  -1.79762146 -0.88527742 0.56356980
C  -0.47946350 2.63752079 -0.64989544
C  1.45037341 0.12439406 0.19293300
C  0.94947360 -0.83968264 -0.65009914
C  0.15797450 -0.10500443 1.49322234
H  -0.36721596 0.25799967 0.03560435
H  0.30999016 -0.29034498 -0.04312812
H  0.35558934 -0.50020275 0.36553059
H  -0.54603385 -0.74333056 -0.19093529
H  -0.59771458 -0.11926726 0.27501365
H  -0.90837683 -0.06868063 -0.42894967
12
MD Step 333.5 Units = [eV / Ang.]
C  1.44191243 0.19699446 -1.01996481
C  -1.67062996 -0.94570399 0.60550237
C  -0.47948284 2.57218113 -0.65496178
C  1.44371866 0.16521682 0.16791805
C  0.49109607 -0.22381982 -0.74822367
C  -0.07317334 0.17672680 1.51604818
H  -0.27329342 0.41136891 0.05736220
H  0.15469414 -0.21939314 -0.04059307
H  0.38310606 -0.46043563 0.35251864
H  -0.47815829 -0.69274591 -0.15962619
H  -0.26462223 -0.88972994 0.38103107
H  -0.67516727 -0.09065966 -0.45701098
12
MD Step 334.0 Units = [eV / Ang.]
C  1.39257852 -0.13063804 -1.07281243
C  -1.49431674 -0.99385395 0.64170189
C  -0.46107472 2.45153570 -0.65892910
C  1.40128425 0.16657695 0.13415296
C  0.06832737 0.26758799 -0.81726742
C  -0.33684731 0.46649802 1.53341685
H  -0.18185521 0.54721000 0.08170573
H  -0.01765712 -0.12364035 -0.03545499
H  0.38262229 -0.41795037 0.34137820
H  -0.37409471 -0.58326149 -0.12350900
H  0.01534502 -1.53518534 0.46352373
H  -0.39431165 -0.11487911 -0.48790643
12
MD Step 334.5 Units = [eV / Ang.]
C  1.32919771 -0.43197398 -1.12128360
C  -1.27817726 -1.01826864 0.67261445
C  -0.42128351 2.27951908 -0.66176427
C  1.32673621 0.13027441 0.09396464
C  -0.30755988 0.61478464 -0.85454008
C  -0.60159395 0.75667945 1.54188864
H  -0.09900575 0.65314556 0.10817553
H  -0.19856758 -0.01723998 -0.02827981
H  0.35170106 -0.37301453 0.33196104
H  -0.23884267 -0.42105394 -0.08477341
H  0.23345840 -2.03218921 0.51927933
H  -0.09606278 -0.14066287 -0.51724247
12
MD Step 335.0 Units = [eV / Ang.]
C  1.25516867 -0.69112164 -1.16490199
C  -1.03393750 -1.00902590 0.69875388
C  -0.35911513 2.06126599 -0.66286611
C  1.22544540 0.06240921 0.04980007
C  -0.63190007 0.81747541 -0.86071671
C  -0.83870372 1.03910950 1.53819473
H  -0.02958429 0.72002826 0.13580765
H  -0.37851853 0.08566897 -0.01972589
H  0.29074178 -0.32543678 0.32357924
H  -0.07999151 -0.21657150 -0.04574595
H  0.38881096 -2.37700033 0.54861417
H  0.19158393 -0.16680119 -0.54079310
12
MD Step 335.5 Units = [eV / Ang.]
C  1.17319158 -0.89581354 -1.20296527
C  -0.77451734 -0.95910584 0.72063603
C  -0.27577189 1.80302565 -0.66117124
C  1.10496386 -0.02584936 0.00404809
C  -0.90206144 0.88379957 -0.83784647
C  -1.02485925 1.30528681 1.51980658
H  0.02288954 0.74207756 0.16334046
H  -0.54796098 0.17255394 -0.01048622
H  0.20309143 -0.27470764 0.31511491
H  0.09207957 0.01485389 -0.00869469
H  0.48344990 -2.57430266 0.55336976
H  0.44550501 -0.19181840 -0.55515193
12
MD Step 336.0 Units = [eV / Ang.]
C  1.08537409 -1.03763471 -1.23464833
C  -0.51303082 -0.86501623 0.73872879
C  -0.17455828 1.51203713 -0.65534378
C  0.97512602 -0.11817153 -0.04121223
C  -1.11467312 0.82277094 -0.78811082
C  -1.14310135 1.54665809 1.48517344
H  0.05619508 0.71677339 0.18940299
H  -0.69813093 0.23345073 -0.00124228
H  0.09475625 -0.22022048 0.30521085
H  0.26441478 0.25302013 0.02445101
H  0.51925267 -2.62943988 0.53562722
H  0.64837562 -0.21422757 -0.55803685
12
MD Step 336.5 Units = [eV / Ang.]
C  0.99330699 -1.11218277 -1.25907832
C  -0.26197731 -0.72678362 0.75342180
C  -0.06047622 1.19637867 -0.64401139
C  0.84746205 -0.19415735 -0.08451799
C  -1.26436929 0.64023116 -0.71329881
C  -1.18262546 1.75497293 1.43369931
H  0.06940078 0.64470822 0.21267206
H  -0.82159956 0.26133600 0.00736823
H  -0.02623443 -0.16151935 0.29250274
H  0.42237398 0.47402415 0.05243170
H  0.49632900 -2.54428994 0.49713005
H  0.78840946 -0.23271810 -0.54831938
12
MD Step 337.0 Units = [eV / Ang.]
C  0.89801051 -1.11923586 -1.27539770
C  -0.03260024 -0.54750740 0.76501049
C  0.06038627 0.86473502 -0.62599607
C  0.73379209 -0.23185156 -0.12529507
C  -1.34366605 0.33771595 -0.61483406
C  -1.13804799 1.92266349 1.36559319
H  0.06292217 0.52951232 0.23200091
H  -0.91258034 0.25209045 0.01477377
H  -0.15068466 -0.09851331 0.27584200
H  0.55129402 0.65287528 0.07494411
H  0.41261066 -2.31621432 0.43926393
H  0.85856357 -0.24627006 -0.52590550
12
MD Step 337.5 Units = [eV / Ang.]
C  0.79976685 -1.06292549 -1.28283618
C  0.16562818 -0.33273414 0.77369131
C  0.18152550 0.52607886 -0.60049514
C  0.64419840 -0.21147444 -0.16397480
C  -1.34386156 -0.08599382 -0.49423195
C  -1.00871337 2.04324939 1.28171092
H  0.03865465 0.37785893 0.24652976
H  -0.96708699 0.20428066 0.02048699
H  -0.26914518 -0.03161144 0.25446856
H  0.63870601 0.76733331 0.09275501
H  0.26454138 -1.93984444 0.36347743
H  0.85578613 -0.25421737 -0.49158190
12
MD Step 338.0 Units = [eV / Ang.]
C  0.69785619 -0.95176940 -1.28079275
C  0.32547292 -0.08987425 0.77955780
C  0.29664253 0.18930155 -0.56719140
C  0.58491504 -0.11952291 -0.20184569
C  -1.25721086 -0.63028540 -0.35391375
C  -0.79835529 2.11174641 1.18345389
H  0.00013585 0.19944593 0.25577748
H  -0.98305461 0.11894450 0.02412599
H  -0.37274924 0.03823888 0.22811019
H  0.67656449 0.80209917 0.10753882
H  0.04911107 -1.41204062 0.27206938
H  0.78067192 -0.25628388 -0.44688995
12
MD Step 338.5 Units = [eV / Ang.]
C  0.59031409 -0.79840937 -1.26892309
C  0.44241557 0.17221111 0.78259089
C  0.40011611 -0.13717097 -0.52628125
C  0.55684026 0.04800744 -0.24063691
C  -1.08080109 -1.28457125 -0.19826303
C  -0.51525152 2.12509993 1.07272980
H  -0.04736189 0.00677486 0.25970735
H  -0.96051153 -0.00050493 0.02544564
H  -0.45387024 0.10960320 0.19700327
H  0.66278131 0.75205914 0.12144100
H  -0.23235245 -0.74049196 0.16922052
H  0.63768139 -0.25260721 -0.39403421
12
MD Step 339.0 Units = [eV / Ang.]
C  0.47383515 -0.61885362 -1.24720578
C  0.51514002 0.44340953 0.78263817
C  0.48733202 -0.44571677 -0.47844093
C  0.55523423 0.28440310 -0.28194677
C  -0.82224777 -2.01710672 -0.03459367
C  -0.17276423 2.08255582 0.95193562
H  -0.09693742 -0.18546435 0.25874417
H  -0.90182717 -0.14823900 0.02438246
H  -0.50658605 0.18067748 0.16184960
H  0.60151890 0.62341233 0.13649422
H  -0.56854875 0.04466606 0.06192617
H  0.43585107 -0.24374385 -0.33578325
12
MD Step 339.5 Units = [eV / Ang.]
C  0.34400205 -0.43108281 -1.21595927
C  0.54595150 0.71240137 0.77938349
C  0.55485424 -0.72976780 -0.42474561
C  0.57075037 0.57340955 -0.32671382
C  -0.50602153 -2.76420704 0.12664691
C  0.20999885 1.98581575 0.82388776
H  -0.14050651 -0.36155917 0.25371967
H  -0.81198310 -0.31590192 0.02111113
H  -0.52695678 0.24944502 0.12372496
H  0.50214505 0.43226090 0.15409218
H  -0.93193991 0.87981496 -0.03985391
H  0.18970577 -0.23062879 -0.27529349
12
MD Step 340.0 Units = [eV / Ang.]
C  0.19592380 -0.25307772 -1.17578522
C  0.54098072 0.96667693 0.77231346
C  0.60051300 -0.98394705 -0.36656597
C  0.59142494 0.89227677 -0.37490321
C  -0.17702610 -3.42726952 0.27327411
C  0.60789052 1.83880968 0.69161944
H  -0.16964714 -0.50646541 0.24573370
H  -0.69872970 -0.49257373 0.01610335
H  -0.51317473 0.31384754 0.08395902
H  0.37725769 0.20121940 0.17469420
H  -1.27524547 1.66496098 -0.12465767
H  -0.08016753 -0.21445788 -0.21578521
12
MD Step 340.5 Units = [eV / Ang.]
C  0.02527648 -0.10051135 -1.12744565
C  0.50995748 1.19273565 0.76069916
C  0.62343543 -1.20408594 -0.30545197
C  0.60501630 1.21549472 -0.42547494
C  0.10356770 -3.88635154 0.39462143
C  0.99040514 1.64696673 0.55800591
H  -0.17679035 -0.60780467 0.23594610
H  -0.57242671 -0.66500726 0.01016989
H  -0.46563365 0.37195564 0.04399828
H  0.24046338 -0.04472862 0.19781848
H  -1.53570147 2.27780531 -0.18283953
H  -0.34756973 -0.19646867 -0.16004716
12
MD Step 341.0 Units = [eV / Ang.]
C  -0.17044783 0.01541080 -1.07170371
C  0.46534834 1.37664838 0.74361328
C  0.62407880 -1.38714646 -0.24301233
C  0.60103327 1.51810079 -0.47658583
C  0.27334712 -4.03256726 0.48546680
C  1.32390417 1.41610205 0.42526244
H  -0.15652965 -0.65772964 0.22534423
H  -0.44536357 -0.81833827 0.00445993
H  -0.38694927 0.42212834 0.00525978
H  0.10452454 -0.28188582 0.22225887
H  -1.65015070 2.60691737 -0.21052098
H  -0.58279521 -0.17764026 -0.10984249
12
MD Step 341.5 Units = [eV / Ang.]
C  -0.39079362 0.08941066 -1.00918607
C  0.42078182 1.50513544 0.72001269
C  0.60426079 -1.53109058 -0.18078635
C  0.57199510 1.77786739 -0.52591723
C  0.29079311 -3.80753912 0.54815859
C  1.57557894 1.15125876 0.29447863
H  -0.10671568 -0.65416034 0.21455318
H  -0.33045535 -0.93738733 0.00038802
H  -0.28192684 0.46315237 -0.03102260
H  -0.01978889 -0.49022675 0.24639710
H  -1.57715240 2.59196955 -0.21167255
H  -0.75657697 -0.15839005 -0.06540342
12
MD Step 342.0 Units = [eV / Ang.]
C  -0.63165171 0.12251104 -0.94031904
C  0.38890490 1.56710570 0.68889496
C  0.56720462 -1.63475903 -0.12010968
C  0.51373988 1.97635881 -0.57101955
C  0.15310296 -3.22757666 0.59110960
C  1.71865554 0.85596916 0.16542212
H  -0.02900963 -0.60102749 0.20374685
H  -0.23941801 -1.00848966 -0.00052526
H  -0.15744575 0.49435113 -0.06395062
H  -0.12414302 -0.65440311 0.26849850
H  -1.31467778 2.24835620 -0.19648458
H  -0.84526200 -0.13839608 -0.02526332
12
MD Step 342.5 Units = [eV / Ang.]
C  -0.88523876 0.12123506 -0.86535513
C  0.37908353 1.55541361 0.64951674
C  0.51752564 -1.69778704 -0.06198296
C  0.42491205 2.09917889 -0.60959752
C  -0.10178179 -2.37659441 0.62446768
C  1.73753118 0.53228323 0.03677964
H  0.07128395 -0.50744852 0.19268362
H  -0.18078385 -1.02156017 0.00311177
H  -0.02219954 0.51564636 -0.09310061
H  -0.20257543 -0.76370342 0.28692915
H  -0.90195594 1.65999981 -0.17685036
H  -0.83580104 -0.11666340 0.01339798
12
MD Step 343.0 Units = [eV / Ang.]
C  -1.14078355 0.09593450 -0.78447509
C  0.39557360 1.46839419 0.60162816
C  0.46108501 -1.72060340 -0.00695979
C  0.30605121 2.13591001 -0.63969856
C  -0.41048457 -1.37273302 0.65586987
C  1.63113416 0.18160566 -0.09318086
H  0.18604815 -0.38610262 0.18084483
H  -0.15829657 -0.97190770 0.01229738
H  0.11378124 0.52755207 -0.11862575
H  -0.25119390 -0.81150201 0.30028891
H  -0.40411397 0.94531580 -0.16191973
H  -0.72880082 -0.09186347 0.05393063
12
MD Step 343.5 Units = [eV / Ang.]
C  -1.38571198 0.05876409 -0.69791431
C  0.43670925 1.31068001 0.54565491
C  0.40461844 -1.70443904 0.04491199
C  0.15874640 2.08007666 -0.65980681
C  -0.70687415 -0.32991649 0.68862343
C  1.41322528 -0.19400090 -0.22577479
H  0.30559214 -0.25127142 0.16762009
H  -0.17020775 -0.86127251 0.02741262
H  0.23985388 0.53108469 -0.14129159
H  -0.26786650 -0.79467483 0.30748867
H  0.11036315 0.21781082 -0.15611363
H  -0.53844816 -0.06284108 0.09918943
12
MD Step 344.0 Units = [eV / Ang.]
C  -1.60703115 0.02181502 -0.60606701
C  0.49539737 1.09298408 0.48276304
C  0.35508125 -1.65132546 0.09406414
C  -0.01481446 1.92937225 -0.66887737
C  -0.93976803 0.66653166 0.72240388
C  1.10952886 -0.59054856 -0.36124114
H  0.41995752 -0.11702570 0.15248017
H  -0.20972650 -0.69774359 0.04810801
H  0.34573635 0.52758704 -0.16241337
H  -0.25206885 -0.71331929 0.30780870
H  0.58703857 -0.43923703 -0.15972399
H  -0.28933093 -0.02909042 0.15069494
12
MD Step 344.5 Units = [eV / Ang.]
C  -1.79261496 -0.00424677 -0.50953970
C  0.56073895 0.83085728 0.41477934
C  0.31877154 -1.56402976 0.14127696
C  -0.21177629 1.68620207 -0.66635975
C  -1.07981502 1.56510027 0.75506877
C  0.75281104 -1.00133071 -0.49850989
H  0.52001054 0.00412584 0.13509635
H  -0.26647236 -0.49456461 0.07333555
H  0.42261457 0.51848940 -0.18367992
H  -0.20497464 -0.57094246 0.30096741
H  0.99208817 -0.97864443 -0.17069900
H  -0.01138155 0.00898386 0.20826390
12
MD Step 345.0 Units = [eV / Ang.]
C  -1.93220714 -0.01096323 -0.40915185
C  0.62027020 0.54274440 0.34398679
C  0.30036949 -1.44594243 0.18744668
C  -0.42810173 1.35846826 -0.65224245
C  -1.11732877 2.34051397 0.78426423
C  0.37760929 -1.41676670 -0.63542393
H  0.59817995 0.10202807 0.11539436
H  -0.32846013 -0.26817135 0.10151338
H  0.46422440 0.50505594 -0.20687417
H  -0.12978710 -0.37508249 0.28720942
H  1.30992412 -1.38197252 -0.18627630
H  0.26530742 0.05008808 0.27015383
12
MD Step 345.5 Units = [eV / Ang.]
C  -2.01810407 0.00761418 -0.30590153
C  0.66220252 0.24787321 0.27285472
C  0.30211386 -1.30095035 0.23329741
C  -0.65778549 0.96038053 -0.62712228
C  -1.05594538 2.98226896 0.80830105
C  0.01603921 -1.82482612 -0.76923951
H  0.64884372 0.16919664 0.09355422
H  -0.38403694 -0.03600492 0.13076812
H  0.46767827 0.48817844 -0.23353839
H  -0.03222157 -0.13815190 0.26739563
H  1.53682905 -1.64786376 -0.20392242
H  0.51438681 0.09228509 0.33355300
12
MD Step 346.0 Units = [eV / Ang.]
C  -2.04554669 0.05488347 -0.20091859
C  0.67714229 -0.03556140 0.20377810
C  0.32332888 -1.13333382 0.27910101
C  -0.89213430 0.51291197 -0.59225455
C  -0.90599784 3.48501113 0.82638504
C  -0.30470504 -2.21183199 -0.89716125
H  0.66846991 0.20085086 0.06997521
H  -0.42333282 0.18539578 0.15918499
H  0.43385623 0.46826961 -0.26465316
H  0.07907948 0.12194078 0.24304641
H  1.67455326 -1.78187153 -0.22165216
H  0.71528665 0.13333514 0.39516894
12
MD Step 346.5 Units = [eV / Ang.]
C  -2.01292073 0.13172350 -0.09542135
C  0.65907615 -0.29161568 0.13887867
C  0.36042513 -0.94773339 0.32448170
C  -1.11948113 0.04338112 -0.54951532
C  -0.67939772 3.84261563 0.83847583
C  -0.56332650 -2.56344501 -1.01673072
H  0.65563835 0.19485008 0.04522461
H  -0.43904312 0.38171285 0.18501237
H  0.36725946 0.44528319 -0.30040752
H  0.19251154 0.38198102 0.21627167
H  1.72565275 -1.78976846 -0.23799848
H  0.85360583 0.17101514 0.45172855
12
MD Step 347.0 Units = [eV / Ang.]
C  -1.92183772 0.23644990 0.00931634
C  0.60565911 -0.50721188 0.07989047
C  0.40737308 -0.74916074 0.36835517
C  -1.32573198 -0.41638660 -0.50120278
C  -0.38634662 4.04567158 0.84500219
C  -0.74445245 -2.86565875 -1.12600182
H  0.61104822 0.15168034 0.01997992
H  -0.42661906 0.54153620 0.20679527
H  0.27535980 0.41884358 -0.34011337
H  0.29420516 0.61505302 0.18952832
H  1.69084917 -1.67417344 -0.25186167
H  0.92049328 0.20335679 0.50031194
12
MD Step 347.5 Units = [eV / Ang.]
C  -1.77711698 0.36465666 0.11199094
C  0.51796863 -0.67229098 0.02812263
C  0.45653059 -0.54304057 0.40901499
C  -1.49592770 -0.83352914 -0.44966120
C  -0.03378474 4.08162944 0.84657685
C  -0.83833943 -3.10571835 -1.22354383
H  0.53755233 0.07454535 -0.00503313
H  -0.38406604 0.65655231 0.22344242
H  0.16760102 0.38844195 -0.38227704
H  0.36964745 0.79381488 0.16520053
H  1.56821028 -1.43386221 -0.26237574
H  0.91172459 0.22880066 0.53854259
12
MD Step 348.0 Units = [eV / Ang.]
C  -1.58665864 0.50898203 0.21129682
C  0.39997968 -0.77974735 -0.01553297
C  0.49962292 -0.33521981 0.44433449
C  -1.61669121 -1.17887488 -0.39680136
C  0.37441033 3.93722508 0.84379477
C  -0.84072744 -3.27289865 -1.30836516
H  0.44018927 -0.03047126 -0.02910718
H  -0.31158291 0.72146865 0.23424952
H  0.05426890 0.35363870 -0.42479838
H  0.40609738 0.89506687 0.14508758
H  1.35406717 -1.06546878 -0.26886180
H  0.82702455 0.24629939 0.56470367
12
MD Step 348.5 Units = [eV / Ang.]
C  -1.36113669 0.65895718 0.30596406
C  0.25794148 -0.82537912 -0.05057783
C  0.52870242 -0.13191056 0.47203195
C  -1.67896540 -1.43175645 -0.34367711
C  0.83511514 3.60337025 0.83717705
C  -0.75303788 -3.35911712 -1.37986129
H  0.32611650 -0.15430377 -0.05162653
H  -0.21121427 0.73390037 0.23890401
H  -0.05457129 0.31422469 -0.46524442
H  0.39521034 0.90444522 0.12996622
H  1.04591101 -0.56783639 -0.27090881
H  0.66992865 0.25540568 0.57785271
12
MD Step 349.0 Units = [eV / Ang.]
C  -1.11338396 0.80113830 0.39480879
C  0.09977309 -0.80799247 -0.07689423
C  0.53691801 0.06047363 0.48993399
C  -1.68016543 -1.58340329 -0.29029789
C  1.34113989 3.08287457 0.82728588
C  -0.58291307 -3.35932498 -1.43786177
H  0.20430396 -0.28506953 -0.07214014
H  -0.08660432 0.69437432 0.23749199
H  -0.14991475 0.27031368 -0.50113454
H  0.33501607 0.81968127 0.11940891
H  0.64758642 0.05057128 -0.26857815
H  0.44824410 0.25636322 0.57797715
12
MD Step 349.5 Units = [eV / Ang.]
C  -0.85740436 0.91975725 0.47678463
C  -0.06545409 -0.72972530 -0.09475327
C  0.51905989 0.23557841 0.49619899
C  -1.62494910 -1.63767821 -0.23577188
C  1.87414841 2.40057585 0.81496059
C  -0.34490032 -3.27167025 -1.48279365
H  0.08486706 -0.40871649 -0.09041886
H  0.05713550 0.60651910 0.23051422
H  -0.22439914 0.22236604 -0.53019595
H  0.23049232 0.65117279 0.11194777
H  0.17646260 0.76163703 -0.26265440
H  0.17494123 0.25018378 0.56618180
12
MD Step 350.0 Units = [eV / Ang.]
C  -0.60700053 0.99805142 0.55102465
C  -0.22795369 -0.59650112 -0.10484014
C  0.47185122 0.38746276 0.48947549
C  -1.52427581 -1.60899019 -0.17871779
C  2.39738615 1.61301514 0.80146061
C  -0.06087638 -3.09741111 -1.51589766
H  -0.02200521 -0.51030173 -0.10647743
H  0.21350110 0.47737953 0.21890364
H  -0.27263664 0.17115550 -0.55056335
H  0.09250758 0.41964407 0.10552166
H  -0.32954199 1.50784095 -0.25472379
H  -0.13095581 0.23865478 0.54483412
12
MD Step 350.5 Units = [eV / Ang.]
C  -0.37416814 1.02023552 0.61685030
C  -0.37763368 -0.41843150 -0.10826983
C  0.39404987 0.51099387 0.46900237
C  -1.39305977 -1.51825913 -0.11777584
C  2.85284768 0.81141560 0.78818927
C  0.24031410 -2.84063730 -1.53934676
H  -0.10741041 -0.57585549 -0.12054184
H  0.37470849 0.31769029 0.20402027
H  -0.29137268 0.11770156 -0.56092276
H  -0.06445375 0.15178885 0.09802783
H  -0.80969114 2.19916193 -0.24676789
H  -0.44413057 0.22419579 0.51753488
12
MD Step 351.0 Units = [eV / Ang.]
C  -0.16756335 0.97384300 0.67374494
C  -0.50455149 -0.20987830 -0.10655928
C  0.28642600 0.60224561 0.43466149
C  -1.24720826 -1.38847900 -0.05202012
C  3.16854884 0.11028774 0.77579127
C  0.52458973 -2.50788661 -1.55607723
H  -0.16510877 -0.59454342 -0.13295914
H  0.53195551 0.14183588 0.18759191
H  -0.27954371 0.06318233 -0.56060580
H  -0.22493723 -0.12453471 0.08777928
H  -1.18847603 2.72443069 -0.24011455
H  -0.73413123 0.20949681 0.48876723
12
MD Step 351.5 Units = [eV / Ang.]
C  0.00855488 0.85192028 0.72130708
C  -0.59947490 0.01113335 -0.10151810
C  0.15167928 0.65883783 0.38700391
C  -1.10087592 -1.24118383 0.01883250
C  3.27780904 -0.38101981 0.76297307
C  0.75612000 -2.10773442 -1.56920683
H  -0.19253990 -0.56061277 -0.14407166
H  0.67591819 -0.03279595 0.17156927
H  -0.23829351 0.00883892 -0.54964794
H  -0.37473678 -0.38417907 0.07375486
H  -1.39570483 2.97984621 -0.23414109
H  -0.96845555 0.19694925 0.46314492
12
MD Step 352.0 Units = [eV / Ang.]
C  0.15458658 0.65450063 0.75921199
C  -0.65458911 0.22437917 -0.09504135
C  -0.00565759 0.68017068 0.32725264
C  -0.96459747 -1.09448196 0.09442230
C  3.14379158 -0.59463881 0.74600802
C  0.90241838 -1.65035757 -1.58110566
H  -0.19116479 -0.47457093 -0.15409392
H  0.79751379 -0.18729342 0.15788348
H  -0.17096042 -0.04412300 -0.52880982
H  -0.50222831 -0.60692937 0.05563364
H  -1.39166527 2.90533937 -0.22571938
H  -1.11744735 0.18800520 0.44435804
12
MD Step 352.5 Units = [eV / Ang.]
C  0.27494374 0.38894732 0.78721198
C  -0.66429531 0.40975164 -0.08881934
C  -0.17930662 0.66750589 0.25728037
C  -0.84458241 -0.96254447 0.17387721
C  2.77548632 -0.52908301 0.71975449
C  0.94012362 -1.14704032 -1.59243937
H  -0.16601451 -0.34321682 -0.16303603
H  0.88885804 -0.30350991 0.14813378
H  -0.08302033 -0.09463110 -0.49955859
H  -0.59881132 -0.77813274 0.03368538
H  -1.18339815 2.50924390 -0.21021744
H  -1.15998306 0.18270962 0.43412756
12
MD Step 353.0 Units = [eV / Ang.]
C  0.37667626 0.06911809 0.80519511
C  -0.62596203 0.55007809 -0.08403478
C  -0.36138488 0.62389268 0.17953951
C  -0.74309954 -0.85603674 0.25599041
C  2.22454771 -0.24700255 0.67984480
C  0.85982384 -0.60970282 -1.60162965
H  -0.12459786 -0.17851894 -0.17069836
H  0.94424768 -0.36681489 0.14327375
H  0.01808729 -0.14183723 -0.46399045
H  -0.65872581 -0.88824917 0.00860050
H  -0.82143059 1.86542900 -0.18368550
H  -1.08818205 0.17964448 0.43159465
12
MD Step 353.5 Units = [eV / Ang.]
C  0.46775868 -0.28632712 0.81328223
C  -0.54045301 0.63376681 -0.08113403
C  -0.54266147 0.55395175 0.09692466
C  -0.65956034 -0.78284250 0.33938525
C  1.56517050 0.15252261 0.62458869
C  0.66822206 -0.05065885 -1.60504920
H  -0.07550737 0.00431305 -0.17673277
H  0.96093831 -0.36864969 0.14339145
H  0.12331990 -0.18518959 -0.42467802
H  -0.67860622 -0.93196963 -0.01867444
H  -0.37922194 1.08471837 -0.14476409
H  -0.90939909 0.17636478 0.43346026
12
MD Step 354.0 Units = [eV / Ang.]
C  0.55549117 -0.65595693 0.81193121
C  -0.41225910 0.65653666 -0.07976205
C  -0.71304186 0.46355053 0.01255158
C  -0.59175009 -0.74858919 0.42263752
C  0.86988261 0.56958418 0.55539862
C  0.38673969 0.51730466 -1.59793922
H  -0.02710900 0.18900791 -0.18074244
H  0.93950709 -0.30814154 0.14766658
H  0.22265438 -0.22446998 -0.38443044
H  -0.65707732 -0.90742964 -0.04706692
H  0.07163007 0.27843130 -0.09511602
H  -0.64466766 0.17017203 0.43487158
12
MD Step 354.5 Units = [eV / Ang.]
C  0.64533419 -1.01746794 0.80200637
C  -0.24915594 0.62169271 -0.07889085
C  -0.86231871 0.35941250 -0.07053538
C  -0.53673807 -0.75668924 0.50435962
C  0.19358986 0.92862678 0.47579560
C  0.04708992 1.08071633 -1.57568888
H  0.01341585 0.36014780 -0.18238538
H  0.88369561 -0.19225365 0.15453215
H  0.30598248 -0.25977850 -0.34597950
H  -0.59458505 -0.81584374 -0.07547471
H  0.47789708 -0.46747256 -0.03844753
H  -0.32420721 0.15890950 0.43070850
12
MD Step 355.0 Units = [eV / Ang.]
C  0.74033445 -1.34918004 0.78478565
C  -0.06143838 0.53891244 -0.07710230
C  -0.98117420 0.24868662 -0.14969687
C  -0.49121685 -0.80783715 0.58325999
C  -0.43034613 1.18633712 0.38995680
C  -0.31456514 1.62537191 -1.53499564
H  0.04057721 0.50450576 -0.18145212
H  0.79978297 -0.03443460 0.16199548
H  0.36422014 -0.29145648 -0.31162898
H  -0.49353711 -0.66168108 -0.10284250
H  0.80901662 -1.10071420 0.02093356
H  0.01834642 0.14148971 0.41678690
12
MD Step 355.5 Units = [eV / Ang.]
C  0.84109426 -1.63112229 0.76190047
C  0.13909997 0.42196623 -0.07293512
C  -1.06226210 0.13851111 -0.22300385
C  -0.45127855 -0.89907259 0.65819819
C  -0.98564042 1.32648569 0.30165672
C  -0.66302753 2.13660578 -1.47453892
H  0.05069782 0.61176142 -0.17790887
H  0.69565967 0.14779378 0.16802073
H  0.39045890 -0.31995408 -0.28293617
H  -0.35871518 -0.45331118 -0.12823835
H  1.05277694 -1.59769393 0.07917212
H  0.35113621 0.11803007 0.39061304
12
MD Step 356.0 Units = [eV / Ang.]
C  0.94615538 -1.84586478 0.73521585
C  0.34022260 0.28610017 -0.06519140
C  -1.10116465 0.03559504 -0.28944518
C  -0.41185142 -1.02268454 0.72825445
C  -1.46582639 1.34962478 0.21386878
C  -0.96782182 2.59987110 -1.39507061
H  0.04179088 0.67473509 -0.17190656
H  0.57983721 0.33557678 0.17086573
H  0.38094779 -0.34566782 -0.26049864
H  -0.19780452 -0.20385995 -0.15094200
H  1.20801652 -1.95308390 0.13325948
H  0.64749843 0.08965805 0.35159010
12
MD Step 356.5 Units = [eV / Ang.]
C  1.05258299 -1.97926049 0.70667854
C  0.53017032 0.14575269 -0.05313451
C  -1.09698190 -0.05414099 -0.34897954
C  -0.36612831 -1.16540006 0.79280735
C  -1.86796294 1.26338795 0.12887123
C  -1.20500348 3.00146937 -1.29906733
H  0.01334702 0.68936778 -0.16376687
H  0.46059232 0.51111672 0.16930213
H  0.33567220 -0.36879131 -0.24390403
H  -0.02176660 0.06818378 -0.17053650
H  1.27813712 -2.16983244 0.18092206
H  0.88734125 0.05814701 0.30080750
12
MD Step 357.0 Units = [eV / Ang.]
C  1.15660100 -2.02126403 0.67815392
C  0.69832781 0.01300674 -0.03656117
C  -1.05240901 -0.12583980 -0.40241578
C  -0.30543975 -1.30842454 0.85159437
C  -2.18860821 1.07568963 0.04859253
C  -1.35746648 3.32934693 -1.19017789
H  -0.03384776 0.65467320 -0.15395317
H  0.34536016 0.65930880 0.16270049
H  0.25839544 -0.38921828 -0.23185879
H  0.15530736 0.33921377 -0.18697531
H  1.26681184 -2.25202969 0.22026924
H  1.05696762 0.02553726 0.24063158
12
MD Step 357.5 Units = [eV / Ang.]
C  1.25412055 -1.96682936 0.65127256
C  0.83562754 -0.10314449 -0.01576945
C  -0.97326192 -0.17588975 -0.45115116
C  -0.21994012 -1.42886571 0.90470714
C  -2.42199937 0.79095877 -0.02500936
C  -1.41442625 3.57384505 -1.07267532
H  -0.09780275 0.57279793 -0.14302896
H  0.24039571 0.76855012 0.15100480
H  0.15614257 -0.40652551 -0.22246372
H  0.31719888 0.58217318 -0.20057883
H  1.17585046 -2.20090354 0.24941009
H  1.14809471 -0.00616671 0.17428222
12
MD Step 358.0 Units = [eV / Ang.]
C  1.34109619 -1.81682610 0.62730176
C  0.93475029 -0.19689222 0.00853329
C  -0.86759310 -0.20201471 -0.49683804
C  -0.10026879 -1.50276652 0.95247557
C  -2.55999030 0.40894287 -0.08965385
C  -1.37076359 3.72836311 -0.95103101
H  -0.17531373 0.44922521 -0.13160204
H  0.15064524 0.83090675 0.13464103
H  0.03826215 -0.42003473 -0.21356471
H  0.44754677 0.76986888 -0.21192021
H  1.00482601 -2.01357059 0.26617032
H  1.15680285 -0.03520196 0.10548789
12
MD Step 358.5 Units = [eV / Ang.]
C  1.41367135 -1.57876649 0.60704306
C  0.99021529 -0.26535527 0.03534452
C  -0.74459097 -0.20329195 -0.54105753
C  0.06005849 -1.50932533 0.99524279
C  -2.59353102 -0.07408138 -0.14264485
C  -1.22662251 3.78987477 -0.82962060
H  -0.26189800 0.29302749 -0.12024661
H  0.07973414 0.84192998 0.11440101
H  -0.08472386 -0.42893112 -0.20309833
H  0.53254029 0.87949418 -0.22160330
H  0.75225398 -1.68439695 0.26802437
H  1.08289280 -0.06017794 0.03821547
12
MD Step 359.0 Units = [eV / Ang.]
C  1.46817120 -1.26706607 0.59076401
C  0.99844046 -0.30823197 0.06347768
C  -0.61349413 -0.18011874 -0.58506152
C  0.26222971 -1.43518564 1.03308486
C  -2.51577022 -0.66126257 -0.18112354
C  -0.98747461 3.75924471 -0.71250934
H  -0.35176109 0.11695713 -0.10940193
H  0.02997704 0.80039125 0.09132601
H  -0.20225500 -0.43240295 -0.18936714
H  0.56361276 0.89718476 -0.22999496
H  0.41841811 -1.20934087 0.25239317
H  0.92990574 -0.08016904 -0.02358730
12
MD Step 359.5 Units = [eV / Ang.]
C  1.50104084 -0.90253316 0.57815982
C  0.95786175 -0.32754135 0.09166669
C  -0.48270166 -0.13412962 -0.62961985
C  0.50057716 -1.27736259 1.06559661
C  -2.32691089 -1.34765073 -0.20286382
C  -0.66462664 3.64132544 -0.60321869
H  -0.43791169 -0.06291576 -0.09925275
H  0.00233491 0.70811684 0.06659825
H  -0.30468500 -0.42977009 -0.17121111
H  0.53923349 0.82108608 -0.23702263
H  0.00998579 -0.59382623 0.21749588
H  0.70580192 -0.09479883 -0.07632840
12
MD Step 360.0 Units = [eV / Ang.]
C  1.50888072 -0.51083586 0.56835813
C  0.86912533 -0.32752000 0.11867050
C  -0.35916902 -0.06806728 -0.67497194
C  0.76258944 -1.04369304 1.09184503
C  -2.04039984 -2.10939948 -0.20773759
C  -0.27596360 3.44478074 -0.50437426
H  -0.51253848 -0.22829489 -0.08961758
H  -0.00371559 0.56998370 0.04143326
H  -0.38396914 -0.42057952 -0.14807445
H  0.46511458 0.66174771 -0.24213552
H  -0.45401431 0.13619847 0.16386846
H  0.42405991 -0.10432057 -0.11726404
12
MD Step 360.5 Units = [eV / Ang.]
C  1.48868947 -0.11987148 0.55998710
C  0.73535292 -0.31463058 0.14338733
C  -0.24808848 0.01439390 -0.72085832
C  1.03055743 -0.75071604 1.11052479
C  -1.68851935 -2.89252537 -0.19963614
C  0.15351609 3.18154263 -0.41719242
H  -0.56771867 -0.36060532 -0.07988593
H  0.00960976 0.39402178 0.01696260
H  -0.43409678 -0.40466198 -0.11998914
H  0.35277614 0.43970526 -0.24445285
H  -0.93675771 0.92301540 0.09631022
H  0.10467918 -0.10966821 -0.14515724
12
MD Step 361.0 Units = [eV / Ang.]
C  1.43836362 0.24365961 0.55132596
C  0.56238965 -0.29753636 0.16498722
C  -0.15279515 0.10888869 -0.76660360
C  1.28432079 -0.41990955 1.12025681
C  -1.32349531 -3.60802776 -0.18793804
C  0.59198138 2.86584004 -0.34087176
H  -0.59641576 -0.44361133 -0.06905143
H  0.03818916 0.19145457 -0.00590005
H  -0.45133413 -0.38215387 -0.08750455
H  0.21703964 0.18118439 -0.24303242
H  -1.38259029 1.67263555 0.02532660
H  -0.22565359 -0.11242398 -0.16099473
12
MD Step 361.5 Units = [eV / Ang.]
C  1.35735028 0.55786460 0.54054730
C  0.35890906 -0.28681614 0.18305479
C  -0.07483215 0.21062728 -0.81122702
C  1.50427817 -0.07372652 1.11991627
C  -1.00977288 -4.14216046 -0.18698522
C  1.00259193 2.51274866 -0.27212169
H  -0.59359699 -0.46617574 -0.05586962
H  0.07590101 -0.02354957 -0.02660166
H  -0.43433723 -0.35349134 -0.05158510
H  0.07334535 -0.08655312 -0.23714641
H  -1.72477701 2.26586748 -0.03348134
H  -0.53505955 -0.11463511 -0.16850030
12
MD Step 362.0 Units = [eV / Ang.]
C  1.24724460 0.80855672 0.52601674
C  0.13620985 -0.29420341 0.19771259
C  -0.01406688 0.31467857 -0.85355348
C  1.67392465 0.26733971 1.10888288
C  -0.80650551 -4.38561663 -0.21238167
C  1.34724476 2.13644019 -0.20517674
H  -0.55719388 -0.42440595 -0.03912374
H  0.11481406 -0.23465695 -0.04507417
H  -0.38421255 -0.31938525 -0.01349662
H  -0.06434934 -0.33889263 -0.22647081
H  -1.90302519 2.58859662 -0.06324892
H  -0.79008456 -0.11845098 -0.17408605
12
MD Step 362.5 Units = [eV / Ang.]
C  1.11208515 0.99068799 0.50658857
C  -0.09245764 -0.33124122 0.20967894
C  0.03118812 0.41622601 -0.89232588
C  1.78149484 0.58615980 1.08716700
C  -0.74651868 -4.27234658 -0.27492626
C  1.59201826 1.74848423 -0.13260855
H  -0.48861692 -0.32249545 -0.01793374
H  0.14580136 -0.42480225 -0.06179480
H  -0.30452683 -0.28077804 0.02531554
H  -0.18474201 -0.55594027 -0.21115628
H  -1.88459326 2.57167050 -0.05205514
H  -0.96113238 -0.12562473 -0.18594940
12
MD Step 363.0 Units = [eV / Ang.]
C  0.95818053 1.10796247 0.48181465
C  -0.31307013 -0.40742360 0.22021022
C  0.06406413 0.51075281 -0.92630941
C  1.82054388 0.86906922 1.05541694
C  -0.82327862 -3.80695208 -0.37544223
C  1.71309633 1.35670569 -0.04696118
H  -0.39265245 -0.17196595 0.00798685
H  0.15962642 -0.57820483 -0.07773527
H  -0.20124251 -0.23878040 0.06335227
H  -0.27950045 -0.72307436 -0.19180222
H  -1.67739432 2.21893736 0.00179817
H  -1.02837279 -0.13702633 -0.21232879
12
MD Step 363.5 Units = [eV / Ang.]
C  0.79346053 1.17087513 0.45200496
C  -0.51237755 -0.52818180 0.23090562
C  0.08901212 0.59413641 -0.95439360
C  1.78954433 1.10530268 1.01483953
C  -0.99427578 -3.06291347 -0.50399278
C  1.70132222 0.96502090 0.05721682
H  -0.27676570 0.01043911 0.03820668
H  0.14837191 -0.68261573 -0.09417535
H  -0.08251637 -0.19458554 0.09918890
H  -0.34302084 -0.83049534 -0.16938001
H  -1.32661686 1.60537937 0.08895497
H  -0.98613801 -0.15236173 -0.25937575
12
MD Step 364.0 Units = [eV / Ang.]
C  0.62653506 1.19389082 0.41813622
C  -0.67952065 -0.69323788 0.24339160
C  0.11155665 0.66265307 -0.97568574
C  1.69086278 1.28639529 0.96707346
C  -1.19858449 -2.15298058 -0.64401869
C  1.56369204 0.57427745 0.18168378
H  -0.15001984 0.20554656 0.07161384
H  0.10690218 -0.73124960 -0.11240339
H  0.04173870 -0.14936032 0.13159993
H  -0.37198011 -0.87240183 -0.14514288
H  -0.89707849 0.84670458 0.19315851
H  -0.84410384 -0.17023755 -0.32940664
12
MD Step 364.5 Units = [eV / Ang.]
C  0.46568666 1.19261711 0.38165292
C  -0.80727660 -0.89587663 0.25896532
C  0.13784945 0.71293773 -0.98959130
C  1.52962030 1.40594711 0.91403828
C  -1.37780056 -1.19086717 -0.77848914
C  1.32121989 0.18376161 0.32383674
H  -0.02190970 0.39444736 0.10658281
H  0.03394707 -0.72383483 -0.13337886
H  0.16057875 -0.10412601 0.15966817
H  -0.36494550 -0.84628413 -0.12053859
H  -0.45218457 0.05983924 0.29746758
H  -0.62478520 -0.18856138 -0.42021393
12
MD Step 365.0 Units = [eV / Ang.]
C  0.31805638 1.18159849 0.34422985
C  -0.89261705 -1.12341971 0.27829741
C  0.17396162 0.74195044 -0.99586812
C  1.31287557 1.45992417 0.85777030
C  -1.49008847 -0.26434062 -0.89449641
C  1.00407162 -0.20717499 0.47728638
H  0.09862230 0.56051667 0.14120643
H  -0.06752954 -0.66646109 -0.15745786
H  0.26305286 -0.05964917 0.18285906
H  -0.32221506 -0.75265953 -0.09711798
H  -0.03981121 -0.66516962 0.38893983
H  -0.35837903 -0.20511504 -0.52564888
12
MD Step 365.5 Units = [eV / Ang.]
C  0.18913022 1.17299637 0.30756411
C  -0.93644100 -1.35883699 0.30127873
C  0.22496544 0.74700909 -0.99463774
C  1.04927597 1.44746705 0.80024630
C  -1.51403461 0.57283631 -0.98476832
C  0.64582621 -0.59784543 0.63332957
H  0.20384969 0.69054803 0.17352233
H  -0.19079524 -0.57027730 -0.18426666
H  0.33943369 -0.01637204 0.20104444
H  -0.24593929 -0.59534946 -0.07641544
H  0.31162245 -1.27409559 0.46022364
H  -0.07689351 -0.21808003 -0.63712095
12
MD Step 366.0 Units = [eV / Ang.]
C  0.08255687 1.17605595 0.27322665
C  -0.94265564 -1.58303151 0.32704335
C  0.29397137 0.72589764 -0.98634384
C  0.74913831 1.37207158 0.74318129
C  -1.44516044 1.29488755 -1.04678732
C  0.27865612 -0.98552835 0.78267801
H  0.28759476 0.77510575 0.20169332
H  -0.32648188 -0.44946458 -0.21275091
H  0.38245735 0.02559144 0.21446332
H  -0.14049976 -0.38224606 -0.05977186
H  0.58978400 -1.74298408 0.50873051
H  0.19063895 -0.22635533 -0.74536252
12
MD Step 366.5 Units = [eV / Ang.]
C  0.00020678 1.19707482 0.24257427
C  -0.91695764 -1.77723616 0.35413241
C  0.38134913 0.67708198 -0.97166278
C  0.42478409 1.24282387 0.68778458
C  -1.28967546 1.89269323 -1.08099284
C  -0.06962462 -1.36533360 0.91686486
H  0.34532521 0.80838253 0.22413081
H  -0.46402862 -0.31906056 -0.24136588
H  0.38832702 0.06638339 0.22362736
H  -0.01300175 -0.12629609 -0.04807789
H  0.79236632 -2.06688581 0.53486110
H  0.42092955 -0.22962761 -0.84187600
12
MD Step 367.0 Units = [eV / Ang.]
C  -0.05766480 1.23955263 0.21669654
C  -0.86567491 -1.92498430 0.38073227
C  0.48435860 0.59995986 -0.95138664
C  0.09084236 1.07523149 0.63447327
C  -1.05865950 2.36341318 -1.08915033
C  -0.37662811 -1.73047190 1.02905121
H  0.37415025 0.78788694 0.23957872
H  -0.59304840 -0.19313724 -0.26833353
H  0.35724007 0.10626677 0.22919089
H  0.12636856 0.15377548 -0.04144616
H  0.92150649 -2.24923886 0.54037886
H  0.59720939 -0.22825405 -0.91978508
12
MD Step 367.5 Units = [eV / Ang.]
C  -0.09226296 1.30427796 0.19636805
C  -0.79494384 -2.01340526 0.40490591
C  0.59730176 0.49512466 -0.92630376
C  -0.23584332 0.89103180 0.58259486
C  -0.76387897 2.70353575 -1.07330915
C  -0.62520754 -2.07275500 1.11426929
H  0.37283850 0.71420471 0.24718397
H  -0.70434835 -0.08360552 -0.29188995
H  0.29332218 0.14546178 0.23181937
H  0.26447242 0.43365716 -0.03887941
H  0.97988874 -2.29447392 0.52736550
H  0.70866137 -0.22305413 -0.97412468
12
MD Step 368.0 Units = [eV / Ang.]
C  -0.10621442 1.38923847 0.18198018
C  -0.71026308 -2.03380800 0.42478321
C  0.71219202 0.36453279 -0.89710914
C  -0.53708817 0.71641344 0.53026636
C  -0.41526905 2.90544325 -1.03534771
C  -0.80278663 -2.38319235 1.16930861
H  0.34193742 0.59095976 0.24657916
H  -0.79052162 0.00034972 -0.31047693
H  0.20397287 0.18399774 0.23208509
H  0.38616931 0.68519296 -0.03806581
H  0.96856888 -2.20403413 0.49777660
H  0.74930246 -0.21509362 -1.00177961
12
MD Step 368.5 Units = [eV / Ang.]
C  -0.10365967 1.48936239 0.17344490
C  -0.61635565 -1.98171764 0.43869017
C  0.81975545 0.21153084 -0.86435399
C  -0.79517798 0.57843414 0.47448945
C  -0.01981184 2.95691875 -0.97698964
C  -0.90083522 -2.65261035 1.19249555
H  0.28400802 0.42497391 0.23798672
H  -0.84617557 0.05236167 -0.32286313
H  0.09880790 0.22161974 0.23040959
H  0.47623496 0.87993611 -0.03547260
H  0.88623868 -1.97530612 0.45347740
H  0.71697094 -0.20550345 -1.00131441
12
MD Step 369.0 Units = [eV / Ang.]
C  -0.09043576 1.59623961 0.17009137
C  -0.51717040 -1.85658890 0.44523275
C  0.91054308 0.04072533 -0.82843804
C  -0.99540862 0.50012047 0.41165538
C  0.41828749 2.84333217 -0.90017870
C  -0.91485554 -2.87225587 1.18355239
H  0.20390961 0.22648322 0.22233221
H  -0.86794605 0.06873158 -0.32820916
H  -0.01157232 0.25776567 0.22705491
H  0.52199197 0.99403868 -0.02685847
H  0.72983218 -1.60324928 0.39664339
H  0.61282437 -0.19534268 -0.97287804
12
MD Step 369.5 Units = [eV / Ang.]
C  -0.07419382 1.69804864 0.17058587
C  -0.41586981 -1.66141159 0.44336207
C  0.97593939 -0.14232265 -0.78962860
C  -1.12869201 0.49557436 0.33841055
C  0.89585758 2.55278169 -0.80772602
C  -0.84498979 -3.03434413 1.14364711
H  0.10898563 0.00916654 0.20132721
H  -0.85445629 0.04824963 -0.32610174
H  -0.11674374 0.29161208 0.22215158
H  0.51595708 1.01317243 -0.00817124
H  0.49669495 -1.08503661 0.33041469
H  0.44151083 -0.18549039 -0.91827148
12
MD Step 370.0 Units = [eV / Ang.]
C  -0.06426352 1.77999452 0.17294667
C  -0.31469381 -1.40236211 0.43243510
C  1.00890431 -0.33149337 -0.74809470
C  -1.19332069 0.56671755 0.25265111
C  1.40701281 2.08465119 -0.70404668
C  -0.69713029 -3.13254358 1.07562348
H  0.00894681 -0.21031194 0.17746038
H  -0.80633209 -0.00787920 -0.31657780
H  -0.20738668 0.32216692 0.21574716
H  0.45759475 0.93578982 0.02341273
H  0.18870054 -0.42818509 0.25960252
H  0.21196786 -0.17654473 -0.84115997
12
MD Step 370.5 Units = [eV / Ang.]
C  -0.07103153 1.82548889 0.17470588
C  -0.21468987 -1.08856835 0.41227776
C  1.00442100 -0.52055806 -0.70394190
C  -1.19518724 0.70295199 0.15429508
C  1.93732750 1.46109170 -0.59559071
C  -0.48419565 -3.16236164 0.98430788
H  -0.08475878 -0.41350624 0.15383032
H  -0.72631002 -0.09595593 -0.30014713
H  -0.27592186 0.34838561 0.20785808
H  0.35348263 0.77343857 0.06867823
H  -0.18170091 0.33830858 0.19102577
H  -0.06143528 -0.16871512 -0.74729927
12
MD Step 371.0 Units = [eV / Ang.]
C  -0.10472906 1.81812390 0.17325112
C  -0.11536338 -0.73197270 0.38324114
C  0.95968762 -0.70361197 -0.65724107
C  -1.14633011 0.88380574 0.04553001
C  2.45724469 0.73820988 -0.49028377
C  -0.22700185 -3.12141533 0.87666107
H  -0.16018726 -0.58218802 0.13378584
H  -0.61940147 -0.20959895 -0.27780757
H  -0.31688495 0.36928897 0.19851305
H  0.21582545 0.54801978 0.12609632
H  -0.58491588 1.15305097 0.13280034
H  -0.35794381 -0.16171227 -0.64454648
12
MD Step 371.5 Units = [eV / Ang.]
C  -0.17372352 1.74421118 0.16631245
C  -0.01439401 -0.34720402 0.34622076
C  0.87412259 -0.87543045 -0.60805351
C  -1.06230319 1.08347733 -0.06953326
C  2.91836351 0.00984594 -0.39537211
C  0.04600418 -3.00957982 0.76148427
H  -0.20664757 -0.70090157 0.12040197
H  -0.49299096 -0.33957517 -0.25102772
H  -0.32710518 0.38407020 0.18778431
H  0.05989973 0.28707411 0.19215970
H  -0.97081376 1.91868467 0.09200285
H  -0.65041182 -0.15467240 -0.54237971
12
MD Step 372.0 Units = [eV / Ang.]
C  -0.28266875 1.59530065 0.15248293
C  0.09237224 0.04874523 0.30260494
C  0.74929129 -1.03172205 -0.55645167
C  -0.95921792 1.27561234 -0.18562750
C  3.25779013 -0.60478513 -0.31395364
C  0.30085797 -2.82903262 0.64844083
H  -0.21659015 -0.75948885 0.11590312
H  -0.35668339 -0.47387285 -0.22166537
H  -0.30578088 0.39218194 0.17580412
H  -0.09865484 0.01878900 0.26214063
H  -1.27367191 2.51444850 0.07105114
H  -0.90704378 -0.14617617 -0.45072953
12
MD Step 372.5 Units = [eV / Ang.]
C  -0.43105098 1.36999340 0.13161181
C  0.21046811 0.43721909 0.25412327
C  0.58882322 -1.16926316 -0.50253722
C  -0.85125903 1.43694370 -0.29721637
C  3.41353186 -0.99252207 -0.24208531
C  0.50232733 -2.58423989 0.54640266
H  -0.18710707 -0.75486990 0.12120009
H  -0.22172468 -0.59823437 -0.19179510
H  -0.25450668 0.39340259 0.16276816
H  -0.24592754 -0.23185404 0.33095829
H  -1.42828053 2.82784877 0.06475816
H  -1.09529400 -0.13442410 -0.37818843
12
MD Step 373.0 Units = [eV / Ang.]
C  -0.61263432 1.07446144 0.10493109
C  0.34577123 0.79914944 0.20259306
C  0.39836113 -1.28590790 -0.44645611
C  -0.74919074 1.54920411 -0.39923311
C  3.34670830 -1.08607727 -0.16916384
C  0.61979494 -2.28188918 0.46150613
H  -0.12055161 -0.69149517 0.13569353
H  -0.09988359 -0.69733808 -0.16344277
H  -0.17727013 0.38787412 0.14892516
H  -0.37086288 -0.44515345 0.39388438
H  -1.39273268 2.79475470 0.06079863
H  -1.18750963 -0.11758277 -0.33003614
12
MD Step 373.5 Units = [eV / Ang.]
C  -0.81604349 0.72153873 0.07486523
C  0.50299186 1.11684878 0.14960139
C  0.18552167 -1.38049566 -0.38840860
C  -0.66001135 1.59950314 -0.48753986
C  3.05878444 -0.89034709 -0.08251791
C  0.63334999 -1.93063861 0.39562749
H  -0.02407144 -0.58033491 0.15741058
H  -0.00187377 -0.75662075 -0.13826494
H  -0.08037910 0.37610625 0.13455474
H  -0.46550141 -0.60713139 0.44696505
H  -1.16590953 2.42580370 0.04451888
H  -1.16685787 -0.09423218 -0.30681204
12
MD Step 374.0 Units = [eV / Ang.]
C  -1.02632958 0.32871067 0.04459198
C  0.68398653 1.37611771 0.09620192
C  -0.04019985 -1.45269566 -0.32864575
C  -0.58757729 1.57979057 -0.55911051
C  2.59261092 -0.47807134 0.02635819
C  0.53809393 -1.54064106 0.34597626
H  0.09178123 -0.43674279 0.18342216
H  0.06439464 -0.76449148 -0.11725212
H  0.02775159 0.35893702 0.11993305
H  -0.52466237 -0.70894596 0.48717959
H  -0.78836224 1.80180116 0.00545194
H  -1.03148752 -0.06376883 -0.30410672
12
MD Step 374.5 Units = [eV / Ang.]
C  -1.22707102 -0.08433400 0.01750172
C  0.88639200 1.56816838 0.04272723
C  -0.26770341 -1.50276519 -0.26745948
C  -0.53372157 1.48603213 -0.61201942
C  2.01649771 0.04197542 0.15809960
C  0.34505494 -1.12289396 0.30606664
H  0.21489689 -0.27787350 0.21039611
H  0.09526259 -0.71442698 -0.10055146
H  0.13705264 0.33744156 0.10529228
H  -0.54543009 -0.74593635 0.51243866
H  -0.32597840 1.04121990 -0.05872112
H  -0.79525228 -0.02660742 -0.31377077
12
MD Step 375.0 Units = [eV / Ang.]
C  -1.40246181 -0.49790141 -0.00327968
C  1.10305825 1.69082799 -0.01121442
C  -0.48486427 -1.53127765 -0.20516211
C  -0.49930334 1.31759192 -0.64535349
C  1.40173724 0.56384496 0.30621561
C  0.07835302 -0.68866494 0.26768350
H  0.33338111 -0.12034357 0.23512179
H  0.09201329 -0.60635544 -0.08747906
H  0.23656554 0.31279097 0.09078011
H  -0.52673730 -0.71682733 0.52153960
H  0.15293095 0.26041961 -0.14275712
H  -0.48467268 0.01589490 -0.32609473
12
MD Step 375.5 Units = [eV / Ang.]
C  -1.53898340 -0.89384289 -0.01521029
C  1.32252917 1.74859270 -0.06654604
C  -0.67945844 -1.53879588 -0.14207043
C  -0.48474645 1.07702735 -0.65914163
C  0.80572659 1.01041298 0.46070987
C  -0.23022990 -0.24913073 0.22304410
H  0.43687568 0.02142745 0.25489311
H  0.06055815 -0.44688519 -0.07672584
H  0.31551975 0.28607726 0.07643100
H  -0.46920969 -0.62339044 0.51416811
H  0.59476312 -0.45324013 -0.23743591
H  -0.13334457 0.06174752 -0.33211604
12
MD Step 376.0 Units = [eV / Ang.]
C  -1.62644292 -1.25634905 -0.01646665
C  1.53045768 1.75146725 -0.12440003
C  -0.84037745 -1.52556007 -0.07849806
C  -0.48988369 0.77036372 -0.65436996
C  0.26591497 1.34010900 0.61173097
C  -0.54726565 0.18477037 0.16639662
H  0.51728405 0.13607068 0.26771010
H  0.01020783 -0.24828188 -0.06669160
H  0.36462553 0.25814080 0.06215856
H  -0.37533733 -0.47066689 0.49099246
H  0.96665633 -1.04880009 -0.33327614
H  0.22416064 0.10873616 -0.32528624
12
MD Step 376.5 Units = [eV / Ang.]
C  -1.65842668 -1.57218974 -0.00594211
C  1.71155465 1.71294058 -0.18576749
C  -0.95892277 -1.49125037 -0.01476872
C  -0.51319848 0.40773054 -0.63309307
C  -0.19767213 1.53999424 0.75157294
C  -0.84246659 0.60240536 0.09470984
H  0.56898632 0.21547327 0.27232702
H  -0.04807043 -0.02652612 -0.05584004
H  0.37736483 0.22944562 0.04777797
H  -0.24992256 -0.26765678 0.45383896
H  1.25369042 -1.50515285 -0.42265404
H  0.55708343 0.15478625 -0.30216125
12
MD Step 377.0 Units = [eV / Ang.]
C  -1.63230661 -1.83068129 0.01682594
C  1.85152481 1.64765522 -0.25122225
C  -1.02989075 -1.43487520 0.04875394
C  -0.55077255 0.00410883 -0.59858316
C  -0.57632032 1.61407636 0.87498034
C  -1.09137881 0.99353748 0.00755730
H  0.58873313 0.25460552 0.26820594
H  -0.10340788 0.20098393 -0.04297621
H  0.35100833 0.20004412 0.03305640
H  -0.10064413 -0.02819009 0.40587578
H  1.45235649 -1.81945431 -0.50023434
H  0.84109827 0.19818943 -0.26223967
12
MD Step 377.5 Units = [eV / Ang.]
C  -1.54898983 -2.02366208 0.05173620
C  1.93857605 1.56935595 -0.32077082
C  -1.05217793 -1.35484020 0.11162884
C  -0.59536759 -0.42022927 -0.55539358
C  -0.86672433 1.57289005 0.97849258
C  -1.27608982 1.34850301 -0.09345284
H  0.57542672 0.25124753 0.25543524
H  -0.14639646 0.41751003 -0.02739526
H  0.28710297 0.16964687 0.01778136
H  0.06154928 0.22851109 0.35167213
H  1.56420421 -1.99660914 -0.56241588
H  1.05888673 0.23767615 -0.20731797
12
MD Step 378.0 Units = [eV / Ang.]
C  -1.41257330 -2.14565311 0.09817264
C  1.96430369 1.48947902 -0.39383068
C  -1.02874796 -1.24918184 0.17330633
C  -0.63615211 -0.84015671 -0.50915815
C  -1.06684504 1.42649640 1.05952749
C  -1.38466689 1.65848762 -0.20534442
H  0.52993820 0.20581235 0.23465387
H  -0.16987607 0.60845933 -0.00890365
H  0.19130218 0.13778021 0.00183000
H  0.22259405 0.47821073 0.29696528
H  1.59133353 -2.04210469 -0.60648570
H  1.19938971 0.27237070 -0.14073301
12
MD Step 378.5 Units = [eV / Ang.]
C  -1.22999811 -2.19425927 0.15501490
C  1.92396275 1.41647033 -0.46930446
C  -0.96597274 -1.11593131 0.23312118
C  -0.65947069 -1.22752546 -0.46598980
C  -1.17368919 1.18080533 1.11561248
C  -1.41012894 1.91587459 -0.32431718
H  0.45503612 0.12136460 0.20699777
H  -0.16918344 0.76218590 0.01225015
H  0.07257490 0.10398712 -0.01478106
H  0.36636218 0.69354887 0.24800895
H  1.53393440 -1.95820978 -0.62989221
H  1.25657277 0.30168909 -0.06672071
12
MD Step 379.0 Units = [eV / Ang.]
C  -1.01073028 -2.17076600 0.22062390
C  1.81631746 1.35569762 -0.54570389
C  -0.87254449 -0.95353225 0.29031329
C  -0.65079951 -1.55457385 -0.43147471
C  -1.18274155 0.83657359 1.14395442
C  -1.34959972 2.11464246 -0.44609482
H  0.35540785 0.00381457 0.17405955
H  -0.14203229 0.87023720 0.03548713
H  -0.05800406 0.06801322 -0.03187551
H  0.47673015 0.84762148 0.21051541
H  1.38962572 -1.74296244 -0.62984213
H  1.22837073 0.32523440 0.01003737
12
MD Step 379.5 Units = [eV / Ang.]
C  -0.76642672 -2.08074980 0.29283464
C  1.64325256 1.30971293 -0.62128941
C  -0.75821548 -0.76125530 0.34407426
C  -0.59759550 -1.79839152 -0.40947395
C  -1.08897014 0.39081540 1.14147566
C  -1.20398071 2.25075349 -0.56613603
H  0.23768728 -0.13783861 0.13783709
H  -0.08822220 0.92728981 0.06001663
H  -0.18860654 0.02993496 -0.04913096
H  0.54036106 0.91871151 0.18842430
H  1.15450801 -1.39171528 -0.60336029
H  1.11620838 0.34273242 0.08472806
12
MD Step 380.0 Units = [eV / Ang.]
C  -0.51046595 -1.93446063 0.36900059
C  1.40931140 1.27861416 -0.69420401
C  -0.63264867 -0.53952318 0.39360343
C  -0.49224844 -1.94521405 -0.40113893
C  -0.88965723 -0.15903455 1.10548676
C  -0.97827381 2.32248902 -0.67981647
H  0.11034156 -0.29143595 0.10063512
H  -0.00932801 0.93100914 0.08494056
H  -0.30788046 -0.00979241 -0.06611748
H  0.54944038 0.89486665 0.18291275
H  0.82616680 -0.90154876 -0.54798839
H  0.92524242 0.35403056 0.15268606
12
MD Step 380.5 Units = [eV / Ang.]
C  -0.25724671 -1.74664882 0.44612049
C  1.12127577 1.26031566 -0.76259738
C  -0.50453466 -0.29012195 0.43816328
C  -0.33415601 -1.99301585 -0.40455634
C  -0.58942072 -0.80762283 1.03516691
C  -0.68242296 2.33065352 -0.78271073
H  -0.01674076 -0.44203390 0.06489317
H  0.09154200 0.88201329 0.10934072
H  -0.40589819 -0.05036173 -0.08234968
H  0.50341931 0.77672545 0.19206259
H  0.40894423 -0.27906960 -0.46328954
H  0.66523871 0.35916674 0.20975650
12
MD Step 381.0 Units = [eV / Ang.]
C  -0.02112483 -1.53557436 0.52106447
C  0.78780566 1.25064277 -0.82474014
C  -0.38105690 -0.01626794 0.47711836
C  -0.13017512 -1.95137544 -0.41521148
C  -0.20712790 -1.53109088 0.93380917
C  -0.33237734 2.27859209 -0.87107063
H  -0.13307564 -0.57297461 0.03293285
H  0.20990755 0.78400413 0.13235309
H  -0.47476299 -0.09069563 -0.09733986
H  0.40909127 0.57747165 0.21136322
H  -0.07886384 0.44877816 -0.35310157
H  0.35176008 0.35849007 0.25282252
12
MD Step 381.5 Units = [eV / Ang.]
C  0.18495389 -1.32108994 0.59087263
C  0.41913888 1.24327609 -0.87912978
C  -0.26766337 0.27746746 0.50996141
C  0.10667714 -1.83868779 -0.42710986
C  0.21738370 -2.27622764 0.81116698
C  0.04917334 2.17193141 -0.94250822
H  -0.22880366 -0.66772190 0.00665592
H  0.34003617 0.64402035 0.15323352
H  -0.50892703 -0.12955950 -0.11064682
H  0.27898724 0.31992659 0.23486528
H  -0.59804067 1.22387983 -0.22785255
H  0.00708438 0.35278505 0.28049149
12
MD Step 382.0 Units = [eV / Ang.]
C  0.35095590 -1.12200812 0.65306559
C  0.02679749 1.22968977 -0.92458641
C  -0.16805494 0.58534250 0.53632690
C  0.35974092 -1.67783636 -0.43413361
C  0.62140040 -2.95606173 0.68431318
C  0.43309319 2.01803915 -0.99675371
H  -0.29611309 -0.71226132 -0.01273901
H  0.47509017 0.47265356 0.17141781
H  -0.50531270 -0.16568496 -0.12191388
H  0.12872787 0.03189356 0.25654358
H  -1.08638445 1.95291092 -0.10533799
H  -0.33994076 0.34332305 0.29379756
12
MD Step 382.5 Units = [eV / Ang.]
C  0.47103707 -0.95327255 0.70588042
C  -0.37675666 1.19931469 -0.96032960
C  -0.08426986 0.90070831 0.55601031
C  0.61155385 -1.49189854 -0.43118739
C  0.92785051 -3.46044774 0.57503000
C  0.78580434 1.82523656 -1.03618125
H  -0.33051763 -0.69754903 -0.02493545
H  0.60738495 0.28397398 0.18656593
H  -0.46334667 -0.19789587 -0.13090142
H  -0.02572639 -0.25861927 0.27141001
H  -1.46714293 2.51869287 -0.00798813
H  -0.65587058 0.33175659 0.29662656
12
MD Step 383.0 Units = [eV / Ang.]
C  0.54423530 -0.82368411 0.74836458
C  -0.77856592 1.14018019 -0.98601246
C  -0.01679230 1.21630767 0.56898515
C  0.84625330 -1.30110050 -0.41485536
C  1.06591468 -3.68514700 0.50313074
C  1.07329422 1.60194691 -1.06574707
H  -0.33160437 -0.62132470 -0.03050758
H  0.72881074 0.09490532 0.19857891
H  -0.38496691 -0.22522908 -0.13751038
H  -0.17016288 -0.52698459 0.27612183
H  -1.66961830 2.81031525 0.04394650
H  -0.90679758 0.31981465 0.29550513
12
MD Step 383.5 Units = [eV / Ang.]
C  0.57433926 -0.73483418 0.78030662
C  -1.16574419 1.04024032 -1.00170816
C  0.03539382 1.52455235 0.57543469
C  1.05106452 -1.12144805 -0.38356289
C  0.99652052 -3.56993955 0.47834029
C  1.26663047 1.35600593 -1.09207059
H  -0.30300483 -0.48870837 -0.03074690
H  0.83143694 -0.07615912 0.20757020
H  -0.27463557 -0.24704913 -0.14180021
H  -0.29322249 -0.75380391 0.26908568
H  -1.65469259 2.76229317 0.04062864
H  -1.06408587 0.30885055 0.29852261
12
MD Step 384.0 Units = [eV / Ang.]
C  0.56895309 -0.68152745 0.80204159
C  -1.52613483 0.88934171 -1.00783153
C  0.07477906 1.81776861 0.57577429
C  1.21679942 -0.96476207 -0.33736653
C  0.72845451 -3.12492905 0.49575552
C  1.34761288 1.09436436 -1.12176491
H  -0.25159722 -0.31137721 -0.02735999
H  0.90824035 -0.21147177 0.21378745
H  -0.13930572 -0.26314569 -0.14399562
H  -0.38662829 -0.92520640 0.25022331
H  -1.43099167 2.38154456 -0.01276835
H  -1.11018159 0.29940038 0.31350480
12
MD Step 384.5 Units = [eV / Ang.]
C  0.53803788 -0.65347882 0.81420520
C  -1.84897343 0.68154975 -1.00501892
C  0.10528806 2.08837069 0.57065827
C  1.33752066 -0.83945329 -0.27757170
C  0.31444548 -2.42776533 0.53823921
C  1.31265239 0.82323144 -1.15952527
H  -0.18620363 -0.10559013 -0.02212836
H  0.95384425 -0.29647822 0.21749931
H  0.01172647 -0.27379756 -0.14447693
H  -0.44487375 -1.03219238 0.22060475
H  -1.05099466 1.74465356 -0.09846895
H  -1.04246974 0.29095030 0.34598339
12
MD Step 385.0 Units = [eV / Ang.]
C  0.49231481 -0.63768820 0.81751736
C  -2.12545134 0.41722856 -0.99399578
C  0.13211512 2.32899535 0.56095849
C  1.40979462 -0.75137727 -0.20632573
C  -0.17017958 -1.59354314 0.58409372
C  1.17340008 0.54846081 -1.20670618
H  -0.11616776 0.11033563 -0.01662334
H  0.96511521 -0.32220886 0.21887906
H  0.16720718 -0.27977859 -0.14374738
H  -0.46473751 -1.06968111 0.18209658
H  -0.58972198 0.96721768 -0.19385791
H  -0.87368884 0.28203915 0.39771112
12
MD Step 385.5 Units = [eV / Ang.]
C  0.44191229 -0.62076768 0.81263749
C  -2.34907897 0.10423190 -0.97547479
C  0.16131700 2.53260178 0.54770506
C  1.43199482 -0.70431007 -0.12627883
C  -0.65275468 -0.73661204 0.61492364
C  0.95384698 0.27589711 -1.26093015
H  -0.05017039 0.31840676 -0.01203005
H  0.94148535 -0.28685367 0.21792918
H  0.31463703 -0.28228166 -0.14237275
H  -0.44490634 -1.03576548 0.13709350
H  -0.11952950 0.16478959 -0.27948456
H  -0.62875358 0.27066345 0.46628227
12
MD Step 386.0 Units = [eV / Ang.]
C  0.39544169 -0.59073790 0.80010119
C  -2.51579818 -0.24228575 -0.95011278
C  0.19911758 2.69257437 0.53199120
C  1.40402423 -0.69983524 -0.04034089
C  -1.07984771 0.05593848 0.61973822
C  0.68505493 0.01150188 -1.31679123
H  0.00453905 0.50273704 -0.00908844
H  0.88492700 -0.19603074 0.21447704
H  0.44134249 -0.28274713 -0.14089578
H  -0.38586908 -0.93147104 0.08833016
H  0.30634700 -0.57445583 -0.34331706
H  -0.33927899 0.25481187 0.54590837
12
MD Step 386.5 Units = [eV / Ang.]
C  0.35955082 -0.53808757 0.78031459
C  -2.62387954 -0.60147687 -0.91853069
C  0.25095821 2.80284294 0.51485312
C  1.32756279 -0.73663287 0.04849033
C  -1.42139320 0.73202488 0.59486788
C  0.39943037 -0.23875364 -1.36723433
H  0.04247885 0.65056311 -0.00812257
H  0.79960277 -0.06167807 0.20824380
H  0.53582900 -0.28260801 -0.13973823
H  -0.29013733 -0.76111553 0.03872800
H  0.65778063 -1.19800134 -0.38078292
H  -0.03778338 0.23292297 0.62891102
12
MD Step 387.0 Units = [eV / Ang.]
C  0.33883981 -0.45619067 0.75357865
C  -2.67365771 -0.94947002 -0.88136896
C  0.32046809 2.85805029 0.49714611
C  1.20672297 -0.80932735 0.13728828
C  -1.66621717 1.26852497 0.54161400
C  0.12619914 -0.46912406 -1.40501784
H  0.05995300 0.75260032 -0.00911759
H  0.69128179 0.10008629 0.19896003
H  0.58921646 -0.28299798 -0.13911182
H  -0.16274129 -0.53317434 -0.00878892
H  0.92315401 -1.68311400 -0.39248864
H  0.24678090 0.20413657 0.70730669
12
MD Step 387.5 Units = [eV / Ang.]
C  0.33597292 -0.34133552 0.72012133
C  -2.66721457 -1.26240910 -0.83934085
C  0.40861183 2.85378832 0.47944383
C  1.04885299 -0.90723453 0.22341439
C  -1.81464921 1.66011895 0.46365368
C  -0.11113022 -0.67439348 -1.42380663
H  0.05491357 0.80300821 -0.01180845
H  0.56666464 0.27149656 0.18648456
H  0.59646807 -0.28449354 -0.13896331
H  -0.01182658 -0.26134364 -0.05156919
H  1.10190345 -2.02553055 -0.38163540
H  0.49143311 0.16832834 0.77400605
12
MD Step 388.0 Units = [eV / Ang.]
C  0.35185588 -0.19263376 0.68012279
C  -2.60808619 -1.51919901 -0.79325360
C  0.51325810 2.78691081 0.46198760
C  0.86511008 -1.01351972 0.30483540
C  -1.87197326 1.90909943 0.36522199
C  -0.29545271 -0.85016247 -1.41873038
H  0.02680456 0.79923358 -0.01575738
H  0.43274560 0.43544433 0.17089038
H  0.55712687 -0.28696632 -0.13897339
H  0.15094572 0.03472189 -0.08762397
H  1.19797975 -2.22892704 -0.35217286
H  0.67968560 0.12599828 0.82345342
12
MD Step 388.5 Units = [eV / Ang.]
C  0.38574837 -0.01201368 0.63373451
C  -2.50101742 -1.70349271 -0.74398901
C  0.62933110 2.65589418 0.44469742
C  0.67035461 -1.10544628 0.38051213
C  -1.84401899 2.01845291 0.25022747
C  -0.41555808 -0.99310979 -1.38650227
H  -0.02351566 0.74194740 -0.02041316
H  0.29630065 0.57715287 0.15249973
H  0.47537001 -0.28959492 -0.13861386
H  0.31060737 0.32970969 -0.11608183
H  1.21552711 -2.29760797 -0.30786487
H  0.80087093 0.07810829 0.85179373
12
MD Step 389.0 Units = [eV / Ang.]
C  0.43526969 0.19563479 0.58109439
C  -2.35176287 -1.80475417 -0.69245173
C  0.74950853 2.46119023 0.42723737
C  0.48199614 -1.15630679 0.45073370
C  -1.73480997 1.98820239 0.12207184
C  -0.46517555 -1.10120728 -1.32530441
H  -0.09374104 0.63516313 -0.02515422
H  0.16353796 0.68509841 0.13187098
H  0.35937606 -0.29103519 -0.13725045
H  0.45006682 0.59461687 -0.13756575
H  1.15668559 -2.23253847 -0.25205623
H  0.84904865 0.02593609 0.85677450
12
MD Step 389.5 Units = [eV / Ang.]
C  0.49632164 0.42219113 0.52234264
C  -2.16689109 -1.81849364 -0.63950952
C  0.86530352 2.20548614 0.40911356
C  0.31767165 -1.13923129 0.51719723
C  -1.54586658 1.81443493 -0.01609758
C  -0.44217481 -1.17385546 -1.23464305
H  -0.17999902 0.48649898 -0.02932331
H  0.03988953 0.75130487 0.10975242
H  0.22016304 -0.28970131 -0.13426417
H  0.55239274 0.80059696 -0.15428159
H  1.02109003 -2.03020553 -0.18787803
H  0.82209935 -0.02902578 0.83759141
12
MD Step 390.0 Units = [eV / Ang.]
C  0.56298282 0.65608928 0.45764495
C  -1.95352651 -1.74587532 -0.58594109
C  0.96822271 1.89378167 0.38977918
C  0.19214259 -1.03226290 0.58266057
C  -1.27699776 1.49078090 -0.16090431
C  -0.34823757 -1.21189400 -1.11530922
H  -0.27672414 0.30740806 -0.03226403
H  -0.07010214 0.77123473 0.08701881
H  0.07018743 -0.28407848 -0.12916236
H  0.60383991 0.92407190 -0.16964700
H  0.80685936 -1.68411783 -0.11869063
H  0.72135331 -0.08513801 0.79481513
12
MD Step 390.5 Units = [eV / Ang.]
C  0.62751885 0.88244014 0.38722704
C  -1.71899765 -1.59298653 -0.53240320
C  1.05075218 1.53327303 0.36872293
C  0.11426101 -0.82330170 0.65015755
C  -0.92871098 1.01276408 -0.30820091
C  -0.18912482 -1.21745530 -0.96948643
H  -0.37665511 0.11308389 -0.03336742
H  -0.16287079 0.74351958 0.06460070
H  -0.07801965 -0.27299301 -0.12165733
H  0.59677045 0.95167104 -0.18745669
H  0.51319901 -1.18933390 -0.04858581
H  0.55187749 -0.14068132 0.73044957
12
MD Step 391.0 Units = [eV / Ang.]
C  0.68065345 1.08379291 0.31142062
C  -1.47037551 -1.36995979 -0.47941184
C  1.10698389 1.13303159 0.34553169
C  0.08506729 -0.51317625 0.72199931
C  -0.50652735 0.38567521 -0.45271295
C  0.02458389 -1.19361997 -0.80095882
H  -0.47109942 -0.07827906 -0.03213197
H  -0.23593568 0.66968662 0.04340984
H  -0.21295806 -0.25578873 -0.11170302
H  0.53142827 0.88323447 -0.21082363
H  0.14485754 -0.55063462 0.01730030
H  0.32332169 -0.19396238 0.64808046
12
MD Step 391.5 Units = [eV / Ang.]
C  0.71223227 1.24175358 0.23071858
C  -1.21392070 -1.09009855 -0.42733080
C  1.13284335 0.70355440 0.31992924
C  0.09774764 -0.11570061 0.79893805
C  -0.02693243 -0.36419907 -0.58823766
C  0.27659800 -1.14391462 -0.61528906
H  -0.55058466 -0.24710234 -0.02823241
H  -0.28806842 0.55395412 0.02425936
H  -0.32492401 -0.23239590 -0.09949337
H  0.41585827 0.73169283 -0.24128842
H  -0.28183697 0.20594385 0.07303980
H  0.05098764 -0.24348769 0.55298669
12
MD Step 392.0 Units = [eV / Ang.]
C  0.71231298 1.33942540 0.14582749
C  -0.95450721 -0.76904892 -0.37635564
C  1.12597870 0.25625640 0.29179798
C  0.13947209 0.34520526 0.87982088
C  0.47672898 -1.17793477 -0.70882664
C  0.54442702 -1.07175152 -0.41976288
H  -0.60591221 -0.37488226 -0.02158436
H  -0.31950939 0.40307173 0.00777592
H  -0.40644464 -0.20330609 -0.08543179
H  0.26400854 0.51989341 -0.27843474
H  -0.73309882 1.02127031 0.11315088
H  -0.24345606 -0.28819896 0.45202292
12
MD Step 392.5 Units = [eV / Ang.]
C  0.67256791 1.36427634 0.05770269
C  -0.69513114 -0.42402043 -0.32648656
C  1.08547237 -0.19701351 0.26119209
C  0.19439837 0.84009114 0.96181196
C  0.95224124 -1.95902611 -0.81101333
C  0.79997802 -0.97998596 -0.22290725
H  -0.62948264 -0.44709618 -0.01238575
H  -0.33218687 0.22611816 -0.00569231
H  -0.45247621 -0.16948002 -0.07008275
H  0.09277682 0.27565186 -0.32009932
H  -1.15579590 1.79819669 0.13487902
H  -0.53236198 -0.32771198 0.35308151
12
MD Step 393.0 Units = [eV / Ang.]
C  0.58770622 1.31070673 -0.03245178
C  -0.43662881 -0.07295619 -0.27749635
C  1.01151376 -0.64440128 0.22834358
C  0.24689020 1.33855576 1.04102002
C  1.33506004 -2.58444089 -0.89622863
C  1.01184988 -0.87081123 -0.03347645
H  -0.61659476 -0.45581751 -0.00111607
H  -0.32984178 0.03412758 -0.01616100
H  -0.46046756 -0.13221757 -0.05411349
H  -0.08095908 0.02677620 -0.36300336
H  -1.48424333 2.41292475 0.14064010
H  -0.78428476 -0.36244636 0.26404343
12
MD Step 393.5 Units = [eV / Ang.]
C  0.45655887 1.18154954 -0.12323049
C  -0.17775122 0.26639419 -0.22890722
C  0.90518289 -1.07438497 0.19366224
C  0.28409539 1.81254970 1.11322853
C  1.56504247 -2.93573779 -0.97154555
C  1.14949764 -0.74612311 0.14095989
H  -0.56636307 -0.40125038 0.01151560
H  -0.31794253 -0.16056016 -0.02406715
H  -0.43038026 -0.09301241 -0.03823009
H  -0.24250701 -0.20256821 -0.40350021
H  -1.65726567 2.74666480 0.13875848
H  -0.96816749 -0.39352119 0.19135595
12
MD Step 394.0 Units = [eV / Ang.]
C  0.28251394 0.98794463 -0.21311825
C  0.08431751 0.57756101 -0.18000245
C  0.76842485 -1.47607497 0.15771784
C  0.29745715 2.23799730 1.17449617
C  1.60770222 -2.94036621 -1.04722443
C  1.18862532 -0.60828182 0.29544049
H  -0.48195679 -0.29164777 0.02466795
H  -0.30327769 -0.34527357 -0.03027116
H  -0.36470817 -0.05340253 -0.02310686
H  -0.38042416 -0.39364579 -0.43818687
H  -1.63979359 2.72754942 0.14094858
H  -1.05888060 -0.42235971 0.13863899
12
MD Step 394.5 Units = [eV / Ang.]
C  0.07320822 0.74763603 -0.30061336
C  0.35297636 0.84652315 -0.12989447
C  0.60424288 -1.83948817 0.12120294
C  0.28302829 2.59507350 1.22152176
C  1.46832578 -2.60074234 -1.13178944
C  1.11636755 -0.46094317 0.42851987
H  -0.37009113 -0.14165313 0.03748731
H  -0.29318378 -0.50823728 -0.03598029
H  -0.26849271 -0.01482341 -0.00931018
H  -0.48663397 -0.53335426 -0.46426786
H  -1.43718304 2.36009872 0.15726536
H  -1.04256443 -0.45008964 0.10585837
12
MD Step 395.0 Units = [eV / Ang.]
C  -0.16040821 0.48221399 -0.38435380
C  0.63090636 1.06280280 -0.07765874
C  0.41703599 -2.15585163 0.08487249
C  0.24075867 2.86784415 1.25179932
C  1.18972702 -1.99220351 -1.22777497
C  0.93446778 -0.30950156 0.54226283
H  -0.23993150 0.03038997 0.04922161
H  -0.29448303 -0.63986094 -0.04258725
H  -0.14926824 0.02153118 0.00278089
H  -0.55598554 -0.61349240 -0.47969468
H  -1.09294057 1.72309842 0.19167206
H  -0.91987872 -0.47697047 0.08946023
12
MD Step 395.5 Units = [eV / Ang.]
C  -0.40532173 0.21412046 -0.46323070
C  0.91869810 1.22026137 -0.02251530
C  0.21292799 -2.41791336 0.04946388
C  0.17318171 3.04388165 1.26362914
C  0.83513889 -1.23137425 -1.33097975
C  0.65920643 -0.16088118 0.64131019
H  -0.10174870 0.20533542 0.05930511
H  -0.31233108 -0.73382098 -0.05144390
H  -0.01683472 0.05483030 0.01305134
H  -0.58565094 -0.62976331 -0.48316604
H  -0.67137562 0.93743042 0.24111396
H  -0.70589032 -0.50210652 0.08346205
12
MD Step 396.0 Units = [eV / Ang.]
C  -0.64772070 -0.03585699 -0.53646433
C  1.21376039 1.31737426 0.03598143
C  -0.00010519 -2.62021340 0.01561130
C  0.08406293 3.11425611 1.25607296
C  0.46706014 -0.43546858 -1.43316345
C  0.31803547 -0.02272381 0.73139455
H  0.03433150 0.36562709 0.06740084
H  -0.34925321 -0.78768047 -0.06361660
H  0.11725129 0.08468835 0.02170691
H  -0.57465899 -0.58101215 -0.47409094
H  -0.23613020 0.12459019 0.29809367
H  -0.42663344 -0.52358060 0.08107366
12
MD Step 396.5 Units = [eV / Ang.]
C  -0.87403726 -0.25020530 -0.60364424
C  1.50980030 1.35688681 0.09779995
C  -0.21250047 -2.75925970 -0.01622478
C  -0.02251473 3.07402999 1.22891655
C  0.13279307 0.30620500 -1.52576359
C  -0.05579341 0.09767477 0.81787991
H  0.15924762 0.49680304 0.07340522
H  -0.40463930 -0.80289144 -0.07968592
H  0.24054978 0.11118615 0.02929237
H  -0.52373305 -0.46897642 -0.45258057
H  0.16454753 -0.62252266 0.35436404
H  -0.11372007 -0.53893023 0.07624104
12
MD Step 397.0 Units = [eV / Ang.]
C  -1.07170321 -0.41542139 -0.66472750
C  1.79703320 1.34491402 0.16237562
C  -0.41383777 -2.83354230 -0.04578733
C  -0.14239721 2.92320232 1.18268265
C  -0.13968744 0.94079652 -1.60238671
C  -0.42878185 0.19431511 0.90476374
H  0.26552540 0.58811589 0.07742594
H  -0.47482651 -0.78421506 -0.09963912
H  0.34096061 0.13480939 0.03665116
H  -0.43548315 -0.29863131 -0.41949800
H  0.50206818 -1.24859948 0.40348689
H  0.20112975 -0.54574372 0.06465266
12
MD Step 397.5 Units = [eV / Ang.]
C  -1.22967064 -0.52209082 -0.72000437
C  2.06308976 1.28968921 0.22865894
C  -0.59396977 -2.84338691 -0.07299387
C  -0.27095716 2.66792915 1.11870086
C  -0.33837129 1.44573565 -1.65946775
C  -0.77139530 0.26305194 0.99429528
H  0.34747102 0.63251486 0.07974649
H  -0.55373837 -0.73872642 -0.12288069
H  0.40816303 0.15630202 0.04481551
H  -0.31489948 -0.07903176 -0.37654812
H  0.76413882 -1.72984030 0.44160951
H  0.49013937 -0.54214663 0.04406822
12
MD Step 398.0 Units = [eV / Ang.]
C  -1.33881450 -0.56465735 -0.77003216
C  2.29438915 1.20024608 0.29524888
C  -0.74431609 -2.79067740 -0.09785061
C  -0.40227641 2.32170339 1.03918695
C  -0.46110931 1.81703819 -1.69570783
C  -1.06030990 0.30171015 1.08707980
H  0.40118280 0.62633213 0.08078530
H  -0.63387870 -0.67467028 -0.14834685
H  0.43501698 0.17645834 0.05483544
H  -0.16996768 0.17564369 -0.32634482
H  0.94854518 -2.06206739 0.46702879
H  0.73153850 -0.52705956 0.01411711
12
MD Step 398.5 Units = [eV / Ang.]
C  -1.39232205 -0.54117621 -0.81554906
C  2.47767957 1.08529043 0.36057094
C  -0.85900425 -2.67853633 -0.12033252
C  -0.52833281 1.90601330 0.94722767
C  -0.51004504 2.05859590 -1.71112627
C  -1.27891199 0.30986097 1.18243388
H  0.42452896 0.56896829 0.08105359
H  -0.70742466 -0.60040362 -0.17468476
H  0.41861226 0.19590262 0.06757840
H  -0.01208774 0.44538045 -0.27235091
H  1.05741835 -2.24966279 0.47935160
H  0.90988939 -0.50023301 -0.02417255
12
MD Step 399.0 Units = [eV / Ang.]
C  -1.38615614 -0.45322355 -0.85736621
C  2.60146482 0.95241093 0.42305149
C  -0.93556523 -2.51103774 -0.14026690
C  -0.63872192 1.44984746 0.84655613
C  -0.48781924 2.17490271 -1.70625387
C  -1.41670506 0.28845260 1.27877610
H  0.41720647 0.46275612 0.08110594
H  -0.76718982 -0.52357827 -0.20044886
H  0.36071081 0.21491456 0.08354484
H  0.14412529 0.70464524 -0.21858638
H  1.09327543 -2.29794388 0.47876829
H  1.01537456 -0.46214617 -0.06888056
12
MD Step 399.5 Units = [eV / Ang.]
C  -1.31959686 -0.30602968 -0.89624329
C  2.65712937 0.80767129 0.48126083
C  -0.97501096 -2.29302809 -0.15726242
C  -0.72137714 0.98747752 0.74105188
C  -0.39554403 2.16723272 -1.68166079
C  -1.46835547 0.23946382 1.37394302
H  0.38093040 0.31306503 0.08147558
H  -0.80732692 -0.45061161 -0.22427746
H  0.26745592 0.23334929 0.10274675
H  0.28203693 0.92438304 -0.16905478
H  1.05687688 -2.20911157 0.46563033
H  1.04278189 -0.41386175 -0.11760967
12
MD Step 400.0 Units = [eV / Ang.]
C  -1.19577707 -0.10874982 -0.93274391
C  2.63965898 0.65553139 0.53400635
C  -0.98131894 -2.03006714 -0.17070350
C  -0.76447977 0.55430812 0.63402207
C  -0.23222784 2.03265534 -1.63783694
C  -1.43292533 0.16567861 1.46540584
H  0.31972061 0.12856143 0.08258388
H  -0.82374053 -0.38640867 -0.24502795
H  0.14843164 0.25066888 0.12467794
H  0.38530610 1.07593370 -0.12696516
H  0.94661007 -1.98121365 0.44035752
H  0.99074208 -0.35689819 -0.16777614
12
MD Step 400.5 Units = [eV / Ang.]
C  -1.02206644 0.12532127 -0.96707366
C  2.54797096 0.49898318 0.58038443
C  -0.96052015 -1.72846068 -0.17981289
C  -0.75920824 0.18142542 0.52748919
C  0.00447412 1.76560936 -1.57540935
C  -1.31361007 0.07062222 1.55042715
H  0.24016276 -0.07857342 0.08461966
H  -0.81425360 -0.33425721 -0.26186787
H  0.01531551 0.26606646 0.14837798
H  0.44091723 1.13625698 -0.09398379
H  0.75928543 -1.60985841 0.40365587
H  0.86153250 -0.29313517 -0.21680671
12
MD Step 401.0 Units = [eV / Ang.]
C  -0.81007058 0.37888878 -0.99891747
C  2.38489442 0.33979274 0.61980135
C  -0.91964796 -1.39531769 -0.18375190
C  -0.70246307 -0.10972407 0.42178352
C  0.31595719 1.36236883 -1.49566500
C  -1.11803590 -0.04137934 1.62622087
H  0.15143472 -0.29276890 0.08739911
H  -0.77860033 -0.29581386 -0.27432607
H  -0.11957036 0.27863773 0.17256476
H  0.44204542 1.09300779 -0.06982335
H  0.49255180 -1.09296700 0.35701226
H  0.66150466 -0.22472500 -0.26229807
12
MD Step 401.5 Units = [eV / Ang.]
C  -0.57501308 0.63145480 -1.02730166
C  2.15686393 0.17875865 0.65197588
C  -0.86580583 -1.03854571 -0.18173219
C  -0.59847871 -0.31075149 0.31566807
C  0.69845403 0.82891181 -1.40128300
C  -0.85898986 -0.16510408 1.69017000
H  0.06486426 -0.49583891 0.09023542
H  -0.71830268 -0.27113157 -0.28231402
H  -0.24453989 0.28755207 0.19579980
H  0.38969142 0.94763793 -0.05238767
H  0.14926465 -0.43897948 0.30335913
H  0.40199178 -0.15396401 -0.30218977
12
MD Step 402.0 Units = [eV / Ang.]
C  -0.33433509 0.86098968 -1.05053994
C  1.87339388 0.01593840 0.67692906
C  -0.80549666 -0.66675634 -0.17310523
C  -0.45860866 -0.42659864 0.20697768
C  1.13695359 0.19174254 -1.29697346
C  -0.55517682 -0.29442613 1.74012190
H  -0.00716572 -0.66861343 0.09187387
H  -0.63646655 -0.25870437 -0.28611857
H  -0.34949356 0.29218500 0.21665047
H  0.29241165 0.71526581 -0.03844902
H  -0.25630335 0.32205075 0.24760534
H  0.10028729 -0.08307326 -0.33497209
12
MD Step 402.5 Units = [eV / Ang.]
C  -0.10556146 1.04641620 -1.06631707
C  1.54637627 -0.14915102 0.69495882
C  -0.74425790 -0.28904485 -0.15742136
C  -0.29929056 -0.47273245 0.09351664
C  1.59877590 -0.49155387 -1.18943307
C  -0.23143148 -0.42251182 1.77472468
H  -0.05294736 -0.79335850 0.09055275
H  -0.53749585 -0.25555853 -0.28636596
H  -0.42650277 0.29219370 0.23382551
H  0.16425675 0.42135120 -0.02458631
H  -0.69200181 1.12783102 0.19644998
H  -0.21991972 -0.01388107 -0.35990461
12
MD Step 403.0 Units = [eV / Ang.]
C  0.09621003 1.17049398 -1.07194734
C  1.18925919 -0.31731735 0.70658723
C  -0.68653386 0.08530730 -0.13445700
C  -0.13893264 -0.47051301 -0.02614378
C  2.03056107 -1.12909610 -1.08592854
C  0.08231621 -0.54226052 1.79370325
H  -0.06351542 -0.85656006 0.08423017
H  -0.42671395 -0.25743525 -0.28395080
H  -0.47009383 0.28753876 0.24627655
H  0.02174975 0.09648551 -0.00802268
H  -1.10491529 1.88082134 0.15682134
H  -0.52939125 0.05253539 -0.37716840
12
MD Step 403.5 Units = [eV / Ang.]
C  0.26060253 1.22240658 -1.06479471
C  0.81614370 -0.48940960 0.71247479
C  -0.63568787 0.44718120 -0.10422499
C  0.00526808 -0.44251228 -0.15222108
C  2.36379325 -1.60734852 -0.99141472
C  0.35380748 -0.64694096 1.79793093
H  -0.03450226 -0.85135525 0.07096217
H  -0.30988598 -0.25912104 -0.27992476
H  -0.47733484 0.27846300 0.25326750
H  -0.11902469 -0.22886510 0.01289338
H  -1.42715300 2.46139415 0.13289813
H  -0.79602640 0.11610782 -0.38784666
12
MD Step 404.0 Units = [eV / Ang.]
C  0.38336448 1.19928898 -1.04276194
C  0.44088322 -0.66592229 0.71329757
C  -0.59403261 0.78794886 -0.06698278
C  0.11975420 -0.40911517 -0.28368312
C  2.53134924 -1.82221825 -0.90548072
C  0.55292223 -0.73082674 1.78918658
H  0.03282465 -0.77885781 0.04934453
H  -0.19266753 -0.25495865 -0.27534920
H  -0.44783411 0.26544236 0.25442156
H  -0.24443969 -0.52821241 0.03861004
H  -1.59274383 2.75967136 0.12305249
H  -0.98938026 0.17775976 -0.39365500
12
MD Step 404.5 Units = [eV / Ang.]
C  0.46649371 1.10623787 -1.00471877
C  0.07623648 -0.84649244 0.70960127
C  -0.56279792 1.09975285 -0.02324742
C  0.19586105 -0.38689282 -0.41850783
C  2.49022064 -1.71766167 -0.82150446
C  0.65698506 -0.78961183 1.76960959
H  0.13171817 -0.64793545 0.01888690
H  -0.08003496 -0.23953293 -0.27112645
H  -0.38371450 0.24912166 0.24975190
H  -0.34421623 -0.78093787 0.06858367
H  -1.56061216 2.71494169 0.11911570
H  -1.08613933 0.23901094 -0.39644412
12
MD Step 405.0 Units = [eV / Ang.]
C  0.51708519 0.95484003 -0.95074774
C  -0.26680437 -1.02936507 0.70166100
C  -0.54200105 1.37570007 0.02618423
C  0.22986079 -0.38842505 -0.55407319
C  2.23839546 -1.31019860 -0.72945630
C  0.65538653 -0.82039515 1.74103448
H  0.25125852 -0.47351154 -0.01980051
H  0.02420317 -0.20844406 -0.26784075
H  -0.28958130 0.23024184 0.23967949
H  -0.41140083 -0.97248762 0.10161024
H  -1.33147079 2.34077220 0.10937558
H  -1.07493133 0.30127296 -0.39762654
12
MD Step 405.5 Units = [eV / Ang.]
C  0.54536621 0.76076301 -0.88214638
C  -0.57945153 -1.21095140 0.68938091
C  -0.53024761 1.60997396 0.08022159
C  0.22206016 -0.42289979 -0.68754154
C  1.81509000 -0.68299117 -0.62091420
C  0.55190708 -0.82125864 1.70447640
H  0.37835845 -0.27396419 -0.06505931
H  0.11772142 -0.15903771 -0.26564541
H  -0.17243906 0.20956417 0.22503078
H  -0.44184726 -1.09356613 0.13614284
H  -0.94775813 1.71927223 0.08380828
H  -0.95875975 0.36509565 -0.39775396
12
MD Step 406.0 Units = [eV / Ang.]
C  0.56254262 0.54116600 -0.80122601
C  -0.85526431 -1.38562389 0.67226856
C  -0.52458039 1.79790303 0.13749038
C  0.17545833 -0.49683434 -0.81616421
C  1.28429620 0.04669286 -0.49290511
C  0.36381861 -0.79072613 1.65997605
H  0.49984571 -0.06839211 -0.11443427
H  0.19975014 -0.09092989 -0.26422696
H  -0.04147084 0.18779303 0.20700577
H  -0.43359924 -1.13905283 0.17053358
H  -0.47666995 0.96831405 0.03810127
H  -0.75412690 0.42969023 -0.39641905
12
MD Step 406.5 Units = [eV / Ang.]
C  0.57899898 0.31258890 -0.71099297
C  -1.09002935 -1.54585939 0.64949726
C  -0.52050453 1.93601537 0.19638278
C  0.09450768 -0.61443390 -0.93748322
C  0.71237572 0.76621851 -0.34837113
C  0.11809607 -0.72748864 1.60682548
H  0.60410179 0.12560106 -0.16502614
H  0.27089922 -0.00619749 -0.26286007
H  0.09242772 0.16550204 0.18709990
H  -0.38645466 -1.10720317 0.20319571
H  0.01281418 0.20233004 -0.02576578
H  -0.48723283 0.49292666 -0.39250182
12
MD Step 407.0 Units = [eV / Ang.]
C  0.60312718 0.08963737 -0.61481349
C  -1.28144384 -1.68275749 0.62004589
C  -0.51232384 2.02210671 0.25516117
C  -0.01561024 -0.77736985 -1.04944793
C  0.15166591 1.39311684 -0.19389116
C  -0.15389052 -0.63056696 1.54402155
H  0.68201652 0.29328710 -0.21384037
H  0.33278848 0.09082015 -0.26054178
H  0.21743330 0.14307540 0.16697216
H  -0.30185014 -0.99944484 0.23271529
H  0.46678055 -0.49367669 -0.10176104
H  -0.18869336 0.55177226 -0.38462029
12
MD Step 407.5 Units = [eV / Ang.]
C  0.64079301 -0.11554843 -0.51612940
C  -1.42871196 -1.78686395 0.58288697
C  -0.49385158 2.05533217 0.31210689
C  -0.14905878 -0.98394832 -1.15048296
C  -0.36498884 1.88150447 -0.03678958
C  -0.42148647 -0.49982126 1.47073027
H  0.72728973 0.42337452 -0.25806160
H  0.38758330 0.19405889 -0.25617254
H  0.32191020 0.12067606 0.14826354
H  -0.18309557 -0.82087168 0.25794965
H  0.85213533 -1.07083808 -0.18271577
H  0.11148164 0.60294561 -0.37158547
12
MD Step 408.0 Units = [eV / Ang.]
C  0.69526258 -0.29330967 -0.41824674
C  -1.53216778 -1.84916141 0.53718090
C  -0.45939469 2.03627658 0.36569884
C  -0.29888136 -1.22780828 -1.23954750
C  -0.82123550 2.21513940 0.11677006
C  -0.65839646 -0.33652244 1.38661182
H  0.73629784 0.50800570 -0.29523627
H  0.43754309 0.29648933 -0.24874243
H  0.39573732 0.09825578 0.13238961
H  -0.03588290 -0.58131121 0.27813846
H  1.15369388 -1.50957583 -0.26230458
H  0.38742398 0.64352205 -0.35271216
12
MD Step 408.5 Units = [eV / Ang.]
C  0.76738007 -0.43629076 -0.32418229
C  -1.59298605 -1.86204932 0.48243981
C  -0.40485410 1.96698853 0.41478131
C  -0.45625890 -1.49653567 -1.31620491
C  -1.21076261 2.39589769 0.26237601
C  -0.84445368 -0.14375685 1.29195536
H  0.70777510 0.54250222 -0.32338453
H  0.48466002 0.39093745 -0.23748484
H  0.43164210 0.07560990 0.12034674
H  0.13111871 -0.29659495 0.29302707
H  1.36766368 -1.80803131 -0.33572916
H  0.61907568 0.67132308 -0.32794058
12
MD Step 409.0 Units = [eV / Ang.]
C  0.85579892 -0.53934617 -0.23653187
C  -1.61299851 -1.82017629 0.41863693
C  -0.32863189 1.85092765 0.45867974
C  -0.60991938 -1.77077965 -1.38067635
C  -1.53117004 2.43351898 0.39706037
C  -0.96582527 0.07345376 1.18766873
H  0.64251570 0.52513851 -0.34108368
H  0.53042248 0.47084258 -0.22197552
H  0.42624316 0.05246816 0.11257787
H  0.30589406 0.01061771 0.30296237
H  1.49533488 -1.97172210 -0.39950920
H  0.79233590 0.68505686 -0.29780939
12
MD Step 409.5 Units = [eV / Ang.]
C  0.95716558 -0.59969179 -0.15732855
C  -1.59460348 -1.72102734 0.34625271
C  -0.23211454 1.69282923 0.49723484
C  -0.74613905 -2.02466859 -1.43381407
C  -1.77973053 2.33865488 0.51862605
C  -1.01429710 0.30832380 1.07519410
H  0.54320850 0.45711206 -0.34756240
H  0.57570089 0.53085883 -0.20216968
H  0.38055606 0.02859940 0.10893176
H  0.47333459 0.31130433 0.30888938
H  1.53858271 -2.00657059 -0.45090231
H  0.89833638 0.68427577 -0.26335183
12
MD Step 410.0 Units = [eV / Ang.]
C  1.06621742 -0.61734675 -0.08787144
C  -1.54070643 -1.56524113 0.26626427
C  -0.11958888 1.49847989 0.53074464
C  -0.84974312 -2.22823107 -1.47691319
C  -1.95118305 2.11908022 0.62496707
C  -0.98631287 0.55270866 0.95641006
H  0.41442238 0.34276816 -0.34282913
H  0.62072103 0.56728426 -0.17838505
H  0.29982794 0.00390227 0.10872603
H  0.61646636 0.57258862 0.31217083
H  1.49736569 -1.91524355 -0.48731195
H  0.93251354 0.66925042 -0.22597214
12
MD Step 410.5 Units = [eV / Ang.]
C  1.17585408 -0.59575638 -0.02853424
C  -1.45465910 -1.35667600 0.18008505
C  0.00238640 1.27442477 0.55983466
C  -0.90620634 -2.35196774 -1.51132998
C  -2.03728662 1.77841263 0.71358000
C  -0.88224286 0.79766582 0.83354282
H  0.26266815 0.18998860 -0.32782611
H  0.66509044 0.57832720 -0.15124199
H  0.19274359 -0.02154228 0.11089490
H  0.71873823 0.76246430 0.31420510
H  1.36896815 -1.69618098 -0.50588234
H  0.89394586 0.64084005 -0.18732788
12
MD Step 411.0 Units = [eV / Ang.]
C  1.27729329 -0.54237149 0.02140066
C  -1.34015789 -1.10227243 0.08946785
C  0.12596090 1.02764732 0.58529237
C  -0.90447504 -2.37275598 -1.53798218
C  -2.02803113 1.31708012 0.78141382
C  -0.70614268 1.03410867 0.70907706
H  0.09639598 0.01053164 -0.30456415
H  0.70784355 0.56424287 -0.12157486
H  0.07020960 -0.04746579 0.11418174
H  0.76698639 0.85588683 0.31592793
H  1.14890600 -1.34503109 -0.50343115
H  0.78521102 0.60039934 -0.14920908
12
MD Step 411.5 Units = [eV / Ang.]
C  1.36044788 -0.46884437 0.06380581
C  -1.20108625 -0.81173296 -0.00362203
C  0.24307579 0.76524437 0.60790889
C  -0.83968337 -2.27928008 -1.55692077
C  -1.91474187 0.73586328 0.82524631
C  -0.46602278 1.25350058 0.58563080
H  -0.07424382 -0.17999908 -0.27615871
H  0.74749205 0.52735273 -0.09032398
H  -0.05600914 -0.07344985 0.11733039
H  0.75422386 0.84038441 0.31739090
H  0.83375784 -0.85875645 -0.47690319
H  0.61278982 0.54971742 -0.11338442
12
MD Step 412.0 Units = [eV / Ang.]
C  1.41465931 -0.39047264 0.10157513
C  -1.04131575 -0.49705810 -0.09715545
C  0.34640529 0.49414724 0.62835881
C  -0.71477154 -2.07495710 -1.56719171
C  -1.69543720 0.04263491 0.84282413
C  -0.17446640 1.44853779 0.46574937
H  -0.23803004 -0.36291100 -0.24666939
H  0.78207553 0.47194631 -0.05841746
H  -0.17453647 -0.09898833 0.11924084
H  0.68125792 0.71908605 0.31762998
H  0.42631302 -0.24291538 -0.42456368
H  0.38784633 0.49095025 -0.08138057
12
MD Step 412.5 Units = [eV / Ang.]
C  1.42982413 -0.32463268 0.13821986
C  -0.86450386 -0.17192539 -0.18920006
C  0.43001204 0.22090788 0.64713101
C  -0.54032494 -1.77714005 -1.56708439
C  -1.38229370 -0.73779313 0.83486768
C  0.15079134 1.61376830 0.35159678
H  -0.38373895 -0.51814263 -0.22067097
H  0.80922749 0.40402946 -0.02665155
H  -0.27534550 -0.12355461 0.11907039
H  0.55648731 0.50989233 0.31491665
H  -0.05712595 0.47810052 -0.34801530
H  0.12699060 0.42649001 -0.05418009
12
MD Step 413.0 Units = [eV / Ang.]
C  1.39777205 -0.28823087 0.17720874
C  -0.67390523 0.14911253 -0.27807235
C  0.48967871 -0.04845246 0.66450347
C  -0.33270799 -1.41298378 -1.55468259
C  -1.00924375 -1.55314947 0.80754681
C  0.48683793 1.74603164 0.24455741
H  -0.50153181 -0.62688720 -0.20256556
H  0.82627736 0.33087578 0.00441376
H  -0.35039160 -0.14665827 0.11628019
H  0.39397644 0.24115125 0.30729243
H  -0.57921629 1.25046651 -0.25461229
H  -0.14754582 0.35872433 -0.03187003
12
MD Step 413.5 Units = [eV / Ang.]
C  1.31363687 -0.29463022 0.22117189
C  -0.47230014 0.45158772 -0.36246562
C  0.52297118 -0.30849334 0.68054869
C  -0.11113838 -1.01371378 -1.52848678
C  -0.63517559 -2.31860710 0.77409859
C  0.80670709 1.84461397 0.14484771
H  -0.58436288 -0.67465416 -0.19576107
H  0.83041140 0.26035989 0.03453025
H  -0.39395042 -0.16788182 0.11064173
H  0.21056836 -0.05442110 0.29315493
H  -1.07839390 1.98615312 -0.15894091
H  -0.40897360 0.28968683 -0.01333942
12
MD Step 414.0 Units = [eV / Ang.]
C  1.17682563 -0.35083784 0.27119887
C  -0.26203876 0.72220217 -0.44152070
C  0.52914237 -0.55434383 0.69515255
C  0.10530599 -0.60936200 -1.48787941
C  -0.33666294 -2.92534552 0.75354848
C  1.08197310 1.91095181 0.05129720
H  -0.62902031 -0.65397092 -0.20194278
H  0.81890651 0.20009823 0.06378254
H  -0.40276408 -0.18689905 0.10221523
H  0.02304461 -0.34543786 0.27167356
H  -1.47604632 2.57226325 -0.08134424
H  -0.62866579 0.22068157 0.00381868
12
MD Step 414.5 Units = [eV / Ang.]
C  0.99130271 -0.45582778 0.32646798
C  -0.04526024 0.94993963 -0.51482193
C  0.50898268 -0.78162609 0.70803559
C  0.30003809 -0.22539375 -1.43331774
C  -0.18762179 -3.26689842 0.76526368
C  1.28669243 1.94781607 -0.03851204
H  -0.63647602 -0.56586996 -0.22068172
H  0.78943669 0.15648378 0.09254190
H  -0.37608552 -0.20347924 0.09131538
H  -0.15391085 -0.60566720 0.24293853
H  -1.69668392 2.89848555 -0.04227385
H  -0.78041425 0.15203742 0.02304423
12
MD Step 415.0 Units = [eV / Ang.]
C  0.76509016 -0.60054070 0.38434700
C  0.17575631 1.12702638 -0.58231167
C  0.46472589 -0.98635494 0.71877433
C  0.46031547 0.11847849 -1.36627361
C  -0.23226260 -3.27560960 0.82094796
C  1.40186670 1.95809940 -0.12766752
H  -0.61144510 -0.41966455 -0.24952132
H  0.74042276 0.13378003 0.12134996
H  -0.31569134 -0.21748432 0.07847202
H  -0.30868474 -0.81559726 0.20788201
H  -1.69478844 2.89471201 -0.05413662
H  -0.84530506 0.08315506 0.04813748
12
MD Step 415.5 Units = [eV / Ang.]
C  0.50917022 -0.76955126 0.44093191
C  0.39817029 1.24957191 -0.64413355
C  0.40004548 -1.16486194 0.72681955
C  0.57757735 0.40785434 -1.28902353
C  -0.46598983 -2.94996365 0.91873221
C  1.41914326 1.94357519 -0.21900963
H  -0.56131825 -0.23109472 -0.28451252
H  0.67136836 0.13346170 0.15074973
H  -0.22587048 -0.22886353 0.06438675
H  -0.43281716 -0.96222737 0.16808052
H  -1.47374645 2.55919130 -0.11532803
H  -0.81573281 0.01290803 0.08230659
12
MD Step 416.0 Units = [eV / Ang.]
C  0.23612228 -0.94380210 0.49182105
C  0.61819244 1.31773757 -0.70044640
C  0.32013931 -1.31377841 0.73152014
C  0.64697996 0.63248424 -1.20439493
C  -0.83674676 -2.35521541 1.04361372
C  1.34244679 1.90407723 -0.31418304
H  -0.49481551 -0.01948162 -0.32100460
H  0.58311552 0.15395614 0.18110307
H  -0.11335908 -0.23764683 0.04988710
H  -0.52057117 -1.03792884 0.12554343
H  -1.08441863 1.95932001 -0.21070742
H  -0.69708516 -0.05972199 0.12724789
12
MD Step 416.5 Units = [eV / Ang.]
C  -0.04114907 -1.10356723 0.53288099
C  0.83085088 1.33538609 -0.75124919
C  0.23177556 -1.43009556 0.73215920
C  0.66652075 0.78519366 -1.11552772
C  -1.26592431 -1.59683799 1.17402023
C  1.18692414 1.83739794 -0.41301537
H  -0.42073075 0.19524043 -0.35444348
H  0.47795071 0.19085931 0.21243770
H  0.01287979 -0.24393475 0.03586838
H  -0.56837520 -1.03916820 0.08253879
H  -0.60426652 1.20455617 -0.31826654
H  -0.50645599 -0.13502988 0.18259700
12
MD Step 417.0 Units = [eV / Ang.]
C  -0.31037989 -1.23091515 0.56080791
C  1.02998364 1.30926984 -0.79626200
C  0.14317229 -1.51126488 0.72800962
C  0.63621775 0.86135665 -1.02565829
C  -1.67537358 -0.78383617 1.28996769
C  0.97555762 1.73986904 -0.51344274
H  -0.34701069 0.39490597 -0.38098121
H  0.35952324 0.23758003 0.24436382
H  0.14211666 -0.24788061 0.02322384
H  -0.57442262 -0.96561656 0.04145947
H  -0.11049218 0.40878148 -0.41743250
H  -0.26889222 -0.21224965 0.24594438
12
MD Step 417.5 Units = [eV / Ang.]
C  -0.56052065 -1.31128961 0.57340704
C  1.20846980 1.24794904 -0.83488725
C  0.06354586 -1.55532230 0.71841552
C  0.55773186 0.85911078 -0.93789780
C  -2.00643149 -0.00151806 1.37822984
C  0.73465306 1.60737983 -0.61195194
H  -0.28024999 0.56456532 -0.39781102
H  0.23258401 0.28625463 0.27607704
H  0.26264861 -0.24966008 0.01276083
H  -0.53860104 -0.81991832 0.00469064
H  0.33872552 -0.33795132 -0.49439560
H  -0.01255553 -0.28959989 0.31336270
12
MD Step 418.0 Units = [eV / Ang.]
C  -0.78201506 -1.33419749 0.56962657
C  1.35867735 1.16062960 -0.86624830
C  0.00227644 -1.56098855 0.70288921
C  0.43455886 0.78024617 -0.85497652
C  -2.22576047 0.69791099 1.43319390
C  0.48963996 1.43647980 -0.70430409
H  -0.22553505 0.69304088 -0.40325631
H  0.10258664 0.32874637 0.30644155
H  0.36291962 -0.24942833 0.00511175
H  -0.46281033 -0.60815412 -0.02557722
H  0.70978802 -0.97965023 -0.54309642
H  0.23567402 -0.36463509 0.38019587
12
MD Step 418.5 Units = [eV / Ang.]
C  -0.96690401 -1.29325267 0.54943383
C  1.47304115 1.05614305 -0.88928971
C  -0.03223536 -1.52774950 0.68120861
C  0.27271421 0.63153757 -0.77891979
C  -2.32143009 1.29062153 1.45490431
C  0.26217556 1.22528452 -0.78625810
H  -0.18650370 0.77287012 -0.39669539
H  -0.02477255 0.35753848 0.33412801
H  0.43286196 -0.24727019 0.00065490
H  -0.35161868 -0.34083880 -0.04764226
H  0.98950208 -1.49016755 -0.56335141
H  0.45316943 -0.43471656 0.44182700
12
MD Step 419.0 Units = [eV / Ang.]
C  -1.10888712 -1.18592168 0.51363648
C  1.54468230 0.94218522 -0.90290816
C  -0.03381056 -1.45592678 0.65349101
C  0.08164394 0.42611991 -0.71063863
C  -2.29531702 1.77050029 1.44642360
C  0.06884200 0.97402543 -0.85410450
H  -0.16547117 0.79999505 -0.37841859
H  -0.14400891 0.36641781 0.35777302
H  0.46523808 -0.24315487 -0.00053591
H  -0.21306545 -0.03407556 -0.06071617
H  1.17728627 -1.86273964 -0.55823607
H  0.62286764 -0.49742516 0.49423392
12
MD Step 419.5 Units = [eV / Ang.]
C  -1.20345621 -1.01324254 0.46371741
C  1.56801253 0.82486382 -0.90608931
C  0.00046195 -1.34673419 0.62022274
C  -0.12507992 0.18428162 -0.64947414
C  -2.15611877 2.13883725 1.41180861
C  -0.07887880 0.68522929 -0.90494959
H  -0.16351622 0.77347573 -0.34948108
H  -0.25024493 0.35090827 0.37613177
H  0.45669506 -0.23691262 0.00130027
H  -0.05923877 0.28976294 -0.06543272
H  1.27807168 -2.09964741 -0.53203626
H  0.73329241 -0.55082217 0.53428231
12
MD Step 420.0 Units = [eV / Ang.]
C  -1.24812738 -0.77971749 0.40171471
C  1.53924018 0.70852540 -0.89803424
C  0.06965194 -1.20234472 0.58223525
C  -0.32984481 -0.06704247 -0.59282318
C  -1.91457329 2.39699816 1.35504610
C  -0.17393385 0.36361849 -0.93680495
H  -0.18044999 0.69541807 -0.31158338
H  -0.33952589 0.30849070 0.38820568
H  0.40827550 -0.22824430 0.00565118
H  0.09387393 0.60260267 -0.06428999
H  1.29751753 -2.20474874 -0.48913377
H  0.77789613 -0.59355576 0.55981659
12
MD Step 420.5 Units = [eV / Ang.]
C  -1.24278943 -0.49341446 0.33013534
C  1.45678719 0.59579446 -0.87826622
C  0.16904026 -1.02595511 0.54062643
C  -0.51234858 -0.29671070 -0.53607154
C  -1.58086443 2.54231824 1.27978315
C  -0.21292407 0.01585295 -0.94857694
H  -0.21465837 0.57113815 -0.26696809
H  -0.40906207 0.23867012 0.39333824
H  0.32524964 -0.21676762 0.01181158
H  0.22774339 0.87314651 -0.06177783
H  1.23952146 -2.17920954 -0.43368522
H  0.75430502 -0.62486301 0.56965109
12
MD Step 421.0 Units = [eV / Ang.]
C  -1.19009759 -0.16618606 0.25186335
C  1.32158336 0.48773493 -0.84671448
C  0.29076917 -0.82184558 0.49664369
C  -0.65239324 -0.47381948 -0.47308199
C  -1.16370306 2.56670660 1.18958851
C  -0.19561919 -0.34977600 -0.94005173
H  -0.26285001 0.40946646 -0.21829987
H  -0.45741222 0.14295829 0.39127899
H  0.21632077 -0.20209071 0.01898513
H  0.32401589 1.07136652 -0.06393084
H  1.10553703 -2.01998513 -0.36983577
H  0.66384906 -0.64452984 0.56355502
12
MD Step 421.5 Units = [eV / Ang.]
C  -1.09579611 0.18621826 0.17000921
C  1.13724374 0.38408295 -0.80377275
C  0.42492038 -0.59542596 0.45154843
C  -0.73363482 -0.57330283 -0.39733211
C  -0.67077367 2.45772571 1.08851238
C  -0.12497733 -0.72364587 -0.91193337
H  -0.31981530 0.22294831 -0.16848159
H  -0.48462076 0.02480525 0.38221714
H  0.09239602 -0.18389510 0.02638836
H  0.36811990 1.17415311 -0.07720854
H  0.89537377 -1.72081367 -0.30223351
H  0.51156418 -0.65285016 0.54228636
12
MD Step 422.0 Units = [eV / Ang.]
C  -0.96879636 0.54446836 0.08766087
C  0.91011076 0.28349689 -0.75032621
C  0.56073589 -0.35322160 0.40648820
C  -0.74717832 -0.58099907 -0.30349544
C  -0.11053709 2.20248766 0.98172965
C  -0.00764064 -1.09509520 -0.86594474
H  -0.37835676 0.02761441 -0.12037321
H  -0.49230509 -0.11050939 0.36678422
H  -0.03478234 -0.16200869 0.03333613
H  0.35266081 1.17039244 -0.10692173
H  0.60947319 -1.27602935 -0.23661136
H  0.30661595 -0.65059647 0.50767361
12
MD Step 422.5 Units = [eV / Ang.]
C  -0.82081742 0.88670759 0.00753207
C  0.64913887 0.18383095 -0.68773457
C  0.68773903 -0.10278160 0.36239623
C  -0.69370420 -0.49630988 -0.18895818
C  0.50442199 1.79502769 0.87593876
C  0.14532434 -1.45272459 -0.80495010
H  -0.42957779 -0.15800198 -0.07641722
H  -0.48366282 -0.25605825 0.34601897
H  -0.15389156 -0.13645386 0.03929995
H  0.27930702 1.06356034 -0.15573307
H  0.25280165 -0.68781967 -0.18008627
H  0.06292087 -0.63897674 0.46269344
12
MD Step 423.0 Units = [eV / Ang.]
C  -0.66543139 1.19052495 -0.06843204
C  0.36557056 0.08244968 -0.61775951
C  0.79658859 0.14753209 0.31992741
C  -0.58327107 -0.33144215 -0.05468688
C  1.15267321 1.24725519 0.77896548
C  0.31788557 -1.78480934 -0.73299766
H  -0.46368588 -0.31477565 -0.03823439
H  -0.46334958 -0.40357057 0.32128775
H  -0.25500261 -0.10746614 0.04393513
H  0.15836844 0.87076582 -0.22282744
H  -0.15987034 0.02306913 -0.14061605
H  -0.20047550 -0.61953301 0.41143819
12
MD Step 423.5 Units = [eV / Ang.]
C  -0.51651381 1.43568701 -0.13937349
C  0.07236973 -0.02338501 -0.54242761
C  0.87959998 0.38887791 0.27943405
C  -0.43291210 -0.10764452 0.09487342
C  1.79914293 0.60116621 0.69789484
C  0.48927829 -2.07985885 -0.65516374
H  -0.47131891 -0.42566937 -0.00630975
H  -0.43717074 -0.54390953 0.29415497
H  -0.33021004 -0.07548603 0.04708229
H  0.00625315 0.61864642 -0.30407427
H  -0.59871130 0.80551487 -0.12494642
H  -0.45980719 -0.59393910 0.35885570
12
MD Step 424.0 Units = [eV / Ang.]
C  -0.38633272 1.60709490 -0.20562821
C  -0.21659114 -0.13603482 -0.46383855
C  0.93099469 0.61237170 0.24097806
C  -0.26297650 0.14992650 0.25275471
C  2.39327153 -0.06391362 0.63547662
C  0.63554437 -2.32736121 -0.57708891
H  -0.44518996 -0.47863467 0.02009883
H  -0.41155492 -0.66774508 0.26620971
H  -0.37397524 -0.04113124 0.04875011
H  -0.15813577 0.33776554 -0.39304311
H  -1.01675740 1.57135400 -0.13484576
H  -0.68829695 -0.56369200 0.31017648
12
MD Step 424.5 Units = [eV / Ang.]
C  -0.28369492 1.69716334 -0.26853863
C  -0.48757618 -0.25692773 -0.38393504
C  0.94696838 0.80958018 0.20436736
C  -0.09345314 0.41686073 0.41083542
C  2.87409988 -0.63822887 0.58596864
C  0.73259968 -2.51863484 -0.50419600
H  -0.38163817 -0.46891558 0.04274914
H  -0.39282218 -0.76639719 0.23886736
H  -0.38326495 -0.00515892 0.04908656
H  -0.31676987 0.05743389 -0.48239936
H  -1.35508114 2.20298509 -0.16286258
H  -0.85936740 -0.52976010 0.27005714
12
MD Step 425.0 Units = [eV / Ang.]
C  -0.21269195 1.70686067 -0.32999133
C  -0.72812805 -0.38600903 -0.30428472
C  0.92568852 0.97303249 0.16921362
C  0.05885289 0.67242167 0.56113525
C  3.18399913 -1.00830405 0.53340440
C  0.76041139 -2.64760018 -0.44074079
H  -0.28159870 -0.39999429 0.06393415
H  -0.38633913 -0.83274703 0.21318353
H  -0.35758310 0.03157857 0.04834433
H  -0.45472932 -0.19773156 -0.56516167
H  -1.55695108 2.58081368 -0.19066925
H  -0.95093059 -0.49232092 0.24163249
12
MD Step 425.5 Units = [eV / Ang.]
C  -0.17238635 1.64507520 -0.39182995
C  -0.92816620 -0.52129451 -0.22591425
C  0.86731915 1.09665840 0.13500327
C  0.18189853 0.90054624 0.69673561
C  3.28694164 -1.09672765 0.45541877
C  0.70724147 -2.71125014 -0.38897482
H  -0.15065716 -0.28284581 0.08588017
H  -0.39570526 -0.86207781 0.18972018
H  -0.29896263 0.06818101 0.04684272
H  -0.56108684 -0.40920874 -0.63551482
H  -1.58673051 2.62367156 -0.19315473
H  -0.94970584 -0.45072775 0.22578786
12
MD Step 426.0 Units = [eV / Ang.]
C  -0.15750049 1.52650961 -0.45532798
C  -1.08083080 -0.65868446 -0.14924325
C  0.77410096 1.17614233 0.10117591
C  0.26877460 1.08939978 0.81225408
C  3.18170038 -0.89453503 0.33239123
C  0.57256488 -2.70957292 -0.34874260
H  0.00184365 -0.13374952 0.11021617
H  -0.42215870 -0.85266520 0.16850173
H  -0.21193040 0.10375236 0.04492828
H  -0.62874430 -0.56437687 -0.68913606
H  -1.44366092 2.32155618 -0.14797169
H  -0.85415886 -0.40377627 0.22095417
12
MD Step 426.5 Units = [eV / Ang.]
C  -0.15981947 1.36884981 -0.52087627
C  -1.18290454 -0.79210421 -0.07413284
C  0.65045547 1.20910757 0.06720918
C  0.31708853 1.23034371 0.90396366
C  2.90161432 -0.46542312 0.15678369
C  0.36755662 -2.64497207 -0.31769476
H  0.16433290 0.02860323 0.13766503
H  -0.46434424 -0.80599262 0.14907383
H  -0.10340760 0.13745734 0.04293244
H  -0.65374842 -0.65551031 -0.72318138
H  -1.16185504 1.73983751 -0.04528990
H  -0.67496853 -0.35019685 0.22354731
12
MD Step 427.0 Units = [eV / Ang.]
C  -0.16981753 1.19000750 -0.58793366
C  -1.23476804 -0.91401442 -0.00003489
C  0.50300880 1.19518086 0.03270058
C  0.32779211 1.31698837 0.96970738
C  2.50106312 0.08103129 -0.06351991
C  0.11292152 -2.52138015 -0.29203950
H  0.32470631 0.18587433 0.16799962
H  -0.51850764 -0.72653592 0.13065083
H  0.01753507 0.16858070 0.04112734
H  -0.63455311 -0.67866458 -0.73612769
H  -0.79654834 0.99212074 0.10857001
H  -0.43283227 -0.28918872 0.22889991
12
MD Step 427.5 Units = [eV / Ang.]
C  -0.17809697 1.00605693 -0.65518748
C  -1.23991479 -1.01617757 0.07380094
C  0.34038895 1.13591277 -0.00256423
C  0.30396320 1.34479329 1.00876038
C  2.03722744 0.62949342 -0.30945316
C  -0.16518392 -2.34346229 -0.26755051
H  0.47175827 0.32211638 0.20020661
H  -0.57905984 -0.62117587 0.11231045
H  0.14016731 0.19658053 0.03968184
H  -0.57153215 -0.63293907 -0.72763964
H  -0.40530970 0.19959407 0.29528687
H  -0.15440779 -0.22079260 0.23234793
12
MD Step 428.0 Units = [eV / Ang.]
C  -0.17639692 0.83011471 -0.72082786
C  -1.20416716 -1.09056093 0.14810803
C  0.17268114 1.03462720 -0.03855697
C  0.24999726 1.31136924 1.02173874
C  1.55665528 1.09016387 -0.55869330
C  -0.43976739 -2.11619215 -0.24048359
H  0.59611215 0.42486299 0.23275881
H  -0.63937274 -0.49836635 0.09319049
H  0.25289974 0.22112183 0.03862487
H  -0.46688351 -0.52036856 -0.69855038
H  -0.03398477 -0.54078096 0.49256974
H  0.13222692 -0.14599090 0.23012142
12
MD Step 428.5 Units = [eV / Ang.]
C  -0.15813705 0.67202784 -0.78283332
C  -1.13478651 -1.13017386 0.22342076
C  0.01049464 0.89620984 -0.07498702
C  0.17141330 1.21743452 1.01062237
C  1.09058188 1.41071130 -0.79217313
C  -0.68683879 -1.84481608 -0.20816973
H  0.69064243 0.48541296 0.26389475
H  -0.69262246 -0.36723262 0.07264276
H  0.34440048 0.24207896 0.03782383
H  -0.32492126 -0.34648100 -0.65097998
H  0.28844141 -1.16861651 0.68090182
H  0.40133191 -0.06655535 0.21983690
12
MD Step 429.0 Units = [eV / Ang.]
C  -0.11863081 0.53857884 -0.83921787
C  -1.03963353 -1.12973760 0.29995459
C  -0.13625568 0.72687534 -0.11131749
C  0.07521732 1.06822481 0.97885769
C  0.65709410 1.57211217 -0.99682371
C  -0.88771812 -1.53507916 -0.16922674
H  0.75053261 0.49862324 0.29185561
H  -0.73252814 -0.23674494 0.05032373
H  0.40491083 0.25949643 0.03698984
H  -0.15263352 -0.12137081 -0.58852133
H  0.54784284 -1.65622765 0.84653883
H  0.63180210 0.01524933 0.20058686
12
MD Step 429.5 Units = [eV / Ang.]
C  -0.05514663 0.43385861 -0.88821375
C  -0.92648041 -1.08608978 0.37754998
C  -0.25964828 0.53391603 -0.14682317
C  -0.02948057 0.87492039 0.93142876
C  0.26614227 1.57729850 -1.16512411
C  -1.02976085 -1.19351108 -0.12347810
H  0.77316973 0.46254488 0.31506302
H  -0.75389340 -0.11506391 0.02622035
H  0.42754507 0.27351346 0.03571350
H  0.03974454 0.13910024 -0.51635237
H  0.73981775 -1.99746276 0.98126828
H  0.80799078 0.09697539 0.17274760
12
MD Step 430.0 Units = [eV / Ang.]
C  0.03302916 0.35954783 -0.92841060
C  -0.80251437 -0.99834860 0.45567504
C  -0.35482702 0.32541462 -0.18068998
C  -0.13103050 0.65550264 0.87470908
C  -0.07570002 1.43975498 -1.29318250
C  -1.10594579 -0.82762497 -0.07171715
H  0.75805380 0.37815822 0.33225562
H  -0.75293513 -0.00907670 0.00062383
H  0.40929491 0.28426928 0.03353058
H  0.23851309 0.41261207 -0.44107001
H  0.86455926 -2.19644297 1.08060926
H  0.91950260 0.17623359 0.13766682
12
MD Step 430.5 Units = [eV / Ang.]
C  0.14443836 0.31498283 -0.95886960
C  -0.67400546 -0.86787224 0.53346841
C  -0.42059719 0.10990753 -0.21213421
C  -0.21551760 0.43425411 0.81587219
C  -0.36197153 1.17518730 -1.37869563
C  -1.11391327 -0.44594107 -0.01543970
H  0.70682106 0.24932397 0.34260697
H  -0.72743285 0.07589842 -0.02593017
H  0.35149456 0.29181555 0.03000611
H  0.42707301 0.67101801 -0.37004719
H  0.92309374 -2.25941196 1.14181526
H  0.96051718 0.25083756 0.09734756
12
MD Step 431.0 Units = [eV / Ang.]
C  0.27519308 0.29697654 -0.97922695
C  -0.54609270 -0.69810997 0.60981098
C  -0.45939347 -0.10400052 -0.24052853
C  -0.26809101 0.23927476 0.76179163
C  -0.58466850 0.79665134 -1.41945025
C  -1.05501141 -0.05781958 0.04338264
H  0.62339847 0.08295590 0.34583812
H  -0.67675752 0.13629670 -0.05273802
H  0.25962652 0.29606361 0.02481918
H  0.58757282 0.88297954 -0.31025532
H  0.91507881 -2.19014062 1.16236981
H  0.92914490 0.31887231 0.05418672
12
MD Step 431.5 Units = [eV / Ang.]
C  0.41871809 0.29952040 -0.98978302
C  -0.42264879 -0.49441141 0.68341238
C  -0.47665023 -0.30806939 -0.26549809
C  -0.27534571 0.09794669 0.71758723
C  -0.73390889 0.31260410 -1.41257514
C  -0.93370203 0.32684346 0.10247882
H  0.51419937 -0.11072173 0.34232135
H  -0.60183584 0.17043986 -0.07900928
H  0.14251635 0.29678121 0.01782912
H  0.70357474 1.01868857 -0.26675397
H  0.83796037 -1.98835585 1.13922326
H  0.82712257 0.37873409 0.01076733
12
MD Step 432.0 Units = [eV / Ang.]
C  0.56565916 0.31358693 -0.99154613
C  -0.30619856 -0.26383973 0.75290968
C  -0.47976129 -0.49486277 -0.28697156
C  -0.22820136 0.03125944 0.68529539
C  -0.79878376 -0.27250764 -1.35464673
C  -0.75746536 0.69802489 0.15943182
H  0.38818539 -0.31806930 0.33314013
H  -0.50507302 0.17863917 -0.10394788
H  0.01112210 0.29363776 0.00911035
H  0.76315265 1.05575998 -0.24134301
H  0.68740507 -1.65081389 1.06890130
H  0.65995899 0.42918518 -0.03033334
12
MD Step 432.5 Units = [eV / Ang.]
C  0.70419308 0.32732081 -0.98618290
C  -0.19790229 -0.01501715 0.81697259
C  -0.47688534 -0.65811708 -0.30517522
C  -0.12429794 0.04877209 0.66324548
C  -0.76956849 -0.95490325 -1.24283175
C  -0.53715953 1.04601304 0.21185133
H  0.25657184 -0.52237724 0.32005585
H  -0.39023993 0.16327741 -0.12682944
H  -0.12281611 0.28628122 -0.00105000
H  0.76142368 0.98445380 -0.23197312
H  0.45922535 -1.17516029 0.94867974
H  0.43745568 0.46945664 -0.06676256
12
MD Step 433.0 Units = [eV / Ang.]
C  0.82093668 0.32690655 -0.97582275
C  -0.09763255 0.24205165 0.87440695
C  -0.47585513 -0.79300593 -0.32057590
C  0.03102613 0.14617925 0.64650570
C  -0.64169114 -1.72491767 -1.07729119
C  -0.28756110 1.36186536 0.25761008
H  0.13197342 -0.70495058 0.30532755
H  -0.26229153 0.12881394 -0.14707071
H  -0.24799842 0.27442382 -0.01218496
H  0.70155152 0.81022405 -0.23326789
H  0.15321140 -0.56698505 0.77903619
H  0.17433071 0.49939461 -0.09667306
12
MD Step 433.5 Units = [eV / Ang.]
C  0.90250222 0.29823394 -0.96269980
C  -0.00417251 0.49623590 0.92424826
C  -0.48334116 -0.89624760 -0.33379053
C  0.22560620 0.30648912 0.62828683
C  -0.42161354 -2.55735096 -0.86477456
C  -0.02765087 1.63783628 0.29515048
H  0.02693830 -0.84703594 0.29136430
H  -0.12708351 0.08164434 -0.16428587
H  -0.35451414 0.25791594 -0.02370118
H  0.59381248 0.55250888 -0.23801516
H  -0.22098670 0.15016142 0.56727695
H  -0.10949678 0.51960868 -0.11905972
12
MD Step 434.0 Units = [eV / Ang.]
C  0.93751885 0.22921612 -0.94868085
C  0.08442663 0.73570954 0.96583016
C  -0.50432297 -0.96606315 -0.34547851
C  0.44281556 0.50429189 0.60174652
C  -0.13357437 -3.40104236 -0.62241768
C  0.21988397 1.86772785 0.32383107
H  -0.04794664 -0.93241191 0.28025405
H  0.00904206 0.02972747 -0.17831987
H  -0.43446250 0.23679600 -0.03494174
H  0.45312604 0.24026004 -0.23903486
H  -0.63700933 0.92424976 0.33130185
H  -0.38949731 0.53153874 -0.13409013
12
MD Step 434.5 Units = [eV / Ang.]
C  0.91864738 0.11226458 -0.93479476
C  0.17034629 0.94862769 0.99881366
C  -0.54182885 -1.00200409 -0.35624438
C  0.66452490 0.71133107 0.56153549
C  0.17605191 -4.17348043 -0.37932866
C  0.43037739 2.04711057 0.34419261
H  -0.08593076 -0.95010400 0.27328813
H  0.13979932 -0.01808541 -0.18924847
H  -0.48228760 0.21131272 -0.04524784
H  0.29601637 -0.09400431 -0.23072933
H  -1.04726469 1.66968969 0.10106680
H  -0.63845164 0.53734191 -0.14330327
12
MD Step 435.0 Units = [eV / Ang.]
C  0.84402393 -0.05377679 -0.92092929
C  0.25541090 1.12403908 1.02316751
C  -0.59686308 -1.00469360 -0.36655798
C  0.87373590 0.90139208 0.50466259
C  0.44195370 -4.76846698 -0.17279855
C  0.58020107 2.17334209 0.35801429
H  -0.08538987 -0.89647469 0.27063739
H  0.25956890 -0.05299833 -0.19733795
H  -0.49492048 0.18192053 -0.05401660
H  0.13799743 -0.41958230 -0.20989195
H  -1.38592915 2.27575884 -0.08541730
H  -0.82978926 0.53954008 -0.14953217
12
MD Step 435.5 Units = [eV / Ang.]
C  0.71765348 -0.26287878 -0.90580982
C  0.34051316 1.25295434 1.03910007
C  -0.66842594 -0.97552418 -0.37669965
C  1.05632461 1.05323526 0.43063205
C  0.59444262 -5.08119553 -0.03783629
C  0.65059882 2.24536625 0.36802776
H  -0.05008596 -0.77601915 0.27130405
H  0.36398256 -0.06740168 -0.20296838
H  -0.47182242 0.14925330 -0.06075386
H  -0.00802901 -0.71105763 -0.17575223
H  -1.58330246 2.63280418 -0.19279000
H  -0.94184946 0.54046361 -0.15645371
12
MD Step 436.0 Units = [eV / Ang.]
C  0.54864731 -0.50253698 -0.88728538
C  0.42517092 1.32936484 1.04695892
C  -0.75356655 -0.91636107 -0.38673121
C  1.20174785 1.15143024 0.34107499
C  0.58263779 -5.04387513 0.00634522
C  0.63131761 2.26334529 0.37729929
H  0.01170522 -0.60058558 0.27337352
H  0.45035601 -0.05597763 -0.20653453
H  -0.41497852 0.11407744 -0.06512286
H  -0.13231044 -0.94958793 -0.12952331
H  -1.58875883 2.66905978 -0.20204403
H  -0.96196835 0.54164673 -0.16781063
12
MD Step 436.5 Units = [eV / Ang.]
C  0.34958060 -0.75571770 -0.86281646
C  0.50735167 1.35100130 1.04712227
C  -0.84744109 -0.82931011 -0.39647978
C  1.30288083 1.18570486 0.23915487
C  0.39513483 -4.65342750 -0.03503813
C  0.52286338 2.22826909 0.38843587
H  0.08888937 -0.38728491 0.27447406
H  0.51787182 -0.01654373 -0.20834935
H  -0.32886407 0.07722807 -0.06699109
H  -0.22801373 -1.12253221 -0.07377967
H  -1.39118098 2.37921286 -0.11922159
H  -0.88907264 0.54339998 -0.18651099
12
MD Step 437.0 Units = [eV / Ang.]
C  0.13452020 -1.00343098 -0.82999908
C  0.58358650 1.31960964 1.03991385
C  -0.94340724 -0.71656336 -0.40553086
C  1.35528975 1.14972189 0.12897034
C  0.06537941 -3.97354846 -0.13479175
C  0.33658504 2.14169058 0.40288745
H  0.16952691 -0.15574504 0.27228548
H  0.56747025 0.04957645 -0.20857747
H  -0.22032681 0.03953156 -0.06647171
H  -0.29064555 -1.22226393 -0.01190316
H  -1.02412688 1.82668405 0.02712169
H  -0.73385159 0.54473761 -0.21390478
12
MD Step 437.5 Units = [eV / Ang.]
C  -0.08273743 -1.22722402 -0.78697131
C  0.64937518 1.24068328 1.02555794
C  -1.03324118 -0.58033675 -0.41323264
C  1.35636154 1.03999725 0.01506552
C  -0.34187263 -3.10959549 -0.25576098
C  0.09252467 2.00568247 0.42058305
H  0.24253674 0.07451927 0.26494956
H  0.60148617 0.13774240 -0.20721441
H  -0.09831226 0.00172064 -0.06395117
H  -0.31746548 -1.24490869 0.05231107
H  -0.55221081 1.11803185 0.19814402
H  -0.51644452 0.54368779 -0.24948066
12
MD Step 438.0 Units = [eV / Ang.]
C  -0.28990739 -1.41105401 -0.73262972
C  0.69977476 1.12269668 1.00418350
C  -1.10757762 -0.42288100 -0.41872250
C  1.30470947 0.85539695 -0.09792522
C  -0.75408747 -2.17242628 -0.36449903
C  -0.18420463 1.82294798 0.43999268
H  0.29881252 0.28607458 0.25130303
H  0.62312941 0.24069619 -0.20411526
H  0.02667124 -0.03564330 -0.06009049
H  -0.30712389 -1.18951744 0.11490515
H  -0.04770472 0.36586424 0.35864512
H  -0.26249168 0.53784541 -0.29104726
12
MD Step 438.5 Units = [eV / Ang.]
C  -0.47683974 -1.54237296 -0.66666235
C  0.73002110 0.97603003 0.97586475
C  -1.15664434 -0.24652033 -0.42099164
C  1.20013974 0.59734782 -0.20553738
C  -1.11115615 -1.25070672 -0.43939411
C  -0.46739565 1.59700597 0.45852148
H  0.33170275 0.46467707 0.23093482
H  0.63593700 0.34957976 -0.19905825
H  0.14339394 -0.07222109 -0.05578606
H  -0.25964225 -1.05792774 0.17195097
H  0.42933453 -0.33984031 0.48542836
H  0.00114908 0.52494852 -0.33527058
12
MD Step 439.0 Units = [eV / Ang.]
C  -0.63569303 -1.61247306 -0.58945834
C  0.73610096 0.81182042 0.94067842
C  -1.17129996 -0.05374164 -0.41899578
C  1.04420832 0.27074468 -0.30372241
C  -1.37470677 -0.40066684 -0.47161459
C  -0.73300886 1.33232793 0.47304659
H  0.33700238 0.59962676 0.20411907
H  0.64329658 0.45505175 -0.19182114
H  0.24103516 -0.10789724 -0.05208113
H  -0.17677245 -0.85536357 0.21978949
H  0.83995776 -0.94272642 0.56839688
H  0.24987990 0.50329723 -0.37833705
12
MD Step 439.5 Units = [eV / Ang.]
C  -0.76082827 -1.61640716 -0.50196977
C  0.71515575 0.64093263 0.89876585
C  -1.14424833 0.15270475 -0.41180721
C  0.84125297 -0.11465605 -0.38917794
C  -1.52734572 0.34983476 -0.46162125
C  -0.96116955 1.03443867 0.48041236
H  0.31269185 0.68366161 0.17168726
H  0.64810679 0.54828921 -0.18225264
H  0.31046978 -0.14271723 -0.05003324
H  -0.06268772 -0.59162846 0.25541054
H  1.16514206 -1.41639747 0.60712111
H  0.46346038 0.47194475 -0.41653507
12
MD Step 440.0 Units = [eV / Ang.]
C  -0.84866262 -1.55273063 -0.40557223
C  0.66572058 0.47318394 0.85037875
C  -1.07119598 0.36966744 -0.39878406
C  0.59956106 -0.54274330 -0.45982761
C  -1.56672519 0.99100022 -0.41473684
C  -1.13687736 0.70989934 0.47777763
H  0.25863372 0.71270629 0.13488785
H  0.65258442 0.62175291 -0.17032165
H  0.34547409 -0.17676591 -0.05055606
H  0.07516934 -0.28249782 0.27701694
H  1.39955950 -1.75416712 0.60638409
H  0.62675845 0.43069463 -0.44664683
12
MD Step 440.5 Units = [eV / Ang.]
C  -0.89758336 -1.42333659 -0.30195155
C  0.58780740 0.31684243 0.79591315
C  -0.95169351 0.59342511 -0.37972724
C  0.33225234 -0.99007811 -0.51542888
C  -1.49889213 1.52092099 -0.33778224
C  -1.24981617 0.36621092 0.46280274
H  0.17636672 0.68572771 0.09525455
H  0.65818996 0.66969421 -0.15614163
H  0.34359761 -0.21001476 -0.05426655
H  0.22541035 0.04935119 0.28471534
H  1.54478757 -1.95873368 0.57275940
H  0.72957321 0.37999059 -0.46614708
12
MD Step 441.0 Units = [eV / Ang.]
C  -0.90798510 -1.23350235 -0.19300524
C  0.48287139 0.17835342 0.73592296
C  -0.78942864 0.81953797 -0.35498057
C  0.05732951 -1.42629374 -0.55813398
C  -1.33310655 1.93834026 -0.23724759
C  -1.29377394 0.01163249 0.43372480
H  0.06905073 0.60483414 0.05447878
H  0.66563081 0.68843764 -0.13997001
H  0.30647655 -0.24218388 -0.06137417
H  0.37268853 0.37475656 0.28112808
H  1.60418112 -2.03469620 0.51272892
H  0.76606561 0.32078368 -0.47327198
12
MD Step 441.5 Units = [eV / Ang.]
C  -0.88239800 -0.99215591 -0.08073680
C  0.35369388 0.06221157 0.67112179
C  -0.59187826 1.04273518 -0.32544979
C  -0.20359534 -1.81658690 -0.59267876
C  -1.07860027 2.23867738 -0.11869495
C  -1.26613817 -0.34508272 0.38939394
H  -0.05846026 0.47562518 0.01426848
H  0.67489805 0.67651673 -0.12218866
H  0.23952191 -0.27266287 -0.07163693
H  0.49884054 0.66060705 0.27158582
H  1.57986314 -1.98431380 0.43205573
H  0.73425277 0.25442910 -0.46703986
12
MD Step 442.0 Units = [eV / Ang.]
C  -0.82562890 -0.71223213 0.03288426
C  0.20423613 -0.02909258 0.60237052
C  -0.36940288 1.25689443 -0.29252913
C  -0.42808558 -2.12648656 -0.62585249
C  -0.74307491 2.41276621 0.01305646
C  -1.16774246 -0.69496873 0.32933039
H  -0.19950956 0.30765181 -0.02382664
H  0.68530680 0.63472108 -0.10326867
H  0.15105825 -0.30051903 -0.08439396
H  0.58541118 0.87467396 0.26355029
H  1.47159476 -1.80603156 0.33596702
H  0.63583717 0.18262308 -0.44728804
12
MD Step 442.5 Units = [eV / Ang.]
C  -0.74476234 -0.41085398 0.14611087
C  0.03947806 -0.09509415 0.53064819
C  -0.13400304 1.45512024 -0.25795022
C  -0.59675980 -2.32798993 -0.66511293
C  -0.33276402 2.44798250 0.15329862
C  -1.00318964 -1.02910781 0.25383684
H  -0.34564175 0.11470463 -0.05862837
H  0.69552408 0.56608934 -0.08372347
H  0.05114306 -0.32458861 -0.09866091
H  0.61719089 0.99182402 0.26514733
H  1.27731116 -1.49544253 0.22978952
H  0.47647333 0.10735629 -0.41475546
12
MD Step 443.0 Units = [eV / Ang.]
C  -0.64887292 -0.10896731 0.25763635
C  -0.13473588 -0.13734067 0.45700718
C  0.10200677 1.62994007 -0.22358659
C  -0.69721416 -2.40518275 -0.71663565
C  0.14581933 2.33193144 0.29661966
C  -0.78152480 -1.33881465 0.16415904
H  -0.48688373 -0.08544816 -0.08955669
H  0.70358705 0.47583026 -0.06405342
H  -0.04968708 -0.34362649 -0.11326377
H  0.58574887 0.99968445 0.28312218
H  0.99540155 -1.04884727 0.11974994
H  0.26635499 0.03084108 -0.37119824
12
MD Step 443.5 Units = [eV / Ang.]
C  -0.54832065 0.16992619 0.36678057
C  -0.31185323 -0.15928161 0.38251074
C  0.32715682 1.77362192 -0.19125361
C  -0.72662709 -2.35721800 -0.78348988
C  0.68217200 2.05917146 0.43621824
C  -0.51694358 -1.61571176 0.06264106
H  -0.61244101 -0.27223946 -0.11680457
H  0.70693318 0.37111026 -0.04468458
H  -0.14151340 -0.35647205 -0.12697903
H  0.49164138 0.90157537 0.32093889
H  0.62896771 -0.46984906 0.01359855
H  0.02082787 -0.04463327 -0.31947639
12
MD Step 444.0 Units = [eV / Ang.]
C  -0.45361771 0.40209418 0.47355859
C  -0.48477596 -0.16598200 0.30816151
C  0.53167384 1.87858136 -0.16253926
C  -0.69207556 -2.19746429 -0.86468542
C  1.25620026 1.64095629 0.56385450
C  -0.22901932 -1.85170182 -0.04721536
H  -0.71183130 -0.42456138 -0.14137644
H  0.70247272 0.26063315 -0.02590967
H  -0.21585203 -0.36219694 -0.13865960
H  0.34437644 0.71548670 0.37779586
H  0.19191446 0.22109833 -0.07946633
H  -0.23946585 -0.11694359 -0.26351839
12
MD Step 444.5 Units = [eV / Ang.]
C  -0.37399996 0.56673728 0.57855526
C  -0.64608170 -0.16359207 0.23482927
C  0.70799850 1.93786125 -0.13868193
C  -0.60851335 -1.94931058 -0.95545427
C  1.83211808 1.11594651 0.67109507
C  0.05812592 -2.03890265 -0.16090054
H  -0.77631287 -0.52387470 -0.16491552
H  0.68674342 0.15395020 -0.00784299
H  -0.26617541 -0.36021131 -0.14733278
H  0.16016258 0.46955974 0.44892906
H  -0.28461041 0.97628392 -0.15022284
H  -0.48945481 -0.18444756 -0.20805778
12
MD Step 445.0 Units = [eV / Ang.]
C  -0.31602456 0.64932929 0.68258916
C  -0.78834313 -0.15854361 0.16319765
C  0.85100614 1.94563858 -0.12050449
C  -0.49526300 -1.64046283 -1.04853315
C  2.35536714 0.55652381 0.75219271
C  0.31812800 -2.16970607 -0.27333611
H  -0.80028682 -0.55748874 -0.18931144
H  0.65618229 0.06049078 0.00959868
H  -0.28818548 -0.35032059 -0.15226874
H  -0.04161521 0.19592813 0.52696949
H  -0.74901420 1.71489835 -0.19250939
H  -0.70195117 -0.24628711 -0.15808437
12
MD Step 445.5 Units = [eV / Ang.]
C  -0.28258612 0.64420382 0.78624733
C  -0.90456471 -0.15656046 0.09374871
C  0.95801721 1.89771334 -0.10839295
C  -0.37226080 -1.29785388 -1.13582105
C  2.75742363 0.06286680 0.80781439
C  0.52609690 -2.23714619 -0.37957140
H  -0.78227675 -0.52105390 -0.21618248
H  0.60752313 -0.01159119 0.02667244
H  -0.27992516 -0.33273823 -0.15302761
H  -0.24187577 -0.07489273 0.60369536
H  -1.13420196 2.32959769 -0.20712161
H  -0.85136961 -0.30254506 -0.11806114
12
MD Step 446.0 Units = [eV / Ang.]
C  -0.27263395 0.55555031 0.88945075
C  -0.98875653 -0.16164831 0.02678970
C  1.02869003 1.79192598 -0.10231016
C  -0.25704365 -0.94449435 -1.20979577
C  2.97120641 -0.26014901 0.84723656
C  0.66301240 -2.23570614 -0.47559787
H  -0.72517089 -0.41943215 -0.24639374
H  0.53829158 -0.05656908 0.04374304
H  -0.24180102 -0.30805940 -0.14948891
H  -0.42430449 -0.31765385 0.67153528
H  -1.37330788 2.71037484 -0.20408470
H  -0.91818203 -0.35413883 -0.09108418
12
MD Step 446.5 Units = [eV / Ang.]
C  -0.28169216 0.39649761 0.99121197
C  -1.03654458 -0.17531645 -0.03747754
C  1.06486050 1.62846272 -0.10183162
C  -0.16294526 -0.59850227 -1.26436962
C  2.95296770 -0.33776202 0.88632717
C  0.71952294 -2.16248283 -0.55902319
H  -0.63564468 -0.26563813 -0.27978284
H  0.44731630 -0.07203605 0.06118072
H  -0.17655964 -0.27720493 -0.14186987
H  -0.57646240 -0.51374320 0.72446576
H  -1.42196630 2.78014980 -0.20057267
H  -0.89285243 -0.40242425 -0.07825827
12
MD Step 447.0 Units = [eV / Ang.]
C  -0.30296454 0.18664487 1.08966821
C  -1.04573822 -0.19624081 -0.09886334
C  1.07035553 1.41001002 -0.10620096
C  -0.09851671 -0.27370197 -1.29519576
C  2.69944529 -0.15461452 0.94110850
C  0.69786558 -2.01831443 -0.62938000
H  -0.52296186 -0.07824915 -0.31517529
H  0.33515117 -0.05932044 0.07924587
H  -0.08920169 -0.24133658 -0.13072951
H  -0.68978311 -0.65083916 0.75830348
H  -1.27574415 2.52458784 -0.21426144
H  -0.77790727 -0.44862565 -0.07851977
12
MD Step 447.5 Units = [eV / Ang.]
C  -0.32868356 -0.05117794 1.18235814
C  -1.01668715 -0.22050286 -0.15710573
C  1.05077691 1.14173002 -0.11440058
C  -0.06792747 0.01910654 -1.29961967
C  2.24942549 0.23960316 1.02051262
C  0.61121988 -1.80835066 -0.68797045
H  -0.39751485 0.12186654 -0.35065394
H  0.20428657 -0.02328551 0.09799221
H  0.01320219 -0.20174772 -0.11695345
H  -0.75895963 -0.72171460 0.77059973
H  -0.97176737 1.99777849 -0.25577924
H  -0.58737102 -0.49330547 -0.08897964
12
MD Step 448.0 Units = [eV / Ang.]
C  -0.35131415 -0.29398947 1.26662264
C  -0.95234678 -0.24232396 -0.21181676
C  1.01316677 0.83104722 -0.12524877
C  -0.07193239 0.27098009 -1.27648780
C  1.66865487 0.75177245 1.12305117
C  0.48074919 -1.54180513 -0.73731899
H  -0.26949365 0.31455309 -0.38396092
H  0.05908715 0.02842565 0.11721310
H  0.12188799 -0.15973384 -0.10170575
H  -0.78121251 -0.72296628 0.76038709
H  -0.57347126 1.30011761 -0.32508135
H  -0.34377523 -0.53607742 -0.10565366
12
MD Step 448.5 Units = [eV / Ang.]
C  -0.36438382 -0.52096277 1.33999716
C  -0.85802246 -0.25514473 -0.26247664
C  0.96551189 0.48729469 -0.13752060
C  -0.10891633 0.47426632 -1.22596921
C  1.02782209 1.28006702 1.23895220
C  0.33139118 -1.23100708 -0.78044940
H  -0.14792943 0.48249437 -0.41289419
H  -0.09455223 0.08652974 0.13644507
H  0.22701284 -0.11645863 -0.08634101
H  -0.75578989 -0.65418524 0.72797043
H  -0.14829620 0.54274937 -0.41340237
H  -0.07384764 -0.57564306 -0.12431144
12
MD Step 449.0 Units = [eV / Ang.]
C  -0.36287913 -0.71475309 1.40049599
C  -0.74083513 -0.25274556 -0.30846935
C  0.91600459 0.12126450 -0.15009513
C  -0.17558587 0.62282808 -1.14946306
C  0.38546297 1.74251187 1.35526774
C  0.18770307 -0.89009490 -0.82021101
H  -0.04018593 0.61228718 -0.43560465
H  -0.24975425 0.14134392 0.15502174
H  0.31854252 -0.07284082 -0.07227341
H  -0.68388073 -0.51781164 0.67485501
H  0.24966708 -0.18190421 -0.50833798
H  0.19574083 -0.61008532 -0.14118590
12
MD Step 449.5 Units = [eV / Ang.]
C  -0.34328304 -0.86198432 1.44676760
C  -0.60904369 -0.23018802 -0.34914859
C  0.87211102 -0.25528382 -0.16211211
C  -0.26707023 0.71305274 -1.04961378
C  -0.21868012 2.08916283 1.46037801
C  0.07077596 -0.53372533 -0.85881760
H  0.04817854 0.69465814 -0.45076738
H  -0.39929523 0.18389004 0.17216271
H  0.38734243 -0.02948958 -0.06081303
H  -0.56898083 -0.31970819 0.60381549
H  0.58642794 -0.81311827 -0.59845404
H  0.44151724 -0.63726622 -0.15339727
12
MD Step 450.0 Units = [eV / Ang.]
C  -0.30343270 -0.95324097 1.47813135
C  -0.47132055 -0.18443840 -0.38390805
C  0.83956536 -0.63008390 -0.17311974
C  -0.37643923 0.74541446 -0.93038036
C  -0.76167602 2.29967833 1.54609484
C  -0.00339172 -0.17600116 -0.89763841
H  0.11333568 0.72419666 -0.45764677
H  -0.53621701 0.20670446 0.18707222
H  0.42631825 0.01328590 -0.05299418
H  -0.41760717 -0.07028644 0.51902262
H  0.84600661 -1.32004530 -0.67554894
H  0.64485850 -0.65518364 -0.15908458
12
MD Step 450.5 Units = [eV / Ang.]
C  -0.24234151 -0.98288289 1.49454678
C  -0.33609231 -0.11462726 -0.41224476
C  0.82150614 -0.99081539 -0.18317507
C  -0.49396412 0.72618306 -0.79703699
C  -1.23159173 2.37372481 1.60762520
C  -0.02423209 0.17026368 -0.93719444
H  0.15305152 0.69896026 -0.45609736
H  -0.65433131 0.20431106 0.19903151
H  0.43138977 0.05538788 -0.04942912
H  -0.24008820 0.21421969 0.42606925
H  1.02434269 -1.69251153 -0.73476578
H  0.79235115 -0.66221337 -0.15732922
12
MD Step 451.0 Units = [eV / Ang.]
C  -0.16012336 -0.94896400 1.49655338
C  -0.21098933 -0.02203327 -0.43380344
C  0.81796312 -1.32549535 -0.19287023
C  -0.60657364 0.66859288 -0.65591892
C  -1.62176129 2.32069123 1.64250392
C  0.01384759 0.49400291 -0.97727270
H  0.16662507 0.62022177 -0.44653776
H  -0.74859401 0.17341064 0.20747241
H  0.40207627 0.09678146 -0.05022149
H  -0.05098719 0.51098868 0.33169708
H  1.12313408 -1.93096000 -0.77362068
H  0.87538269 -0.65723695 -0.14798158
12
MD Step 451.5 Units = [eV / Ang.]
C  -0.05809535 -0.85333093 1.48520558
C  -0.10238879 0.09012128 -0.44840790
C  0.82585251 -1.62290655 -0.20326155
C  -0.69816422 0.59268548 -0.51375052
C  -1.92681191 2.15190676 1.64941127
C  0.11215968 0.78610344 -1.01707449
H  0.15496205 0.49246383 -0.42991073
H  -0.81536852 0.11288869 0.21203138
H  0.34154964 0.13732952 -0.05496103
H  0.13139705 0.79120229 0.24306081
H  1.14538830 -2.03876592 -0.79086279
H  0.88951955 -0.63969789 -0.13148004
12
MD Step 452.0 Units = [eV / Ang.]
C  0.06095400 -0.70189899 1.46199726
C  -0.01504417 0.21695007 -0.45607950
C  0.83948723 -1.87304474 -0.21571514
C  -0.75124891 0.52308574 -0.37653236
C  -2.14065353 1.87593975 1.62732995
C  0.26826441 1.03952258 -1.05534895
H  0.12078713 0.32358873 -0.40762125
H  -0.85261741 0.02373764 0.21258628
H  0.25614586 0.17665917 -0.06279974
H  0.28689561 1.02272067 0.16652714
H  1.09294450 -2.01762196 -0.78563134
H  0.83408528 -0.60963866 -0.10871236
12
MD Step 452.5 Units = [eV / Ang.]
C  0.19239497 -0.50492002 1.42875190
C  0.04824098 0.35217221 -0.45705117
C  0.85148340 -2.06759118 -0.23169964
C  -0.74996584 0.48461052 -0.24823089
C  -2.25608707 1.49663660 1.57517690
C  0.47608875 1.24935721 -1.09049016
H  0.06891744 0.12516762 -0.38142326
H  -0.86006504 -0.09102876 0.20927928
H  0.15445524 0.21409944 -0.07258911
H  0.39668797 1.17493621 0.10628107
H  0.96567829 -1.86569569 -0.75707270
H  0.71217092 -0.56774417 -0.08093222
12
MD Step 453.0 Units = [eV / Ang.]
C  0.32946730 -0.27696964 1.38744110
C  0.08688746 0.48834729 -0.45177976
C  0.85386273 -2.20039511 -0.25256795
C  -0.68379589 0.49662535 -0.12976395
C  -2.26575717 1.01363124 1.49194383
C  0.72560633 1.41291326 -1.12060881
H  0.00643796 -0.08756810 -0.35321877
H  -0.83934058 -0.22644740 0.20252732
H  0.04620513 0.24870336 -0.08304592
H  0.44716917 1.22486678 0.06325275
H  0.76216375 -1.57832096 -0.70446390
H  0.53109379 -0.51538608 -0.04971592
12
MD Step 453.5 Units = [eV / Ang.]
C  0.46328323 -0.03631663 1.33991280
C  0.10272699 0.61707307 -0.44094956
C  0.83913499 -2.26786214 -0.27937669
C  -0.55070348 0.56799301 -0.01879275
C  -2.16445370 0.42556235 1.37737613
C  1.00227280 1.52973096 -1.14360390
H  -0.05743162 -0.29632948 -0.32475405
H  -0.79407500 -0.37568738 0.19301484
H  -0.05885111 0.27934228 -0.09291215
H  0.43316376 1.16255477 0.03489434
H  0.48182249 -1.15143823 -0.62788194
H  0.30311063 -0.45462257 -0.01692707
12
MD Step 454.0 Units = [eV / Ang.]
C  0.58336090 0.19658190 1.28754871
C  0.10003451 0.72921610 -0.42545913
C  0.80116379 -2.26918847 -0.31277119
C  -0.35840231 0.69463442 0.08947014
C  -1.95291056 -0.26342732 1.23319910
C  1.28659584 1.60149269 -1.15727274
H  -0.11199062 -0.48124121 -0.29724207
H  -0.72988026 -0.53020798 0.18166162
H  -0.15185522 0.30484192 -0.10108260
H  0.35918681 0.99367339 0.01601039
H  0.12871429 -0.58829098 -0.52941263
H  0.04598281 -0.38808446 0.01535038
12
MD Step 454.5 Units = [eV / Ang.]
C  0.67880888 0.40147625 1.23093266
C  0.08529615 0.81522800 -0.40637617
C  0.73576866 -2.20637385 -0.35293832
C  -0.12318834 0.86075555 0.20071717
C  -1.64289569 -1.03385666 1.06467571
C  1.55439395 1.63170378 -1.15948567
H  -0.14632312 -0.62319983 -0.27100380
H  -0.65411946 -0.68007162 0.16955506
H  -0.22551454 0.32412681 -0.10669254
H  0.23819458 0.73822488 0.00034293
H  -0.28323554 0.09067202 -0.41467285
H  -0.21718553 -0.31868533 0.04494583
12
MD Step 455.0 Units = [eV / Ang.]
C  0.74004381 0.56127352 1.16966486
C  0.06662230 0.86564627 -0.38485400
C  0.64101947 -2.08398732 -0.39961930
C  0.13321014 1.04315148 0.31989305
C  -1.26231506 -1.83976484 0.88181930
C  1.77829850 1.62508271 -1.14843678
H  -0.15104632 -0.70677588 -0.24526868
H  -0.57536855 -0.81450531 0.15784136
H  -0.27450834 0.33634698 -0.10916364
H  0.08835877 0.42587130 -0.01773854
H  -0.72490497 0.83681260 -0.29395265
H  -0.45940975 -0.24915152 0.06981503
12
MD Step 455.5 Units = [eV / Ang.]
C  0.76066008 0.66484259 1.10243786
C  0.05278438 0.87181278 -0.36200660
C  0.51729959 -1.90873546 -0.45215447
C  0.38749176 1.21673301 0.45002508
C  -0.85728792 -2.60187228 0.69904816
C  1.93077734 1.58667394 -1.12293502
H  -0.12014792 -0.72294815 -0.21826060
H  -0.50254311 -0.92273440 0.14758106
H  -0.29569708 0.34096972 -0.10822060
H  -0.07082097 0.08979762 -0.04205620
H  -1.14961534 1.56692417 -0.18176764
H  -0.65290081 -0.18146354 0.08830898
12
MD Step 456.0 Units = [eV / Ang.]
C  0.73889892 0.70885708 1.02741822
C  0.05195164 0.82678887 -0.33876378
C  0.36717967 -1.68887701 -0.50954105
C  0.61817237 1.35921665 0.59179944
C  -0.48724144 -3.21335297 0.53214772
C  1.98835310 1.52085921 -1.08266372
H  -0.05236365 -0.67084293 -0.18760707
H  -0.44375336 -0.99505567 0.13958889
H  -0.28819324 0.33783266 -0.10388725
H  -0.22175041 -0.23877668 -0.07421566
H  -1.49780521 2.16975811 -0.09370983
H  -0.77344839 -0.11640732 0.09943410
12
MD Step 456.5 Units = [eV / Ang.]
C  0.67820860 0.69809363 0.94283943
C  0.07033510 0.72634524 -0.31573553
C  0.19519649 -1.43357833 -0.57048705
C  0.80779748 1.45373459 0.74378014
C  -0.21107216 -3.56374161 0.39283071
C  1.93604529 1.43054831 -1.02831557
H  0.04838340 -0.55787975 -0.15097295
H  -0.40507979 -1.02400584 0.13429181
H  -0.25335688 0.32715630 -0.09647138
H  -0.35058039 -0.53406640 -0.11385246
H  -1.71078663 2.53084934 -0.04092558
H  -0.80509051 -0.05345549 0.10301844
12
MD Step 457.0 Units = [eV / Ang.]
C  0.58669460 0.64410908 0.84761299
C  0.11106864 0.56983844 -0.29312287
C  0.00758196 -1.15231203 -0.63345618
C  0.94394633 1.48927485 0.90297011
C  -0.06820496 -3.57561025 0.28355451
C  1.77062958 1.31686942 -0.96154673
H  0.17364315 -0.39827244 -0.10671453
H  -0.38955182 -1.00540594 0.13164454
H  -0.19473374 0.30952000 -0.08654213
H  -0.44765542 -0.77694383 -0.15921269
H  -1.74983217 2.57002786 -0.02490482
H  -0.74358616 0.00890483 0.09971781
12
MD Step 457.5 Units = [eV / Ang.]
C  0.47567274 0.56278581 0.74175616
C  0.17360396 0.36074829 -0.27070666
C  -0.18804195 -0.85435577 -0.69671481
C  1.01927564 1.45964327 1.06544260
C  -0.06412656 -3.23590501 0.19626475
C  1.50156906 1.17952958 -0.88474945
H  0.31196551 -0.21039946 -0.05434309
H  -0.39660054 -0.93904789 0.13113208
H  -0.11790820 0.28580425 -0.07489599
H  -0.50702149 -0.95448766 -0.20776953
H  -1.61097483 2.27319676 -0.03626547
H  -0.59741333 0.07248783 0.09084941
12
MD Step 458.0 Units = [eV / Ang.]
C  0.35781131 0.47151394 0.62652219
C  0.25382454 0.10670470 -0.24792177
C  -0.38300496 -0.54845604 -0.75838504
C  1.03088888 1.36194370 1.22687493
C  -0.16937976 -2.60241518 0.11645594
C  1.14929002 1.01777672 -0.80071673
H  0.45078773 -0.01386057 0.00532199
H  -0.42216295 -0.82883422 0.13186534
H  -0.03023119 0.25710177 -0.06250962
H  -0.52556263 -1.05874071 -0.25670373
H  -1.32636149 1.69862840 -0.05891112
H  -0.38589952 0.13863750 0.07810760
12
MD Step 458.5 Units = [eV / Ang.]
C  0.24540344 0.38675297 0.50424830
C  0.34482621 -0.18103295 -0.22399473
C  -0.56804434 -0.24263311 -0.81652467
C  0.97940131 1.19534098 1.38294235
C  -0.33274987 -1.78104354 0.02993108
C  0.74145654 0.83161218 -0.71229278
H  0.57814564 0.17301451 0.07029655
H  -0.45940448 -0.68233938 0.13274708
H  0.05965403 0.22460811 -0.05046993
H  -0.50220938 -1.08544441 -0.30321395
H  -0.95128505 0.95349500 -0.07692235
H  -0.13519405 0.20766964 0.06325305
12
MD Step 459.0 Units = [eV / Ang.]
C  0.14909338 0.32240102 0.37802758
C  0.43818787 -0.48855948 -0.19811081
C  -0.73390555 0.05589542 -0.86922506
C  0.86805169 0.96055966 1.52958385
C  -0.50036341 -0.88873277 -0.07202969
C  0.30851881 0.62280287 -0.62208631
H  0.68386265 0.33478343 0.13776278
H  -0.49987186 -0.50988044 0.13266665
H  0.14250970 0.18950182 -0.03988392
H  -0.43747600 -1.03326583 -0.34470294
H  -0.54509735 0.15579720 -0.07986168
H  0.12649006 0.27869710 0.04785955
12
MD Step 459.5 Units = [eV / Ang.]
C  0.07719555 0.28901281 0.25133835
C  0.52535571 -0.80055628 -0.16956780
C  -0.87213549 0.34073330 -0.91473330
C  0.70220631 0.66025319 1.66319463
C  -0.63058701 -0.02279276 -0.19134610
C  -0.12021723 0.39541002 -0.53228871
H  0.76013693 0.45960020 0.20445439
H  -0.53476657 -0.32332759 0.13067585
H  0.20942613 0.15283804 -0.03176754
H  -0.33342628 -0.90377937 -0.37891928
H  -0.15614278 -0.59720469 -0.06420609
H  0.37295475 0.34981314 0.03316560
12
MD Step 460.0 Units = [eV / Ang.]
C  0.03546159 0.29368957 0.12771632
C  0.59887064 -1.10153296 -0.13788444
C  -0.97597923 0.60628347 -0.95157478
C  0.48934996 0.30018320 1.78080431
C  -0.69986032 0.75231459 -0.32485150
C  -0.51921271 0.15573172 -0.44459589
H  0.80164658 0.53924466 0.26700276
H  -0.55606466 -0.13489430 0.12611314
H  0.25285438 0.11547554 -0.02693144
H  -0.19404720 -0.70225123 -0.40412527
H  0.18439182 -1.24272033 -0.03170401
H  0.58258915 0.41847607 0.02003080
12
MD Step 460.5 Units = [eV / Ang.]
C  0.02712030 0.34028511 0.01050532
C  0.65320698 -1.37689177 -0.10285767
C  -1.04123667 0.84770411 -0.97866152
C  0.23947802 -0.10901907 1.88029536
C  -0.70081177 1.40261716 -0.46693761
C  -0.86791214 -0.08819281 -0.36021409
H  0.80540149 0.56882805 0.32221013
H  -0.55730099 0.04388744 0.11866382
H  0.26759376 0.07805788 -0.02587955
H  -0.02591077 -0.43907085 -0.41933184
H  0.46102010 -1.75012658 0.01323940
H  0.73935170 0.48192135 0.00896826
12
MD Step 461.0 Units = [eV / Ang.]
C  0.05298781 0.42966181 -0.09733076
C  0.68517359 -1.61371805 -0.06457407
C  -1.06688208 1.06084661 -0.99535892
C  -0.03438324 -0.54999454 1.96066435
C  -0.63673172 1.91476203 -0.61161069
C  -1.15087810 -0.32733237 -0.27991319
H  0.77055156 0.54647945 0.36726673
H  -0.53397781 0.20290790 0.10835996
H  0.25152142 0.04104874 -0.02874548
H  0.16112490 -0.13138317 -0.42458348
H  0.66890260 -2.11076628 0.06561245
H  0.83259105 0.53748786 0.00021311
12
MD Step 461.5 Units = [eV / Ang.]
C  0.11151791 0.55977905 -0.19338485
C  0.69393064 -1.80129599 -0.02339166
C  -1.05526846 1.24216623 -1.00149748
C  -0.31592277 -0.99743752 2.02224722
C  -0.51581093 2.28561860 -0.75351916
C  -1.35739721 -0.55248852 -0.20410020
H  0.69829852 0.47322580 0.39995814
H  -0.48365845 0.33393365 0.09553886
H  0.20590493 0.00480950 -0.03528008
H  0.35355495 0.19583987 -0.42119802
H  0.80852781 -2.32698312 0.12083177
H  0.85632306 0.58283245 -0.00620452
12
MD Step 462.0 Units = [eV / Ang.]
C  0.19875969 0.72554040 -0.27601200
C  0.68072758 -1.93141735 0.02009004
C  -1.01184052 1.38864014 -0.99733030
C  -0.58604762 -1.41853737 2.06675737
C  -0.34674394 2.51470241 -0.88817387
C  -1.48105008 -0.75508693 -0.13289523
H  0.59196119 0.35314271 0.41890429
H  -0.40585990 0.43084312 0.08077845
H  0.13521258 -0.03031110 -0.04489389
H  0.53467424 0.51031951 -0.41179596
H  0.88169543 -2.40389717 0.17497369
H  0.80851134 0.61606163 -0.01040258
12
MD Step 462.5 Units = [eV / Ang.]
C  0.30825468 0.91844822 -0.34458938
C  0.64850783 -1.99858720 0.06506555
C  -0.94439385 1.49769364 -0.98344213
C  -0.82451091 -1.77591040 2.09695710
C  -0.13600940 2.59994972 -1.01172755
C  -1.51958864 -0.92786729 -0.06619448
H  0.45715030 0.19372363 0.42384766
H  -0.30185926 0.48975030 0.06482106
H  0.04647369 -0.06390509 -0.05674531
H  0.68619061 0.77547631 -0.39994573
H  0.88907311 -2.34460811 0.22456928
H  0.69071185 0.63583626 -0.01261609
12
MD Step 463.0 Units = [eV / Ang.]
C  0.43101599 1.12625420 -0.39979645
C  0.60147272 -2.00019697 0.11056094
C  -0.86205370 1.56716130 -0.96063630
C  -1.01265963 -2.03319583 2.11589156
C  0.11336446 2.53636860 -1.12060522
C  -1.47527402 -1.06543768 -0.00372511
H  0.30190899 0.00626533 0.41595644
H  -0.17448944 0.50910079 0.04849493
H  -0.05165605 -0.09547274 -0.06985325
H  0.79099795 0.95609764 -0.38936330
H  0.82913327 -2.14843561 0.26626641
H  0.50823946 0.64149095 -0.01319064
12
MD Step 463.5 Units = [eV / Ang.]
C  0.55578299 1.33291268 -0.44383106
C  0.54466732 -1.93672557 0.15548127
C  -0.77415526 1.59530476 -0.92981880
C  -1.13673804 -2.16218412 2.12585408
C  0.40169479 2.31713599 -1.21119706
C  -1.35561146 -1.16463840 0.05491248
H  0.13661132 -0.19404585 0.39804880
H  -0.02795971 0.48979772 0.03263166
H  -0.14993793 -0.12443584 -0.08321343
H  0.83651481 1.02553466 -0.38284408
H  0.69833701 -1.81183705 0.29657098
H  0.27079415 0.63318103 -0.01259483
12
MD Step 464.0 Units = [eV / Ang.]
C  0.66974612 1.51917510 -0.48042034
C  0.48362399 -1.81192908 0.19867799
C  -0.68926193 1.58089144 -0.89190771
C  -1.19067544 -2.14922034 2.12748190
C  0.73104488 1.93726963 -1.27980233
C  -1.17422738 -1.22464358 0.11020562
H  -0.02659658 -0.38871482 0.37459351
H  0.13231154 0.43535069 0.01797817
H  -0.23950412 -0.15018572 -0.09589800
H  0.81751171 0.97211231 -0.38133175
H  0.49274015 -1.33212859 0.31185928
H  -0.00671295 0.61202296 -0.01143635
12
MD Step 464.5 Units = [eV / Ang.]
C  0.75985074 1.66412321 -0.51447809
C  0.42404828 -1.63297554 0.23903797
C  -0.61441548 1.52332691 -0.84776920
C  -1.17729209 -1.99834711 2.11941613
C  1.10173315 1.40025778 -1.32305095
C  -0.95139680 -1.24671955 0.16268288
H  -0.17494246 -0.55748299 0.35133750
H  0.29988805 0.35199102 0.00510454
H  -0.31261843 -0.17214951 -0.10712933
H  0.73732814 0.80219980 -0.38356547
H  0.21142978 -0.71437080 0.30887664
H  -0.30361288 0.58014678 -0.01046262
12
MD Step 465.0 Units = [eV / Ang.]
C  0.81458663 1.74766719 -0.55133787
C  0.37151083 -1.41037051 0.27559480
C  -0.55469739 1.42284109 -0.79818878
C  -1.10739302 -1.72991840 2.09872609
C  1.50669328 0.72751982 -1.33900909
C  -0.71356469 -1.23361993 0.21284879
H  -0.29668860 -0.68085661 0.33449092
H  0.46758716 0.24862151 -0.00568897
H  -0.36319637 -0.18985503 -0.11632598
H  0.60697471 0.53860841 -0.38649792
H  -0.13795599 0.01880817 0.28590806
H  -0.59385656 0.54055429 -0.01052005
12
MD Step 465.5 Units = [eV / Ang.]
C  0.82590235 1.75361692 -0.59565684
C  0.33114333 -1.15753466 0.30764358
C  -0.51306523 1.28066453 -0.74386447
C  -0.99709268 -1.37535794 2.06189524
C  1.92441578 -0.03150607 -1.32893351
C  -0.49128326 -1.18865667 0.26109221
H  -0.38297342 -0.74321729 0.32957093
H  0.62786217 0.13646870 -0.01444923
H  -0.38711093 -0.20298167 -0.12312448
H  0.44251107 0.21502032 -0.38628664
H  -0.53240686 0.81678033 0.24456781
H  -0.84790233 0.49670351 -0.01245460
12
MD Step 466.0 Units = [eV / Ang.]
C  0.79072001 1.67260456 -0.65026567
C  0.30728302 -0.88991615 0.33483217
C  -0.49038260 1.09918194 -0.68540971
C  -0.86435698 -0.97031980 2.00591611
C  2.31334160 -0.79422599 -1.29904575
C  -0.31533275 -1.11465956 0.30757345
H  -0.42932322 -0.73573746 0.34019100
H  0.77331028 0.02830061 -0.02161016
H  -0.38234530 -0.21139030 -0.12738489
H  0.26174539 -0.13125708 -0.37940451
H  -0.92830292 1.59558156 0.19156092
H  -1.03635652 0.45183767 -0.01695295
12
MD Step 466.5 Units = [eV / Ang.]
C  0.71153907 1.50397573 -0.71534897
C  0.30311767 -0.62360742 0.35719979
C  -0.48558923 0.88201235 -0.62335955
C  -0.72581996 -0.54874787 1.92907160
C  2.61271076 -1.45246713 -1.26095256
C  -0.21157405 -1.01316108 0.35211718
H  -0.43633803 -0.65818668 0.36718767
H  0.89726023 -0.06281461 -0.02797132
H  -0.34904618 -0.21513222 -0.12918445
H  0.08137130 -0.46564818 -0.36344727
H  -1.26274840 2.24554875 0.13904510
H  -1.13488318 0.40822836 -0.02435722
12
MD Step 467.0 Units = [eV / Ang.]
C  0.59589985 1.25605145 -0.78825739
C  0.32034156 -0.37361884 0.37513310
C  -0.49593205 0.63401869 -0.55816928
C  -0.59458559 -0.13930609 1.83122431
C  2.75438461 -1.89718793 -1.22926465
C  -0.19584128 -0.88421694 0.39415524
H  -0.40931477 -0.51900417 0.40839768
H  0.99436024 -0.12509892 -0.03459845
H  -0.28951104 -0.21443862 -0.12880334
H  -0.08479650 -0.76021993 -0.33745821
H  -1.46586489 2.65640719 0.10215715
H  -1.12914013 0.36661411 -0.03451618
12
MD Step 467.5 Units = [eV / Ang.]
C  0.45486643 0.94471717 -0.86402005
C  0.35891240 -0.15209610 0.38924095
C  -0.51722213 0.36123617 -0.49021237
C  -0.47925783 0.23565693 1.71370219
C  2.68446868 -2.05392412 -1.21643532
C  -0.27055459 -0.72707941 0.43276026
H  -0.35695690 -0.33361664 0.45915789
H  1.06105597 -0.14972571 -0.04265096
H  -0.20811676 -0.20969480 -0.12670192
H  -0.22640406 -0.99492493 -0.30184308
H  -1.48269670 2.75335083 0.09374389
H  -1.01809451 0.32610062 -0.04674150
12
MD Step 468.0 Units = [eV / Ang.]
C  0.30102977 0.59086063 -0.93635469
C  0.41696041 0.03312089 0.40016895
C  -0.54411819 0.07072413 -0.41977795
C  -0.38411886 0.55940795 1.57898408
C  2.38508379 -1.91104639 -1.22732536
C  -0.42430270 -0.54154911 0.46678373
H  -0.28962088 -0.12158795 0.51332646
H  1.09586524 -0.13218360 -0.05316532
H  -0.11114661 -0.20140148 -0.12348678
H  -0.33628845 -1.15693073 -0.25806814
H  -1.29489677 2.52598169 0.11882120
H  -0.81444676 0.28460399 -0.05990619
12
MD Step 468.5 Units = [eV / Ang.]
C  0.14660054 0.21746732 -0.99881487
C  0.49089275 0.17923728 0.40840211
C  -0.57045161 -0.22964571 -0.34707832
C  -0.31016420 0.81944530 1.43037518
C  1.88321031 -1.52314855 -1.25707172
C  -0.63448914 -0.32941441 0.49506651
H  -0.21763107 0.09649856 0.56446142
H  1.09939158 -0.07298372 -0.06684621
H  -0.00646768 -0.19012586 -0.11986173
H  -0.40981132 -1.23908041 -0.20832561
H  -0.92910300 2.03208682 0.17235605
H  -0.54197716 0.23966338 -0.07266281
12
MD Step 469.0 Units = [eV / Ang.]
C  0.00201904 -0.15289984 -1.04574245
C  0.57567842 0.28837726 0.41410977
C  -0.58963288 -0.53147060 -0.27227331
C  -0.25654538 1.00630372 1.27175023
C  1.24083391 -0.98729784 -1.29374109
C  -0.87200980 -0.09535475 0.51665163
H  -0.15004484 0.30162451 0.60681669
H  1.07409364 0.02246427 -0.08391508
H  0.09699584 -0.17644727 -0.11655997
H  -0.44418872 -1.23836932 -0.15526485
H  -0.44639603 1.37378116 0.24187692
H  -0.23080318 0.18928870 -0.08370850
12
MD Step 469.5 Units = [eV / Ang.]
C  -0.12476108 -0.49984210 -1.07284863
C  0.66526656 0.36663910 0.41706895
C  -0.59518939 -0.82611676 -0.19551602
C  -0.22187499 1.11303490 1.10735365
C  0.53319237 -0.40748695 -1.32373566
C  -1.10635641 0.15298888 0.53093214
H  -0.09400416 0.47796567 0.63596823
H  1.02387053 0.14477171 -0.10405562
H  0.19001451 -0.16090430 -0.11425884
H  -0.43807642 -1.15498901 -0.10180335
H  0.08011100 0.66140038 0.31290437
H  0.08780748 0.13253849 -0.09200920
12
MD Step 470.0 Units = [eV / Ang.]
C  -0.22839853 -0.80607229 -1.07741980
C  0.75306082 0.42262056 0.41668295
C  -0.58142064 -1.10500451 -0.11702477
C  -0.20495254 1.13552754 0.94159822
C  -0.17193209 0.13341520 -1.33647691
C  -1.30975793 0.40567453 0.53769781
H  -0.05459006 0.61356062 0.64905805
H  0.95356161 0.28201339 -0.12645936
H  0.26398433 -0.14395405 -0.11348433
H  -0.39154857 -0.99218171 -0.05096943
H  0.58639288 -0.01529676 0.37372657
H  0.38560070 0.06969749 -0.09692900
12
MD Step 470.5 Units = [eV / Ang.]
C  -0.30588843 -1.05779184 -1.05825502
C  0.83236547 0.46578288 0.41207236
C  -0.54411154 -1.35984583 -0.03716010
C  -0.20466942 1.07358998 0.77878982
C  -0.82514710 0.58479486 -1.32635936
C  -1.45967684 0.65151737 0.53708818
H  -0.03498770 0.70029541 0.64476017
H  0.86845350 0.42133299 -0.14995051
H  0.31192619 -0.12595117 -0.11452286
H  -0.30651418 -0.75690860 -0.00569561
H  1.02851316 -0.59893149 0.41748912
H  0.63973690 0.00211543 -0.09825616
12
MD Step 471.0 Units = [eV / Ang.]
C  -0.35612569 -1.24479651 -1.01547816
C  0.89676358 0.50499344 0.40221061
C  -0.48117556 -1.58281401 0.04350163
C  -0.21913265 0.93250954 0.62272922
C  -1.39613721 0.92505299 -1.29224594
C  -1.53969495 0.87920638 0.52949661
H  -0.03675856 0.73357442 0.62310952
H  0.77385988 0.55038212 -0.17315016
H  0.32937990 -0.10715272 -0.11735980
H  -0.18750943 -0.46110833 0.03151915
H  1.38304322 -1.06171697 0.44182340
H  0.83348748 -0.06813034 -0.09615610
12
MD Step 471.5 Units = [eV / Ang.]
C  -0.37948988 -1.36057953 -0.95033437
C  0.94041006 0.54745730 0.38606656
C  -0.39306705 -1.76666915 0.12412855
C  -0.24430607 0.72461501 0.47615420
C  -1.86858261 1.15174938 -1.23584582
C  -1.53930253 1.07824870 0.51546557
H  -0.06006509 0.71200368 0.58530530
H  0.67480463 0.65838963 -0.19464183
H  0.31500781 -0.08774622 -0.12166425
H  -0.04266150 -0.12306639 0.05912734
H  1.64146061 -1.39581018 0.44733003
H  0.95579162 -0.13859223 -0.09109127
12
MD Step 472.0 Units = [eV / Ang.]
C  -0.37756555 -1.40258988 -0.86503259
C  0.95824438 0.59810586 0.36273262
C  -0.28284518 -1.90487832 0.20363709
C  -0.27271039 0.47012530 0.34007565
C  -2.23392934 1.27148622 -1.16012999
C  -1.45320772 1.23966953 0.49560895
H  -0.10376028 0.63728853 0.53354628
H  0.57580778 0.73680895 -0.21311083
H  0.27077164 -0.06789210 -0.12682751
H  0.11557206 0.23186711 0.07718545
H  1.80326360 -1.60324940 0.43605595
H  1.00035898 -0.20674180 -0.08374107
12
MD Step 472.5 Units = [eV / Ang.]
C  -0.35305524 -1.37266588 -0.76263417
C  0.94614963 0.65936299 0.33152974
C  -0.15583647 -1.99176693 0.28074623
C  -0.29288261 0.19641867 0.21317483
C  -2.48655712 1.29246151 -1.06828561
C  -1.28070527 1.35645716 0.47056980
H  -0.16532257 0.51440900 0.47089796
H  0.48074590 0.77962271 -0.22744980
H  0.20163939 -0.04776576 -0.13204934
H  0.27045818 0.57214026 0.08795740
H  1.87046359 -1.68850005 0.41047837
H  0.96490258 -0.27017367 -0.07493541
12
MD Step 473.0 Units = [eV / Ang.]
C  -0.30986321 -1.27754772 -0.64694073
C  0.90109224 0.73118973 0.29208949
C  -0.01896935 -2.02273767 0.35407466
C  -0.29023823 -0.06494433 0.09157427
C  -2.62103799 1.22008592 -0.96325800
C  -1.02543325 1.42385128 0.44100627
H  -0.24067860 0.35198245 0.40114401
H  0.39275386 0.78342043 -0.23683139
H  0.11489764 -0.02758796 -0.13645494
H  0.40238638 0.86315467 0.09614255
H  1.84422560 -1.65410936 0.37305190
H  0.85086491 -0.32675745 -0.06559810
12
MD Step 473.5 Units = [eV / Ang.]
C  -0.25326161 -1.12921804 -0.52230951
C  0.82126528 0.81127822 0.24442065
C  0.12009427 -1.99456173 0.42226159
C  -0.24959815 -0.28339535 -0.03068280
C  -2.63132895 1.05518467 -0.84774323
C  -0.69565381 1.43955226 0.40758606
H  -0.32401923 0.16257286 0.32854960
H  0.31413489 0.74737338 -0.24075767
H  0.01921584 -0.00763351 -0.13921760
H  0.49180609 1.07267791 0.10838037
H  1.72357148 -1.49904395 0.32619538
H  0.66377391 -0.37478672 -0.05668285
12
MD Step 474.0 Units = [eV / Ang.]
C  -0.18999437 -0.94474565 -0.39332378
C  0.70626707 0.89529538 0.18896331
C  0.25385026 -1.90570434 0.48409114
C  -0.15891438 -0.43554089 -0.16031027
C  -2.51170660 0.79446384 -0.72449236
C  -0.30496078 1.40391105 0.37096377
H  -0.40776454 -0.03739600 0.25747418
H  0.24624940 0.67319309 -0.23909537
H  -0.07634330 0.01177970 -0.13966414
H  0.52319095 1.17729287 0.13189961
H  1.50599727 -1.21939009 0.27257371
H  0.41412902 -0.41315898 -0.04907980
12
MD Step 474.5 Units = [eV / Ang.]
C  -0.12811374 -0.74527240 -0.26429551
C  0.55729602 0.97715853 0.12662707
C  0.37571544 -1.75663474 0.53859939
C  -0.01297812 -0.51025666 -0.30289144
C  -2.25950142 0.43344619 -0.59678653
C  0.12688253 1.32009671 0.33171433
H  -0.48285951 -0.22850488 0.19181877
H  0.18938310 0.56508132 -0.23209851
H  -0.16321001 0.03031769 -0.13734831
H  0.48879347 1.16772995 0.17260119
H  1.19010183 -0.81157822 0.21553230
H  0.11849041 -0.44158349 -0.04347275
12
MD Step 475.0 Units = [eV / Ang.]
C  -0.07638041 -0.55393006 -0.13866764
C  0.37734255 1.04935887 0.05879829
C  0.48057437 -1.55004842 0.58514837
C  0.18434484 -0.51062248 -0.46109495
C  -1.87978974 -0.02754193 -0.46890248
C  0.57355544 1.19415903 0.29022384
H  -0.53954598 -0.39022734 0.13438653
H  0.14261209 0.42963000 -0.22041303
H  -0.23400202 0.04766251 -0.13208589
H  0.39071618 1.05093776 0.23326943
H  0.78042076 -0.27862004 0.15948399
H  -0.19984807 -0.46075790 -0.04014645
12
MD Step 475.5 Units = [eV / Ang.]
C  -0.04319534 -0.39280543 -0.01847271
C  0.17131886 1.10339518 -0.01269358
C  0.56506373 -1.29092389 0.62346055
C  0.42029551 -0.45191987 -0.63372566
C  -1.39171881 -0.57417533 -0.34621527
C  1.00295892 1.03481276 0.24654922
H  -0.56861509 -0.50374249 0.08632816
H  0.10371405 0.27558448 -0.20505153
H  -0.28299144 0.06354139 -0.12395515
H  0.24041896 0.84802252 0.31265515
H  0.29411658 0.36061277 0.10990202
H  -0.51136595 -0.47240208 -0.03878121
12
MD Step 476.0 Units = [eV / Ang.]
C  -0.03519799 -0.27950157 0.09593692
C  -0.05396805 1.13040311 -0.08567845
C  0.62763216 -0.98639076 0.65361283
C  0.67566311 -0.35663878 -0.81595598
C  -0.83458964 -1.16747472 -0.23446783
C  1.37980629 0.85277744 0.20032019
H  -0.56295266 -0.55514851 0.04689409
H  0.06920259 0.11335823 -0.18732372
H  -0.30638194 0.07774552 -0.11326723
H  0.05589972 0.58896332 0.40578665
H  -0.23240179 1.06093574 0.07245034
H  -0.78271180 -0.47902900 -0.03830781
12
MD Step 476.5 Units = [eV / Ang.]
C  -0.05589574 -0.22418927 0.20573048
C  -0.29008156 1.12202304 -0.15781543
C  0.66841688 -0.64541079 0.67599739
C  0.92841701 -0.24864649 -1.00051764
C  -0.26958129 -1.73683146 -0.13785162
C  1.67015544 0.65955734 0.15075910
H  -0.51898749 -0.53818213 0.01365013
H  0.03455820 -0.04575915 -0.16871229
H  -0.30243787 0.09013698 -0.10051539
H  -0.14224535 0.30624604 0.50526760
H  -0.74114222 1.74445475 0.05093894
H  -0.98117603 -0.48339887 -0.03693127
12
MD Step 477.0 Units = [eV / Ang.]
C  -0.10477567 -0.22805163 0.31301319
C  -0.52751634 1.07148348 -0.22682462
C  0.68901802 -0.27830852 0.69125470
C  1.15722082 -0.14858987 -1.17925918
C  0.22796779 -2.18464628 -0.05632073
C  1.84714431 0.46580261 0.09689216
H  -0.43758646 -0.45554467 -0.01685263
H  -0.00528704 -0.19069534 -0.15070026
H  -0.27152114 0.10064220 -0.08630882
H  -0.33444438 0.02954967 0.60293706
H  -1.15969248 2.30611613 0.04456750
H  -1.08052744 -0.48775778 -0.03239837
12
MD Step 477.5 Units = [eV / Ang.]
C  -0.17721556 -0.28358896 0.42000009
C  -0.75653086 0.97476622 -0.29074727
C  0.69222074 0.10376010 0.70018728
C  1.34394559 -0.07159279 -1.34448646
C  0.58749387 -2.40822447 0.01625698
C  1.89633305 0.27964152 0.03792633
H  -0.32408169 -0.31835612 -0.04815439
H  -0.05523427 -0.31184836 -0.13457252
H  -0.21605467 0.10923513 -0.07129567
H  -0.50449772 -0.21733249 0.69127407
H  -1.41980598 2.63665945 0.04610743
H  -1.06657250 -0.49311924 -0.02249589
12
MD Step 478.0 Units = [eV / Ang.]
C  -0.26526027 -0.37662169 0.52823106
C  -0.96812746 0.83161894 -0.34818215
C  0.68173388 0.48934184 0.70366147
C  1.47499515 -0.02713560 -1.48979007
C  0.76706864 -2.33447430 0.09102789
C  1.81878757 0.10557663 -0.02631831
H  -0.18740960 -0.14392800 -0.08301516
H  -0.11916990 -0.40227442 -0.12123234
H  -0.14041977 0.11591423 -0.05607951
H  -0.64045748 -0.41732174 0.76423040
H  -1.48127807 2.65820605 0.04310970
H  -0.94046268 -0.49890193 -0.00564297
12
MD Step 478.5 Units = [eV / Ang.]
C  -0.35898862 -0.48926245 0.63807615
C  -1.15498728 0.64616844 -0.39844796
C  0.66194072 0.86713618 0.70250368
C  1.54165267 -0.02029481 -1.61035922
C  0.76901933 -1.95049327 0.17966773
C  1.63075735 -0.05557236 -0.09510350
H  -0.03864808 0.04738694 -0.12285439
H  -0.19917213 -0.45853548 -0.11107830
H  -0.05074657 0.12067817 -0.04113476
H  -0.73440206 -0.55933940 0.81749884
H  -1.34798806 2.35522988 0.02259327
H  -0.71843726 -0.50310184 0.01863844
12
MD Step 479.0 Units = [eV / Ang.]
C  -0.44804591 -0.60293042 0.74861800
C  -1.31213607 0.42691567 -0.44163076
C  0.63765903 1.22634974 0.69740210
C  1.53978249 -0.05335721 -1.70296712
C  0.63689073 -1.31100272 0.28888832
C  1.36010403 -0.20561740 -0.16672628
H  0.11058859 0.23530228 -0.16760180
H  -0.29497435 -0.48099769 -0.10397349
H  0.04543750 0.12350528 -0.02672857
H  -0.78168742 -0.63695645 0.84842516
H  -1.06552340 1.78171492 -0.02325863
H  -0.42809519 -0.50292599 0.04955308
12
MD Step 479.5 Units = [eV / Ang.]
C  -0.52292747 -0.70073771 0.85785404
C  -1.43720070 0.18607929 -0.47850848
C  0.61385353 1.55695308 0.68882671
C  1.46920391 -0.12707550 -1.76582518
C  0.43561007 -0.51759486 0.41755494
C  1.04084183 -0.34727926 -0.23874567
H  0.24949786 0.40194886 -0.21589804
H  -0.40383616 -0.47351529 -0.09931620
H  0.13974229 0.12434509 -0.01286336
H  -0.78018262 -0.64713145 0.85579951
H  -0.70194614 1.03961529 -0.09408301
H  -0.10265640 -0.49560754 0.08520475
12
MD Step 480.0 Units = [eV / Ang.]
C  -0.57580074 -0.76890073 0.96305976
C  -1.53023091 -0.06162667 -0.51037313
C  0.59526937 1.84989508 0.67698353
C  1.33303907 -0.24114911 -1.79847140
C  0.22743656 0.31655944 0.55794268
C  0.70762052 -0.48250986 -0.30836974
H  0.36895228 0.53316380 -0.26548470
H  -0.52085509 -0.44260190 -0.09618717
H  0.22363346 0.12312362 0.00074671
H  -0.72982153 -0.58949116 0.83971202
H  -0.32403081 0.24262077 -0.18256546
H  0.22478782 -0.47908328 0.12300689
12
MD Step 480.5 Units = [eV / Ang.]
C  -0.60083717 -0.79729247 1.06117611
C  -1.59317773 -0.30048855 -0.53880123
C  0.58594484 2.09728119 0.66181816
C  1.13733507 -0.39382874 -1.80177218
C  0.05604106 1.09663263 0.69950970
C  0.39152206 -0.61140007 -0.37284754
H  0.46187460 0.61884739 -0.31363066
H  -0.63962504 -0.39632115 -0.09353193
H  0.28929339 0.11976715 0.01465092
H  -0.63262067 -0.46635507 0.80155821
H  0.01876075 -0.51449486 -0.27828436
H  0.52548885 -0.45234746 0.16015478
12
MD Step 481.0 Units = [eV / Ang.]
C  -0.59422443 -0.77940691 1.14913028
C  -1.62920953 -0.51532387 -0.56541612
C  0.58870213 2.29256815 0.64307127
C  0.89106682 -0.58073536 -1.77804850
C  -0.05730677 1.75958018 0.83245752
C  0.11775636 -0.73187699 -0.42974350
H  0.52326744 0.65273196 -0.35749766
H  -0.75306348 -0.34315476 -0.09033330
H  0.33050399 0.11423917 0.02958311
H  -0.49315456 -0.28351045 0.74418785
H  0.29853837 -1.16963484 -0.37139932
H  0.77712366 -0.41547626 0.19400838
12
MD Step 481.5 Units = [eV / Ang.]
C  -0.55403604 -0.71208645 1.22407147
C  -1.64203486 -0.69276216 -0.59168299
C  0.60467947 2.43071696 0.62038406
C  0.60649703 -0.79316220 -1.73125212
C  -0.10904045 2.27250368 0.94953121
C  -0.09496397 -0.84007813 -0.47705946
H  0.55009275 0.63194960 -0.39441874
H  -0.85421956 -0.29105670 -0.08574300
H  0.34341751 0.10658431 0.04633545
H  -0.31933500 -0.05154679 0.67209646
H  0.50489891 -1.69162535 -0.45458213
H  0.96404421 -0.36943676 0.22231980
12
MD Step 482.0 Units = [eV / Ang.]
C  -0.48016089 -0.59528720 1.28355086
C  -1.63536434 -0.82218362 -0.61875811
C  0.63307272 2.50833325 0.59343364
C  0.29958181 -1.01636633 -1.66700990
C  -0.10569006 2.62350255 1.04612121
C  -0.23399363 -0.93114279 -0.51323604
H  0.54118020 0.55670048 -0.42211381
H  -0.93692422 -0.24679935 -0.07915758
H  0.32704755 0.09696611 0.06560555
H  -0.12315246 0.21271043 0.59145855
H  0.63796754 -2.07061165 -0.52321170
H  1.07643578 -0.31582187 0.24331730
12
MD Step 482.5 Units = [eV / Ang.]
C  -0.37438060 -0.43205569 1.32569186
C  -1.61255527 -0.89626889 -0.64739513
C  0.67116583 2.52372588 0.56207136
C  -0.01006275 -1.22856926 -1.59229610
C  -0.05719039 2.81172118 1.11947672
C  -0.29196187 -1.00013014 -0.53710284
H  0.49728063 0.43019148 -0.43888649
H  -0.99623215 -0.21560524 -0.07024498
H  0.28338508 0.08568504 0.08784782
H  0.07912286 0.48540785 0.50975360
H  0.70225684 -2.30749141 -0.57462174
H  1.10917179 -0.25661079 0.25570591
12
MD Step 483.0 Units = [eV / Ang.]
C  -0.24065035 -0.22872816 1.34938339
C  -1.57639272 -0.91122116 -0.67789986
C  0.71466514 2.47690546 0.52643524
C  -0.30019830 -1.40163021 -1.51452023
C  0.02755592 2.83985793 1.16774963
C  -0.26612725 -1.04285688 -0.54783673
H  0.42129323 0.25885881 -0.44383537
H  -1.02867345 -0.20099719 -0.05893571
H  0.21710799 0.07316832 0.11316156
H  0.26785511 0.73647518 0.43478082
H  0.70262527 -2.40583825 -0.60713291
H  1.06093938 -0.19399386 0.25865019
12
MD Step 483.5 Units = [eV / Ang.]
C  -0.08549237 0.00473388 1.35450657
C  -1.52896809 -0.86674838 -0.71012753
C  0.75828240 2.36950988 0.48701054
C  -0.54838004 -1.50410167 -1.44003549
C  0.14297411 2.70975481 1.18926074
C  -0.15820249 -1.05652432 -0.54497467
H  0.31860591 0.05275532 -0.43708682
H  -1.03237281 -0.20477204 -0.04539437
H  0.13495477 0.05993179 0.14123695
H  0.42242093 0.93279296 0.37309163
H  0.64221047 -2.36708146 -0.61927792
H  0.93396720 -0.13025078 0.25179037
12
MD Step 484.0 Units = [eV / Ang.]
C  0.08166474 0.25453079 1.34214478
C  -1.47156092 -0.76588934 -0.74350965
C  0.79640919 2.20466281 0.44463295
C  -0.73552993 -1.50667286 -1.37244932
C  0.28745279 2.42069446 1.18212343
C  0.02526321 -1.04011099 -0.52850024
H  0.19737849 -0.17416471 -0.42000339
H  -1.00710330 -0.22701096 -0.02998430
H  0.04490322 0.04652175 0.17136792
H  0.52483864 1.04372449 0.32823990
H  0.52184980 -2.18865118 -0.60938296
H  0.73443408 -0.06763427 0.23532088
12
MD Step 484.5 Units = [eV / Ang.]
C  0.24846151 0.50325705 1.31469706
C  -1.40450942 -0.61475090 -0.77710921
C  0.82376423 1.98681581 0.40043039
C  -0.84975058 -1.38879401 -1.31141980
C  0.46269290 1.97016012 1.14429450
C  0.27207089 -0.99454303 -0.49899284
H  0.06852147 -0.40422179 -0.39528023
H  -0.95431383 -0.26608085 -0.01323256
H  -0.04470593 0.03344970 0.20252328
H  0.56368141 1.04777742 0.29956221
H  0.34067420 -1.86486178 -0.57559349
H  0.47341314 -0.00820773 0.21012067
12
MD Step 485.0 Units = [eV / Ang.]
C  0.40018781 0.73092533 1.27576337
C  -1.32706346 -0.42218010 -0.80969787
C  0.83586830 1.72158220 0.35572976
C  -0.88895369 -1.14423949 -1.25263052
C  0.67177526 1.35738625 1.07415367
C  0.56347078 -0.92268740 -0.45779481
H  -0.05489959 -0.61701270 -0.36680746
H  -0.87713048 -0.31862272 0.00420526
H  -0.12595132 0.02113559 0.23345769
H  0.53683535 0.93812986 0.28217190
H  0.09789702 -1.39082164 -0.51644860
H  0.16796402 0.04640482 0.17789762
12
MD Step 485.5 Units = [eV / Ang.]
C  0.52115404 0.91696402 1.22972387
C  -1.23729021 -0.19937326 -0.83985527
C  0.82930759 1.41560668 0.31193945
C  -0.86115506 -0.78336727 -1.18912026
C  0.91576241 0.59033671 0.97172817
C  0.87378586 -0.82917784 -0.40711705
H  -0.15900050 -0.79143724 -0.33921034
H  -0.78029476 -0.37956847 0.02158081
H  -0.19194919 0.00986956 0.26283915
H  0.45192109 0.72474468 0.26834776
H  -0.20397803 -0.76994501 -0.43211633
H  -0.15826325 0.09534743 0.14126003
12
MD Step 486.0 Units = [eV / Ang.]
C  0.59678203 1.04304110 1.18100317
C  -1.13210785 0.04062895 -0.86608305
C  0.80180545 1.07644616 0.27043169
C  -0.78223171 -0.33109676 -1.11348578
C  1.18878306 -0.30384900 0.84052704
C  1.17131076 -0.72007152 -0.34998013
H  -0.23107758 -0.90860298 -0.31707099
H  -0.66996961 -0.44226237 0.03809505
H  -0.23728747 -0.00020392 0.28937716
H  0.32416922 0.43209929 0.24980183
H  -0.55448511 -0.02498460 -0.32623289
H  -0.47569119 0.13885565 0.10361688
12
MD Step 486.5 Units = [eV / Ang.]
C  0.61602218 1.09614396 1.13317747
C  -1.00756877 0.28361947 -0.88692991
C  0.75216175 0.71245996 0.23243415
C  -0.67202806 0.17844719 -1.02003553
C  1.47244859 -1.26733240 0.68947082
C  1.42111118 -0.60231832 -0.28991345
H  -0.26186187 -0.95501421 -0.30398920
H  -0.55333693 -0.49878943 0.05294876
H  -0.25829241 -0.00907772 0.31193760
H  0.17266892 0.09349984 0.21988851
H  -0.92993001 0.78994484 -0.20781144
H  -0.75139458 0.17841682 0.06882222
12
MD Step 487.0 Units = [eV / Ang.]
C  0.57343277 1.07106609 1.08819524
C  -0.85942873 0.51512293 -0.90111651
C  0.68014487 0.33267009 0.19893668
C  -0.55023205 0.70838917 -0.90612021
C  1.73208582 -2.20538102 0.53365837
C  1.58978719 -0.48303595 -0.23041504
H  -0.24738591 -0.92515848 -0.30176059
H  -0.43795723 -0.54057650 0.06540109
H  -0.25317669 -0.01685732 0.32964156
H  0.01646317 -0.25572627 0.17496593
H  -1.29005003 1.58289853 -0.09195297
H  -0.95368317 0.21658872 0.04056646
12
MD Step 487.5 Units = [eV / Ang.]
C  0.47025388 0.97148044 1.04599488
C  -0.68398870 0.72152581 -0.90764805
C  0.58640554 -0.05343324 0.17061404
C  -0.43318928 1.22440747 -0.77238343
C  1.91870284 -2.99471811 0.39233771
C  1.65133120 -0.36867568 -0.17429211
H  -0.18982656 -0.82262828 -0.30996329
H  -0.33091900 -0.55929180 0.07483117
H  -0.22210810 -0.02372335 0.34194381
H  -0.12828406 -0.58383997 0.11465687
H  -1.58052690 2.23250421 0.00226586
H  -1.05785083 0.25639250 0.02164255
12
MD Step 488.0 Units = [eV / Ang.]
C  0.31413974 0.80923290 1.00466647
C  -0.47908982 0.89133131 -0.90589877
C  0.47245960 -0.43612690 0.14776342
C  -0.33217007 1.69768450 -0.62218673
C  1.97969170 -3.51183551 0.28344807
C  1.59237848 -0.26427396 -0.12310739
H  -0.09701920 -0.65938425 -0.32610614
H  -0.23790872 -0.54795489 0.08079375
H  -0.16722563 -0.02989044 0.34869269
H  -0.24957284 -0.86584628 0.04127827
H  -1.74427676 2.61666500 0.05733198
H  -1.05140648 0.30039851 0.01332437
12
MD Step 488.5 Units = [eV / Ang.]
C  0.11769852 0.60212412 0.96107888
C  -0.24503158 1.01635461 -0.89565650
C  0.34072187 -0.80573409 0.13026258
C  -0.25304336 2.10556680 -0.46068221
C  1.87646324 -3.67396765 0.21668955
C  1.41498766 -0.17301525 -0.07694335
H  0.01917071 -0.45342646 -0.34626762
H  -0.16240465 -0.50206421 0.08305877
H  -0.09258930 -0.03556779 0.35016470
H  -0.33953020 -1.08420300 -0.04107613
H  -1.73954028 2.65410895 0.06427326
H  -0.93690264 0.34982398 0.01509806
12
MD Step 489.0 Units = [eV / Ang.]
C  -0.10363321 0.37091215 0.91172706
C  0.01482336 1.09260741 -0.87712212
C  0.19460208 -1.15293806 0.11755325
C  -0.19706586 2.43080454 -0.29393146
C  1.60082195 -3.47160442 0.18928056
C  1.13589536 -0.09623715 -0.03458291
H  0.14505339 -0.22564980 -0.36598094
H  -0.10519851 -0.42049614 0.08162787
H  -0.00405005 -0.04092623 0.34707002
H  -0.39361644 -1.22789488 -0.12739428
H  -1.55639056 2.33740575 0.02689398
H  -0.73124150 0.40401684 0.02485896
12
MD Step 489.5 Units = [eV / Ang.]
C  -0.33369291 0.13642513 0.85349882
C  0.29393442 1.12064076 -0.85086112
C  0.03856301 -1.46911780 0.10866586
C  -0.16241690 2.66037372 -0.12826979
C  1.18018169 -2.97168205 0.18752402
C  0.78261641 -0.03380350 0.00599477
H  0.26721830 0.00317869 -0.38106800
H  -0.06439356 -0.30592318 0.07672364
H  0.09102992 -0.04607498 0.34051475
H  -0.40963798 -1.29087373 -0.21235203
H  -1.22164262 1.73632416 -0.03985790
H  -0.46175978 0.46053277 0.03948697
12
MD Step 490.0 Units = [eV / Ang.]
C  -0.55721830 -0.08259809 0.78417172
C  0.58301179 1.10524027 -0.81771780
C  -0.12192044 -1.74667866 0.10229908
C  -0.14597673 2.78463723 0.03007502
C  0.66812255 -2.28913685 0.19318910
C  0.38791245 0.01533617 0.04701957
H  0.37406070 0.21465831 -0.38822096
H  -0.03588010 -0.16463082 0.06875568
H  0.18424070 -0.05105157 0.33191020
H  -0.38695001 -1.27065905 -0.29066450
H  -0.78878613 0.96915076 -0.11638425
H  -0.16061648 0.51573230 0.05556714
12
MD Step 490.5 Units = [eV / Ang.]
C  -0.76082091 -0.27069698 0.70258910
C  0.87088123 1.05452281 -0.77870498
C  -0.28059066 -1.97934017 0.09696187
C  -0.14478334 2.79722042 0.17521285
C  0.12643875 -1.54534315 0.19046895
C  -0.01554239 0.05260741 0.09044830
H  0.45656520 0.39395445 -0.38526827
H  -0.01415859 -0.00576136 0.05826992
H  0.26680088 -0.05582591 0.32282390
H  -0.32604551 -1.16757442 -0.35729259
H  -0.31936228 0.16063104 -0.18552040
H  0.14061762 0.56560588 0.07001132
12
MD Step 491.0 Units = [eV / Ang.]
C  -0.93340182 -0.41605487 0.60859184
C  1.14556789 0.97864723 -0.73488529
C  -0.43085600 -2.16233911 0.09117714
C  -0.15676355 2.69568271 0.30181630
C  -0.39103872 -0.83617245 0.16986664
C  -0.39899383 0.07940815 0.13770483
H  0.50846473 0.53010570 -0.37118364
H  0.00670770 0.15982532 0.04589145
H  0.33041337 -0.06031851 0.31477835
H  -0.22859363 -0.98482230 -0.40766029
H  0.13371594 -0.59047021 -0.23652873
H  0.41477794 0.60650833 0.08043140
12
MD Step 491.5 Units = [eV / Ang.]
C  -1.06625402 -0.51035190 0.50282686
C  1.39538598 0.88840925 -0.68726464
C  -0.56644645 -2.29248919 0.08371825
C  -0.18055570 2.48284431 0.40547971
C  -0.84643607 -0.22014028 0.12836599
C  -0.73953173 0.09686373 0.18963126
H  0.52602857 0.61578354 -0.34594706
H  0.03222742 0.32080842 0.03227027
H  0.36820958 -0.06442822 0.30902602
H  -0.09790291 -0.72938480 -0.43802908
H  0.53437726 -1.22352778 -0.26533080
H  0.64089807 0.63561291 0.08525323
12
MD Step 492.0 Units = [eV / Ang.]
C  -1.15306063 -0.54846193 0.38653694
C  1.60983820 0.79398338 -0.63670506
C  -0.68213440 -2.36812996 0.07383376
C  -0.21454485 2.16851368 0.48331184
C  -1.21774033 0.27704749 0.06747121
C  -1.02042209 0.10570018 0.24656913
H  0.50774167 0.64688093 -0.31036002
H  0.06684798 0.46653650 0.01803590
H  0.37562248 -0.06806166 0.30634240
H  0.06029296 -0.41353152 -0.44613033
H  0.86322900 -1.71154140 -0.27254951
H  0.80433002 0.65106431 0.08364373
12
MD Step 492.5 Units = [eV / Ang.]
C  -1.18996702 -0.52828582 0.26140409
C  1.78026187 0.70397083 -0.58387464
C  -0.77438439 -2.38895195 0.06141379
C  -0.25543705 1.77107103 0.53476534
C  -1.49434022 0.65084888 -0.00907607
C  -1.23049973 0.10621000 0.30848199
H  0.45407036 0.62223084 -0.26587893
H  0.11360216 0.58787503 0.00376505
H  0.35102269 -0.07115690 0.30688384
H  0.23695489 -0.05642065 -0.43205069
H  1.11279576 -2.04931532 -0.26118905
H  0.89592068 0.65192404 0.07535528
12
MD Step 493.0 Units = [eV / Ang.]
C  -1.17578193 -0.45085872 0.12945699
C  1.90020461 0.62480761 -0.52923108
C  -0.84175143 -2.35578937 0.04704948
C  -0.29692798 1.31817366 0.56253699
C  -1.67181894 0.90646306 -0.09692325
C  -1.36330804 0.09823002 0.37505207
H  0.36741050 0.54361973 -0.21448550
H  0.17400108 0.67773518 -0.01003969
H  0.29597011 -0.07369353 0.31014850
H  0.41914925 0.31503903 -0.39918214
H  1.28187260 -2.24176020 -0.23495175
H  0.91098017 0.63803353 0.06056939
12
MD Step 493.5 Units = [eV / Ang.]
C  -1.11229220 -0.32077678 -0.00697900
C  1.96559621 0.56048999 -0.47303535
C  -0.88494322 -2.27041289 0.03196464
C  -0.32912746 0.84562421 0.57315909
C  -1.74792117 1.05069309 -0.19192764
C  -1.41646883 0.08115992 0.44572859
H  0.25221517 0.41612613 -0.15857663
H  0.24809193 0.73133824 -0.02296346
H  0.21502311 -0.07568780 0.31505166
H  0.59026296 0.66710172 -0.35482957
H  1.37099867 -2.29555010 -0.19737816
H  0.84856481 0.60989427 0.03978583
12
MD Step 494.0 Units = [eV / Ang.]
C  -1.00456429 -0.14680119 -0.14533712
C  1.97475054 0.51252009 -0.41539130
C  -0.90653773 -2.13538050 0.01783775
C  -0.33934139 0.39368054 0.57674153
C  -1.72015950 1.08738779 -0.29037339
C  -1.39157813 0.05399756 0.51971931
H  0.11520671 0.24865945 -0.10083326
H  0.33460323 0.74631164 -0.03468905
H  0.11515442 -0.07717476 0.32009668
H  0.73148926 0.96269510 -0.30992581
H  1.37961434 -2.21450855 -0.15161907
H  0.71136255 0.56861282 0.01377372
12
MD Step 494.5 Units = [eV / Ang.]
C  -0.86106682 0.05763051 -0.28292465
C  1.92827122 0.47997507 -0.35629630
C  -0.91042999 -1.95396312 0.00654484
C  -0.31439879 0.00090104 0.58545734
C  -1.58494285 1.01578345 -0.38884426
C  -1.29467468 0.01545632 0.59594391
H  -0.03450610 0.05441954 -0.04402456
H  0.43111528 0.72271371 -0.04500743
H  0.00489341 -0.07818458 0.32360420
H  0.82468271 1.16747033 -0.27743965
H  1.30483653 -1.99810703 -0.10058953
H  0.50622008 0.51590476 -0.01642391
12
MD Step 495.0 Units = [eV / Ang.]
C  -0.69337276 0.27437515 -0.41713433
C  1.82888259 0.45963846 -0.29569199
C  -0.90115516 -1.73014629 -0.00011556
C  -0.24402410 -0.30307171 0.61084938
C  -1.33813687 0.83136497 -0.48393853
C  -1.13714841 -0.03578955 0.67297379
H  -0.18563477 -0.14912204 0.00927595
H  0.53422844 0.66304327 -0.05383104
H  -0.10662500 -0.07871908 0.32394786
H  0.85602695 1.25698498 -0.26957418
H  1.14181841 -1.64266643 -0.04730596
H  0.24514066 0.45410826 -0.04945539
12
MD Step 495.5 Units = [eV / Ang.]
C  -0.51525858 0.48148253 -0.54573740
C  1.68120760 0.44616194 -0.23350813
C  -0.88322877 -1.46866122 -0.00066158
C  -0.12411634 -0.50336259 0.66073816
C  -0.97726435 0.52943450 -0.57196419
C  -0.93666582 -0.10067068 0.74898798
H  -0.32545485 -0.34115731 0.05703966
H  0.63972960 0.57223523 -0.06120757
H  -0.21054478 -0.07873632 0.31975475
H  0.81934375 1.22254170 -0.29456954
H  0.88594195 -1.14538859 0.00475583
H  -0.05368940 0.38612079 -0.08362798
12
MD Step 496.0 Units = [eV / Ang.]
C  -0.34112974 0.65528464 -0.66718872
C  1.49149712 0.43231081 -0.16969339
C  -0.86061914 -1.17500323 0.00590460
C  0.04139825 -0.60202270 0.73695847
C  -0.50579880 0.11191007 -0.64879821
C  -0.71746274 -0.17906785 0.82178503
H  -0.44117238 -0.49965752 0.09811708
H  0.74277497 0.45758690 -0.06733100
H  -0.29901186 -0.07814454 0.31004638
H  0.71773734 1.07327151 -0.35436516
H  0.53729729 -0.51164151 0.05148352
H  -0.36551029 0.31517342 -0.11691861
12
MD Step 496.5 Units = [eV / Ang.]
C  -0.18397641 0.77355658 -0.78082382
C  1.26732174 0.40934987 -0.10423800
C  -0.83640848 -0.85539207 0.02002357
C  0.24090871 -0.61565262 0.83488562
C  0.06031645 -0.40270820 -0.71016306
C  -0.50922650 -0.26901610 0.88887898
H  -0.52175817 -0.60454149 0.13243361
H  0.83811340 0.32852456 -0.07254004
H  -0.36568045 -0.07680884 0.29431171
H  0.56287591 0.83355870 -0.44411818
H  0.10753676 0.23473027 0.08841158
H  -0.66002297 0.24439932 -0.14706196
12
MD Step 497.0 Units = [eV / Ang.]
C  -0.05329484 0.81915216 -0.88683840
C  1.01721689 0.36768859 -0.03719448
C  -0.81265010 -0.51665835 0.04159039
C  0.45745129 -0.56969359 0.94487932
C  0.68523728 -0.96857026 -0.75260787
C  -0.34397791 -0.36597060 0.94769578
H  -0.55984002 -0.64125955 0.16093829
H  0.92037308 0.19609373 -0.07729596
H  -0.40602943 -0.07456710 0.27252008
H  0.37223913 0.53695829 -0.55370116
H  -0.37229790 1.04056996 0.11175045
H  -0.90442747 0.17625673 -0.17173644
12
MD Step 497.5 Units = [eV / Ang.]
C  0.04641249 0.78309046 -0.98602044
C  0.75029030 0.29781607 0.03129353
C  -0.79036922 -0.16606081 0.07003120
C  0.67203761 -0.49184062 1.05486680
C  1.30876770 -1.50688447 -0.77519722
C  -0.25105794 -0.46246405 0.99585689
H  -0.55307880 -0.60374667 0.18527796
H  0.98440975 0.07211712 -0.08213130
H  -0.41753088 -0.07125428 0.24508770
H  0.16547662 0.21909090 -0.67038864
H  -0.84697928 1.81814617 0.12015778
H  -1.06837834 0.11199019 -0.18883426
12
MD Step 498.0 Units = [eV / Ang.]
C  0.11607928 0.66614850 -1.07931422
C  0.47579984 0.19154146 0.10094412
C  -0.76966027 0.18893029 0.10441735
C  0.86680596 -0.40690866 1.15295347
C  1.85083097 -1.91381581 -0.78122443
C  -0.25125583 -0.54849844 1.03149540
H  -0.50456764 -0.49576136 0.20728951
H  1.02570515 -0.03198184 -0.08756853
H  -0.39972480 -0.06673138 0.21281220
H  -0.03883599 -0.08809506 -0.78158276
H  -1.24134466 2.45379159 0.11654278
H  -1.12983199 0.05138071 -0.19676488
12
MD Step 498.5 Units = [eV / Ang.]
C  0.16132312 0.47845045 -1.16738805
C  0.20271795 0.04336157 0.17128031
C  -0.74981575 0.54084594 0.14359186
C  1.02720984 -0.33422386 1.22924243
C  2.22883734 -2.08638408 -0.77854681
C  -0.35195200 -0.61283770 1.05353487
H  -0.42210323 -0.33011150 0.22848705
H  1.04076588 -0.10653842 -0.09401950
H  -0.35422647 -0.06091524 0.17678500
H  -0.22524097 -0.35947834 -0.87672373
H  -1.47756926 2.83486605 0.10847155
H  -1.07994646 -0.00703487 -0.19471500
12
MD Step 499.0 Units = [eV / Ang.]
C  0.19077743 0.23731383 -1.25036156
C  -0.06067649 -0.14825887 0.24157195
C  -0.72944541 0.88238941 0.18629340
C  1.14302646 -0.28736524 1.27662334
C  2.38395573 -1.95915221 -0.77738270
C  -0.54507020 -0.64499767 1.06185577
H  -0.31660018 -0.12607379 0.24971649
H  1.02747348 -0.14495846 -0.10168474
H  -0.28468331 -0.05380592 0.13828909
H  -0.38211475 -0.57741397 -0.94812455
H  -1.50142745 2.88762786 0.10599222
H  -0.92521533 -0.06530497 -0.18278873
12
MD Step 499.5 Units = [eV / Ang.]
C  0.21407802 -0.03584084 -1.32777134
C  -0.30713688 -0.38002007 0.31080267
C  -0.70658662 1.20654609 0.23127519
C  1.20833366 -0.27529582 1.29075181
C  2.30306073 -1.53251522 -0.78616794
C  -0.80866783 -0.63729423 1.05732010
H  -0.20017346 0.09409282 0.27106121
H  0.98532407 -0.14468271 -0.11048036
H  -0.19664201 -0.04550409 0.09868400
H  -0.50140885 -0.73074157 -0.99095142
H  -1.30423189 2.60647449 0.11746059
H  -0.68594894 -0.12521885 -0.16198451
12
MD Step 500.0 Units = [eV / Ang.]
C  0.24009411 -0.31856961 -1.39872944
C  -0.53069693 -0.64357867 0.37768386
C  -0.67880393 1.50662755 0.27741363
C  1.22077161 -0.30384454 1.26962183
C  2.02248208 -0.87438547 -0.80797550
C  -1.11147705 -0.58618858 1.04166056
H  -0.08442884 0.30848442 0.29196727
H  0.91551523 -0.10755987 -0.12001622
H  -0.09729118 -0.03621421 0.05928327
H  -0.57793865 -0.81317281 -1.00277262
H  -0.92649821 2.05602268 0.14588292
H  -0.39172825 -0.18762089 -0.13401956
12
MD Step 500.5 Units = [eV / Ang.]
C  0.27576003 -0.58976979 -1.46217661
C  -0.72678255 -0.92609934 0.44072693
C  -0.64336084 1.77628915 0.32380793
C  1.18055302 -0.37682994 1.21307882
C  1.61110645 -0.09395609 -0.83984343
C  -1.41869350 -0.49254751 1.01726524
H  0.02069474 0.49797572 0.31149013
H  0.82086025 -0.03952689 -0.12963505
H  0.00498055 -0.02622843 0.02123191
H  -0.60867408 -0.82184216 -0.98305291
H  -0.44089164 1.34465261 0.18816509
H  -0.07555243 -0.25211733 -0.10105806
12
MD Step 501.0 Units = [eV / Ang.]
C  0.32560334 -0.83111718 -1.51712005
C  -0.89223023 -1.21148781 0.49836322
C  -0.59747952 2.00956041 0.36985675
C  1.08963650 -0.49643084 1.12250461
C  1.14415520 0.69560234 -0.87504304
C  -1.69718935 -0.36095641 0.98690161
H  0.10746765 0.64749655 0.32855734
H  0.70554424 0.05032176 -0.13850451
H  0.10123236 -0.01588992 -0.01460094
H  -0.59233930 -0.75649763 -0.93283519
H  0.07419907 0.58659314 0.23734391
H  0.23140004 -0.31719440 -0.06542372
12
MD Step 501.5 Units = [eV / Ang.]
C  0.39181947 -1.02768712 -1.56279381
C  -1.02521188 -1.48206063 0.54909295
C  -0.53873963 2.20094080 0.41529662
C  0.95145051 -0.66271909 1.00076064
C  0.68233361 1.40553010 -0.90628282
C  -1.91902798 -0.19859125 0.95342554
H  0.17042140 0.74632861 0.34217837
H  0.57476194 0.15104346 -0.14574029
H  0.18280855 -0.00554042 -0.04769607
H  -0.52948836 -0.61953683 -0.85470156
H  0.55569748 -0.12711337 0.28582580
H  0.50317489 -0.38059425 -0.02936539
12
MD Step 502.0 Units = [eV / Ang.]
C  0.47465800 -1.16811978 -1.59872808
C  -1.12513190 -1.72033092 0.59162830
C  -0.46555082 2.34556993 0.46018598
C  0.77127666 -0.87242707 0.85237176
C  0.26360079 1.98195123 -0.92791122
C  -2.06305371 -0.01409567 0.91952151
H  0.20613994 0.78784665 0.35158280
H  0.43429827 0.25123961 -0.15053026
H  0.24227303 0.00454030 -0.07790578
H  -0.42308927 -0.41688823 -0.75297441
H  0.96420509 -0.73953934 0.32767112
H  0.72037392 -0.43974671 0.00508828
12
MD Step 502.5 Units = [eV / Ang.]
C  0.57286944 -1.24465354 -1.62475249
C  -1.19250872 -1.91061875 0.62500796
C  -0.37762768 2.43946891 0.50482429
C  0.55720764 -1.11720337 0.68381484
C  -0.09441001 2.40178343 -0.93654411
C  -2.11496973 0.18331183 0.88751105
H  0.21299892 0.76911206 0.35629829
H  0.29011027 0.34027247 -0.15223563
H  0.27430394 0.01418790 -0.10541266
H  -0.27951104 -0.15953409 -0.63400250
H  1.28162235 -1.22400955 0.35930488
H  0.86991462 -0.49211730 0.03618607
12
MD Step 503.0 Units = [eV / Ang.]
C  0.68405332 -1.25328765 -1.64096404
C  -1.22888073 -2.04030436 0.64866402
C  -0.27630279 2.47979970 0.54961629
C  0.32129070 -1.38183321 0.50365128
C  -0.38715825 2.66229744 -0.93062288
C  -2.06662178 0.38445857 0.85923494
H  0.19101022 0.69063796 0.35618938
H  0.14795846 0.40915775 -0.15045511
H  0.27636679 0.02338522 -0.13063013
H  -0.10960072 0.13482616 -0.50625870
H  1.50387183 -1.57371151 0.37912369
H  0.94401297 -0.53542607 0.06245125
12
MD Step 503.5 Units = [eV / Ang.]
C  0.80477986 -1.19419498 -1.64769027
C  -1.23671161 -2.10063758 0.66244406
C  -0.16458922 2.46510675 0.59490078
C  0.08024659 -1.64323843 0.32216670
C  -0.61592786 2.77074887 -0.90964272
C  -1.91512273 0.58064857 0.83599662
H  0.14184933 0.55647767 0.35147350
H  0.01311198 0.45109456 -0.14505063
H  0.24903655 0.03225955 -0.15406574
H  0.07070340 0.44081157 -0.37991280
H  1.63350817 -1.79130643 0.38672008
H  0.93911553 -0.56777012 0.08266043
12
MD Step 504.0 Units = [eV / Ang.]
C  0.93049535 -1.07231586 -1.64545192
C  -1.21928256 -2.08713613 0.66659273
C  -0.04691910 2.39547512 0.64077934
C  -0.14500358 -1.87125216 0.15023792
C  -0.78265121 2.73682267 -0.87351258
C  -1.66228555 0.76401435 0.81853549
H  0.06905457 0.37460424 0.34271083
H  -0.10987392 0.46169286 -0.13614053
H  0.19588536 0.04104308 -0.17617827
H  0.24093408 0.72616592 -0.26561276
H  1.67437411 -1.88140222 0.38219359
H  0.85527244 -0.58771186 0.09584616
12
MD Step 504.5 Units = [eV / Ang.]
C  1.05525418 -0.89794843 -1.63491294
C  -1.18050991 -1.99963106 0.66170622
C  0.07138826 2.27256430 0.68698321
C  -0.33158390 -2.03199973 -0.00256127
C  -0.88709543 2.56818768 -0.82220556
C  -1.31461138 0.92787510 0.80699367
H  -0.02168556 0.15739119 0.33074994
H  -0.21732615 0.43899382 -0.12407081
H  0.12296842 0.05000444 -0.19726203
H  0.37840384 0.95520273 -0.17250664
H  1.62860552 -1.84624506 0.36572675
H  0.69619211 -0.59439499 0.10135947
12
MD Step 505.0 Units = [eV / Ang.]
C  1.17147767 -0.68696878 -1.61678866
C  -1.12468872 -1.84204951 0.64866936
C  0.18481052 2.09951074 0.73280956
C  -0.45867078 -2.09386340 -0.13013986
C  -0.92604366 2.26861043 -0.75569023
C  -0.88384323 1.06717236 0.80084419
H  -0.12233846 -0.07817987 0.31660087
H  -0.30659203 0.38337672 -0.10937159
H  0.03803228 0.05936759 -0.21738033
H  0.46223310 1.09488093 -0.10601193
H  1.49564342 -1.68414217 0.33744235
H  0.46997989 -0.58771502 0.09901628
12
MD Step 505.5 Units = [eV / Ang.]
C  1.26994416 -0.46023195 -1.59168617
C  -1.05610747 -1.62200332 0.62858448
C  0.28829776 1.88071062 0.77714051
C  -0.51226065 -2.03463685 -0.23146651
C  -0.89417795 1.83837014 -0.67410343
C  -0.38790623 1.17891707 0.79876643
H  -0.22266262 -0.31104216 0.30121558
H  -0.37616979 0.29741620 -0.09270542
H  -0.05040005 0.06923727 -0.23635645
H  0.47811225 1.12209275 -0.06623879
H  1.27299915 -1.39030517 0.29752365
H  0.19033146 -0.56852460 0.08932612
12
MD Step 506.0 Units = [eV / Ang.]
C  1.34028760 -0.24179524 -1.55988604
C  -0.97860372 -1.35023763 0.60269245
C  0.37780888 1.62155186 0.81854177
C  -0.48897792 -1.84736645 -0.31071280
C  -0.78674582 1.27722992 -0.57813913
C  0.14827346 1.26258015 0.79849668
H  -0.31090107 -0.51769698 0.28519567
H  -0.42583117 0.18570692 -0.07480686
H  -0.13390627 0.07954822 -0.25381245
H  0.42207346 1.02960441 -0.04791110
H  0.95886649 -0.96033627 0.24657843
H  -0.12234392 -0.53878890 0.07376338
12
MD Step 506.5 Units = [eV / Ang.]
C  1.37212655 -0.05587670 -1.52111937
C  -0.89508140 -1.03995986 0.57228789
C  0.45060924 1.32813424 0.85542056
C  -0.39728454 -1.54241901 -0.37573634
C  -0.60422190 0.59064696 -0.46961147
C  0.69277872 1.32021257 0.79672574
H  -0.37513834 -0.67510012 0.26849841
H  -0.45672243 0.05464167 -0.05641598
H  -0.20489228 0.09004507 -0.26924139
H  0.30163163 0.82813825 -0.04199981
H  0.55682435 -0.39690432 0.18620944
H  -0.44062958 -0.50155876 0.05498231
12
MD Step 507.0 Units = [eV / Ang.]
C  1.35672639 0.07702123 -1.47445039
C  -0.80710913 -0.70605092 0.53862992
C  0.50533713 1.00702781 0.88620963
C  -0.25553006 -1.14486489 -0.43553606
C  -0.35877732 -0.20060207 -0.35205597
C  1.20839396 1.35610325 0.78917597
H  -0.40517722 -0.76437975 0.25026464
H  -0.47139329 -0.08791012 -0.03820470
H  -0.25712378 0.10029657 -0.28209126
H  0.13375309 0.54364236 -0.03841276
H  0.08242005 0.28034047 0.11964074
H  -0.73151982 -0.46062394 0.03683024
12
MD Step 507.5 Units = [eV / Ang.]
C  1.28880432 0.14387326 -1.41837290
C  -0.71470345 -0.36417216 0.50285242
C  0.54188210 0.66509791 0.90954518
C  -0.08772239 -0.68841870 -0.49777957
C  -0.08086217 -1.04929201 -0.23102856
C  1.65649599 1.37584546 0.77099209
H  -0.39449567 -0.77443888 0.22888893
H  -0.47370152 -0.23306117 -0.02070356
H  -0.28606589 0.10973605 -0.29184617
H  -0.05942743 0.21097064 -0.02860442
H  -0.43008822 1.02366125 0.05205000
H  -0.96011567 -0.41980166 0.02400658
12
MD Step 508.0 Units = [eV / Ang.]
C  1.16790235 0.14161889 -1.35115758
C  -0.61639803 -0.02977920 0.46588865
C  0.56116415 0.30939223 0.92440986
C  0.08127178 -0.20852098 -0.56729430
C  0.17804885 -1.87467929 -0.11359402
C  2.00284153 1.38490669 0.73749518
H  -0.34168103 -0.70429330 0.20237153
H  -0.46853240 -0.37153474 -0.00423868
H  -0.28907207 0.11772259 -0.29809507
H  -0.25535853 -0.13341283 -0.00718229
H  -0.92483673 1.75058104 -0.00991108
H  -1.09534988 -0.38200110 0.02130780
12
MD Step 508.5 Units = [eV / Ang.]
C  0.99883092 0.07755211 -1.27136709
C  -0.50964616 0.28290961 0.42841847
C  0.56487981 -0.05292352 0.93022313
C  0.22954364 0.26300813 -0.64577043
C  0.35177824 -2.56794413 -0.00666608
C  2.22388708 1.38702147 0.68518129
H  -0.25083375 -0.56329348 0.16886708
H  -0.46131025 -0.49443600 0.01110751
H  -0.26546929 0.12361180 -0.30058163
H  -0.43468461 -0.45722382 0.02775603
H  -1.33057040 2.35011318 -0.05974774
H  -1.11640523 -0.34839533 0.03257945
12
MD Step 509.0 Units = [eV / Ang.]
C  0.79100232 -0.03250757 -1.17836551
C  -0.39151766 0.56188295 0.39086012
C  0.55528784 -0.41458241 0.92687670
C  0.34030312 0.70057911 -0.73234808
C  0.37717198 -3.01593036 0.08538653
C  2.31149767 1.38295161 0.61265821
H  -0.13078213 -0.36913187 0.12724143
H  -0.45733483 -0.59408225 0.02549624
H  -0.21657819 0.12682927 -0.29923568
H  -0.58299985 -0.73541077 0.07522577
H  -1.57838305 2.70749043 -0.09349315
H  -1.01766722 -0.31808815 0.05969743
12
MD Step 509.5 Units = [eV / Ang.]
C  0.55691450 -0.16754891 -1.07263594
C  -0.25957301 0.79813457 0.35340604
C  0.53506578 -0.76822643 0.91471677
C  0.40250102 1.08493158 -0.82454186
C  0.21780956 -3.13796362 0.16252992
C  2.27420847 1.37005562 0.52115333
H  0.00659994 -0.14435820 0.07744142
H  -0.46103270 -0.66477243 0.03928726
H  -0.14567610 0.12693759 -0.29418444
H  -0.69093431 -0.95061830 0.13234044
H  -1.62561101 2.74190593 -0.11148402
H  -0.81027216 -0.28847741 0.10197107
12
MD Step 510.0 Units = [eV / Ang.]
C  0.31031949 -0.30509268 -0.95581725
C  -0.11271291 0.98615894 0.31610391
C  0.50724696 -1.10644548 0.89448362
C  0.41040946 1.40174032 -0.91907853
C  -0.11908826 -2.91750648 0.22885847
C  2.13452263 1.34287384 0.41436938
H  0.14839721 0.08743909 0.02057465
H  -0.47527565 -0.70334685 0.05295095
H  -0.05788924 0.12369097 -0.28574289
H  -0.75324978 -1.09201245 0.19523200
H  -1.47310795 2.43868302 -0.11815518
H  -0.51957196 -0.25618224 0.15622086
12
MD Step 510.5 Units = [eV / Ang.]
C  0.06461391 -0.42431540 -0.83049303
C  0.04819023 1.12406275 0.27896046
C  0.47522141 -1.42187886 0.86721457
C  0.36264590 1.63987491 -1.01246209
C  -0.58373105 -2.40874986 0.29035001
C  1.92338206 1.29451413 0.29774210
H  0.28240683 0.30475388 -0.04127288
H  -0.50091448 -0.70943107 0.06695583
H  0.04002830 0.11706939 -0.27438062
H  -0.76765452 -1.15354922 0.25969752
H  -1.16464795 1.85577986 -0.11980376
H  -0.17954065 -0.21813051 0.21749189
12
MD Step 511.0 Units = [eV / Ang.]
C  -0.16822134 -0.50802488 -0.69984852
C  0.22002945 1.21327215 0.24204526
C  0.44272516 -1.70738041 0.83411807
C  0.26102604 1.79015365 -1.10126589
C  -1.10232369 -1.71370831 0.35210653
C  1.67391757 1.21831178 0.17739629
H  0.39829167 0.49004346 -0.10536842
H  -0.53664508 -0.68531520 0.08165580
H  0.14007724 0.10728583 -0.26066518
H  -0.73383193 -1.13250102 0.32156519
H  -0.76880173 1.10024297 -0.12183996
H  0.17375664 -0.17238003 0.28010082
12
MD Step 511.5 Units = [eV / Ang.]
C  -0.37808240 -0.54347479 -0.56732226
C  0.39760556 1.25790512 0.20556423
C  0.41374926 -1.95623852 0.79642806
C  0.10962311 1.84505554 -1.18225119
C  -1.60140430 -0.94489456 0.41675435
C  1.41637888 1.10924259 0.05916852
H  0.48807742 0.63037158 -0.16868198
H  -0.57922926 -0.63550946 0.09720349
H  0.23359064 0.09476145 -0.24518492
H  -0.65294390 -1.02872013 0.37688624
H  -0.35493898 0.28995844 -0.12719867
H  0.50757396 -0.11845725 0.33863415
12
MD Step 512.0 Units = [eV / Ang.]
C  -0.55678883 -0.52234046 -0.43633063
C  0.57412538 1.26393152 0.16989230
C  0.39228423 -2.16239671 0.75524958
C  -0.08568341 1.79950235 -1.25243342
C  -2.02522801 -0.19456303 0.48445486
C  1.17522809 0.96474858 -0.05205112
H  0.54616283 0.71719400 -0.22817468
H  -0.62400955 -0.56608154 0.11350722
H  0.31200275 0.08006931 -0.22846143
H  -0.52768585 -0.84483965 0.42208797
H  0.02395819 -0.47796979 -0.13636847
H  0.79563419 -0.05725458 0.38862782
12
MD Step 512.5 Units = [eV / Ang.]
C  -0.69794981 -0.44027731 -0.31008370
C  0.74192375 1.23828472 0.13555698
C  0.38187993 -2.32066045 0.71142126
C  -0.31705299 1.65260996 -1.30922734
C  -2.34130742 0.47832781 0.55383043
C  0.96833188 0.78496377 -0.15258989
H  0.56908769 0.74575832 -0.28100180
H  -0.66559056 -0.48391032 0.13023649
H  0.36775053 0.06385433 -0.21086825
H  -0.36284828 -0.58740708 0.45421606
H  0.33675738 -1.14086171 -0.14834762
H  1.01901789 0.00931796 0.42685737
12
MD Step 513.0 Units = [eV / Ang.]
C  -0.79688792 -0.29643646 -0.19146133
C  0.89324940 1.18804076 0.10318834
C  0.38511016 -2.42687171 0.66541541
C  -0.57404388 1.41008728 -1.35076491
C  -2.53697615 1.04544590 0.62293584
C  0.80759338 0.57247327 -0.23996133
H  0.55529606 0.71453363 -0.32466116
H  -0.69854143 -0.39598120 0.14686769
H  0.39517389 0.04674583 -0.19257421
H  -0.16621779 -0.26871181 0.47134490
H  0.57076101 -1.66805089 -0.16165113
H  1.16548326 0.07872539 0.45132189
12
MD Step 513.5 Units = [eV / Ang.]
C  -0.85075564 -0.09321142 -0.08289594
C  1.02099829 1.11977516 0.07344938
C  0.40304591 -2.47807641 0.61729853
C  -0.84282966 1.08668731 -1.37640073
C  -2.61243896 1.49883981 0.68984773
C  0.70017590 0.33182938 -0.31267752
H  0.50505338 0.62493766 -0.35713788
H  -0.71800801 -0.30880126 0.16275656
H  0.39126227 0.02928238 -0.17352857
H  0.05050369 0.09123751 0.47314653
H  0.72485079 -2.05062585 -0.17493079
H  1.22814206 0.14812573 0.46107271
12
MD Step 514.0 Units = [eV / Ang.]
C  -0.85891412 0.16368709 0.01378965
C  1.11931177 1.03912843 0.04696536
C  0.43490259 -2.47268017 0.56676777
C  -1.10579779 0.70772383 -1.38727936
C  -2.57430284 1.84013824 0.75287763
C  0.64965219 0.06897335 -0.37004602
H  0.42058727 0.48145978 -0.37709567
H  -0.72016477 -0.22797353 0.17722027
H  0.35608106 0.01186532 -0.15349537
H  0.27127317 0.46354955 0.46147221
H  0.80313376 -2.29046019 -0.18720213
H  1.20423770 0.21458829 0.45602566
12
MD Step 514.5 Units = [eV / Ang.]
C  -0.82348895 0.46485670 0.09761777
C  1.18399265 0.95056765 0.02426410
C  0.47796402 -2.41061607 0.51325600
C  -1.34218860 0.30845481 -1.38667682
C  -2.43111483 2.07248533 0.81057981
C  0.65663233 -0.20931891 -0.41204034
H  0.30642066 0.29212120 -0.38413910
H  -0.70249715 -0.15791466 0.18961764
H  0.29279070 -0.00524872 -0.13213070
H  0.47637552 0.81132777 0.44064869
H  0.81061429 -2.39196670 -0.19784352
H  1.09449936 0.27525160 0.43684647
12
MD Step 515.0 Units = [eV / Ang.]
C  -0.74997796 0.79671966 0.16875226
C  1.21276314 0.85731392 0.00573304
C  0.52782653 -2.29350046 0.45608551
C  -1.53020876 -0.06967893 -1.37974613
C  -2.19094312 2.19579655 0.86170743
C  0.71866778 -0.49595146 -0.43928344
H  0.16976637 0.06905772 -0.37912645
H  -0.66393083 -0.10168893 0.19941836
H  0.20723922 -0.02191938 -0.10908488
H  0.64461878 1.09360174 0.41712628
H  0.75090532 -2.35723853 -0.20652328
H  0.90327354 0.32748812 0.40494129
12
MD Step 515.5 Units = [eV / Ang.]
C  -0.64760389 1.14126651 0.22877195
C  1.20536041 0.76138118 -0.00840691
C  0.57889292 -2.12475101 0.39463930
C  -1.65055422 -0.38593967 -1.37244443
C  -1.86050119 2.20487401 0.90520624
C  0.82942839 -0.78397586 -0.45312966
H  0.02074612 -0.17114771 -0.36444705
H  -0.60484446 -0.06092030 0.20625854
H  0.10723302 -0.03807102 -0.08410496
H  0.75693544 1.27230481 0.39826790
H  0.62551710 -2.18416102 -0.21314523
H  0.63939036 0.36914007 0.36253432
12
MD Step 516.0 Units = [eV / Ang.]
C  -0.52912412 1.47647795 0.28078666
C  1.16350742 0.66368378 -0.01811577
C  0.62502330 -1.90961608 0.32851232
C  -1.69045394 -0.60871347 -1.36980963
C  -1.44548148 2.09009383 0.94028083
C  0.97740313 -1.06702261 -0.45578234
H  -0.12786689 -0.40785399 -0.34411609
H  -0.52699049 -0.03576076 0.20997971
H  0.00162433 -0.05363432 -0.05711349
H  0.80048040 1.32067610 0.39047196
H  0.43439281 -1.86718450 -0.21785493
H  0.31748552 0.39885406 0.31276078
12
MD Step 516.5 Units = [eV / Ang.]
C  -0.40978167 1.77779561 0.32922298
C  1.09075793 0.56418860 -0.02353961
C  0.66019186 -1.65509193 0.25761701
C  -1.64679965 -0.72248963 -1.37422691
C  -0.95201624 1.84093106 0.96653679
C  1.14462414 -1.33964347 -0.45033889
H  -0.26164130 -0.61787635 -0.32351536
H  -0.43334055 -0.02491077 0.21065094
H  -0.10060797 -0.06849710 -0.02825127
H  0.77173734 1.23009439 0.39729230
H  0.17765784 -1.40098012 -0.22111042
H  -0.04078172 0.41647970 0.25966245
12
MD Step 517.0 Units = [eV / Ang.]
C  -0.30534497 2.02078882 0.37916703
C  0.99222498 0.46210140 -0.02500439
C  0.67904913 -1.36968362 0.18222534
C  -1.52707089 -0.73058691 -1.38448972
C  -0.38942928 1.45298414 0.98415804
C  1.30622994 -1.59747243 -0.44063285
H  -0.36629234 -0.77826472 -0.30866827
H  -0.32785573 -0.02570849 0.20856895
H  -0.19115853 -0.08247414 0.00212073
H  0.67733413 1.01247451 0.41837922
H  -0.14125695 -0.78756261 -0.22377873
H  -0.40642951 0.42340406 0.20795466
12
MD Step 517.5 Units = [eV / Ang.]
C  -0.22950856 2.18462963 0.43531065
C  0.87420580 0.35609725 -0.02300003
C  0.67732943 -1.06303352 0.10295032
C  -1.34764970 -0.65249971 -1.39612604
C  0.22567753 0.93864011 0.99400699
C  1.43175559 -1.83704208 -0.43077241
H  -0.43003115 -0.86995552 -0.30510572
H  -0.21518062 -0.03431610 0.20423520
H  -0.26300477 -0.09529936 0.03345307
H  0.53219809 0.69711345 0.44972696
H  -0.51112553 -0.04695181 -0.22714797
H  -0.74466611 0.42261766 0.16246899
12
MD Step 518.0 Units = [eV / Ang.]
C  -0.19129934 2.25551877 0.50075744
C  0.74370653 0.24462918 -0.01814399
C  0.65208137 -0.74543495 0.02067485
C  -1.13027416 -0.51731773 -1.40279430
C  0.86476154 0.33932899 0.99743760
C  1.48875277 -2.05516036 -0.42439015
H  -0.44585255 -0.88138709 -0.31659624
H  -0.10026312 -0.04603833 0.19830537
H  -0.31081164 -0.10663809 0.06506392
H  0.35589223 0.32344020 0.48503981
H  -0.90792707 0.77074883 -0.23265456
H  -1.01876656 0.41831056 0.12730024
12
MD Step 518.5 Units = [eV / Ang.]
C  -0.19329695 2.22897906 0.57609251
C  0.60790983 0.12631019 -0.01112583
C  0.60176795 -0.42730572 -0.06355081
C  -0.89797221 -0.35611526 -1.39805404
C  1.48432056 -0.26662339 0.99559062
C  1.44849728 -2.24789958 -0.42379042
H  -0.41301162 -0.81092493 -0.34416177
H  0.01207304 -0.05577805 0.19151462
H  -0.33116913 -0.11611508 0.09620710
H  0.16860782 -0.06733230 0.51752792
H  -1.29171025 1.57786486 -0.24111377
H  -1.19601631 0.41494019 0.10486387
12
MD Step 519.0 Units = [eV / Ang.]
C  -0.23126526 2.11022055 0.65907866
C  0.47363380 0.00036579 -0.00263341
C  0.52627301 -0.11866200 -0.14862429
C  -0.67165297 -0.19609361 -1.37677632
C  2.02806229 -0.76967255 0.98817941
C  1.29239085 -2.40952889 -0.42932078
H  -0.33714978 -0.66722767 -0.38575420
H  0.11755923 -0.05861101 0.18458526
H  -0.32271422 -0.12335130 0.12614483
H  -0.01188352 -0.43880202 0.54139802
H  -1.60896818 2.25537892 -0.25149228
H  -1.25428525 0.41598379 0.09521511
12
MD Step 519.5 Units = [eV / Ang.]
C  -0.29530368 1.91248628 0.74510047
C  0.34686227 -0.13290960 0.00673074
C  0.42686029 0.17135071 -0.23350174
C  -0.46790376 -0.05774538 -1.33581453
C  2.43694328 -1.05468121 0.97235398
C  1.01690516 -2.53187854 -0.43927855
H  -0.22901880 -0.46741262 -0.43672034
H  0.21285163 -0.05040933 0.17813011
H  -0.28617286 -0.12800630 0.15421783
H  -0.17175064 -0.76283618 0.55265314
H  -1.80323193 2.67920827 -0.25983475
H  -1.18704098 0.42283390 0.09596364
12
MD Step 520.0 Units = [eV / Ang.]
C  -0.37204430 1.65406231 0.82816680
C  0.23239029 -0.27177590 0.01652717
C  0.30614651 0.43481689 -0.31728903
C  -0.29800591 0.04523889 -1.27398556
C  2.66547017 -1.04099593 0.94273150
C  0.63510942 -2.60461766 -0.45044798
H  -0.10228569 -0.23370808 -0.49085909
H  0.29577923 -0.02841716 0.17257003
H  -0.22435514 -0.12981872 0.17990945
H  -0.30125797 -1.02008551 0.54922315
H  -1.83209639 2.76097564 -0.25943727
H  -1.00485022 0.43432521 0.10289083
12
MD Step 520.5 Units = [eV / Ang.]
C  -0.44716851 1.35500093 0.90209237
C  0.13364717 -0.41285848 0.02653185
C  0.16808574 0.66530428 -0.39930806
C  -0.16801125 0.10443307 -1.19165714
C  2.69697294 -0.71713396 0.89329487
C  0.17417064 -2.61649258 -0.45906574
H  0.02884696 0.01029296 -0.54167585
H  0.36542570 0.00833570 0.16808212
H  -0.14208417 -0.12864195 0.20289980
H  -0.39408708 -1.19863493 0.53068037
H  -1.68303679 2.48328540 -0.24293096
H  -0.73276135 0.44710957 0.11105636
12
MD Step 521.0 Units = [eV / Ang.]
C  -0.50752358 1.03447281 0.96148410
C  0.05267734 -0.55121767 0.03675512
C  0.01794127 0.85799172 -0.47913264
C  -0.07962203 0.11476562 -1.09026996
C  2.54885969 -0.14804342 0.82039194
C  -0.33015788 -2.55715089 -0.46181954
H  0.15155771 0.24275145 -0.58344568
H  0.42203988 0.05886534 0.16458975
H  -0.04601603 -0.12446782 0.22310344
H  -0.44640242 -1.29203035 0.49782727
H  -1.37871172 1.90736904 -0.20545348
H  -0.40464223 0.45669417 0.11596968
12
MD Step 521.5 Units = [eV / Ang.]
C  -0.54248053 0.70921731 1.00233028
C  -0.00973652 -0.68070575 0.04741763
C  -0.13781563 1.00971358 -0.55658826
C  -0.03152109 0.07307111 -0.97199104
C  2.26449066 0.55030095 0.72487437
C  -0.83999077 -2.41895073 -0.45652652
H  0.25553286 0.44551147 -0.61186573
H  0.46680230 0.12035060 0.16179566
H  0.05569618 -0.11743458 0.24068048
H  -0.45606986 -1.29757847 0.45234441
H  -0.96829395 1.14783160 -0.14690180
H  -0.05661364 0.45867289 0.11443051
12
MD Step 522.0 Units = [eV / Ang.]
C  -0.54449607 0.39304144 1.02218740
C  -0.05389192 -0.79455485 0.05889467
C  -0.29177960 1.11894808 -0.63171402
C  -0.02061812 -0.02244042 -0.83955043
C  1.89693544 1.25248340 0.61196240
C  -1.32072732 -2.19829642 -0.44234704
H  0.33333378 0.60483752 -0.62428413
H  0.50151130 0.18849859 0.15924847
H  0.15395399 -0.10781328 0.25601148
H  -0.42227365 -1.21545050 0.39657575
H  -0.51031473 0.33105157 -0.07184596
H  0.27836692 0.44969487 0.10486140
12
MD Step 522.5 Units = [eV / Ang.]
C  -0.50910551 0.09703073 1.02008675
C  -0.08094539 -0.88609238 0.07164021
C  -0.43612192 1.18576415 -0.70468261
C  -0.04274830 -0.17168139 -0.69621110
C  1.49389487 1.85806842 0.48922331
C  -1.74435205 -1.89632479 -0.41961171
H  0.38023881 0.71129821 -0.61962566
H  0.52824724 0.25809020 0.15642649
H  0.23948502 -0.09597373 0.26962871
H  -0.34563174 -1.04878401 0.33343213
H  -0.05664085 -0.43933750 0.01249839
H  0.57367983 0.42794209 0.08719510
12
MD Step 523.0 Units = [eV / Ang.]
C  -0.43463322 -0.16996468 0.99631868
C  -0.09272490 -0.94946056 0.08610606
C  -0.56332911 1.21175986 -0.77568528
C  -0.09260828 -0.37126112 -0.54577226
C  1.08992662 2.30629845 0.36419813
C  -2.09052806 -1.51900358 -0.38946294
H  0.39386076 0.75926912 -0.59817197
H  0.54907746 0.32358978 0.15282223
H  0.30379031 -0.08233327 0.28210799
H  -0.22881295 -0.80474869 0.26633499
H  0.35602008 -1.09729144 0.09868854
H  0.80996130 0.39314613 0.06251584
12
MD Step 523.5 Units = [eV / Ang.]
C  -0.32186675 -0.40093903 0.95221306
C  -0.09156938 -0.98024185 0.10267128
C  -0.66706306 1.19996440 -0.84479660
C  -0.16300401 -0.61243255 -0.39248065
C  0.70622668 2.57317223 0.24290751
C  -2.34609876 -1.07679930 -0.35348777
H  0.37378518 0.74646192 -0.56132457
H  0.56582716 0.37973539 0.14801240
H  0.34013369 -0.06729965 0.29393741
H  -0.07755001 -0.49630611 0.19907837
H  0.70670362 -1.61163829 0.18061982
H  0.97447562 0.34632284 0.03264976
12
MD Step 524.0 Units = [eV / Ang.]
C  -0.17386027 -0.59067071 0.88997629
C  -0.08019721 -0.97590384 0.12158825
C  -0.74299698 1.15471100 -0.91184337
C  -0.24373798 -0.87907802 -0.24072374
C  0.35466558 2.65995968 0.12950664
C  -2.50378017 -0.58407672 -0.31345069
H  0.32137551 0.67373890 -0.51141078
H  0.57993155 0.42203190 0.14170564
H  0.34441781 -0.05122197 0.30538965
H  0.09823818 -0.14404003 0.13548364
H  0.98612969 -1.97486615 0.25395210
H  1.05981429 0.28941596 -0.00017363
12
MD Step 524.5 Units = [eV / Ang.]
C  0.00408732 -0.73609952 0.81258147
C  -0.06158089 -0.93605133 0.14294828
C  -0.78939756 1.08143474 -0.97631317
C  -0.32072709 -1.14666080 -0.09443118
C  0.04266406 2.58099610 0.02671002
C  -2.56078868 -0.05832904 -0.27115093
H  0.23979493 0.54531502 -0.45153129
H  0.59235373 0.44712697 0.13376765
H  0.31574299 -0.03436314 0.31643231
H  0.28371304 0.22292294 0.07877641
H  1.19147309 -2.19126588 0.31576157
H  1.06266507 0.22497395 -0.03355114
12
MD Step 525.0 Units = [eV / Ang.]
C  0.20431014 -0.83707388 0.72366144
C  -0.03880762 -0.86248571 0.16666211
C  -0.80733441 0.98640516 -1.03732347
C  -0.37611834 -1.38333171 0.04374834
C  -0.22296074 2.35445491 -0.06349235
C  -2.51788790 0.48071784 -0.22836425
H  0.13419663 0.36927394 -0.38539960
H  0.60355456 0.45306093 0.12422454
H  0.25653918 -0.01690135 0.32669975
H  0.45945481 0.56812689 0.03075122
H  1.32195531 -2.26814835 0.36388914
H  0.98309838 0.15590132 -0.06505687
12
MD Step 525.5 Units = [eV / Ang.]
C  0.41666010 -0.89725067 0.62732324
C  -0.01492288 -0.75910616 0.19245616
C  -0.80044703 0.87636958 -1.09366820
C  -0.39003460 -1.55398284 0.17322265
C  -0.43371124 1.99670256 -0.13915630
C  -2.37913130 1.01216074 -0.18681129
H  0.01194850 0.15815426 -0.31709423
H  0.61349280 0.43941071 0.11324964
H  0.17223130 0.00104183 0.33553737
H  0.60345062 0.85200641 -0.00899629
H  1.37589194 -2.21076875 0.39630808
H  0.82457177 0.08526231 -0.09237082
12
MD Step 526.0 Units = [eV / Ang.]
C  0.62857327 -0.92475076 0.52781501
C  0.00726402 -0.63167525 0.21987707
C  -0.77433271 0.75813081 -1.14393050
C  -0.34407127 -1.62702853 0.29575547
C  -0.57856197 1.51968445 -0.19790229
C  -2.15234442 1.51514077 -0.14808580
H  -0.11731521 -0.07079089 -0.25065760
H  0.62164504 0.40733457 0.10113762
H  0.07051734 0.01935736 0.34210735
H  0.69479785 1.03890645 -0.04334215
H  1.34919739 -2.02039041 0.41067722
H  0.59463066 0.01608144 -0.11345138
12
MD Step 526.5 Units = [eV / Ang.]
C  0.82558936 -0.93206841 0.42901718
C  0.02536947 -0.48749525 0.24830838
C  -0.73570170 0.63811311 -1.18663603
C  -0.22571471 -1.58210258 0.41493345
C  -0.64447378 0.93084968 -0.23673579
C  -1.85016824 1.97024419 -0.11348926
H  -0.24205910 -0.29615920 -0.18952616
H  0.62703863 0.35952375 0.08826873
H  -0.03958059 0.03790388 0.34552876
H  0.71829106 1.10507322 -0.07705452
H  1.23533963 -1.69496797 0.40418679
H  0.30606997 -0.04891441 -0.12680155
12
MD Step 527.0 Units = [eV / Ang.]
C  0.99247035 -0.93480568 0.33383737
C  0.03762167 -0.33498270 0.27700047
C  -0.69148999 0.52195936 -1.22041976
C  -0.03210322 -1.41577665 0.53481828
C  -0.61849247 0.23566883 -0.25230150
C  -1.49120147 2.36101144 -0.08375664
H  -0.34981113 -0.49418010 -0.13587987
H  0.62830437 0.30004524 0.07506603
H  -0.14870663 0.05647484 0.34502150
H  0.66829283 1.04465566 -0.11538648
H  1.02703192 -1.23243359 0.37383871
H  -0.02191623 -0.10763665 -0.13183811
12
MD Step 527.5 Units = [eV / Ang.]
C  1.11493495 -0.94911125 0.24368517
C  0.04300085 -0.18316567 0.30511418
C  -0.64807627 0.41423808 -1.24416763
C  0.22850087 -1.14276595 0.65828850
C  -0.49198942 -0.55683708 -0.24176724
C  -1.10052699 2.67540682 -0.05871550
H  -0.42874109 -0.64178877 -0.09010627
H  0.62375631 0.23405691 0.06194805
H  -0.24805603 0.07478500 0.34002374
H  0.55026913 0.87111194 -0.16235629
H  0.72023684 -0.63691454 0.31735802
H  -0.36330914 -0.15901549 -0.12930472
12
MD Step 528.0 Units = [eV / Ang.]
C  1.18173825 -0.98824828 0.15826970
C  0.04128868 -0.04109160 0.33178058
C  -0.61070952 0.31828337 -1.25712459
C  0.53821250 -0.79203752 0.78580965
C  -0.26744964 -1.42551112 -0.20449960
C  -0.70877619 2.90694607 -0.03701316
H  -0.46958636 -0.72048798 -0.05062666
H  0.61151194 0.16738328 0.04928217
H  -0.33005707 0.09247670 0.33027033
H  0.37930683 0.61337467 -0.21946437
H  0.32088771 0.07220446 0.23489541
H  -0.68636715 -0.20329206 -0.12157946
12
MD Step 528.5 Units = [eV / Ang.]
C  1.18656808 -1.05925907 0.07588120
C  0.03301642 0.08282833 0.35616891
C  -0.58316359 0.23619448 -1.25894167
C  0.87332303 -0.39961227 0.91513853
C  0.03299429 -2.32708807 -0.14439676
C  -0.34912743 3.05512861 -0.01608875
H  -0.46741859 -0.71998186 -0.01425714
H  0.58965861 0.10596086 0.03734148
H  -0.38883357 0.10914083 0.31582139
H  0.17631833 0.30852350 -0.28536250
H  -0.14650176 0.85020375 0.13136724
H  -0.95683381 -0.24203909 -0.11267193
12
MD Step 529.0 Units = [eV / Ang.]
C  1.12918294 -1.16087926 -0.00586319
C  0.01927870 0.18151186 0.37755660
C  -0.56758710 0.16895224 -1.24968040
C  1.20880679 -0.00104958 1.04194661
C  0.36072808 -3.18963361 -0.07203408
C  -0.05237679 3.12485787 0.00743875
H  -0.42266645 -0.64036982 0.02293130
H  0.55646962 0.05519144 0.02627457
H  -0.42047760 0.12434604 0.29705090
H  -0.03645627 -0.00603049 -0.35645334
H  -0.63180508 1.62086705 0.01856038
H  -1.14309684 -0.27776374 -0.10772811
12
MD Step 529.5 Units = [eV / Ang.]
C  1.01540881 -1.28349403 -0.08906023
C  0.00143336 0.24983503 0.39538384
C  -0.56448819 0.11664794 -1.22976913
C  1.52198632 0.37386294 1.16092729
C  0.64179625 -3.91665933 -0.00492547
C  0.15880072 3.12479064 0.03695329
H  -0.34102650 -0.49209899 0.06451857
H  0.51064827 0.01929382 0.01609336
H  -0.42318318 0.13766831 0.27459866
H  -0.23907803 -0.29829901 -0.42797972
H  -1.06009874 2.28155891 -0.08471359
H  -1.22219909 -0.31310624 -0.11202687
12
MD Step 530.0 Units = [eV / Ang.]
C  0.85602094 -1.41115825 -0.17470096
C  -0.01926807 0.28511298 0.40928624
C  -0.57278944 0.07875102 -1.19992676
C  1.79456293 0.70329405 1.26686990
C  0.79182533 -4.40706809 0.03583563
C  0.27446779 3.06496791 0.07480714
H  -0.23228684 -0.29368971 0.11278665
H  0.45157216 0.00075801 0.00668280
H  -0.39729422 0.14871762 0.24929474
H  -0.41588152 -0.54439445 -0.49508038
H  -1.34613251 2.72459243 -0.15614882
H  -1.18479656 -0.34988353 -0.12970617
12
MD Step 530.5 Units = [eV / Ang.]
C  0.66491203 -1.52489627 -0.26226471
C  -0.04204430 0.28733610 0.41909607
C  -0.58992786 0.05440113 -1.16106040
C  2.01303762 0.97290750 1.35538396
C  0.74347789 -4.58691125 0.03248927
C  0.29914494 2.95440531 0.12146069
H  -0.10848719 -0.06807648 0.16821388
H  0.37949363 0.00000810 -0.00216792
H  -0.34528390 0.15715659 0.22206081
H  -0.55584835 -0.72853676 -0.55349466
H  -1.42123865 2.87056933 -0.17706373
H  -1.03723584 -0.38836330 -0.16265327
12
MD Step 531.0 Units = [eV / Ang.]
C  0.45715409 -1.60617404 -0.34978694
C  -0.06686863 0.25909623 0.42481592
C  -0.61196780 0.04265670 -1.11414509
C  2.16805099 1.17401115 1.42321046
C  0.47419486 -4.43766024 -0.02204605
C  0.24991667 2.79945133 0.17515988
H  0.01799342 0.16122357 0.22949177
H  0.29565299 0.01535023 -0.01071829
H  -0.27166611 0.16271162 0.19379438
H  -0.65196369 -0.84153103 -0.59986444
H  -1.26057239 2.69795025 -0.13992856
H  -0.79992441 -0.42708579 -0.20998303
12
MD Step 531.5 Units = [eV / Ang.]
C  0.24739166 -1.63958680 -0.43426884
C  -0.09457807 0.20522019 0.42657520
C  -0.63377440 0.04266622 -1.06008982
C  2.25327748 1.30149973 1.46822962
C  0.01740173 -4.00365329 -0.12098764
C  0.15178856 2.60338878 0.23227351
H  0.13593687 0.37311448 0.29393375
H  0.20227446 0.04321410 -0.01922387
H  -0.18279180 0.16517665 0.16524131
H  -0.70021045 -0.87883957 -0.63175757
H  -0.89403332 2.25108180 -0.05164893
H  -0.50268272 -0.46328229 -0.26827671
12
MD Step 532.0 Units = [eV / Ang.]
C  0.04882351 -1.61434056 -0.51220592
C  -0.12680237 0.13216916 0.42458046
C  -0.64927917 0.05374351 -0.99960390
C  2.26445257 1.35239481 1.48932909
C  -0.55035270 -3.37378725 -0.24684707
C  0.03210916 2.36725767 0.28810702
H  0.23614663 0.55062896 0.35804772
H  0.10243678 0.07864072 -0.02788877
H  -0.08648439 0.16441104 0.13687123
H  -0.69870696 -0.83903969 -0.64758483
H  -0.39350323 1.62158267 0.06961639
H  -0.17883983 -0.49366106 -0.33242144
12
MD Step 532.5 Units = [eV / Ang.]
C  -0.12729549 -1.52458502 -0.58005406
C  -0.16571346 0.04732907 0.41907256
C  -0.65191394 0.07535281 -0.93308788
C  2.19896003 1.32533976 1.48627859
C  -1.13757994 -2.64935282 -0.37864579
C  -0.08414483 2.09133159 0.33783712
H  0.31171667 0.68143131 0.41807562
H  -0.00016131 0.11591348 -0.03683135
H  0.00853893 0.16033342 0.10877663
H  -0.64728458 -0.72308047 -0.64655366
H  0.15484207 0.91520518 0.20181116
H  0.14003586 -0.51521831 -0.39667896
12
MD Step 533.0 Units = [eV / Ang.]
C  -0.27180721 -1.36897350 -0.63455413
C  -0.21365849 -0.04170495 0.41029518
C  -0.63522372 0.10704185 -0.86057755
C  2.05621599 1.22110517 1.45971207
C  -1.66462783 -1.91605761 -0.49866703
C  -0.17720675 1.77655250 0.37725267
H  0.35790745 0.75752079 0.47039800
H  -0.10150382 0.14921853 -0.04606779
H  0.09345322 0.15291486 0.08062430
H  -0.54763384 -0.53448552 -0.62874281
H  0.67652061 0.22267316 0.32594485
H  0.42756438 -0.52580528 -0.45561776
12
MD Step 533.5 Units = [eV / Ang.]
C  -0.37768043 -1.14989325 -0.67292253
C  -0.27275569 -0.12774609 0.39847809
C  -0.59365206 0.14834952 -0.78177223
C  1.83878290 1.04397554 1.41125791
C  -2.07775382 -1.23089555 -0.59575615
C  -0.23340651 1.42545887 0.40314640
H  0.37187713 0.77463119 0.51180060
H  -0.19758079 0.17323645 -0.05551364
H  0.16027817 0.14217544 0.05168560
H  -0.40401526 -0.28045679 -0.59531379
H  1.12198405 -0.39446902 0.42961467
H  0.66392230 -0.52436631 -0.50470493
12
MD Step 534.0 Units = [eV / Ang.]
C  -0.44009042 -0.87274854 -0.69297477
C  -0.34450969 -0.20448278 0.38382991
C  -0.52335840 0.19868873 -0.69615573
C  1.55396733 0.80373052 1.34378221
C  -2.34998777 -0.62315754 -0.66514437
C  -0.24465402 1.04249393 0.41338759
H  0.35246595 0.73171718 0.53965834
H  -0.28469194 0.18360218 -0.06499898
H  0.20284196 0.12818967 0.02095682
H  -0.22437889 0.02637261 -0.54879940
H  1.46674824 -0.90349961 0.50700437
H  0.83564763 -0.51090637 -0.54054598
12
MD Step 534.5 Units = [eV / Ang.]
C  -0.45663086 -0.54554054 -0.69325896
C  -0.42951211 -0.26677374 0.36653972
C  -0.42292899 0.25720737 -0.60320311
C  1.21533165 0.51765369 1.26160083
C  -2.47450945 -0.10290984 -0.70644454
C  -0.20725516 0.63384112 0.40679973
H  0.30016132 0.63076565 0.55211013
H  -0.35970184 0.17721099 -0.07429344
H  0.21760012 0.11110238 -0.01263863
H  -0.02151037 0.36610091 -0.49331364
H  1.70429863 -1.29234496 0.55698314
H  0.93465704 -0.48631302 -0.56088125
12
MD Step 535.0 Units = [eV / Ang.]
C  -0.42770621 -0.17884150 -0.67325394
C  -0.52722066 -0.31080703 0.34678018
C  -0.29379065 0.32262315 -0.50263232
C  0.84341853 0.21168047 1.17042751
C  -2.45648781 0.32937195 -0.72143114
C  -0.12069725 0.20701231 0.38298085
H  0.21728887 0.47700821 0.54828320
H  -0.42024233 0.15239294 -0.08313488
H  0.20412256 0.09115130 -0.05000288
H  0.18642714 0.71056564 -0.43445228
H  1.83771761 -1.56001426 0.58091648
H  0.95717020 -0.45214317 -0.56448078
12
MD Step 535.5 Units = [eV / Ang.]
C  -0.35701333 0.21390317 -0.63364513
C  -0.63585038 -0.33414950 0.32471107
C  -0.14020431 0.39304239 -0.39464154
C  0.46484678 -0.08045908 1.07680273
C  -2.30656403 0.67528908 -0.71242330
C  0.01315230 -0.22961375 0.34217709
H  0.10837979 0.27943097 0.52858033
H  -0.46485894 0.10897735 -0.09125850
H  0.16513307 0.06868839 -0.09162664
H  0.37673519 1.02437322 -0.37864966
H  1.87322527 -1.70904763 0.58102998
H  0.90301859 -0.41043461 -0.55105643
12
MD Step 536.0 Units = [eV / Ang.]
C  -0.25198633 0.61597219 -0.57663059
C  -0.75235384 -0.33572021 0.30048699
C  0.03115759 0.46579329 -0.28008118
C  0.10927046 -0.32101983 0.98692117
C  -2.03682787 0.93386563 -0.68143049
C  0.19022976 -0.66718639 0.28526035
H  -0.01942312 0.05132802 0.49498474
H  -0.49310688 0.04827624 -0.09842451
H  0.10610270 0.04419026 -0.13741551
H  0.52497462 1.26887328 -0.33192649
H  1.81640852 -1.74082222 0.55951088
H  0.77555439 -0.36355027 -0.52125538
12
MD Step 536.5 Units = [eV / Ang.]
C  -0.12397180 1.00724494 -0.50613683
C  -0.87247051 -0.31573240 0.27426478
C  0.21197174 0.53732769 -0.16050902
C  -0.19556963 -0.47486350 0.90509669
C  -1.65902307 1.09944213 -0.62992585
C  0.40381061 -1.09666890 0.21381161
H  -0.15615521 -0.18951056 0.45126453
H  -0.50560450 -0.02698822 -0.10444178
H  0.03448201 0.01824926 -0.18662129
H  0.60954707 1.40897726 -0.29829988
H  1.67081640 -1.65345345 0.51824075
H  0.58216689 -0.31402425 -0.47674370
12
MD Step 537.0 Units = [eV / Ang.]
C  0.01216792 1.36483931 -0.42777106
C  -0.99085611 -0.27559728 0.24621555
C  0.39317112 0.60323957 -0.03812591
C  -0.42941354 -0.51730342 0.83247579
C  -1.18455018 1.16183618 -0.55909654
C  0.64358323 -1.50907394 0.13026461
H  -0.28931382 -0.42146765 0.40290279
H  -0.50403159 -0.11281763 -0.10918634
H  -0.04124688 -0.00845457 -0.23788558
H  0.61683430 1.42114715 -0.27847563
H  1.43847079 -1.44198770 0.45901242
H  0.33518475 -0.26436003 -0.42033011
12
MD Step 537.5 Units = [eV / Ang.]
C  0.13924134 1.66486641 -0.34834947
C  -1.10128221 -0.21778777 0.21654209
C  0.56582711 0.65845862 0.08439234
C  -0.58368174 -0.44033085 0.76667210
C  -0.62605485 1.10890302 -0.47045720
C  0.89466889 -1.89569443 0.03801049
H  -0.40487687 -0.62098758 0.35659173
H  -0.49105446 -0.20415105 -0.11261311
H  -0.11252759 -0.03519853 -0.28937995
H  0.54493844 1.29966045 -0.26950223
H  1.12206664 -1.10099673 0.38412069
H  0.05273530 -0.21674155 -0.35602749
12
MD Step 538.0 Units = [eV / Ang.]
C  0.23976478 1.88533797 -0.27493984
C  -1.19691627 -0.14565526 0.18549390
C  0.72184787 0.69761227 0.20412117
C  -0.66260414 -0.25453517 0.70262841
C  -0.00048055 0.93204164 -0.36673282
C  1.13720946 -2.24839779 -0.05866530
H  -0.48911050 -0.76570614 0.31923770
H  -0.47016431 -0.29516220 -0.11475784
H  -0.17154303 -0.06126675 -0.33900377
H  0.40432779 1.05843469 -0.26567582
H  0.72875340 -0.63004102 0.29720880
H  -0.24108448 -0.17266224 -0.28891460
12
MD Step 538.5 Units = [eV / Ang.]
C  0.29854771 2.00970664 -0.21357259
C  -1.27071027 -0.06316463 0.15337999
C  0.85445854 0.71553232 0.31813367
C  -0.68093423 0.01411946 0.63436393
C  0.66683522 0.63492710 -0.25277589
C  1.34722984 -2.55997869 -0.15492448
H  -0.53088259 -0.83827442 0.29663078
H  -0.44540114 -0.37966992 -0.11572836
H  -0.21182250 -0.08599840 -0.38460437
H  0.21505468 0.72755308 -0.26033610
H  0.27503005 -0.04220277 0.20411574
H  -0.51740531 -0.13254976 -0.22468231
12
MD Step 539.0 Units = [eV / Ang.]
C  0.30521483 2.03003084 -0.16798319
C  -1.31588018 0.02544649 0.12057115
C  0.95846378 0.70779739 0.42372804
C  -0.65941401 0.33115704 0.55683230
C  1.33842194 0.24419661 -0.13602675
C  1.49925098 -2.82447858 -0.24603031
H  -0.52387203 -0.82982564 0.29215243
H  -0.42097531 -0.45163534 -0.11568419
H  -0.22863095 -0.10882472 -0.42418679
H  0.00178331 0.34603304 -0.24775317
H  -0.20875942 0.62564533 0.11321586
H  -0.74560295 -0.09554247 -0.16883539
12
MD Step 539.5 Units = [eV / Ang.]
C  0.25591932 1.94866624 -0.13882480
C  -1.32648055 0.11608146 0.08748883
C  1.03035924 0.67123224 0.51861683
C  -0.61990518 0.66113993 0.46717687
C  1.96403668 -0.18222740 -0.02579497
C  1.57053844 -3.03734603 -0.32819631
H  -0.46794960 -0.74191637 0.30597052
H  -0.40080574 -0.50572236 -0.11480726
H  -0.21918006 -0.12929387 -0.45609647
H  -0.21133387 -0.04618627 -0.22437934
H  -0.67725405 1.30516618 0.03453667
H  -0.89794464 -0.05959375 -0.12569058
12
MD Step 540.0 Units = [eV / Ang.]
C  0.15370345 1.77781222 -0.12365887
C  -1.29799925 0.20521375 0.05457963
C  1.06836065 0.60428102 0.60107113
C  -0.58170513 0.97330091 0.36510491
C  2.48629681 -0.55648165 0.06911817
C  1.54602225 -3.19533354 -0.39936154
H  -0.36922802 -0.58621429 0.33503244
H  -0.38803954 -0.53784488 -0.11326712
H  -0.18272184 -0.14708336 -0.47916896
H  -0.40427537 -0.41436616 -0.18919404
H  -1.07557609 1.89870932 -0.02278634
H  -0.95483791 -0.02199334 -0.09746939
12
MD Step 540.5 Units = [eV / Ang.]
C  0.00746346 1.53705382 -0.11771517
C  -1.22788185 0.29027267 0.02228206
C  1.07240603 0.50719220 0.67002270
C  -0.55958416 1.24413589 0.25255036
C  2.85345710 -0.77819562 0.14390846
C  1.42227903 -3.29614124 -0.45958452
H  -0.23876985 -0.38204373 0.37384881
H  -0.38463404 -0.54561501 -0.11118828
H  -0.12057426 -0.16200263 -0.49284651
H  -0.56266601 -0.73199695 -0.14333475
H  -1.35246720 2.29754403 -0.05410765
H  -0.90902824 0.01979658 -0.08383550
12
MD Step 541.0 Units = [eV / Ang.]
C  -0.17004001 1.24979665 -0.11510694
C  -1.11589818 0.36991068 -0.00901028
C  1.04414754 0.38201650 0.72512645
C  -0.56325052 1.45730406 0.13299861
C  3.03503860 -0.76626293 0.20044940
C  1.20908300 -3.33797183 -0.51087592
H  -0.09043521 -0.15267827 0.41575098
H  -0.39107953 -0.52861760 -0.10862626
H  -0.03609406 -0.17398710 -0.49726000
H  -0.67754233 -0.98102283 -0.08941017
H  -1.47671898 2.41423116 -0.06194914
H  -0.76721032 0.06728152 -0.08208673
12
MD Step 541.5 Units = [eV / Ang.]
C  -0.36442908 0.93972901 -0.11006480
C  -0.96426114 0.44409140 -0.03897958
C  0.98694525 0.23241668 0.76678127
C  -0.59766751 1.60200838 0.01079801
C  3.03185328 -0.49111401 0.24701440
C  0.92787209 -3.31919078 -0.55653511
H  0.06141397 0.07842072 0.45417894
H  -0.40632724 -0.48844846 -0.10555632
H  0.06540699 -0.18308498 -0.49326840
H  -0.74417168 -1.15037608 -0.03083701
H  -1.44821522 2.21515422 -0.05558896
H  -0.54841971 0.12039389 -0.08794244
12
MD Step 542.0 Units = [eV / Ang.]
C  -0.56159615 0.62819214 -0.09784344
C  -0.77747996 0.51397551 -0.06740167
C  0.90581502 0.06333424 0.79609886
C  -0.66379786 1.67103399 -0.10936527
C  2.87389578 0.01146850 0.29470547
C  0.60770385 -3.23826238 -0.60025586
H  0.20374490 0.29046394 0.48364340
H  -0.42793577 -0.42851310 -0.10187945
H  0.17685220 -0.18943348 -0.48244054
H  -0.76068392 -1.23399669 0.02863059
H  -1.29666705 1.73426748 -0.04727168
H  -0.27985105 0.17746986 -0.09662040
12
MD Step 542.5 Units = [eV / Ang.]
C  -0.74890870 0.33278289 -0.07516257
C  -0.56197813 0.58163336 -0.09415162
C  0.80727704 -0.11943944 0.81480679
C  -0.75952665 1.65932156 -0.22280498
C  2.60734761 0.65390975 0.35277879
C  0.28014312 -3.09400836 -0.64532068
H  0.32592437 0.46689021 0.50022113
H  -0.45240497 -0.35362645 -0.09744263
H  0.28975004 -0.19322547 -0.46695884
H  -0.72701657 -1.22921063 0.08516869
H  -1.06895484 1.05927820 -0.04731085
H  0.00834768 0.23569438 -0.10382324
12
MD Step 543.0 Units = [eV / Ang.]
C  -0.91574902 0.06703310 -0.04024403
C  -0.32556034 0.64962658 -0.11919949
C  0.69901933 -0.30970461 0.82506429
C  -0.88054305 1.56351149 -0.32503957
C  2.27873648 1.32884272 0.42568534
C  -0.02538479 -2.88614885 -0.69407969
H  0.42007168 0.59575061 0.50163742
H  -0.47562918 -0.26948568 -0.09206757
H  0.39476216 -0.19466531 -0.44942547
H  -0.64441140 -1.13595005 0.13503045
H  -0.81298969 0.29941286 -0.06099301
H  0.28767784 0.29177713 -0.10636867
12
MD Step 543.5 Units = [eV / Ang.]
C  -1.05360183 -0.15926308 0.00739138
C  -0.07680481 0.72055011 -0.14259544
C  0.58933797 -0.50127294 0.82918977
C  -1.02091272 1.38261957 -0.41197262
C  1.92418644 1.94090108 0.51292963
C  -0.28477427 -2.61593966 -0.74775433
H  0.48092995 0.66935275 0.48709482
H  -0.49338500 -0.18210497 -0.08558375
H  0.48249217 -0.19392121 -0.43257064
H  -0.51552569 -0.95702096 0.17469454
H  -0.56622866 -0.44649090 -0.08842259
H  0.53428646 0.34259020 -0.10240077
12
MD Step 544.0 Units = [eV / Ang.]
C  -1.15595102 -0.33950992 0.06720477
C  0.17551620 0.79659395 -0.16445509
C  0.48634658 -0.68828931 0.82931788
C  -1.17312073 1.11972259 -0.48015886
C  1.56647268 2.42475231 0.61077400
C  -0.48070016 -2.28673392 -0.80648409
H  0.50554664 0.68364638 0.45701122
H  -0.50178072 -0.09728948 -0.07785750
H  0.54445293 -0.19108147 -0.41888716
H  -0.34509564 -0.69938922 0.20113800
H  -0.35187664 -1.10802189 -0.12632364
H  0.73018987 0.38559996 -0.09127953
12
MD Step 544.5 Units = [eV / Ang.]
C  -1.21823969 -0.46989982 0.13788068
C  0.42295387 0.87917663 -0.18494337
C  0.39706617 -0.86546091 0.82703871
C  -1.32757860 0.78434367 -0.52725734
C  1.21770761 2.74752023 0.71420530
C  -0.60266317 -1.90433932 -0.86950388
H  0.49300567 0.63773690 0.41278217
H  -0.49761682 -0.02019576 -0.06881325
H  0.57407950 -0.18612806 -0.41025066
H  -0.14097476 -0.37621537 0.21232641
H  -0.18090114 -1.64559665 -0.17015678
H  0.86316136 0.41905845 -0.07330800
12
MD Step 545.0 Units = [eV / Ang.]
C  -1.23798265 -0.54934315 0.21748089
C  0.65778041 0.96867139 -0.20425823
C  0.32655321 -1.02816149 0.82309521
C  -1.47186686 0.39483581 -0.55269280
C  0.88403167 2.90149434 0.81821383
C  -0.64622976 -1.47710275 -0.93536024
H  0.44435215 0.53374452 0.35661564
H  -0.47863853 0.04499917 -0.05844608
H  0.56760702 -0.17893786 -0.40760337
H  0.08481212 -0.00898823 0.20792984
H  -0.05638731 -2.04322770 -0.21554028
H  0.92596854 0.44201594 -0.04943440
12
MD Step 545.5 Units = [eV / Ang.]
C  -1.21510602 -0.57976838 0.30352205
C  0.87328130 1.06421903 -0.22261319
C  0.27726816 -1.17244269 0.81721671
C  -1.59027566 -0.02030607 -0.55839470
C  0.56972480 2.89403110 0.91826557
C  -0.61202489 -1.01575905 -1.00211657
H  0.36275365 0.37706298 0.29142740
H  -0.44368281 0.09532975 -0.04682512
H  0.52462726 -0.16931583 -0.41078063
H  0.31555678 0.37132958 0.19011909
H  0.02231592 -2.29862393 -0.25881309
H  0.91556152 0.45424349 -0.02100751
12
MD Step 546.0 Units = [eV / Ang.]
C  -1.15239948 -0.56670820 0.39303399
C  1.06393380 1.16363329 -0.24022061
C  0.24882355 -1.29498482 0.80814225
C  -1.66436884 -0.42354062 -0.54929454
C  0.27979515 2.73882164 1.01026677
C  -0.50492486 -0.53304368 -1.06753331
H  0.25382587 0.17690437 0.22074377
H  -0.39273364 0.12918448 -0.03408948
H  0.44819447 -0.15705550 -0.41852775
H  0.53056114 0.72550790 0.16410185
H  0.05667692 -2.41485917 -0.29701716
H  0.83261592 0.45614031 0.01039420
12
MD Step 546.5 Units = [eV / Ang.]
C  -1.05593486 -0.51991603 0.48266985
C  1.22550073 1.26337263 -0.25727052
C  0.23818187 -1.39301473 0.79383726
C  -1.67509804 -0.77279533 -0.53312390
C  0.02109259 2.44998851 1.09034828
C  -0.33367776 -0.04311647 -1.12922411
H  0.12595236 -0.05314206 0.14853682
H  -0.32690417 0.14638313 -0.02043866
H  0.34444920 -0.14201262 -0.42870729
H  0.70750473 1.01064868 0.13793062
H  0.04733319 -2.39505838 -0.32763341
H  0.68160017 0.44866268 0.04307507
12
MD Step 547.0 Units = [eV / Ang.]
C  -0.93515562 -0.45361273 0.56894448
C  1.35502786 1.35860588 -0.27391072
C  0.24024170 -1.46425389 0.77185607
C  -1.60639853 -1.02915909 -0.51916813
C  -0.19764870 2.03907466 1.15469123
C  -0.11100090 0.43914550 -1.18480015
H  -0.00967286 -0.29495488 0.07892355
H  -0.24834649 0.14818140 -0.00611993
H  0.22185027 -0.12417056 -0.43864567
H  0.82632924 1.18797242 0.12123260
H  -0.00655120 -2.24010422 -0.34831234
H  0.47132524 0.43327552 0.07530901
12
MD Step 547.5 Units = [eV / Ang.]
C  -0.80235325 -0.38589029 0.64862939
C  1.45077378 1.44335450 -0.29022786
C  0.24867726 -1.50688998 0.73976617
C  -1.44930786 -1.16574037 -0.51607689
C  -0.36655186 1.51473012 1.19952673
C  0.14603747 0.89895162 -1.23201726
H  -0.13958353 -0.52661029 0.01570504
H  -0.16009849 0.13720345 0.00858796
H  0.09017782 -0.10368298 -0.44553918
H  0.87361547 1.23176035 0.12296720
H  -0.10710191 -1.94908149 -0.35675617
H  0.21571510 0.41189535 0.10543489
12
MD Step 548.0 Units = [eV / Ang.]
C  -0.67132720 -0.33693011 0.71925389
C  1.51206710 1.51075659 -0.30623245
C  0.25683992 -1.51958176 0.69554093
C  -1.20504174 -1.17435898 -0.52942949
C  -0.47609432 0.88515014 1.22141731
C  0.41576970 1.32248602 -1.26893755
H  -0.24936537 -0.72434121 -0.03819473
H  -0.06585646 0.11727114 0.02339091
H  -0.04049392 -0.08088243 -0.44683444
H  0.84583653 1.13608697 0.14892594
H  -0.25666312 -1.52242943 -0.35088183
H  -0.06567112 0.38677307 0.13198151
12
MD Step 548.5 Units = [eV / Ang.]
C  -0.55527885 -0.32603378 0.77957156
C  1.53909457 1.55345029 -0.32185123
C  0.25858696 -1.50146947 0.63785442
C  -0.88567009 -1.06713500 -0.56008451
C  -0.51956487 0.16344823 1.21790734
C  0.67238944 1.69785402 -1.29409484
H  -0.32572101 -0.86570501 -0.08124116
H  0.03032198 0.09310704 0.03799518
H  -0.16070535 -0.05625831 -0.44052262
H  0.75009973 0.91636557 0.20002307
H  -0.45558329 -0.96789547 -0.32937441
H  -0.34796921 0.36027188 0.15381721
12
MD Step 549.0 Units = [eV / Ang.]
C  -0.46437071 -0.36798212 0.82980879
C  1.53265496 1.56409044 -0.33692524
C  0.24890909 -1.45218057 0.56623480
C  -0.51203235 -0.87231660 -0.60404718
C  -0.49674140 -0.62441837 1.18857882
C  0.88770150 2.01601265 -1.30664259
H  -0.35886841 -0.93339344 -0.11355694
H  0.12436893 0.06990538 0.05212002
H  -0.26230280 -0.03041215 -0.42531744
H  0.60207496 0.60499955 0.27212740
H  -0.69863336 -0.30883523 -0.29267178
H  -0.60276040 0.33453044 0.17029135
12
MD Step 549.5 Units = [eV / Ang.]
C  -0.40365825 -0.46976324 0.87155178
C  1.49389930 1.53598212 -0.35121997
C  0.22434296 -1.37181549 0.48109136
C  -0.10979399 -0.62637148 -0.65382133
C  -0.41849759 -1.43131472 1.13630444
C  1.03440000 2.27154852 -1.30643067
H  -0.34456673 -0.91862297 -0.13680106
H  0.21257903 0.05278109 0.06550611
H  -0.33890517 -0.00400413 -0.40072203
H  0.42207085 0.24315134 0.35740931
H  -0.97040391 0.40736060 -0.24417876
H  -0.80146650 0.31106836 0.18131082
12
MD Step 550.0 Units = [eV / Ang.]
C  -0.37212599 -0.62871852 0.90727301
C  1.42409352 1.46376648 -0.36443641
C  0.18318124 -1.26092432 0.38363010
C  0.29485297 -0.36573788 -0.70051524
C  -0.31080909 -2.18490023 1.06809486
C  1.09048053 2.46302414 -1.29397325
H  -0.28505940 -0.82297966 -0.15365904
H  0.29195652 0.04615279 0.07791817
H  -0.38617508 0.02229898 -0.36700258
H  0.23086165 -0.12794828 0.44646808
H  -1.24129602 1.10550971 -0.19110000
H  -0.91996086 0.29045680 0.18730229
12
MD Step 550.5 Units = [eV / Ang.]
C  -0.36320294 -0.83279306 0.93965608
C  1.32447705 1.34407199 -0.37622796
C  0.12551633 -1.12048455 0.27570756
C  0.67856157 -0.12103821 -0.73579486
C  -0.21506248 -2.79412856 0.99458452
C  1.04364596 2.59267964 -1.27029353
H  -0.18856453 -0.65803903 -0.16711278
H  0.36047104 0.05315920 0.08914319
H  -0.40195969 0.04786646 -0.32509862
H  0.04660400 -0.47329682 0.53031903
H  -1.46724470 1.68980427 -0.14393219
H  -0.94324159 0.27219867 0.18904956
12
MD Step 551.0 Units = [eV / Ang.]
C  -0.36654060 -1.06272969 0.97095864
C  1.19621642 1.17603229 -0.38621631
C  0.05318008 -0.95189350 0.15965239
C  1.02268051 0.08524362 -0.75310698
C  -0.18127949 -3.16954109 0.92747021
C  0.89421503 2.66540274 -1.23668751
H  -0.06750836 -0.44292833 -0.17974529
H  0.41718492 0.07520059 0.09898640
H  -0.38635324 0.07213429 -0.27649179
H  -0.11662753 -0.76693043 0.60164932
H  -1.59651359 2.06510644 -0.11392250
H  -0.86865416 0.25490309 0.18745343
12
MD Step 551.5 Units = [eV / Ang.]
C  -0.37040884 -1.29540833 1.00260523
C  1.04049084 0.96156382 -0.39400537
C  -0.03039742 -0.75697893 0.03807590
C  1.31366295 0.23824676 -0.74807141
C  -0.25377256 -3.25209751 0.87542823
C  0.65537636 2.68719574 -1.19448641
H  0.06386615 -0.20071042 -0.19328704
H  0.46222316 0.11171165 0.10726747
H  -0.34170265 0.09462403 -0.22304679
H  -0.24890743 -0.99177779 0.65524330
H  -1.58395403 2.16691789 -0.10902576
H  -0.70647653 0.23671310 0.18330267
12
MD Step 552.0 Units = [eV / Ang.]
C  -0.36391336 -1.50725833 1.03507372
C  0.85868044 0.70536086 -0.39919644
C  -0.12037575 -0.53804574 -0.08631648
C  1.54240634 0.32877182 -0.71828148
C  -0.45437636 -3.03630601 0.84056706
C  0.35063477 2.66360667 -1.14489700
H  0.19175324 0.04524310 -0.20848112
H  0.49660368 0.16020519 0.11382102
H  -0.27255103 0.11495091 -0.16683228
H  -0.34371442 -1.13785582 0.68781925
H  -1.40750017 1.98549316 -0.13041234
H  -0.47764737 0.21583418 0.17713609
12
MD Step 552.5 Units = [eV / Ang.]
C  -0.33847194 -1.67695340 1.06800895
C  0.65260803 0.41461244 -0.40140383
C  -0.21077037 -0.29795131 -0.21091864
C  1.70305304 0.35115846 -0.66283621
C  -0.77228667 -2.57341422 0.81769174
C  0.00936597 2.59863615 -1.08895156
H  0.30437334 0.27400238 -0.22520619
H  0.52196694 0.21658455 0.11850248
H  -0.18546237 0.13282354 -0.10992396
H  -0.39696697 -1.20007475 0.69761669
H  -1.07791207 1.56960161 -0.17180563
H  -0.20949693 0.19097455 0.16922615
12
MD Step 553.0 Units = [eV / Ang.]
C  -0.28840857 -1.78703487 1.10044445
C  0.42480464 0.09850061 -0.40027158
C  -0.29482152 -0.04020196 -0.33341524
C  1.79181390 0.30183494 -0.58188510
C  -1.16687346 -1.95223354 0.79689649
C  -0.33802312 2.49441191 -1.02754206
H  0.39272676 0.46858315 -0.24273368
H  0.54026579 0.27565492 0.12119949
H  -0.08867456 0.14803517 -0.05420146
H  -0.40625335 -1.17651346 0.68401235
H  -0.63560877 1.00739160 -0.22215930
H  0.06905226 0.16157153 0.15965565
12
MD Step 553.5 Units = [eV / Ang.]
C  -0.21080867 -1.82460008 1.13102901
C  0.17871420 -0.23241978 -0.39549037
C  -0.36552914 0.23096356 -0.45195787
C  1.80632146 0.17889355 -0.47636263
C  -1.58160734 -1.26931672 0.76771675
C  -0.66400610 2.35159334 -0.96148008
H  0.45066240 0.61635145 -0.26000490
H  0.55347109 0.33173761 0.12184505
H  0.00848639 0.16044881 -0.00115657
H  -0.37049804 -1.06761427 0.64732992
H  -0.13665678 0.39617600 -0.26989835
H  0.33145051 0.12778653 0.14843005
12
MD Step 554.0 Units = [eV / Ang.]
C  -0.10497728 -1.78137572 1.15820468
C  -0.08118498 -0.56688269 -0.38681288
C  -0.41637216 0.51053498 -0.56529975
C  1.74580186 -0.01722360 -0.34799588
C  -1.96082304 -0.60433267 0.72241177
C  -0.94629200 2.17022441 -0.89153090
H  0.47455553 0.70874166 -0.27585864
H  0.56333346 0.37928923 0.12043099
H  0.09643551 0.16997940 0.04825478
H  -0.29017527 -0.87646112 0.58890429
H  0.36375374 -0.18283220 -0.30628268
H  0.55594464 0.09033832 0.13557422
12
MD Step 554.5 Units = [eV / Ang.]
C  0.02816647 -1.65355924 1.18033894
C  -0.34937788 -0.89353507 -0.37406499
C  -0.44217226 0.79276758 -0.67284941
C  1.61208033 -0.28205783 -0.19958760
C  -2.26145969 -0.00921952 0.65717133
C  -1.16863315 1.95066433 -0.81841254
H  0.46289113 0.74075957 -0.28919560
H  0.57121909 0.41344605 0.11701535
H  0.16634499 0.17657699 0.09368102
H  -0.16809039 -0.61009686 0.51137793
H  0.82259611 -0.67602144 -0.32666581
H  0.72643526 0.05027543 0.12119138
12
MD Step 555.0 Units = [eV / Ang.]
C  0.18652478 -1.44172123 1.19582716
C  -0.61943189 -1.20151422 -0.35714894
C  -0.43996632 1.07130696 -0.77462660
C  1.41119965 -0.60480542 -0.03546973
C  -2.45704718 0.49008186 0.57158558
C  -1.32057589 1.69435333 -0.74276825
H  0.41596838 0.71064195 -0.29908877
H  0.57801483 0.43045722 0.11172453
H  0.21120292 0.18021813 0.13533985
H  -0.01062086 -0.28160047 0.41911628
H  1.21248241 -1.05618684 -0.32997508
H  0.83224917 0.00876873 0.10548397
12
MD Step 555.5 Units = [eV / Ang.]
C  0.36695952 -1.15093497 1.20320076
C  -0.88421785 -1.48094992 -0.33604128
C  -0.40971303 1.33937266 -0.87110327
C  1.15518258 -0.96599217 0.13809195
C  -2.53579586 0.88550335 0.46740635
C  -1.39672454 1.40428056 -0.66514073
H  0.33583188 0.61988874 -0.30486748
H  0.58409135 0.42798798 0.10474600
H  0.22672339 0.18090869 0.17387326
H  0.17090689 0.08772760 0.31852179
H  1.51932146 -1.31475689 -0.31743681
H  0.86743423 -0.03303563 0.08874946
12
MD Step 556.0 Units = [eV / Ang.]
C  0.56510561 -0.79116790 1.20125361
C  -1.13619676 -1.72342490 -0.31078781
C  -0.35461307 1.58997475 -0.96295636
C  0.86318436 -1.33621673 0.31286876
C  -2.49611457 1.17795051 0.34741452
C  -1.39598823 1.08515431 -0.58596342
H  0.22644010 0.47372588 -0.30618995
H  0.58929797 0.40531389 0.09631393
H  0.21190353 0.17869726 0.21012147
H  0.35932893 0.46717904 0.21793694
H  1.73756019 -1.45308568 -0.29137422
H  0.83009194 -0.07410043 0.07136254
12
MD Step 556.5 Units = [eV / Ang.]
C  0.77496947 -0.37780755 1.18917576
C  -1.36773581 -1.92237254 -0.28149125
C  -0.28094409 1.81612654 -1.05078818
C  0.56111003 -1.67731285 0.47934632
C  -2.34205659 1.37051892 0.21472684
C  -1.32114874 0.74334831 -0.50556865
H  0.09397376 0.28185479 -0.30310383
H  0.59297832 0.36340839 0.08668726
H  0.16911125 0.17369447 0.24487029
H  0.53210330 0.81784962 0.12683258
H  1.86555289 -1.47576740 -0.25443556
H  0.72208620 -0.11354069 0.05374843
12
MD Step 557.0 Units = [eV / Ang.]
C  0.98849629 0.06796223 1.16666809
C  -1.57140875 -2.07340186 -0.24830212
C  -0.19737908 2.01102175 -1.13486792
C  0.27892417 -1.94694909 0.62822133
C  -2.07991384 1.46450159 0.07253540
C  -1.17885923 0.38672707 -0.42420224
H  -0.05289484 0.05916643 -0.29607611
H  0.59399364 0.30493215 0.07612271
H  0.10367503 0.16608835 0.27863156
H  0.66386745 1.09731580 0.05419453
H  1.90226523 -1.38671044 -0.20926957
H  0.54923392 -0.15065397 0.03634433
12
MD Step 557.5 Units = [eV / Ang.]
C  1.19538435 0.51941766 1.13398174
C  -1.74024759 -2.17450687 -0.21140837
C  -0.11393411 2.16819521 -1.21495584
C  0.04565737 -2.10644067 0.75239794
C  -1.71631055 1.45789703 -0.07585517
C  -0.98002454 0.02440943 -0.34202965
H  -0.20304062 -0.17410791 -0.28595255
H  0.59075841 0.23410551 0.06484508
H  0.02309493 0.15614693 0.31150705
H  0.73112723 1.26754434 0.00645308
H  1.84565289 -1.18770098 -0.15852676
H  0.32188225 -0.18495968 0.01954345
12
MD Step 558.0 Units = [eV / Ang.]
C  1.38344764 0.94568745 1.09183754
C  -1.86793746 -2.22610783 -0.17102783
C  -0.04073939 2.28167430 -1.29023996
C  -0.11668534 -2.12968676 0.84873338
C  -1.25793576 1.34605752 -0.22684882
C  -0.74030739 -0.33343841 -0.25911608
H  -0.34349327 -0.39338790 -0.27381367
H  0.58130010 0.15643978 0.05301863
H  -0.06395757 0.14420561 0.34315632
H  0.71793279 1.30391810 -0.01427653
H  1.69279990 -0.87910639 -0.10504028
H  0.05557575 -0.21625546 0.00361730
12
MD Step 558.5 Units = [eV / Ang.]
C  1.53970347 1.31465212 1.04121044
C  -1.94896439 -2.23087486 -0.12740804
C  0.01311296 2.34616913 -1.35938752
C  -0.19812878 -2.00981532 0.91868912
C  -0.71309238 1.12444890 -0.37637399
C  -0.48029062 -0.67582134 -0.17538687
H  -0.46077205 -0.57228461 -0.26071955
H  0.56336205 0.07830177 0.04072582
H  -0.14863734 0.13063953 0.37285966
H  0.62040972 1.20189586 -0.01079474
H  1.44197987 -0.46263882 -0.05203913
H  -0.22868253 -0.24467235 -0.01137518
12
MD Step 559.0 Units = [eV / Ang.]
C  1.65212399 1.59718023 0.98302404
C  -1.97873893 -2.19331195 -0.08083204
C  0.04048598 2.35731191 -1.42068934
C  -0.20256032 -1.76057427 0.96750922
C  -0.09527792 0.79363250 -0.51986648
C  -0.22475990 -0.99115375 -0.09058396
H  -0.54284133 -0.68658345 -0.24739695
H  0.53457010 0.00630927 0.02796038
H  -0.22278849 0.11582880 0.39964557
H  0.44810870 0.97830614 0.01010909
H  1.09681864 0.05374576 -0.00321195
H  -0.50514052 -0.27069118 -0.02566757
12
MD Step 559.5 Units = [eV / Ang.]
C  1.71164081 1.77188268 0.91787079
C  -1.95374495 -2.11912160 -0.03163854
C  0.03676549 2.31195311 -1.47225881
C  -0.14569411 -1.41186714 1.00230559
C  0.57147041 0.36621537 -0.65262704
C  -0.00059475 -1.26764486 -0.00426204
H  -0.58125409 -0.71883857 -0.23397949
H  0.49267521 -0.05340673 0.01464008
H  -0.27958047 0.10012445 0.42244715
H  0.22150844 0.66664998 0.03971215
H  0.67227180 0.64912328 0.03760235
H  -0.74546378 -0.29506998 -0.03981219
12
MD Step 560.0 Units = [eV / Ang.]
C  1.71380172 1.82900620 0.84588277
C  -1.87174721 -2.01443356 0.01974693
C  0.00009672 2.20845108 -1.51224640
C  -0.05029457 -1.00160034 1.02994117
C  1.24700692 -0.12577168 -0.77074601
C  0.16675645 -1.49391435 0.08413592
H  -0.57283482 -0.66219497 -0.21992295
H  0.43586425 -0.09597735 0.00064159
H  -0.31392223 0.08382296 0.44025474
H  -0.03315036 0.30861304 0.06962169
H  0.20081629 1.28265407 0.06730005
H  -0.92239315 -0.31865509 -0.05460952
12
MD Step 560.5 Units = [eV / Ang.]
C  1.65947173 1.77212418 0.76682843
C  -1.73206891 -1.88503218 0.07277076
C  -0.06864843 2.04691583 -1.53903708
C  0.05921037 -0.56732512 1.05553245
C  1.87275960 -0.62668853 -0.87254492
C  0.25766840 -1.65989420 0.17510132
H  -0.52030118 -0.52205100 -0.20415969
H  0.36310611 -0.11848087 -0.01414467
H  -0.32269302 0.06715314 0.45224740
H  -0.28949230 -0.05468139 0.09339917
H  -0.26470290 1.89006124 0.08492943
H  -1.01430948 -0.34210109 -0.07092261
12
MD Step 561.0 Units = [eV / Ang.]
C  1.55436709 1.61700207 0.68039864
C  -1.53590345 -1.73572862 0.12671090
C  -0.16608771 1.82934995 -1.55141210
C  0.16089778 -0.14048136 1.08190552
C  2.37721069 -1.06125465 -0.95996693
C  0.26233627 -1.75798142 0.26881466
H  -0.43159710 -0.31491333 -0.18544594
H  0.27447321 -0.12039237 -0.02975211
H  -0.30485115 0.05027654 0.45789264
H  -0.52516060 -0.38882292 0.10719279
H  -0.65621940 2.38852981 0.09307313
H  -1.00946564 -0.36558369 -0.08941119
12
MD Step 561.5 Units = [eV / Ang.]
C  1.40763470 1.38811698 0.58655294
C  -1.28659961 -1.57000342 0.18064503
C  -0.28664831 1.55966857 -1.54866326
C  0.23754604 0.25581379 1.10983786
C  2.69151879 -1.34990464 -1.03884706
C  0.18302261 -1.78426401 0.36491583
H  -0.31819393 -0.06488619 -0.16276416
H  0.17137129 -0.10369292 -0.04608005
H  -0.26146684 0.03330099 0.45701284
H  -0.72370431 -0.66868181 0.10954123
H  -0.90598746 2.69315686 0.09812217
H  -0.90849297 -0.38862420 -0.11027335
12
MD Step 562.0 Units = [eV / Ang.]
C  1.23004333 1.11408439 0.48577772
C  -0.98981050 -1.38996802 0.23344944
C  -0.42294359 1.24358935 -1.53066142
C  0.27711963 0.60611446 1.13868960
C  2.77119174 -1.43254490 -1.11718025
C  0.03366689 -1.73944080 0.46239234
H  -0.19296531 0.20092086 -0.13562861
H  0.05661067 -0.07260287 -0.06285812
H  -0.19569453 0.01630287 0.44981733
H  -0.87450614 -0.87803747 0.10075173
H  -0.96846952 2.74168645 0.10854890
H  -0.72424268 -0.41010432 -0.13309867
12
MD Step 562.5 Units = [eV / Ang.]
C  1.03238800 0.82341842 0.37917861
C  -0.65345042 -1.19661480 0.28382663
C  -0.56618435 0.88841728 -1.49787436
C  0.27223082 0.90051343 1.16707030
C  2.61311099 -1.29022138 -1.20176334
C  -0.16298709 -1.62904669 0.55964631
H  -0.06827964 0.45660900 -0.10421125
H  -0.06570776 -0.03300071 -0.07964068
H  -0.11266996 -0.00064406 0.43689674
H  -0.97160292 -1.00763813 0.08221987
H  -0.83781468 2.51667897 0.13154656
H  -0.47903299 -0.42847133 -0.15689539
12
MD Step 563.0 Units = [eV / Ang.]
C  0.82447139 0.54155061 0.26840816
C  -0.28742051 -0.99024101 0.33036901
C  -0.70664355 0.50273248 -1.45132886
C  0.21920938 1.13232667 1.19334300
C  2.25734305 -0.95249703 -1.29506716
C  -0.37968806 -1.46276573 0.65472775
H  0.04528143 0.68036056 -0.06929311
H  -0.19047974 0.00834441 -0.09583462
H  -0.01928123 -0.01743693 0.41917381
H  -1.01224424 -1.05296824 0.05590040
H  -0.55025391 2.05264460 0.16988054
H  -0.20029402 -0.44205041 -0.18027891
12
MD Step 563.5 Units = [eV / Ang.]
C  0.61473461 0.28935233 0.15549947
C  0.09685625 -0.77094354 0.37164463
C  -0.83420641 0.09605313 -1.39251539
C  0.11721909 1.29641851 1.21591555
C  1.77223979 -0.48599336 -1.39429708
C  -0.58900256 -1.25304029 0.74564312
H  0.13948767 0.85570864 -0.03210952
H  -0.31201046 0.04457590 -0.11075286
H  0.07623928 -0.03391654 0.39780750
H  -0.99576830 -1.01256570 0.02398645
H  -0.16973469 1.42369841 0.22092150
H  0.08394573 -0.44934749 -0.20174336
12
MD Step 564.0 Units = [eV / Ang.]
C  0.41036852 0.08281561 0.04267882
C  0.48702094 -0.53904688 0.40629294
C  -0.93904275 -0.32151559 -1.32323436
C  -0.03226833 1.38858868 1.23334817
C  1.23183520 0.02889377 -1.49299752
C  -0.76662947 -1.01345510 0.83063281
H  0.20847028 0.97154958 0.00583320
H  -0.42447773 0.06944706 -0.12368195
H  0.16494649 -0.04984789 0.37405105
H  -0.92309281 -0.88731058 -0.01123856
H  0.23430801 0.71913756 0.27823666
H  0.34856164 -0.44925623 -0.21992126
12
MD Step 564.5 Units = [eV / Ang.]
C  0.21763763 -0.06662383 -0.06779548
C  0.87040446 -0.29543766 0.43311559
C  -1.01240480 -0.73957257 -1.24539925
C  -0.22545700 1.40611300 1.24434282
C  0.69744122 0.52046487 -1.58381715
C  -0.89329164 -0.75737068 0.90833767
H  0.24843868 1.02147613 0.04291989
H  -0.52238458 0.07784406 -0.13395043
H  0.23802982 -0.06491830 0.34907954
H  -0.79690588 -0.68081416 -0.04744730
H  0.60519302 0.01997961 0.33437916
H  0.57329907 -0.44114046 -0.23376506
12
MD Step 565.0 Units = [eV / Ang.]
C  0.04216621 -0.15163240 -0.17375271
C  1.23462516 -0.04177873 0.45115193
C  -1.04749259 -1.14765144 -1.16082507
C  -0.45561608 1.34935048 1.24769288
C  0.20972520 0.93839197 -1.66072851
C  -0.95533555 -0.49698876 0.97783973
H  0.25735844 1.00299581 0.07755347
H  -0.60095452 0.06611202 -0.14099040
H  0.28779828 -0.07875495 0.32381712
H  -0.62249501 -0.40083795 -0.08229475
H  0.90690204 -0.61438735 0.38316811
H  0.74331841 -0.42481871 -0.24263179
12
MD Step 565.5 Units = [eV / Ang.]
C  -0.11100351 -0.16872494 -0.27320390
C  1.56815043 0.21935488 0.45973452
C  -1.04027121 -1.53540895 -1.07103636
C  -0.71202395 1.22412129 1.24227023
C  -0.20987705 1.25542643 -1.71992524
C  -0.94450679 -0.24283251 1.03861230
H  0.23476827 0.91701956 0.10826163
H  -0.65645813 0.03222400 -0.14438632
H  0.30866369 -0.09096258 0.29879891
H  -0.40898633 -0.06143818 -0.11349717
H  1.12270601 -1.14827795 0.42066335
H  0.84883857 -0.40050104 -0.24629196
12
MD Step 566.0 Units = [eV / Ang.]
C  -0.23766392 -0.11837501 -0.36443982
C  1.86080774 0.48439433 0.45852591
C  -0.99006174 -1.89280895 -0.97713705
C  -0.97892337 1.04417507 1.22710999
C  -0.55315223 1.46215971 -1.75961800
C  -0.85738425 -0.00352697 1.09043357
H  0.18183218 0.76780542 0.13381117
H  -0.68647877 -0.02415325 -0.14391356
H  0.29792418 -0.10117602 0.27410715
H  -0.17052517 0.31485178 -0.13901425
H  1.24916875 -1.56462074 0.44503216
H  0.88445660 -0.36872536 -0.24489727
12
MD Step 566.5 Units = [eV / Ang.]
C  -0.33501685 -0.00544998 -0.44615859
C  2.10425699 0.74870100 0.44753901
C  -0.89975195 -2.21034177 -0.87976605
C  -1.23521057 0.83266861 1.20160388
C  -0.81872770 1.55963690 -1.77934480
C  -0.69487998 0.21419157 1.13330581
H  0.10163245 0.56333463 0.15335491
H  -0.69013259 -0.10164058 -0.13956667
H  0.25618550 -0.10911607 0.24939985
H  0.07331299 0.69592203 -0.15733694
H  1.28971925 -1.85758824 0.45590630
H  0.84861246 -0.33031809 -0.23893672
12
MD Step 567.0 Units = [eV / Ang.]
C  -0.40246741 0.16019397 -0.51763515
C  2.29243685 1.00650631 0.42714492
C  -0.77554200 -2.47932130 -0.77914632
C  -1.45567024 0.62125851 1.16574197
C  -1.00744746 1.55285557 -1.77929068
C  -0.46206589 0.40533132 1.16740250
H  -0.00037993 0.31592186 0.16661755
H  -0.66825453 -0.19713841 -0.13158010
H  0.18730959 -0.11463586 0.22402865
H  0.29869064 1.04147955 -0.16780990
H  1.24990783 -2.02607123 0.45372089
H  0.74348257 -0.28638030 -0.22919433
12
MD Step 567.5 Units = [eV / Ang.]
C  -0.44241763 0.36331375 -0.57890900
C  2.42193116 1.25086978 0.39806743
C  -0.62624474 -2.69223969 -0.67520652
C  -1.61425705 0.44576999 1.12026964
C  -1.11990981 1.44633375 -1.75985415
C  -0.16840444 0.56641241 1.19303382
H  -0.11596747 0.04267235 0.17409391
H  -0.62352855 -0.30583471 -0.12043841
H  0.09791438 -0.11774602 0.19721504
H  0.48072915 1.30796646 -0.17084636
H  1.13479495 -2.06924221 0.43927548
H  0.57536005 -0.23827585 -0.21670088
12
MD Step 568.0 Units = [eV / Ang.]
C  -0.46073800 0.58356408 -0.63093028
C  2.49219991 1.47371354 0.36136297
C  -0.46226067 -2.84316015 -0.56774142
C  -1.68902476 0.33869852 1.06661105
C  -1.15583442 1.24187184 -1.72151647
C  0.17172885 0.69520125 1.21060906
H  -0.23400786 -0.23472790 0.17719113
H  -0.56051349 -0.42126720 -0.10687021
H  -0.00347571 -0.11861085 0.16824157
H  0.59837370 1.45670462 -0.16787720
H  0.94817163 -1.98440588 0.41357720
H  0.35538081 -0.18758188 -0.20265742
12
MD Step 568.5 Units = [eV / Ang.]
C  -0.46655435 0.79689821 -0.67556091
C  2.50559098 1.66598981 0.31837830
C  -0.29443705 -2.92806287 -0.45657391
C  -1.66726015 0.32064029 1.00651136
C  -1.11480623 0.93851885 -1.66499079
C  0.53855118 0.79043929 1.22055507
H  -0.34103514 -0.49137721 0.17821368
H  -0.48549329 -0.53550308 -0.09181731
H  -0.10743263 -0.11751621 0.13661319
H  0.63942098 1.46307857 -0.16097558
H  0.69323437 -1.76714597 0.37794499
H  0.10022134 -0.13595968 -0.18829809
12
MD Step 569.0 Units = [eV / Ang.]
C  -0.47108629 0.97831995 -0.71533803
C  2.46702495 1.81804547 0.27068064
C  -0.13297367 -2.94506857 -0.34168719
C  -1.54879481 0.39409720 0.94151183
C  -0.99809702 0.53497332 -1.59159655
C  0.90692746 0.85155338 1.22316989
H  -0.42264301 -0.70191750 0.18009629
H  -0.40606881 -0.63952017 -0.07637080
H  -0.20461276 -0.11481789 0.10215997
H  0.60365357 1.32321747 -0.15226954
H  0.37445747 -1.41395912 0.33431750
H  -0.16778707 -0.08492353 -0.17467402
12
MD Step 569.5 Units = [eV / Ang.]
C  -0.48555793 1.10566768 -0.75297017
C  2.38331436 1.92023893 0.21995737
C  0.01344889 -2.89449278 -0.22331213
C  -1.34604718 0.54253919 0.87249985
C  -0.81132933 0.03481747 -1.50374449
C  1.24757064 0.87838456 1.21841347
H  -0.46568588 -0.84438100 0.18586366
H  -0.33044938 -0.72384538 -0.06167030
H  -0.28658064 -0.11087949 0.06507218
H  0.50263644 1.05518972 -0.14338939
H  0.00043826 -0.92770672 0.28564983
H  -0.42175825 -0.03553221 -0.16236988
12
MD Step 570.0 Units = [eV / Ang.]
C  -0.51864477 1.16353423 -0.79065779
C  2.26214749 1.96379937 0.16788793
C  0.13828703 -2.77871122 -0.10196260
C  -1.08087246 0.73523930 0.79955011
C  -0.56751650 -0.54545112 -1.40529831
C  1.52980844 0.87098576 1.20569812
H  -0.46081745 -0.90420967 0.19791770
H  -0.26647451 -0.77945639 -0.04877487
H  -0.34641824 -0.10601540 0.02587355
H  0.35627341 0.69413561 -0.13517665
H  -0.41278582 -0.32575212 0.23616796
H  -0.63298661 0.01190166 -0.15122515
12
MD Step 570.5 Units = [eV / Ang.]
C  -0.57421276 1.14610910 -0.82945331
C  2.11088916 1.94185102 0.11600779
C  0.23747253 -2.60189037 0.02157051
C  -0.77969959 0.93562400 0.72209808
C  -0.28945500 -1.16723988 -1.30142369
C  1.72580536 0.82957828 1.18378817
H  -0.40460534 -0.87718467 0.21737733
H  -0.22050581 -0.79885816 -0.03852400
H  -0.37911469 -0.10044728 -0.01464884
H  0.18771418 0.28358806 -0.12771973
H  -0.83909140 0.35092647 0.19110455
H  -0.77519665 0.05794343 -0.14017686
12
MD Step 571.0 Units = [eV / Ang.]
C  -0.65017326 1.05792887 -0.86890302
C  1.93545045 1.85044973 0.06558669
C  0.30950811 -2.36962943 0.14626198
C  -0.46891406 1.10960755 0.63932000
C  -0.00968043 -1.76387614 -1.19750562
C  1.81538535 0.75471800 1.15092066
H  -0.30045710 -0.77019944 0.24372010
H  -0.19641259 -0.77716581 -0.03142044
H  -0.38177788 -0.09428181 -0.05554137
H  0.01865504 -0.13344468 -0.12060883
H  -1.24216490 1.03201096 0.15551880
H  -0.82941874 0.10388220 -0.12734894
12
MD Step 571.5 Units = [eV / Ang.]
C  -0.73887255 0.91229823 -0.90711665
C  1.73953114 1.68941571 0.01754851
C  0.35537544 -2.08858519 0.27091520
C  -0.17174024 1.23112294 0.55052413
C  0.23375863 -2.24430396 -1.09709666
C  1.79002523 0.64766216 1.10519255
H  -0.15800193 -0.59959715 0.27487107
H  -0.19491246 -0.71295724 -0.02756236
H  -0.35373310 -0.08751063 -0.09579085
H  -0.13358330 -0.52076251 -0.11323933
H  -1.57982131 1.62194586 0.13219081
H  -0.78802554 0.15127178 -0.11043640
12
MD Step 572.0 Units = [eV / Ang.]
C  -0.82881129 0.72804124 -0.94122159
C  1.52442928 1.46277556 -0.02755193
C  0.37828853 -1.76612654 0.39424163
C  0.09318624 1.28395035 0.45541022
C  0.40590200 -2.51120231 -0.99970444
C  1.65458615 0.51078408 1.04512312
H  0.00883072 -0.38771055 0.30769312
H  -0.21345525 -0.60868533 -0.02664498
H  -0.29654252 -0.08003207 -0.13443209
H  -0.25694339 -0.85163253 -0.10503711
H  -1.81299869 2.01852993 0.11942510
H  -0.65647178 0.20130816 -0.08730104
12
MD Step 572.5 Units = [eV / Ang.]
C  -0.90706327 0.52576226 -0.96801401
C  1.28950965 1.17870122 -0.06949345
C  0.38333173 -1.41007128 0.51495021
C  0.31211360 1.26055919 0.35415247
C  0.48498451 -2.49054399 -0.89999858
C  1.42615539 0.34789529 0.97020253
H  0.18434149 -0.15881283 0.33867794
H  -0.24669622 -0.47052491 -0.02803165
H  -0.21396047 -0.07168906 -0.17064840
H  -0.34404056 -1.10845334 -0.09556813
H  -1.91660961 2.14289228 0.11035109
H  -0.45206624 0.25428518 -0.05658000
12
MD Step 573.0 Units = [eV / Ang.]
C  -0.96156041 0.32472563 -0.98457098
C  1.03314798 0.84895363 -0.10831323
C  0.37702899 -1.02852819 0.63184034
C  0.47591770 1.15945199 0.24734480
C  0.46908280 -2.15957380 -0.78964087
C  1.13045472 0.16435935 0.88121936
H  0.35340524 0.06434145 0.36459519
H  -0.28742554 -0.30768665 -0.03087438
H  -0.11180399 -0.06231710 -0.20385823
H  -0.39091231 -1.28080165 -0.08455677
H  -1.88709470 1.96772911 0.09490456
H  -0.20024048 0.30934624 -0.01808979
12
MD Step 573.5 Units = [eV / Ang.]
C  -0.98271295 0.14094551 -0.98866871
C  0.75391793 0.48798131 -0.14422049
C  0.36682001 -0.62983637 0.74389383
C  0.57962141 0.98238213 0.13587042
C  0.37548819 -1.55724884 -0.66115223
C  0.79718332 -0.03298183 0.78026540
H  0.50309789 0.26271485 0.38293689
H  -0.32771433 -0.13135272 -0.03425065
H  0.00231641 -0.05179577 -0.23377716
H  -0.39577035 -1.36315493 -0.07185709
H  -1.74255811 1.52774793 0.06386498
H  0.07031057 0.36459874 0.02709481
12
MD Step 574.0 Units = [eV / Ang.]
C  -0.96414716 -0.01350374 -0.97896183
C  0.45165949 0.11186142 -0.17752410
C  0.36046919 -0.22257284 0.85034871
C  0.62175767 0.73243101 0.02077486
C  0.23327482 -0.77065937 -0.51150100
C  0.45573581 -0.23601612 0.67045283
H  0.62345756 0.42184958 0.39211055
H  -0.35999791 0.04651908 -0.03728909
H  0.11945161 -0.04009338 -0.26044372
H  -0.35814051 -1.35317374 -0.05741595
H  -1.51560755 0.90586440 0.01258996
H  0.33208698 0.41749368 0.07685878
12
MD Step 574.5 Units = [eV / Ang.]
C  -0.90272249 -0.13033512 -0.95497970
C  0.12821787 -0.26271979 -0.20858947
C  0.36535815 0.18443220 0.95073857
C  0.60375734 0.41337470 -0.09682187
C  0.07330313 0.09400129 -0.34328536
C  0.13222928 -0.43567438 0.55547931
H  0.70755717 0.53175804 0.39143677
H  -0.37790165 0.21430026 -0.03925996
H  0.22999602 -0.02729689 -0.28419533
H  -0.27855481 -1.25100091 -0.04125107
H  -1.24306214 0.20387025 -0.05770393
H  0.56182212 0.46529034 0.12843204
12
MD Step 575.0 Units = [eV / Ang.]
C  -0.79814012 -0.20452929 -0.91702770
C  -0.21225012 -0.61933768 -0.23782740
C  0.38769738 0.58212631 1.04488463
C  0.52961403 0.03041831 -0.21576357
C  -0.07961186 0.93984776 -0.16329249
C  -0.15196603 -0.62236536 0.43919106
H  0.75120062 0.58634199 0.38104140
H  -0.37672487 0.36155514 -0.03962451
H  0.32456871 -0.01361988 -0.30558649
H  -0.15882372 -1.05973337 -0.02345107
H  -0.95739814 -0.48615086 -0.14133456
H  0.74183411 0.50544692 0.17879069
12
MD Step 575.5 Units = [eV / Ang.]
C  -0.65243843 -0.23385779 -0.86606647
C  -0.56340220 -0.94252011 -0.26569897
C  0.43171150 0.96134667 1.13282923
C  0.40607095 -0.40787436 -0.33484212
C  -0.21007348 1.69563568 0.02011762
C  -0.38054965 -0.78655013 0.32523847
H  0.75255206 0.58279728 0.36172033
H  -0.35360486 0.47961313 -0.03805034
H  0.39501251 0.00061727 -0.32525606
H  -0.00284342 -0.78701240 -0.00419968
H  -0.68249066 -1.09806378 -0.23076598
H  0.86005570 0.53586852 0.22497398
12
MD Step 576.0 Units = [eV / Ang.]
C  -0.46964295 -0.21868703 -0.80361366
C  -0.91712520 -1.21830994 -0.29272607
C  0.49893140 1.31302990 1.21472945
C  0.24332287 -0.88689364 -0.45276046
C  -0.31148035 2.31846728 0.19920407
C  -0.54200847 -0.91943758 0.21685452
H  0.71191406 0.52130499 0.33482319
H  -0.30745877 0.56189741 -0.03440161
H  0.43534678 0.01503082 -0.34376496
H  0.18222444 -0.44738599 0.01618544
H  -0.43338093 -1.59403610 -0.31882250
H  0.90935710 0.55501988 0.26429259
12
MD Step 576.5 Units = [eV / Ang.]
C  -0.25565488 -0.16217924 -0.73167169
C  -1.26413252 -1.43479032 -0.31948455
C  0.58775619 1.62850944 1.29072803
C  0.05588700 -1.38334471 -0.56808589
C  -0.38322011 2.78795821 0.36789623
C  -0.62924414 -1.01371632 0.11672876
H  0.63175456 0.40514255 0.30215934
H  -0.23881000 0.60410277 -0.02871858
H  0.44250433 0.02923184 -0.36143804
H  0.38474943 -0.06467099 0.03720947
H  -0.21835158 -1.95820265 -0.39978114
H  0.88676171 0.56195942 0.29445806
12
MD Step 577.0 Units = [eV / Ang.]
C  -0.01838969 -0.07083474 -0.65265112
C  -1.59459991 -1.58265086 -0.34657446
C  0.69342664 1.89987087 1.36084048
C  -0.13696085 -1.86392925 -0.67921899
C  -0.42740830 3.09783167 0.52183815
C  -0.63942522 -1.06423769 0.02692252
H  0.51695985 0.24118341 0.26589805
H  -0.14959436 0.60432870 -0.02119507
H  0.41668287 0.04288402 -0.37825244
H  0.58798798 0.32696393 0.05816661
H  -0.04164314 -2.18776124 -0.46946591
H  0.79296409 0.55635118 0.31369219
12
MD Step 577.5 Units = [eV / Ang.]
C  0.23197441 0.04480715 -0.56924481
C  -1.89874838 -1.65581547 -0.37456178
C  0.80845153 2.12032048 1.42488233
C  -0.31196714 -2.28688563 -0.78439103
C  -0.44615393 3.24868751 0.65789207
C  -0.57423509 -1.06854235 -0.05123024
H  0.37517379 0.04058430 0.22841570
H  -0.04299356 0.56323622 -0.01215872
H  0.36124592 0.05574485 -0.39379966
H  0.77073514 0.68474744 0.07812975
H  0.09416032 -2.28537374 -0.52480769
H  0.63235699 0.53848925 0.32087408
12
MD Step 578.0 Units = [eV / Ang.]
C  0.48287906 0.16967567 -0.48420133
C  -2.16731100 -1.65211212 -0.40389951
C  0.92344344 2.28450535 1.48244933
C  -0.44447914 -2.60740976 -0.88170225
C  -0.43972049 3.24326167 0.77351877
C  -0.44046350 -1.02714355 -0.11727627
H  0.21696875 -0.18072132 0.19204389
H  0.07668926 0.48425194 -0.00205421
H  0.28220090 0.06768036 -0.40733148
H  0.90983436 0.96294529 0.09597945
H  0.18641754 -2.25426881 -0.56328475
H  0.41354082 0.50933530 0.31575836
12
MD Step 578.5 Units = [eV / Ang.]
C  0.71971520 0.28437322 -0.39998436
C  -2.39187172 -1.57387805 -0.43483961
C  1.02820941 2.38876483 1.53294717
C  -0.51271559 -2.78648002 -0.96920944
C  -0.40560316 3.08421377 0.86629586
C  -0.25075148 -0.94349349 -0.17184800
H  0.05553230 -0.40223119 0.15870560
H  0.20414154 0.37376408 0.00857350
H  0.18737285 0.07865184 -0.41787661
H  0.98443729 1.12189076 0.11048507
H  0.23143796 -2.09610609 -0.58250505
H  0.15009541 0.47053033 0.29925588
12
MD Step 579.0 Units = [eV / Ang.]
C  0.92686333 0.36655832 -0.31835889
C  -2.56508054 -1.42831908 -0.46735824
C  1.11287411 2.43127030 1.57565201
C  -0.50264354 -2.80047142 -1.04506494
C  -0.33854361 2.77417290 0.93373615
C  -0.02406181 -0.82355508 -0.21686574
H  -0.09440199 -0.60028059 0.12949106
H  0.33319024 0.24118712 0.01910202
H  0.08546067 0.08868035 -0.42439533
H  0.98090494 1.13777296 0.12044579
H  0.22427046 -1.81133211 -0.58009080
H  -0.13883227 0.42431631 0.27370690
12
MD Step 579.5 Units = [eV / Ang.]
C  1.08949924 0.39371724 -0.24003389
C  -2.68079953 -1.22742606 -0.50111134
C  1.16886105 2.41208334 1.60978667
C  -0.41163708 -2.64770617 -1.10770171
C  -0.23162369 2.31796127 0.97353587
C  0.21467922 -0.67495747 -0.25561155
H  -0.21843121 -0.75086331 0.10430516
H  0.45704763 0.09871796 0.02886581
H  -0.01487137 0.09780228 -0.42593818
H  0.89651344 1.00925625 0.12488100
H  0.15948897 -1.40188725 -0.55398950
H  -0.42872666 0.37330193 0.24301165
12
MD Step 580.0 Units = [eV / Ang.]
C  1.19586359 0.34702112 -0.16452722
C  -2.73423349 -0.98725719 -0.53543622
C  1.18958829 2.33314006 1.63459680
C  -0.24928918 -2.34891018 -1.15602612
C  -0.07877870 1.72700039 0.98436863
C  0.43634403 -0.50581333 -0.29251696
H  -0.30486624 -0.83354452 0.08175916
H  0.56869745 -0.03939007 0.03720422
H  -0.10573982 0.10602714 -0.42177811
H  0.74033354 0.75786086 0.12322704
H  0.03336914 -0.87618764 -0.50331744
H  -0.69128861 0.32005335 0.21244621
12
MD Step 580.5 Units = [eV / Ang.]
C  1.23936140 0.21533501 -0.09038532
C  -2.72210664 -0.72648089 -0.56940564
C  1.17084948 2.19816399 1.64942208
C  -0.03496076 -1.94139057 -1.18956389
C  0.12096175 1.02543266 0.96723530
C  0.61105184 -0.32340128 -0.33254083
H  -0.34696703 -0.83550591 0.05943737
H  0.66143175 -0.15813613 0.04352219
H  -0.18058507 0.11330667 -0.41150019
H  0.53087834 0.42190481 0.11547542
H  -0.15221701 -0.25580991 -0.42972835
H  -0.89769805 0.26658154 0.18803187
12
MD Step 581.0 Units = [eV / Ang.]
C  1.21972383 -0.00189411 -0.01574892
C  -2.64288893 -0.46429563 -0.60192579
C  1.11091105 2.01251266 1.65375738
C  0.20686926 -1.46971877 -1.20850625
C  0.35781966 0.25620372 0.92707086
C  0.71293760 -0.13307158 -0.38016021
H  -0.34426216 -0.75441342 0.03452425
H  0.72949061 -0.24358139 0.04735552
H  -0.23451500 0.11951967 -0.39504331
H  0.29161079 0.04683054 0.10219730
H  -0.38449848 0.41801124 -0.33899435
H  -1.02319823 0.21389706 0.17547351
12
MD Step 581.5 Units = [eV / Ang.]
C  1.14277452 -0.29391711 0.06091220
C  -2.49707278 -0.21802984 -0.63185802
C  1.01042100 1.78294922 1.64729659
C  0.45160693 -0.97680309 -1.21364717
C  0.60594625 -0.51649367 0.87381193
C  0.72512353 0.06223330 -0.43820301
H  -0.30245117 -0.59904251 0.00460145
H  0.76870991 -0.28488499 0.04842902
H  -0.26449767 0.12447314 -0.37269817
H  0.04617035 -0.32412281 0.08444825
H  -0.63483677 1.08179587 -0.24199248
H  -1.05189410 0.16184249 0.17889943
12
MD Step 582.0 Units = [eV / Ang.]
C  1.01885705 -0.64037314 0.14016860
C  -2.28741666 -0.00093529 -0.65814312
C  0.87220418 1.51733997 1.62995832
C  0.67829736 -0.49815717 -1.20625179
C  0.82199549 -1.21294800 0.82174095
C  0.64333409 0.26162205 -0.50691955
H  -0.23193300 -0.38741518 -0.03166913
H  0.77704374 -0.27609390 0.04669380
H  -0.26945085 0.12791857 -0.34506883
H  -0.18511251 -0.65601108 0.06359989
H  -0.85760174 1.65572951 -0.15391938
H  -0.98021715 0.10932366 0.19981025
12
MD Step 582.5 Units = [eV / Ang.]
C  0.86051741 -1.01475776 0.22132662
C  -2.01906644 0.17930187 -0.67989934
C  0.70102607 1.22430609 1.60188093
C  0.87144468 -0.06000214 -1.18791691
C  0.95154732 -1.75397461 0.78628799
C  0.47680257 0.46513207 -0.58367245
H  -0.14552248 -0.14314741 -0.07420717
H  0.75483999 -0.21721262 0.04233379
H  -0.25026743 0.12957717 -0.31300220
H  -0.38680843 -0.92431654 0.04116865
H  -0.99674727 2.06021090 -0.09093769
H  -0.81776599 0.05488299 0.23663780
12
MD Step 583.0 Units = [eV / Ang.]
C  0.68026390 -1.38846010 0.30250353
C  -1.69951974 0.32096347 -0.69648386
C  0.50333814 0.91289348 1.56338823
C  1.02108112 0.31975817 -1.16046681
C  0.94425159 -2.08323308 0.77893678
C  0.24612812 0.67222717 -0.66339054
H  -0.05613455 0.10871520 -0.12157974
H  0.70479871 -0.11423027 0.03573963
H  -0.20977689 0.12917292 -0.27749106
H  -0.54835904 -1.11406091 0.01869171
H  -1.00087957 2.23887353 -0.06493911
H  -0.58519180 -0.00261960 0.28509126
12
MD Step 583.5 Units = [eV / Ang.]
C  0.48899158 -1.73425423 0.38098349
C  -1.33836210 0.42759812 -0.70751177
C  0.28702852 0.59223388 1.51492099
C  1.12165969 0.62931701 -1.12589772
C  0.77244808 -2.18535081 0.80269773
C  -0.02111472 0.88041150 -0.73961921
H  0.02494901 0.34517818 -0.17136554
H  0.63162027 0.02190165 0.02745514
H  -0.15263121 0.12646626 -0.23955411
H  -0.66313097 -1.21747391 -0.00233137
H  -0.84151792 2.17746285 -0.07891887
H  -0.30994022 -0.06349052 0.33914123
12
MD Step 584.0 Units = [eV / Ang.]
C  0.29534975 -2.02862981 0.45366776
C  -0.94685379 0.50649544 -0.71284229
C  0.06111679 0.27127472 1.45694601
C  1.17051468 0.86076161 -1.08635729
C  0.44342377 -2.08945427 0.85094387
C  -0.29543615 1.08447226 -0.80576170
H  0.08897611 0.54742928 -0.22062916
H  0.54142845 0.17703524 0.01811056
H  -0.08505892 0.12128431 -0.20010222
H  -0.72724674 -1.23155233 -0.02044685
H  -0.52486316 1.90790218 -0.12578616
H  -0.02135080 -0.12701861 0.39225746
12
MD Step 584.5 Units = [eV / Ang.]
C  0.10588652 -2.25292798 0.51747264
C  -0.53740447 0.56680624 -0.71253986
C  -0.16463195 -0.04145310 1.38985142
C  1.16646539 1.00869711 -1.04412026
C  -0.00199244 -1.85598535 0.91041406
C  -0.54968254 1.27657114 -0.85611572
H  0.12988657 0.70160177 -0.26634781
H  0.44109364 0.33586048 0.00835456
H  -0.01444716 0.11354396 -0.15980489
H  -0.73868244 -1.15633035 -0.03423800
H  -0.08994926 1.49522993 -0.19142317
H  0.25345816 -0.19161384 0.43849702
12
MD Step 585.0 Units = [eV / Ang.]
C  -0.07434951 -2.39360407 0.56959891
C  -0.12302141 0.61780761 -0.70682575
C  -0.38025174 -0.33801202 1.31386303
C  1.10902113 1.06995388 -1.00152680
C  -0.50323731 -1.55481101 0.96643595
C  -0.76166293 1.44708786 -0.88647004
H  0.14401604 0.79856633 -0.30571237
H  0.33758735 0.48373589 -0.00120234
H  0.05128016 0.10326336 -0.11898359
H  -0.69690831 -0.99421961 -0.04234110
H  0.40540430 1.01537204 -0.26003103
H  0.49212224 -0.25514024 0.47319514
12
MD Step 585.5 Units = [eV / Ang.]
C  -0.24111342 -2.44206124 0.60768288
C  0.28319961 0.66758800 -0.69602472
C  -0.57625570 -0.61116941 1.22900459
C  0.99846973 1.04437997 -0.96083448
C  -0.99782807 -1.24603006 1.00739014
C  -0.91514530 1.58588159 -0.89425822
H  0.12964991 0.83328692 -0.33630503
H  0.23745660 0.60802217 -0.01002743
H  0.10446321 0.09056132 -0.07755906
H  -0.60318717 -0.75048081 -0.04353510
H  0.90234746 0.53530597 -0.31875929
H  0.67794316 -0.31528442 0.49322571
12
MD Step 586.0 Units = [eV / Ang.]
C  -0.39045329 -2.39441407 0.62988043
C  0.66852060 0.72227154 -0.68051250
C  -0.74444056 -0.85444695 1.13513741
C  0.83692523 0.93650723 -0.92396260
C  -1.43456454 -0.97030190 1.02668855
C  -0.99973047 1.68354679 -0.87841076
H  0.08665519 0.80420841 -0.35620692
H  0.14645774 0.69883339 -0.01769001
H  0.13860885 0.07564668 -0.03508104
H  -0.46153270 -0.43469037 -0.03694896
H  1.35389927 0.10269443 -0.35984072
H  0.79965467 -0.36985519 0.49694710
12
MD Step 586.5 Units = [eV / Ang.]
C  -0.51854162 -2.25144328 0.63494688
C  1.02094938 0.78568510 -0.66066626
C  -0.87865710 -1.06214156 1.03208168
C  0.63012625 0.75770744 -0.89210293
C  -1.77870827 -0.74860717 1.02241758
C  -1.01021621 1.73241336 -0.83908583
H  0.01632251 0.71297444 -0.36409849
H  0.06932958 0.74930915 -0.02387098
H  0.14924224 0.05880078 0.00915258
H  -0.28014547 -0.06280852 -0.02241329
H  1.72962939 -0.25491175 -0.38035783
H  0.85066934 -0.41697799 0.48399688
12
MD Step 587.0 Units = [eV / Ang.]
C  -0.62191815 -2.01878899 0.62236383
C  1.32960747 0.85931292 -0.63681864
C  -0.97542524 -1.22933515 0.91980798
C  0.38942098 0.52811194 -0.86522787
C  -2.01068055 -0.58742126 0.99582333
C  -0.94597609 1.72715730 -0.77742445
H  -0.07854546 0.56457977 -0.35940304
H  0.00966262 0.75558421 -0.02836544
H  0.13455176 0.04035900 0.05589781
H  -0.07287992 0.34089905 -0.00093308
H  2.01380489 -0.52525292 -0.38079837
H  0.82837769 -0.45520588 0.45507793
12
MD Step 587.5 Units = [eV / Ang.]
C  -0.69808512 -1.70735716 0.59253445
C  1.58510943 0.94237851 -0.60921903
C  -1.03421400 -1.35196329 0.79865475
C  0.13300658 0.27723831 -0.84160358
C  -2.12179121 -0.48518347 0.94972424
C  -0.81063696 1.66507993 -0.69539673
H  -0.19334233 0.36789432 -0.34249288
H  -0.03019804 0.71665026 -0.03108416
H  0.09567269 0.02069582 0.10572926
H  0.14004254 0.74324010 0.02483984
H  2.20059227 -0.70508775 -0.36349400
H  0.73384414 -0.48358557 0.41180784
12
MD Step 588.0 Units = [eV / Ang.]
C  -0.74632053 -1.33370277 0.54701310
C  1.77999694 1.03193311 -0.57800015
C  -1.05733550 -1.42694754 0.66951301
C  -0.11464945 0.04207775 -0.81753597
C  -2.10981116 -0.43767780 0.88740708
C  -0.61219488 1.54614965 -0.59574817
H  -0.32128502 0.13629953 -0.31492558
H  -0.04926345 0.63424041 -0.03205756
H  0.03655140 0.00021439 0.15882147
H  0.33304274 1.10406959 0.05037308
H  2.28920928 -0.79494224 -0.33150767
H  0.57205962 -0.50171409 0.35664737
12
MD Step 588.5 Units = [eV / Ang.]
C  -0.76845664 -0.92002062 0.48869785
C  1.90921217 1.12292051 -0.54315885
C  -1.04944523 -1.45241111 0.53392721
C  -0.32596778 -0.13809324 -0.78763003
C  -1.97583313 -0.44152417 0.81209588
C  -0.36347596 1.37289568 -0.48198958
H  -0.45316754 -0.11199236 -0.27962770
H  -0.04804836 0.51278980 -0.03144548
H  -0.03658496 -0.02066010 0.21479850
H  0.47859996 1.38163085 0.06955182
H  2.28050236 -0.79574286 -0.28807887
H  0.35266511 -0.50979237 0.29285925
12
MD Step 589.0 Units = [eV / Ang.]
C  -0.76929927 -0.49328361 0.42184565
C  1.97058176 1.20824574 -0.50454963
C  -1.01677929 -1.42793964 0.39408089
C  -0.47571106 -0.22956298 -0.74575161
C  -1.72284205 -0.49580294 0.72687717
C  -0.08271080 1.15022483 -0.35834520
H  -0.57750286 -0.35446200 -0.24089018
H  -0.02873890 0.35943714 -0.02955075
H  -0.11602646 -0.04148469 0.27268597
H  0.55279246 1.54062587 0.07569623
H  2.17538156 -0.70734804 -0.23651404
H  0.09085490 -0.50864966 0.22441550
12
MD Step 589.5 Units = [eV / Ang.]
C  -0.75636725 -0.08310671 0.35177517
C  1.96521740 1.27894104 -0.46189648
C  -0.96628770 -1.35481908 0.25266715
C  -0.54711174 -0.21235471 -0.68655674
C  -1.35600298 -0.60191091 0.63490496
C  0.20627413 0.88513567 -0.22955770
H  -0.68130864 -0.56611597 -0.20403605
H  0.00467952 0.18395633 -0.02683117
H  -0.19348742 -0.06180446 0.33097120
H  0.54134404 1.56061366 0.06315452
H  1.97513859 -0.52885443 -0.18034741
H  -0.19208796 -0.49968043 0.15575255
12
MD Step 590.0 Units = [eV / Ang.]
C  -0.73878371 0.28169455 0.28418816
C  1.89770546 1.32457586 -0.41482971
C  -0.90483129 -1.23617238 0.11268143
C  -0.53622725 -0.08545184 -0.60708306
C  -0.88456411 -0.76159578 0.53970611
C  0.47486465 0.58630346 -0.10047654
H  -0.75163504 -0.72271117 -0.17469488
H  0.04643783 -0.00154900 -0.02390037
H  -0.26096464 -0.08115905 0.38774933
H  0.44373544 1.44139696 0.02893898
H  1.68357152 -0.26070045 -0.12358317
H  -0.46930886 -0.48463117 0.09130370
12
MD Step 590.5 Units = [eV / Ang.]
C  -0.72542960 0.57734272 0.22418639
C  1.77594027 1.33401991 -0.36294571
C  -0.83857292 -1.07691675 -0.02281921
C  -0.45259619 0.13330110 -0.50772613
C  -0.32510277 -0.97298945 0.44536826
C  0.69202573 0.26348535 0.02455104
H  -0.77765819 -0.80487431 -0.15777093
H  0.08925517 -0.18333558 -0.02150680
H  -0.31143715 -0.09909238 0.44092331
H  0.27346066 1.20296111 -0.02629752
H  1.31068454 0.09131808 -0.07079528
H  -0.71056955 -0.46521979 0.03483259
12
MD Step 591.0 Units = [eV / Ang.]
C  -0.72285877 0.78902143 0.17524204
C  1.61051083 1.29662665 -0.30589597
C  -0.77258830 -0.88353226 -0.15094907
C  -0.31603632 0.41257273 -0.39217915
C  0.29466750 -1.22485706 0.35633515
C  0.82837936 -0.07320780 0.14234946
H  -0.75282987 -0.80199811 -0.15637411
H  0.12495948 -0.34718149 -0.02047713
H  -0.33937295 -0.11516423 0.48842056
H  0.05429335 0.87999761 -0.09837933
H  0.87714679 0.51038219 -0.02680529
H  -0.88627111 -0.44265967 -0.01128715
12
MD Step 591.5 Units = [eV / Ang.]
C  -0.73362059 0.91321854 0.13847313
C  1.41359543 1.20375924 -0.24349661
C  -0.71068370 -0.66367282 -0.26918767
C  -0.15124488 0.71572133 -0.26644325
C  0.93334884 -1.49039782 0.27654073
C  0.86137091 -0.41406598 0.25140475
H  -0.67640655 -0.71460432 -0.17107674
H  0.14546192 -0.47995434 -0.02162314
H  -0.34104454 -0.12896539 0.52839769
H  -0.18569058 0.51350086 -0.18071544
H  0.41760101 0.96272377 0.00431543
H  -0.97268726 -0.41726307 -0.04658889
12
MD Step 592.0 Units = [eV / Ang.]
C  -0.75561939 0.95761652 0.11249860
C  1.19754497 1.05040141 -0.17584298
C  -0.65533720 -0.42569674 -0.37553020
C  0.01745289 1.00848158 -0.13743834
C  1.53738001 -1.72373765 0.20785995
C  0.78012057 -0.75034100 0.35193316
H  -0.55379716 -0.55426881 -0.19978030
H  0.14395260 -0.57133039 -0.02561990
H  -0.31470610 -0.14013639 0.55942007
H  -0.41986759 0.14276817 -0.26583979
H  -0.02015800 1.39457367 0.02091341
H  -0.95696559 -0.38833036 -0.07257368
12
MD Step 592.5 Units = [eV / Ang.]
C  -0.78269739 0.93861981 0.09391838
C  0.97341740 0.83650662 -0.10340915
C  -0.60770843 -0.17819787 -0.46859398
C  0.16960977 1.26382499 -0.01179276
C  2.04906328 -1.86345006 0.14841382
C  0.58826792 -1.07448459 0.44545511
H  -0.39559612 -0.34113535 -0.23823602
H  0.11607396 -0.61529306 -0.03287909
H  -0.26067732 -0.14839090 0.58060657
H  -0.62681738 -0.19983931 -0.34676582
H  -0.38278830 1.73627599 0.02550597
H  -0.84014741 -0.35443629 -0.09222302
12
MD Step 593.0 Units = [eV / Ang.]
C  -0.80616764 0.87744968 0.07821477
C  0.74982694 0.56769267 -0.02710155
C  -0.56766691 0.07040032 -0.54768745
C  0.29005261 1.46345419 0.10486312
C  2.42052924 -1.84596279 0.09188539
C  0.30367696 -1.38000999 0.53402413
H  -0.21565095 -0.09993377 -0.28100674
H  0.06075756 -0.61100789 -0.04345067
H  -0.18136049 -0.15354242 0.59173582
H  -0.79161197 -0.49078880 -0.41779054
H  -0.62536674 1.91627982 0.02542779
H  -0.63701863 -0.31403102 -0.10911408
12
MD Step 593.5 Units = [eV / Ang.]
C  -0.81670572 0.79612781 0.06073669
C  0.53239551 0.25506208 0.05175446
C  -0.53382218 0.31215492 -0.61284102
C  0.36875415 1.59674108 0.20810240
C  2.62823805 -1.62633139 0.02893840
C  -0.04490487 -1.66106933 0.61943587
H  -0.02881927 0.14416468 -0.32251847
H  -0.01951851 -0.56282476 -0.05698421
H  -0.08120276 -0.15553048 0.59330862
H  -0.90523643 -0.71470766 -0.47472336
H  -0.72634267 1.88231761 0.03125907
H  -0.37283530 -0.26610457 -0.12646843
12
MD Step 594.0 Units = [eV / Ang.]
C  -0.80599075 0.71441009 0.03747941
C  0.32389638 -0.08583541 0.13149866
C  -0.50357283 0.53979207 -0.66479268
C  0.39998691 1.65848082 0.29459369
C  2.67997786 -1.19729900 -0.04935030
C  -0.42299063 -1.91192224 0.70271078
H  0.15095186 0.36875227 -0.35789638
H  -0.11912437 -0.47941684 -0.07276314
H  0.03343221 -0.15443988 0.58655296
H  -0.96311908 -0.86245251 -0.51473052
H  -0.69527185 1.62057256 0.05316011
H  -0.07817569 -0.21064194 -0.14646258
12
MD Step 594.5 Units = [eV / Ang.]
C  -0.76774480 0.64810931 0.00552016
C  0.12496882 -0.43664238 0.21028000
C  -0.47323045 0.74680234 -0.70491156
C  0.38141053 1.64661009 0.36189392
C  2.60958520 -0.59585793 -0.14777853
C  -0.79557875 -2.12650243 0.78397514
H  0.31186329 0.55596207 -0.38343907
H  -0.23020014 -0.37230947 -0.08980496
H  0.15453375 -0.15050451 0.57335380
H  -0.96361242 -0.92904633 -0.53603621
H  -0.56830081 1.16210045 0.09691173
H  0.21630577 -0.14872122 -0.16996441
12
MD Step 595.0 Units = [eV / Ang.]
C  -0.69809561 0.60866138 -0.03686648
C  -0.06490429 -0.77805179 0.28622452
C  -0.43826116 0.92746301 -0.73504498
C  0.31338975 1.56065356 0.40830315
C  2.46235045 0.10688904 -0.26521298
C  -1.13114793 -2.29825265 0.86265457
H  0.44477502 0.69292614 -0.39674950
H  -0.34383345 -0.25419545 -0.10699814
H  0.27291071 -0.14408839 0.55609150
H  -0.90693795 -0.91220914 -0.53767528
H  -0.39404568 0.57249867 0.16192893
H  0.48380014 -0.08229438 -0.19665531
12
MD Step 595.5 Units = [eV / Ang.]
C  -0.59546368 0.60345477 -0.09029786
C  -0.24644900 -1.09151817 0.35759479
C  -0.39370259 1.07684875 -0.75728185
C  0.19872405 1.40124221 0.43286745
C  2.27943245 0.82670476 -0.39552159
C  -1.40393375 -2.42033052 0.93778637
H  0.54319013 0.77138851 -0.39664178
H  -0.45120002 -0.13741429 -0.12324260
H  0.37888209 -0.13564005 0.53738365
H  -0.79482102 -0.81185447 -0.51941657
H  -0.21802122 -0.06907547 0.24214265
H  0.70336257 -0.01380603 -0.22537265
12
MD Step 596.0 Units = [eV / Ang.]
C  -0.46021814 0.63641529 -0.15445254
C  -0.41993939 -1.36058590 0.42291551
C  -0.33476186 1.19085544 -0.77364851
C  0.04283372 1.17081948 0.43556927
C  2.08846078 1.48697372 -0.53021445
C  -1.59470208 -2.48613789 1.00828459
H  0.60299202 0.78700950 -0.38295725
H  -0.54444859 -0.03283471 -0.13756553
H  0.46317644 -0.12562488 0.51974708
H  -0.63083908 -0.63068318 -0.48190607
H  -0.07280423 -0.69038892 0.32872776
H  0.86025041 0.05418206 -0.25449987
12
MD Step 596.5 Units = [eV / Ang.]
C  -0.29437614 0.70846753 -0.22822519
C  -0.58488076 -1.57176858 0.48104666
C  -0.25754449 1.26625932 -0.78577529
C  -0.14561427 0.87544235 0.41768906
C  1.90212070 2.03118181 -0.66104261
C  -1.69059334 -2.49007767 1.07307627
H  0.62219494 0.73879295 -0.35639140
H  -0.61725099 0.05079849 -0.14919717
H  0.51794557 -0.11444849 0.50522862
H  -0.42136780 -0.37581966 -0.42701306
H  0.02412340 -1.23809066 0.41289169
H  0.94524317 0.11926261 -0.28228759
12
MD Step 597.0 Units = [eV / Ang.]
C  -0.10151302 0.81764587 -0.30982231
C  -0.74000222 -1.71504804 0.53121495
C  -0.15977389 1.30080701 -0.79460642
C  -0.35382900 0.52734093 0.38225819
C  1.72206612 2.42567045 -0.78144258
C  -1.68462331 -2.42837325 1.13112773
H  0.60088725 0.62889452 -0.31838454
H  -0.66504909 0.10713094 -0.15760992
H  0.53773280 -0.10238978 0.49507582
H  -0.17683521 -0.06117227 -0.35828278
H  0.06727781 -1.67984249 0.48754708
H  0.95366176 0.17933610 -0.30707522
12
MD Step 597.5 Units = [eV / Ang.]
C  0.11304650 0.95881811 -0.39679949
C  -0.88342868 -1.78410424 0.57300626
C  -0.04136865 1.29333182 -0.80021650
C  -0.56421573 0.14744488 0.33440218
C  1.54444880 2.65587675 -0.88674384
C  -1.57528416 -2.29980558 1.18142194
H  0.54143789 0.46287455 -0.27107461
H  -0.68509888 0.13222348 -0.16252793
H  0.52021480 -0.08956530 0.48952333
H  0.08723905 0.29024023 -0.28128477
H  0.05836218 -2.00001833 0.54772215
H  0.88464688 0.23268362 -0.32742873
12
MD Step 598.0 Units = [eV / Ang.]
C  0.34180049 1.12313144 -0.48608485
C  -1.01289354 -1.77640904 0.60633921
C  0.09530185 1.24385132 -0.80179911
C  -0.75457308 -0.23335009 0.28128634
C  1.36453301 2.72015327 -0.97364318
C  -1.36648955 -2.10625006 1.22295959
H  0.44891971 0.25028722 -0.21727082
H  -0.67642946 0.12449306 -0.16391980
H  0.46654434 -0.07593812 0.48775649
H  0.35015368 0.64524972 -0.20355271
H  0.00212768 -2.19323633 0.59016571
H  0.74100487 0.27801761 -0.34223688
12
MD Step 598.5 Units = [eV / Ang.]
C  0.57459771 1.29744146 -0.57405158
C  -1.12588045 -1.69326502 0.63142484
C  0.24553299 1.15363752 -0.79783078
C  -0.89990020 -0.57572872 0.23135520
C  1.17952182 2.62395939 -1.03949717
C  -1.06793103 -1.85290523 1.25482537
H  0.33157041 0.00531076 -0.16037901
H  -0.63980469 0.08467717 -0.16198211
H  0.38122277 -0.06137143 0.48806224
H  0.58762460 0.96231958 -0.13381122
H  -0.09624563 -2.25862980 0.61268561
H  0.52969169 0.31455431 -0.35080139
12
MD Step 599.0 Units = [eV / Ang.]
C  0.79842407 1.46416607 -0.65671672
C  -1.21964214 -1.53981088 0.64871958
C  0.40276384 1.02521802 -0.78637654
C  -0.97608715 -0.83731984 0.19277510
C  0.98968441 2.37565803 -1.08179153
C  -0.69572214 -1.54818688 1.27632373
H  0.20098269 -0.25304123 -0.10420094
H  -0.57772081 0.01586292 -0.15711544
H  0.27152594 -0.04571218 0.48813445
H  0.77535426 1.19716311 -0.08040538
H  -0.23234346 -2.19612151 0.61358732
H  0.26278049 0.34212440 -0.35293360
12
MD Step 599.5 Units = [eV / Ang.]
C  0.99784023 1.60204058 -0.73011250
C  -1.29110480 -1.32496479 0.65887022
C  0.55928936 0.86231037 -0.76546193
C  -0.96485423 -0.98137598 0.17141480
C  0.79824923 1.98433216 -1.09796025
C  -0.27299765 -1.20328781 1.28714647
H  0.07164920 -0.50165274 -0.05255849
H  -0.49442462 -0.07644217 -0.14988905
H  0.14661470 -0.02888169 0.48545950
H  0.89391527 1.31165831 -0.04927881
H  -0.40267209 -2.00503054 0.59140994
H  -0.04150460 0.36129433 -0.34903991
12
MD Step 600.0 Units = [eV / Ang.]
C  1.15635865 1.68814087 -0.79081092
C  -1.33674157 -1.06122051 0.66264481
C  0.70705697 0.66969577 -0.73342216
C  -0.85833977 -0.98615789 0.16911885
C  0.61045767 1.45981212 -1.08563410
C  0.17011866 -0.83141051 1.28749700
H  -0.04042978 -0.71537912 -0.00876251
H  -0.39587467 -0.18430228 -0.14098593
H  0.01651296 -0.01094756 0.47769730
H  0.93331582 1.28341937 -0.04226907
H  -0.60409042 -1.68507854 0.54506880
H  -0.35834452 0.37342827 -0.34014209
12
MD Step 600.5 Units = [eV / Ang.]
C  1.25878013 1.70116920 -0.83649079
C  -1.35253483 -0.76417871 0.66084467
C  0.83837373 0.45306766 -0.68916345
C  -0.66144607 -0.85121165 0.18309864
C  0.43203796 0.81518427 -1.04337007
C  0.59788384 -0.44670725 1.27808386
H  -0.12008485 -0.87045278 0.02495938
H  -0.28954166 -0.29755010 -0.13112086
H  -0.10886491 0.00783741 0.46298872
H  0.89533158 1.11215080 -0.05654433
H  -0.83267667 -1.23990049 0.47447915
H  -0.65725825 0.38059164 -0.32776491
12
MD Step 601.0 Units = [eV / Ang.]
C  1.29403878 1.62538278 -0.86636450
C  -1.33417543 -0.45168665 0.65419797
C  0.94645133 0.21885607 -0.63230335
C  -0.39090009 -0.59760480 0.20678657
C  0.26719913 0.07187150 -0.97185931
C  0.97220605 -0.06298698 1.25992817
H  -0.15580929 -0.94858333 0.04788720
H  -0.18394028 -0.40434616 -0.12093215
H  -0.22051632 0.02703531 0.44015214
H  0.79254891 0.81984182 -0.08551675
H  -1.08208455 -0.68299874 0.38167010
H  -0.90501824 0.38521918 -0.31364609
12
MD Step 601.5 Units = [eV / Ang.]
C  1.25771133 1.45405536 -0.88128285
C  -1.27757209 -0.14253606 0.64325019
C  1.02575658 -0.02594703 -0.56319579
C  -0.07149525 -0.26203303 0.23175944
C  0.11627631 -0.73352025 -0.87541760
C  1.25777541 0.30768045 1.23399772
H  -0.14224936 -0.94060116 0.06090478
H  -0.08784609 -0.49219243 -0.11086121
H  -0.31092372 0.04605587 0.40876310
H  0.64461265 0.44470114 -0.12081894
H  -1.34151147 -0.04522124 0.27219806
H  -1.07053428 0.38955838 -0.29929690
12
MD Step 602.0 Units = [eV / Ang.]
C  1.15326413 1.19130374 -0.88346042
C  -1.17967246 0.14524987 0.62827459
C  1.07222328 -0.27398641 -0.48286610
C  0.26884462 0.11238767 0.24985960
C  -0.02659493 -1.54321787 -0.76319441
C  1.42812729 0.65614726 1.20080987
H  -0.08145138 -0.84839026 0.06620008
H  -0.00924051 -0.54937884 -0.10104817
H  -0.37441730 0.06421055 0.36913632
H  0.47339303 0.03167088 -0.15444682
H  -1.59372500 0.61896751 0.15628073
H  -1.13075077 0.39503591 -0.28554528
12
MD Step 602.5 Units = [eV / Ang.]
C  0.99153081 0.85160575 -0.87590551
C  -1.03942658 0.39630438 0.60923847
C  1.08337481 -0.51777328 -0.39289302
C  0.60344803 0.48479100 0.25473482
C  -0.17486351 -2.27786921 -0.64911924
C  1.47083254 0.97682369 1.16018578
H  0.01763144 -0.68439238 0.06666385
H  0.04583173 -0.56664697 -0.09128092
H  -0.40737601 0.08077665 0.32223735
H  0.29890532 -0.37659886 -0.18027209
H  -1.81413520 1.23118392 0.04866255
H  -1.07575338 0.40179531 -0.27225205
12
MD Step 603.0 Units = [eV / Ang.]
C  0.78857944 0.45724755 -0.86177102
C  -0.85863647 0.59962433 0.58585004
C  1.05842092 -0.74993510 -0.29526636
C  0.90975784 0.82196331 0.24249417
C  -0.34861463 -2.84663081 -0.54961145
C  1.38996206 1.26746130 1.11131186
H  0.14117587 -0.46888785 0.06520460
H  0.07422727 -0.53871921 -0.08102699
H  -0.40833050 0.09506284 0.26954907
H  0.13701084 -0.74556201 -0.19461742
H  -1.97234175 1.69974833 -0.03376519
H  -0.91121089 0.40862733 -0.25835130
12
MD Step 603.5 Units = [eV / Ang.]
C  0.56275201 0.03464698 -0.84383039
C  -0.64241431 0.74970893 0.55768518
C  0.99835205 -0.96348609 -0.19223398
C  1.17058230 1.09989436 0.21162853
C  -0.57012141 -3.16863166 -0.47902997
C  1.20482445 1.52811631 1.05310507
H  0.27330557 -0.22605147 0.06420070
H  0.07622346 -0.46529820 -0.06955334
H  -0.37801606 0.10646992 0.21290974
H  -0.00108880 -1.05072210 -0.19606652
H  -2.03724382 1.94200447 -0.07659529
H  -0.65715544 0.41334856 -0.24221974
12
MD Step 604.0 Units = [eV / Ang.]
C  0.33182956 -0.38924305 -0.82419569
C  -0.39906083 0.84680518 0.52437145
C  0.90603314 -1.15207581 -0.08614510
C  1.37408544 1.30253498 0.16253512
C  -0.85619218 -3.19879133 -0.44453422
C  0.94546840 1.75962853 0.98472677
H  0.39875165 0.01993231 0.06521412
H  0.05542081 -0.35122705 -0.05610919
H  -0.31938864 0.11454238 0.15433188
H  -0.10817603 -1.27667908 -0.18489178
H  -1.98518093 1.91110555 -0.07308250
H  -0.34359039 0.41346738 -0.22222085
12
MD Step 604.5 Units = [eV / Ang.]
C  0.11103681 -0.78962095 -0.80426479
C  -0.13939025 0.89623821 0.48577173
C  0.78626469 -1.31021402 0.02071655
C  1.51292854 1.41941371 0.09694192
C  -1.21005585 -2.94484589 -0.44315944
C  0.64663536 1.96218365 0.90601884
H  0.50470227 0.24773743 0.06896357
H  0.01806515 -0.20577425 -0.04011918
H  -0.23757539 0.11900748 0.09580467
H  -0.17988107 -1.41481427 -0.16244133
H  -1.80814059 1.61382927 -0.02703069
H  -0.00458966 0.40685961 -0.19720185
12
MD Step 605.0 Units = [eV / Ang.]
C  -0.08788611 -1.14531387 -0.78481217
C  0.12434038 0.90701428 0.44212102
C  0.64574671 -1.43343723 0.12630573
C  1.58298900 1.44345206 0.01740310
C  -1.61697130 -2.46509636 -0.46301840
C  0.34214997 2.13441984 0.81770924
H  0.58163790 0.44037972 0.07546955
H  -0.02802101 -0.04123993 -0.02133531
H  -0.13970438 0.11979703 0.03908708
H  -0.21362495 -1.46092147 -0.13067324
H  -1.51780389 1.10872913 0.04852377
H  0.32714768 0.39221680 -0.16678036
12
MD Step 605.5 Units = [eV / Ang.]
C  -0.25671419 -1.43927174 -0.76612931
C  0.37961114 0.89008372 0.39408000
C  0.49287386 -1.51841314 0.22898535
C  1.58213839 1.36972554 -0.07306076
C  -2.04633471 -1.84774326 -0.48794829
C  0.06107432 2.27324919 0.72135878
H  0.62334770 0.58551128 0.08426657
H  -0.07461018 0.12873983 0.00009043
H  -0.03453208 0.11704595 -0.01449081
H  -0.20793438 -1.41358178 -0.09188626
H  -1.14289525 0.48547322 0.13611827
H  0.62397537 0.36918119 -0.13138399
12
MD Step 606.0 Units = [eV / Ang.]
C  -0.39023911 -1.65849664 -0.74814729
C  0.61468320 0.85667548 0.34270415
C  0.33727508 -1.56297843 0.32766384
C  1.50959025 1.19542123 -0.17116142
C  -2.45930283 -1.18348495 -0.50287995
C  -0.17404547 2.37426424 0.61913269
H  0.62648884 0.67499098 0.09460486
H  -0.11408147 0.29079118 0.02361657
H  0.06818690 0.11106640 -0.06419088
H  -0.16226546 -1.27365538 -0.04861187
H  -0.72115704 -0.16281700 0.21938132
H  0.86486710 0.33822289 -0.09211201
12
MD Step 606.5 Units = [eV / Ang.]
C  -0.48565110 -1.79382626 -0.73052405
C  0.81937661 0.81697956 0.28934667
C  0.18905898 -1.56608872 0.42186494
C  1.36611104 0.92097292 -0.27342537
C  -2.81793975 -0.54458901 -0.49735666
C  -0.34728643 2.43242628 0.51351311
H  0.59004705 0.70423994 0.10560565
H  -0.14012617 0.43303550 0.04838750
H  0.15859951 0.10229855 -0.10995213
H  -0.07737810 -1.04498619 -0.00358505
H  -0.29013685 -0.76085093 0.28664858
H  1.03532521 0.30038836 -0.05052319
12
MD Step 607.0 Units = [eV / Ang.]
C  -0.54204446 -1.83989407 -0.71270137
C  0.98552349 0.77929974 0.23552809
C  0.05782185 -1.52770804 0.51169037
C  1.15505409 0.55223414 -0.37624154
C  -3.09191562 0.02339894 -0.46639858
C  -0.44859476 2.44277891 0.40704839
H  0.51494691 0.67177615 0.11636663
H  -0.14811747 0.54585620 0.07334488
H  0.22783927 0.09124704 -0.15236321
H  0.04375046 -0.73621844 0.04029932
H  0.11932200 -1.25980765 0.33186020
H  1.12641424 0.25703707 -0.00843318
12
MD Step 607.5 Units = [eV / Ang.]
C  -0.56022052 -1.79539752 -0.69395670
C  1.10717277 0.74962143 0.18280160
C  -0.04845003 -1.44865428 0.59765996
C  0.88392893 0.10327756 -0.47598832
C  -3.26115503 0.49917090 -0.40948148
C  -0.47286964 2.40101447 0.30217751
H  0.40392744 0.57915152 0.12603301
H  -0.13521569 0.62226119 0.09734643
H  0.26914548 0.07841698 -0.19250373
H  0.19460708 -0.36332858 0.08014620
H  0.48545355 -1.63517095 0.35352051
H  1.13367564 0.20963729 0.03224502
12
MD Step 608.0 Units = [eV / Ang.]
C  -0.54277586 -1.66372869 -0.67347016
C  1.18062307 0.73148497 0.13263080
C  -0.12435831 -1.33045028 0.68044787
C  0.56601741 -0.40103215 -0.56933240
C  -3.31512862 0.87790461 -0.32886788
C  -0.41936995 2.30387934 0.20112111
H  0.26168440 0.43135538 0.13385351
H  -0.10031275 0.65797480 0.11927756
H  0.27878150 0.06426615 -0.23167315
H  0.36375934 0.04797329 0.11340871
H  0.79463933 -1.87926544 0.35297737
H  1.05644044 0.15963802 0.06962668
12
MD Step 608.5 Units = [eV / Ang.]
C  -0.49441138 -1.45380811 -0.65041875
C  1.20439226 0.72600981 0.08628371
C  -0.16773408 -1.17523958 0.76056830
C  0.22130750 -0.92406701 -0.65371455
C  -3.25043253 1.16301318 -0.22815371
C  -0.29165760 2.14944308 0.10579496
H  0.09517161 0.23756048 0.13923538
H  -0.04392146 0.65142948 0.13815217
H  0.25655521 0.04918377 -0.27106161
H  0.53406054 0.46136374 0.13842059
H  1.03885603 -1.99328779 0.33290950
H  0.89781390 0.10839894 0.10198403
12
MD Step 609.0 Units = [eV / Ang.]
C  -0.42224308 -1.18085300 -0.62409622
C  1.17916919 0.73197406 0.04474255
C  -0.17979378 -0.98579856 0.83808699
C  -0.12414103 -1.41965382 -0.72789771
C  -3.06803932 1.35985458 -0.11135532
C  -0.09812337 1.93732494 0.01769558
H  -0.08613373 0.01190716 0.14180385
H  0.03193361 0.60375807 0.15320572
H  0.20581087 0.03349800 -0.31144117
H  0.68330143 0.83215423 0.15497077
H  1.21289953 -1.98130864 0.29636499
H  0.66535967 0.05714298 0.12791998
12
MD Step 609.5 Units = [eV / Ang.]
C  -0.33585548 -0.86657932 -0.59403757
C  1.10777613 0.74589092 0.00862240
C  -0.16478085 -0.76564990 0.91243566
C  -0.44108219 -1.83842746 -0.79230915
C  -2.77105568 1.47201491 0.01749466
C  0.14711818 1.66892623 -0.06228766
H  -0.27027633 -0.22617577 0.14145548
H  0.12380143 0.51883788 0.16398514
H  0.13289866 0.01750400 -0.35295233
H  0.78700443 1.11364062 0.16463695
H  1.31219475 -1.84687824 0.24633980
H  0.37225695 0.00689614 0.14661662
12
MD Step 610.0 Units = [eV / Ang.]
C  -0.24680415 -0.53829281 -0.56011699
C  0.99512120 0.76211592 -0.02189608
C  -0.12920625 -0.51925451 0.98236853
C  -0.70211167 -2.13749965 -0.84887270
C  -2.36339087 1.49998260 0.15438585
C  0.42339213 1.34774013 -0.13413119
H  -0.44344647 -0.45270420 0.13838370
H  0.22689393 0.40334023 0.17043257
H  0.04625599 0.00149797 -0.39503022
H  0.82325812 1.26674747 0.17057288
H  1.33159828 -1.59206707 0.18575652
H  0.03843976 -0.04160607 0.15814714
12
MD Step 610.5 Units = [eV / Ang.]
C  -0.16739751 -0.22643276 -0.52257787
C  0.84808757 0.77306383 -0.04711553
C  -0.08089161 -0.25218945 1.04606717
C  -0.88751955 -2.29046848 -0.90022475
C  -1.84960304 1.44199002 0.29515295
C  0.70337846 0.97970073 -0.19894670
H  -0.59133889 -0.64138585 0.13305066
H  0.33523637 0.26666739 0.17295187
H  -0.04468423 -0.01419590 -0.43647407
H  0.77828921 1.26995209 0.17664854
H  1.26548660 -1.21867008 0.11769071
H  -0.30904340 -0.08803155 0.16377702
12
MD Step 611.0 Units = [eV / Ang.]
C  -0.10884452 0.03940331 -0.48197559
C  0.67530175 0.76966138 -0.06782785
C  -0.02801793 0.02874818 1.10134994
C  -0.98975186 -2.29364505 -0.94857023
C  -1.23628089 1.29693032 0.43521710
C  0.95457142 0.57349950 -0.25911907
H  -0.70113802 -0.76738164 0.12609206
H  0.44194010 0.12062468 0.17243425
H  -0.13055078 -0.02921537 -0.47562463
H  0.65058048 1.12534351 0.18621705
H  1.10948028 -0.73143626 0.04569433
H  -0.63729003 -0.13253256 0.16611265
12
MD Step 611.5 Units = [eV / Ang.]
C  -0.07918800 0.23523511 -0.43904092
C  0.48671739 0.74215605 -0.08525430
C  0.02165830 0.31560980 1.14593769
C  -1.01454497 -2.16569091 -0.99470827
C  -0.53529623 1.06927822 0.56940793
C  1.14283984 0.14069178 -0.31814353
H  -0.76369907 -0.81187899 0.11816986
H  0.53965230 -0.02133437 0.17021345
H  -0.20290383 -0.04316697 -0.51059996
H  0.45163487 0.85795315 0.20105508
H  0.86413747 -0.14314345 -0.02595954
H  -0.91100807 -0.17570944 0.16892252
12
MD Step 612.0 Units = [eV / Ang.]
C  -0.08166830 0.34693993 -0.39451211
C  0.29299500 0.68133006 -0.10089744
C  0.06135399 0.59953166 1.17770937
C  -0.97832724 -1.94096721 -1.03768336
C  0.23116301 0.77531643 0.69208383
C  1.23789338 -0.30455203 -0.38004389
H  -0.77526313 -0.76613652 0.10981946
H  0.62118647 -0.14534721 0.16792916
H  -0.25485059 -0.05564630 -0.53953644
H  0.20301102 0.50868616 0.22095260
H  0.54049037 0.51923734 -0.09234322
H  -1.09798399 -0.21839230 0.17652204
12
MD Step 612.5 Units = [eV / Ang.]
C  -0.11411109 0.37254875 -0.34899607
C  0.10471861 0.58001558 -0.11630861
C  0.08558142 0.87114342 1.19491705
C  -0.90322867 -1.65984863 -1.07514188
C  1.02507485 0.44866316 0.79778572
C  1.21944360 -0.74608698 -0.44843401
H  -0.73811332 -0.63358186 0.10134539
H  0.68027159 -0.23878228 0.16729698
H  -0.28141701 -0.06626694 -0.56080222
H  -0.06897136 0.12413699 0.24404201
H  0.16606609 1.20931521 -0.14849340
H  -1.17531472 -0.26125641 0.19278902
12
MD Step 613.0 Units = [eV / Ang.]
C  -0.16955946 0.32179323 -0.30290870
C  -0.06846550 0.43466253 -0.13279601
C  0.09033145 1.12105519 1.19633822
C  -0.81185920 -1.36000772 -1.10409573
C  1.78969868 0.14155818 0.88249014
C  1.08204713 -1.16675155 -0.52550321
H  -0.65993093 -0.42913844 0.09280437
H  0.71230144 -0.29200929 0.16981660
H  -0.27974830 -0.07469036 -0.57316765
H  -0.33861283 -0.25260778 0.26757143
H  -0.21181416 1.86053328 -0.19064895
H  -1.13438831 -0.30439727 0.22009949
12
MD Step 613.5 Units = [eV / Ang.]
C  -0.23791913 0.21318134 -0.25649482
C  -0.21861882 0.24655171 -0.15114240
C  0.07317960 1.34037679 1.18136962
C  -0.72356284 -1.07122849 -1.12168298
C  2.45366370 -0.08193683 0.94509965
C  0.83676638 -1.54950145 -0.61132116
H  -0.55210719 -0.17605291 0.08406861
H  0.71491811 -0.29989280 0.17648291
H  -0.24919455 -0.08065465 -0.57592934
H  -0.58454823 -0.58754129 0.28870170
H  -0.52984070 2.39376101 -0.21774143
H  -0.98273633 -0.34706244 0.25858965
12
MD Step 614.0 Units = [eV / Ang.]
C  -0.30800349 0.06976994 -0.20990149
C  -0.34005800 0.02229866 -0.17140270
C  0.03338356 1.52119631 1.15007389
C  -0.65270489 -0.81409832 -1.12565529
C  2.94463187 -0.16175403 0.98830220
C  0.50889638 -1.87867131 -0.70374997
H  -0.42761279 0.09859337 0.07493196
H  0.68829717 -0.26262032 0.18757592
H  -0.19134598 -0.08399722 -0.56899347
H  -0.79121134 -0.85727465 0.30504352
H  -0.72224486 2.73424248 -0.23227579
H  -0.74202764 -0.38768492 0.30605121
12
MD Step 614.5 Units = [eV / Ang.]
C  -0.36935201 -0.08494777 -0.16325868
C  -0.42958458 -0.22657336 -0.19284199
C  -0.02799245 1.65697350 1.10318633
C  -0.60863227 -0.60137027 -1.11454732
C  3.20952141 -0.06180901 1.01792572
C  0.13267302 -2.14128531 -0.79898029
H  -0.29906620 0.36821928 0.06520996
H  0.63506011 -0.18562171 0.20259045
H  -0.11002908 -0.08466815 -0.55291769
H  -0.94849373 -1.04772292 0.31487480
H  -0.74103173 2.83301394 -0.23972255
H  -0.44307248 -0.42420822 0.35848126
12
MD Step 615.0 Units = [eV / Ang.]
C  -0.41342186 -0.23002087 -0.11673627
C  -0.48637234 -0.48493230 -0.21403261
C  -0.10797191 1.74282863 1.04208409
C  -0.59658729 -0.44040688 -1.08763457
C  3.23202156 0.21547861 1.04075911
C  -0.25507858 -2.32821074 -0.89243579
H  -0.17741380 0.60985473 0.05480372
H  0.55984407 -0.07860531 0.22032431
H  -0.01123479 -0.08273114 -0.52890551
H  -1.05046852 -1.15156336 0.31712779
H  -0.57358314 2.68285959 -0.24638210
H  -0.11973340 -0.45455098 0.41102783
12
MD Step 615.5 Units = [eV / Ang.]
C  -0.43406035 -0.34855940 -0.07057058
C  -0.51161478 -0.73589669 -0.23307760
C  -0.20162528 1.77571186 0.96870518
C  -0.61891751 -0.33543582 -1.04480869
C  3.03729619 0.62843943 1.06197491
C  -0.62032196 -2.43480552 -0.97968615
H  -0.07131996 0.80566579 0.04372162
H  0.46864887 0.04600078 0.23909227
H  0.09708536 -0.07834726 -0.49873747
H  -1.09399223 -1.16577579 0.31127929
H  -0.24749558 2.32001445 -0.25684906
H  0.19631722 -0.47701184 0.45895626
12
MD Step 616.0 Units = [eV / Ang.]
C  -0.42742038 -0.42805320 -0.02506598
C  -0.50803995 -0.96282691 -0.24789611
C  -0.30221607 1.75446961 0.88540421
C  -0.67610169 -0.28894237 -0.98647573
C  2.68105944 1.10972703 1.08364580
C  -0.93508753 -2.46084909 -1.05709620
H  0.01288091 0.94315295 0.03207064
H  0.36811173 0.17480231 0.25700197
H  0.20543613 -0.07174147 -0.46462445
H  -1.07771860 -1.09001917 0.29724942
H  0.18023773 1.81076913 -0.27256284
H  0.47885828 -0.49048883 0.49834925
12
MD Step 616.5 Units = [eV / Ang.]
C  -0.39157218 -0.46003082 0.01941582
C  -0.47942720 -1.15105245 -0.25650519
C  -0.40162261 1.67982185 0.79473720
C  -0.76724702 -0.30191729 -0.91351821
C  2.22983337 1.58657791 1.10494566
C  -1.17862485 -2.40985706 -1.12210702
H  0.07092514 1.01459244 0.02003346
H  0.26485039 0.29500607 0.27222259
H  0.30347668 -0.06315396 -0.42897563
H  -1.00180697 -0.92617598 0.27536549
H  0.64293247 1.23068737 -0.29205600
H  0.70828278 -0.49449808 0.52644183
12
MD Step 617.0 Units = [eV / Ang.]
C  -0.32607531 -0.43956550 0.06246963
C  -0.43020574 -1.28909164 -0.25724179
C  -0.49109199 1.55430245 0.69918637
C  -0.88981579 -0.37296931 -0.82732951
C  1.74301119 1.99802479 1.12343795
C  -1.33709909 -2.28815697 -1.17320772
H  0.10029799 1.01629442 0.00784290
H  0.16496319 0.39556125 0.28319345
H  0.38100110 -0.05278847 -0.39409747
H  -0.86841833 -0.67911672 0.24640449
H  1.08219211 0.64656216 -0.31231329
H  0.87124067 -0.48905646 0.54165501
12
MD Step 617.5 Units = [eV / Ang.]
C  -0.23169667 -0.36499309 0.10366067
C  -0.36515423 -1.36930632 -0.24890994
C  -0.56227457 1.38216205 0.60086697
C  -1.03854994 -0.49645704 -0.72989201
C  1.26348596 2.30349515 1.13642507
C  -1.40264995 -2.10405093 -1.20973687
H  0.10003210 0.94810288 -0.00424078
H  0.07370427 0.46782491 0.28875538
H  0.42911832 -0.04077088 -0.36186793
H  -0.68293783 -0.35853717 0.21168405
H  1.45736140 0.10705116 -0.33020610
H  0.95956113 -0.47452071 0.54346148
12
MD Step 618.0 Units = [eV / Ang.]
C  -0.11037020 -0.23803437 0.14253533
C  -0.28919322 -1.38807307 -0.23084979
C  -0.60838322 1.16924737 0.50127188
C  -1.20382505 -0.66005725 -0.62383575
C  0.81705348 2.48299352 1.14173001
C  -1.37245890 -1.86716252 -1.23165537
H  0.07072676 0.81335577 -0.01595114
H  -0.00469297 0.50582651 0.28820735
H  0.44145289 -0.02713604 -0.33345207
H  -0.45563786 0.01857323 0.17313453
H  1.74615395 -0.35807748 -0.34335051
H  0.96917433 -0.45145566 0.53221554
12
MD Step 618.5 Units = [eV / Ang.]
C  0.03453401 -0.06429624 0.17864216
C  -0.20718519 -1.34562476 -0.20295598
C  -0.62522777 0.92282977 0.40112605
C  -1.37009138 -0.84260397 -0.51238154
C  0.41693408 2.53229852 1.13788297
C  -1.24818774 -1.58792738 -1.23940447
H  0.01481386 0.61931818 -0.02703881
H  -0.06710506 0.50628678 0.28131356
H  0.41511259 -0.01185265 -0.30913365
H  -0.20316433 0.42572417 0.13324882
H  1.94007020 -0.73358048 -0.35032695
H  0.89949674 -0.42057194 0.50902783
12
MD Step 619.0 Units = [eV / Ang.]
C  0.19773187 0.14601831 0.21155848
C  -0.12371870 -1.24571301 -0.16565466
C  -0.61189257 0.65135773 0.30038962
C  -1.51539523 -1.01349116 -0.39906514
C  0.06946647 2.45672833 1.12397760
C  -1.03597551 -1.27711146 -1.23387069
H  -0.06299838 0.37789331 -0.03730042
H  -0.11157963 0.46853094 0.26827806
H  0.35120880 0.00511437 -0.28830911
H  0.05111020 0.82634667 0.09480813
H  2.03852407 -1.01293625 -0.35051858
H  0.75351860 -0.38273778 0.47570672
12
MD Step 619.5 Units = [eV / Ang.]
C  0.37148698 0.37756558 0.24092893
C  -0.04282313 -1.09520276 -0.11986151
C  -0.57088050 0.36411300 0.19842032
C  -1.61303978 -1.13510315 -0.28720688
C  -0.22138972 2.26562620 1.09946944
C  -0.74699093 -0.94530722 -1.21643752
H  -0.15527313 0.10621126 -0.04660956
H  -0.13741111 0.39439479 0.24970547
H  0.25478065 0.02371995 -0.26965357
H  0.27890374 1.17635987 0.06035345
H  2.04403647 -1.19333469 -0.34384385
H  0.53860046 -0.33904283 0.43473528
12
MD Step 620.0 Units = [eV / Ang.]
C  0.54530297 0.61000828 0.26650825
C  0.03238095 -0.90366523 -0.06692109
C  -0.50769644 0.07076580 0.09424721
C  -1.63592071 -1.16903622 -0.17923744
C  -0.45150891 1.96840734 1.06406654
C  -0.39834801 -0.60244900 -1.18902999
H  -0.25166057 -0.17345888 -0.05494391
H  -0.14525070 0.28816166 0.22655098
H  0.13414099 0.04375868 -0.25141345
H  0.45150114 1.43067422 0.03152094
H  1.95931622 -1.27230031 -0.33055290
H  0.26774306 -0.29086634 0.38920486
12
MD Step 620.5 Units = [eV / Ang.]
C  0.70621162 0.81938891 0.28819574
C  0.10005107 -0.68293706 -0.00852684
C  -0.43001768 -0.21914277 -0.01311549
C  -1.56276812 -1.08516719 -0.07615659
C  -0.61595950 1.57234317 1.01775534
C  -0.01395195 -0.25741187 -1.15403450
H  -0.33931896 -0.43505247 -0.06239284
H  -0.13722345 0.15648246 0.20005410
H  -0.00019170 0.06481399 -0.23174988
H  0.54610389 1.55265170 0.00852168
H  1.78623843 -1.24608022 -0.31115193
H  -0.03917364 -0.23988865 0.34260120
12
MD Step 621.0 Units = [eV / Ang.]
C  0.83992785 0.98099469 0.30604038
C  0.15992973 -0.44662030 0.05338841
C  -0.34664583 -0.49671711 -0.12439320
C  -1.38415498 -0.87055607 0.02257060
C  -0.70998173 1.08219982 0.96094672
C  0.37545084 0.08220691 -1.11398251
H  -0.40419185 -0.65159653 -0.06913031
H  -0.11699726 0.00819800 0.17164700
H  -0.13674465 0.08625258 -0.20905348
H  0.55186140 1.52346375 -0.00992763
H  1.52653500 -1.10984227 -0.28645961
H  -0.35498852 -0.18798347 0.29835364
12
MD Step 621.5 Units = [eV / Ang.]
C  0.93289635 1.07344255 0.32021306
C  0.21347849 -0.20942135 0.11679314
C  -0.26649027 -0.75413887 -0.23986813
C  -1.10566150 -0.53433366 0.11856067
C  -0.73134712 0.50200851 0.89469549
C  0.73387930 0.41007865 -1.07097542
H  -0.43313932 -0.79937803 -0.07534905
H  -0.08971077 -0.14606263 0.14282948
H  -0.26427898 0.10726520 -0.18217156
H  0.47293317 1.34741362 -0.02611033
H  1.18404601 -0.85991109 -0.25775771
H  -0.64660537 -0.13696289 0.25914036
12
MD Step 622.0 Units = [eV / Ang.]
C  0.97484583 1.08299472 0.33094573
C  0.26370833 0.01372004 0.17972941
C  -0.19772318 -0.98495434 -0.35930887
C  -0.74670761 -0.10609754 0.21370445
C  -0.68382584 -0.16061773 0.82089994
C  1.02396480 0.72089960 -1.02597466
H  -0.41650336 -0.86239795 -0.08117157
H  -0.06167186 -0.29459417 0.11501285
H  -0.37274994 0.12694262 -0.15052429
H  0.32707791 1.05069860 -0.04246066
H  0.76829457 -0.49837690 -0.22695071
H  -0.87870965 -0.08821695 0.22609839
12
MD Step 622.5 Units = [eV / Ang.]
C  0.96109002 1.00672910 0.33847164
C  0.31464032 0.20873026 0.24049154
C  -0.14717135 -1.18419269 -0.48199065
C  -0.33571325 0.37153601 0.30939078
C  -0.58105850 -0.88770375 0.74233082
C  1.21283209 1.01002496 -0.97825364
H  -0.35034347 -0.83569277 -0.08657385
H  -0.03976433 -0.42566597 0.08935117
H  -0.45397432 0.14436726 -0.11411921
H  0.14047142 0.67420592 -0.06076780
H  0.29863359 -0.03996179 -0.19657568
H  -1.01964223 -0.04237654 0.19824486
12
MD Step 623.0 Units = [eV / Ang.]
C  0.89375215 0.85336275 0.34298908
C  0.37041276 0.36364577 0.29778476
C  -0.11991577 -1.34833430 -0.60677998
C  0.09610566 0.85288037 0.40609110
C  -0.44923742 -1.64310579 0.66226478
C  1.27864255 1.27313150 -0.92535362
H  -0.23753169 -0.72629245 -0.09135830
H  -0.03058490 -0.52881838 0.06659271
H  -0.50202493 0.15870367 -0.07348903
H  -0.05884216 0.26364515 -0.08176317
H  -0.19274254 0.48035303 -0.16944162
H  -1.04803372 0.00082869 0.17246329
12
MD Step 623.5 Units = [eV / Ang.]
C  0.78144616 0.64143955 0.34467419
C  0.43418661 0.46979724 0.35081471
C  -0.11902923 -1.47517858 -0.73223928
C  0.51988535 1.29774920 0.50336266
C  -0.32612156 -2.36743134 0.58357272
C  1.21560664 1.50603632 -0.86372785
H  -0.08727918 -0.55145661 -0.09519495
H  -0.03943763 -0.59618328 0.04699330
H  -0.51343380 0.16927444 -0.02958536
H  -0.24631886 -0.13912173 -0.10515883
H  -0.66154266 1.00267105 -0.14774081
H  -0.95796185 0.04240373 0.14422949
12
MD Step 624.0 Units = [eV / Ang.]
C  0.63756317 0.39555921 0.34372228
C  0.50709634 0.52270081 0.39928722
C  -0.14538721 -1.56365986 -0.85673157
C  0.91192641 1.67625513 0.60011825
C  -0.25418758 -2.98112813 0.50740082
C  1.03541998 1.70469794 -0.78990255
H  0.08672267 -0.33487415 -0.09771354
H  -0.06939953 -0.62354622 0.03032026
H  -0.48728931 0.17561530 0.01634780
H  -0.40373357 -0.50116637 -0.12997304
H  -1.05816384 1.44589833 -0.13177591
H  -0.76056755 0.08364802 0.10889999
12
MD Step 624.5 Units = [eV / Ang.]
C  0.47780269 0.14203595 0.34039629
C  0.58755730 0.52241635 0.44330739
C  -0.19753033 -1.61363720 -0.97851446
C  1.25429052 1.96962216 0.69495636
C  -0.26840075 -3.39967062 0.43209633
C  0.76445691 1.86531940 -0.70169841
H  0.26884442 -0.10220324 -0.09860969
H  -0.12070313 -0.61087882 0.01595427
H  -0.42528747 0.17750609 0.06290684
H  -0.51952707 -0.79975746 -0.15491859
H  -1.34007890 1.72362229 -0.11895358
H  -0.48142418 0.12562511 0.06307725
12
MD Step 625.0 Units = [eV / Ang.]
C  0.31776902 -0.09474890 0.33505262
C  0.67111762 0.47326826 0.48320832
C  -0.27155056 -1.62570296 -1.09582636
C  1.53409087 2.16826920 0.78641963
C  -0.38337318 -3.55823758 0.35330002
C  0.43782827 1.98446690 -0.59901305
H  0.44392010 0.12272101 -0.09772573
H  -0.19060823 -0.56220794 0.00306348
H  -0.33176009 0.17497696 0.10866053
H  -0.58760634 -1.02098240 -0.17870328
H  -1.48508255 1.76940820 -0.10396193
H  -0.15474491 0.16876925 0.00552576
12
MD Step 625.5 Units = [eV / Ang.]
C  0.17122281 -0.29459482 0.32813281
C  0.75092859 0.38300690 0.51935905
C  -0.36108506 -1.60102455 -1.20697364
C  1.74243786 2.26875480 0.87314681
C  -0.58698221 -3.43503990 0.26563163
C  0.09254996 2.05921733 -0.48392079
H  0.59892280 0.32024165 -0.09508593
H  -0.27380350 -0.48486391 -0.00919786
H  -0.21362472 0.16828795 0.15227879
H  -0.60563433 -1.15727089 -0.20019797
H  -1.49827981 1.56052752 -0.08054250
H  0.18334761 0.21275793 -0.06263041
12
MD Step 626.0 Units = [eV / Ang.]
C  0.04917355 -0.44231308 0.32013497
C  0.81868829 0.26160087 0.55200188
C  -0.45746081 -1.54122186 -1.31041716
C  1.87363013 2.27090223 0.95394520
C  -0.84463329 -3.06005092 0.16522652
C  -0.23800724 2.08738265 -0.36019605
H  0.72374644 0.47573520 -0.09089185
H  -0.36321700 -0.38831896 -0.02151715
H  -0.08017900 0.15788038 0.19265130
H  -0.57353999 -1.20503174 -0.21850188
H  -1.40853131 1.12680407 -0.04409693
H  0.50033023 0.25663115 -0.13833885
12
MD Step 626.5 Units = [eV / Ang.]
C  -0.04031512 -0.52759046 0.31157703
C  0.86581163 0.11995323 0.58115660
C  -0.55011145 -1.44828061 -1.40485812
C  1.92472758 2.17591321 1.02782686
C  -1.11163760 -2.50377844 0.05160079
C  -0.52727411 2.06786692 -0.23257679
H  0.81126774 0.57938799 -0.08549092
H  -0.45101894 -0.28290328 -0.03431248
H  0.05737847 0.14430211 0.22898577
H  -0.49261300 -1.16311471 -0.23295797
H  -1.25663410 0.53921249 0.00641124
H  0.77041891 0.29903157 -0.21736202
12
MD Step 627.0 Units = [eV / Ang.]
C  -0.09192076 -0.54441080 0.30296995
C  0.88455788 -0.03122472 0.60660106
C  -0.62735497 -1.32447967 -1.48929650
C  1.89554440 1.98585056 1.09403415
C  -1.34667335 -1.85311711 -0.07219699
C  -0.75629815 2.00105226 -0.10607321
H  0.85701865 0.62546547 -0.07933929
H  -0.52958639 -0.17865421 -0.04769628
H  0.18677928 0.12811432 0.26086350
H  -0.36528288 -1.03240882 -0.24316456
H  -1.08214717 -0.11462531 0.06830729
H  0.97536346 0.33843804 -0.29500912
12
MD Step 627.5 Units = [eV / Ang.]
C  -0.10277964 -0.49049615 0.29480387
C  0.86891919 -0.18223367 0.62791689
C  -0.67754417 -1.17233428 -1.56305334
C  1.78901862 1.70458784 1.15208066
C  -1.52027906 -1.18758338 -0.20091405
C  -0.91300069 1.88906672 0.01450528
H  0.85879947 0.61158079 -0.07296626
H  -0.59226589 -0.08445727 -0.06149959
H  0.29587629 0.10979796 0.28823692
H  -0.19554819 -0.81666264 -0.24901237
H  -0.91485692 -0.75458615 0.13656949
H  1.10366097 0.37332022 -0.36666750
12
MD Step 628.0 Units = [eV / Ang.]
C  -0.07236213 -0.36703631 0.28754565
C  0.81517992 -0.32487347 0.64457150
C  -0.69048199 -0.99457348 -1.62573263
C  1.61195870 1.34005193 1.20180421
C  -1.61685120 -0.56550874 -0.32883785
C  -0.99081600 1.73577272 0.12479528
H  0.81647145 0.53829567 -0.06694108
H  -0.63386757 -0.00751386 -0.07533633
H  0.37407461 0.08968532 0.31135576
H  0.01007415 -0.52441480 -0.25074621
H  -0.77251824 -1.32209690 0.20562731
H  1.14913831 0.40221193 -0.42810559
12
MD Step 628.5 Units = [eV / Ang.]
C  -0.00261280 -0.17880501 0.28163485
C  0.72215352 -0.45265278 0.65601627
C  -0.65887122 -0.79416370 -1.67713485
C  1.37600812 0.90725298 1.24341430
C  -1.63219451 -0.02171660 -0.45103205
C  -0.98742642 1.54646923 0.22098011
H  0.73204022 0.40919283 -0.06183418
H  -0.65091092 0.04691643 -0.08868457
H  0.41375627 0.06794041 0.33063328
H  0.24133961 -0.17163006 -0.24902373
H  -0.66295150 -1.78254689 0.27065575
H  1.10966963 0.42374314 -0.47562518
12
MD Step 629.0 Units = [eV / Ang.]
C  0.10164150 0.06536079 0.27746225
C  0.59118416 -0.56081441 0.66177769
C  -0.57948470 -0.57442560 -1.71714305
C  1.09839053 0.43117275 1.27747881
C  -1.56950135 0.42741529 -0.56377659
C  -0.90404275 1.32735673 0.29986800
H  0.61002476 0.23140338 -0.05815839
H  -0.64169540 0.07560348 -0.10096710
H  0.41139727 0.04460023 0.34648308
H  0.48326953 0.21583717 -0.24490384
H  -0.58768409 -2.12019309 0.32806374
H  0.98650054 0.43668329 -0.50618461
12
MD Step 629.5 Units = [eV / Ang.]
C  0.23218201 0.35191606 0.27531857
C  0.42598505 -0.64629018 0.66153363
C  -0.45376492 -0.33920181 -1.74562312
C  0.80180635 -0.05199685 1.30477289
C  -1.43573508 0.77647492 -0.66441162
C  -0.74538554 1.08491179 0.35905598
H  0.45796207 0.01637627 -0.05628040
H  -0.60627381 0.07736320 -0.11162508
H  0.36808940 0.01966793 0.35917232
H  0.71602169 0.60138236 -0.23967983
H  -0.54524359 -2.33064131 0.37537229
H  0.78435639 0.44003762 -0.51760565
12
MD Step 630.0 Units = [eV / Ang.]
C  0.37707528 0.66214265 0.27530725
C  0.23238421 -0.70764432 0.65516775
C  -0.28769493 -0.09306748 -1.76237069
C  0.51275837 -0.49690611 1.32593327
C  -1.23910381 1.02440641 -0.75092177
C  -0.52035484 0.82525855 0.39725517
H  0.28677035 -0.21949902 -0.05629984
H  -0.54638414 0.05306851 -0.12018088
H  0.28933269 -0.00677186 0.36873397
H  0.91633865 0.94003329 -0.23450461
H  -0.53341283 -2.41423997 0.41081864
H  0.51229101 0.43321937 -0.50893825
12
MD Step 630.5 Units = [eV / Ang.]
C  0.52089635 0.97236717 0.27723392
C  0.01803656 -0.74503702 0.64280503
C  -0.09100279 0.15848749 -1.76712295
C  0.25802378 -0.85538304 1.34096842
C  -0.98760917 1.17008670 -0.82152305
C  -0.24314169 0.55362570 0.41478415
H  0.11059599 -0.45495608 -0.05791503
H  -0.46535727 0.00567200 -0.12629269
H  0.18416460 -0.03445349 0.37496050
H  1.06089193 1.18503542 -0.22986652
H  -0.55048577 -2.37172933 0.43295427
H  0.18498748 0.41628448 -0.48098605
12
MD Step 631.0 Units = [eV / Ang.]
C  0.64588642 1.25538063 0.28050881
C  -0.20791929 -0.76019026 0.62482530
C  0.12410352 0.40897606 -1.75962498
C  0.05979880 -1.08619940 1.34882874
C  -0.68837606 1.21034937 -0.87440473
C  0.06570358 0.27397066 0.41413608
H  -0.05421971 -0.66516889 -0.06031903
H  -0.36797959 -0.05979839 -0.12979770
H  0.06384492 -0.06287788 0.37747271
H  1.13098023 1.29775748 -0.22513132
H  -0.59578110 -2.20237088 0.44039381
H  -0.17604171 0.39017149 -0.43688769
12
MD Step 631.5 Units = [eV / Ang.]
C  0.73415611 1.48333197 0.28412325
C  -0.43526287 -0.75630066 0.60185529
C  0.34434987 0.65098947 -1.73972261
C  -0.06897108 -1.16513328 1.34732343
C  -0.34756215 1.14043330 -0.90772120
C  0.37899763 -0.01110684 0.40039139
H  -0.19119291 -0.82461823 -0.06219161
H  -0.26026336 -0.13635015 -0.13074195
H  -0.05959000 -0.09131977 0.37583507
H  1.11707663 1.25775272 -0.21844550
H  -0.66958424 -1.90451690 0.43181417
H  -0.54215364 0.35683839 -0.38251973
12
MD Step 632.0 Units = [eV / Ang.]
C  0.77064679 1.63180854 0.28675407
C  -0.65320144 -0.73780858 0.57473510
C  0.55667665 0.87645935 -1.70745422
C  -0.12725861 -1.09115062 1.33356472
C  0.02917641 0.95697537 -0.91991634
C  0.66432491 -0.30002988 0.38114067
H  -0.28648324 -0.91122454 -0.06184407
H  -0.14907165 -0.21534971 -0.12938748
H  -0.17461939 -0.11888686 0.36968105
H  1.02137450 1.06875849 -0.20717446
H  -0.77249311 -1.47871526 0.40628277
H  -0.87907182 0.31916369 -0.32638180
12
MD Step 632.5 Units = [eV / Ang.]
C  0.74609813 1.68415840 0.28701122
C  -0.85102213 -0.70995601 0.54445565
C  0.74923599 1.07709690 -1.66311263
C  -0.12545094 -0.88583682 1.30481622
C  0.43544707 0.66365387 -0.91044057
C  0.88764979 -0.59144002 0.36561964
H  -0.33167625 -0.91076995 -0.05752765
H  -0.04157135 -0.28714265 -0.12618969
H  -0.27122178 -0.14461009 0.35881624
H  0.85717051 0.75776416 -0.18874995
H  -0.90395266 -0.93344312 0.36396895
H  -1.15070638 0.28052534 -0.27866743
12
MD Step 633.0 Units = [eV / Ang.]
C  0.65901063 1.63466855 0.28377341
C  -1.01884724 -0.67808918 0.51206660
C  0.91203986 1.24494697 -1.60726989
C  -0.08196966 -0.58650516 1.25937237
C  0.86182025 0.27889347 -0.88080418
C  1.01892749 -0.88301051 0.36298700
H  -0.32559715 -0.82017162 -0.04783931
H  0.05546232 -0.34199620 -0.12173986
H  -0.34149001 -0.16754312 0.34328306
H  0.64539008 0.36760346 -0.16154151
H  -1.05973038 -0.29288823 0.30717518
H  -1.32501619 0.24409157 -0.24946288
12
MD Step 633.5 Units = [eV / Ang.]
C  0.51588030 1.48943756 0.27649533
C  -1.14843457 -0.64677197 0.47856326
C  1.03734164 1.37297540 -1.54076453
C  -0.01847083 -0.23634087 1.19708071
C  1.29245464 -0.15659861 -0.83564417
C  1.03833725 -1.17024604 0.38012318
H  -0.27444877 -0.64837376 -0.03209314
H  0.13639641 -0.37128020 -0.11667763
H  -0.37994806 -0.18685183 0.32338324
H  0.40979252 -0.05350330 -0.12536302
H  -1.22843138 0.39551850 0.24135681
H  -1.38046915 0.21203512 -0.24646005
12
MD Step 634.0 Units = [eV / Ang.]
C  0.32961919 1.26463796 0.26537199
C  -1.23388833 -0.61885421 0.44476666
C  1.11984625 1.45559387 -1.46465358
C  0.04461184 0.12432795 1.11935716
C  1.70160048 -0.57704987 -0.78311655
C  0.94105268 -1.44574012 0.41970164
H  -0.19022057 -0.41449823 -0.01052463
H  0.19740909 -0.36869867 -0.11158753
H  -0.38367333 -0.20188657 0.29966121
H  0.17267917 -0.46127060 -0.08146975
H  -1.38809481 1.05845705 0.17543926
H  -1.31094167 0.18498144 -0.27294588
12
MD Step 634.5 Units = [eV / Ang.]
C  0.11677670 0.98287792 0.25129948
C  -1.27212405 -0.59473569 0.41122177
C  1.15684269 1.48905647 -1.38014023
C  0.09105440 0.46310517 1.02882062
C  2.05232361 -0.89918605 -0.73376362
C  0.73863405 -1.69928077 0.47933875
H  -0.08799443 -0.14395301 0.01573977
H  0.23691924 -0.33130044 -0.10690312
H  -0.35232742 -0.21223364 0.27285569
H  -0.04775331 -0.82090702 -0.03217937
H  -1.50522818 1.60461693 0.12059266
H  -1.12712329 0.16194012 -0.32688241
12
MD Step 635.0 Units = [eV / Ang.]
C  -0.10545487 0.66900572 0.23566847
C  -1.26299484 -0.57203597 0.37813924
C  1.14829581 1.47169362 -1.28848261
C  0.11008528 0.75668417 0.92879828
C  2.30047425 -1.04259439 -0.69753980
C  0.45646794 -1.91885738 0.55219519
H  0.01689358 0.13611188 0.04491192
H  0.25567388 -0.26001901 -0.10284209
H  -0.28815686 -0.21774552 0.24382334
H  -0.23822923 -1.10855845 0.01962304
H  -1.53918825 1.94557094 0.08716495
H  -0.85386667 0.14074439 -0.40145993
12
MD Step 635.5 Units = [eV / Ang.]
C  -0.32161083 0.34663059 0.22009355
C  -1.20906623 -0.54582075 0.34539105
C  1.09693080 1.40399353 -1.19088667
C  0.09618682 0.98940545 0.82290578
C  2.40515986 -0.95721319 -0.67997154
C  0.12829588 -2.09227963 0.62874246
H  0.11102922 0.40064545 0.07486583
H  0.25647349 -0.15959371 -0.09938848
H  -0.19598366 -0.21855091 0.21343574
H  -0.38988756 -1.30989555 0.07089049
H  -1.45295184 2.02389243 0.08077527
H  -0.52457595 0.11878629 -0.48685349
12
MD Step 636.0 Units = [eV / Ang.]
C  -0.51928614 0.03602185 0.20617287
C  -1.11511238 -0.50933831 0.31256583
C  1.00821936 1.28853428 -1.08839011
C  0.04798986 1.15087223 0.71479197
C  2.34251254 -0.64434469 -0.67959302
C  -0.21011986 -2.20892026 0.69894768
H  0.18407884 0.62906507 0.10344220
H  0.24361792 -0.03789634 -0.09632282
H  -0.08311410 -0.21503885 0.18245355
H  -0.49716317 -1.41751131 0.11864489
H  -1.22686178 1.83482044 0.09972659
H  -0.17476109 0.09373589 -0.57243962
12
MD Step 636.5 Units = [eV / Ang.]
C  -0.68948846 -0.24664255 0.19534025
C  -0.98747203 -0.45510920 0.27906444
C  0.89021959 1.12979627 -0.98174647
C  -0.03324579 1.23387839 0.60803187
C  2.11556583 -0.15821028 -0.68845055
C  -0.52622396 -2.26114651 0.75409471
H  0.22902302 0.80610199 0.12866310
H  0.22221131 0.09516458 -0.09328799
H  0.04092055 -0.20781428 0.15138862
H  -0.55665116 -1.42844738 0.16005916
H  -0.86809115 1.42841505 0.13553677
H  0.16323227 0.06401391 -0.64869392
12
MD Step 637.0 Units = [eV / Ang.]
C  -0.82632693 -0.48910339 0.18881151
C  -0.83340924 -0.37609722 0.24421409
C  0.75313281 0.93386167 -0.87133008
C  -0.14503648 1.23332095 0.50608844
C  1.75409041 0.41348119 -0.69546826
C  -0.79375470 -2.24521096 0.78781153
H  0.24180302 0.92155238 0.14884390
H  0.19748372 0.22889550 -0.08987061
H  0.16491085 -0.19761868 0.12037581
H  -0.56633730 -1.34261333 0.19247413
H  -0.40982377 0.89057303 0.17637428
H  0.46326760 0.02895886 -0.70832474
12
MD Step 637.5 Units = [eV / Ang.]
C  -0.92644055 -0.68250941 0.18758776
C  -0.66056133 -0.26672503 0.20737406
C  0.60851283 0.70804487 -0.75709577
C  -0.28458181 1.14630562 0.41224754
C  1.30460754 0.97845857 -0.69056674
C  -0.99371038 -2.16152758 0.79629109
H  0.22076214 0.96953925 0.16263130
H  0.17423987 0.35297968 -0.08567569
H  0.27687498 -0.18522330 0.08909123
H  -0.52539987 -1.16240546 0.21344944
H  0.09943230 0.31430329 0.21127923
H  0.70626427 -0.01124050 -0.74661345
12
MD Step 638.0 Units = [eV / Ang.]
C  -0.98845263 -0.82099475 0.19246775
C  -0.47653567 -0.12359763 0.16801831
C  0.46810658 0.46050407 -0.63862665
C  -0.44886394 0.97343216 0.32942946
C  0.81679678 1.46336931 -0.66735276
C  -1.11387367 -2.01446826 0.77797859
H  0.16616280 0.94780753 0.16901373
H  0.15648541 0.45838647 -0.08038445
H  0.36531419 -0.17130862 0.05675659
H  -0.43468101 -0.89357484 0.22094641
H  0.60998962 -0.22383272 0.23295876
H  0.87955155 -0.05572273 -0.76120574
12
MD Step 638.5 Units = [eV / Ang.]
C  -1.01264213 -0.90163707 0.20402758
C  -0.28862817 0.05413439 0.12578614
C  0.34245740 0.19986634 -0.51529452
C  -0.63381146 0.72098561 0.25980114
C  0.33316062 1.82388312 -0.62364159
C  -1.14772524 -1.81180678 0.73305610
H  0.07994008 0.85739405 0.16734968
H  0.14722386 0.53796960 -0.07378804
H  0.42065849 -0.15635761 0.02225794
H  -0.29782382 -0.54714912 0.21372087
H  1.08158130 -0.67413641 0.23839384
H  0.97560908 -0.10314614 -0.75166913
12
MD Step 639.0 Units = [eV / Ang.]
C  -1.00090102 -0.92486458 0.22254148
C  -0.10362767 0.26469189 0.08050397
C  0.23951059 -0.06507195 -0.38652369
C  -0.83262920 0.40349131 0.20417104
C  -0.11508745 2.04273748 -0.56047359
C  -1.09339637 -1.56397794 0.66297997
H  -0.03427182 0.70280641 0.15744356
H  0.14837914 0.58679539 -0.06580178
H  0.43664536 -0.14059343 -0.01562174
H  -0.12289574 -0.14189936 0.19194365
H  1.48737065 -1.01226624 0.22790056
H  0.99090352 -0.15184902 -0.71906344
12
MD Step 639.5 Units = [eV / Ang.]
C  -0.95692653 -0.89525040 0.24784228
C  0.07233076 0.50377930 0.03218173
C  0.16354567 -0.32558407 -0.25211133
C  -1.03381592 0.04569441 0.16125156
C  -0.50703675 2.12163366 -0.48069327
C  -0.95307339 -1.28324506 0.57020074
H  -0.17089012 0.49265381 0.13967859
H  0.16078854 0.60228399 -0.05646364
H  0.41130773 -0.12398311 -0.05789553
H  0.07598671 0.29362987 0.15795134
H  1.81250487 -1.23163764 0.20371505
H  0.92527844 -0.19997477 -0.66565755
12
MD Step 640.0 Units = [eV / Ang.]
C  -0.88654365 -0.82244602 0.27913551
C  0.23392025 0.76480614 -0.01900089
C  0.11470195 -0.57319875 -0.11252367
C  -1.21984695 -0.31739034 0.12705479
C  -0.82872411 2.07231453 -0.38781386
C  -0.73301941 -0.98281237 0.45808039
H  -0.32205348 0.24046514 0.11518737
H  0.18422360 0.58424459 -0.04592466
H  0.34731108 -0.10631070 -0.10506700
H  0.27789650 0.72096447 0.11684826
H  2.05005255 -1.33504513 0.16883650
H  0.78208167 -0.24559157 -0.59481275
12
MD Step 640.5 Units = [eV / Ang.]
C  -0.79794217 -0.72178358 0.31483160
C  0.37679815 1.03914736 -0.07272013
C  0.08921874 -0.79990073 0.03092254
C  -1.36775070 -0.64370370 0.09483796
C  -1.06966395 1.90957525 -0.28538426
C  -0.44419592 -0.67590326 0.33092688
H  -0.47743067 -0.03477914 0.08600235
H  0.21741376 0.53486612 -0.03443251
H  0.25154826 -0.08729798 -0.15690782
H  0.45627184 1.09489005 0.07652121
H  2.19672349 -1.32827026 0.12636979
H  0.56900918 -0.28684013 -0.51096759
12
MD Step 641.0 Units = [eV / Ang.]
C  -0.70155541 -0.61397912 0.35247205
C  0.49779834 1.31643807 -0.12853118
C  0.08031139 -0.99837678 0.17604500
C  -1.45239658 -0.89113425 0.05602185
C  -1.22039719 1.64686433 -0.17679709
C  -0.10327434 -0.37480946 0.19401281
H  -0.62444279 -0.30900918 0.05509971
H  0.25807706 0.45866010 -0.02231182
H  0.13410166 -0.06673617 -0.21237818
H  0.58273849 1.37053400 0.04664674
H  2.24963906 -1.21631891 0.07931232
H  0.29940031 -0.32213264 -0.41959222
12
MD Step 641.5 Units = [eV / Ang.]
C  -0.60933529 -0.52337762 0.38885385
C  0.59510694 1.58492086 -0.18589318
C  0.07944306 -1.16232139 0.31995939
C  -1.45215651 -1.02693400 0.00215031
C  -1.27141807 1.29421507 -0.06537155
C  0.26645982 -0.08996191 0.05340255
H  -0.74914343 -0.55488039 0.02623353
H  0.30298145 0.36231739 -0.00993904
H  0.00684069 -0.04458948 -0.26970559
H  0.63316337 1.51299596 0.03662725
H  2.20461503 -1.00199141 0.03062571
H  -0.00655705 -0.35039307 -0.32694322
12
MD Step 642.0 Units = [eV / Ang.]
C  -0.53330603 -0.47455766 0.42041307
C  0.66836572 1.83192087 -0.24418946
C  0.07768194 -1.28677252 0.45936874
C  -1.35508424 -1.03629319 -0.07263954
C  -1.21360474 0.85817731 0.04543667
C  0.63505295 0.17088562 -0.08456113
H  -0.83784754 -0.74523294 0.00349817
H  0.34807749 0.25439475 0.00228711
H  -0.11802827 -0.02104674 -0.32659099
H  0.59404340 1.50620370 0.05301481
H  2.05615652 -0.68640269 -0.01656435
H  -0.32150719 -0.37127649 -0.23947311
12
MD Step 642.5 Units = [eV / Ang.]
C  -0.48359195 -0.48779679 0.44384401
C  0.71863762 2.04449646 -0.30274890
C  0.06687868 -1.36838787 0.59090555
C  -1.16292692 -0.92633963 -0.16965917
C  -1.04039201 0.34375037 0.15184512
C  0.96752877 0.40318301 -0.21414756
H  -0.87929307 -0.85768652 -0.00935117
H  0.38874311 0.14475613 0.01397941
H  -0.22919526 0.00348549 -0.38048313
H  0.46653476 1.35716100 0.09747587
H  1.79945545 -0.27136162 -0.05879723
H  -0.61237919 -0.38526003 -0.16286281
12
MD Step 643.0 Units = [eV / Ang.]
C  -0.46640416 -0.57460080 0.45680485
C  0.74817334 2.21030707 -0.36086471
C  0.04050915 -1.40559411 0.71144724
C  -0.89106856 -0.72361581 -0.28515748
C  -0.75201682 -0.24150401 0.24974592
C  1.22777581 0.60564591 -0.33134101
H  -0.86680348 -0.87914800 -0.00966057
H  0.42016411 0.04372396 0.02479657
H  -0.31712798 0.02843444 -0.42886119
H  0.26620674 1.09357518 0.16625680
H  1.43475746 0.23627069 -0.09231363
H  -0.84416562 -0.39349452 -0.10085280
12
MD Step 643.5 Units = [eV / Ang.]
C  -0.48265595 -0.73481420 0.45848122
C  0.75996234 2.31865584 -0.41781285
C  -0.00584469 -1.39854084 0.81835486
C  -0.56451580 -0.46627153 -0.41145487
C  -0.36183190 -0.88121767 0.33511645
C  1.38440222 0.77976476 -0.43477162
H  -0.79975563 -0.80869486 0.00352123
H  0.43783953 -0.03901665 0.03447292
H  -0.37459117 0.05313641 -0.46948030
H  0.01867008 0.75603511 0.25136729
H  0.97406015 0.81834793 -0.11352296
H  -0.98573919 -0.39738430 -0.05427138
12
MD Step 644.0 Units = [eV / Ang.]
C  -0.52772597 -0.95640070 0.44980461
C  0.75710379 2.36157645 -0.47287308
C  -0.07429448 -1.34888326 0.90962599
C  -0.21197533 -0.19450493 -0.53908089
C  0.09670473 -1.54296122 0.40503080
C  1.41713193 0.92880078 -0.52601333
H  -0.68381131 -0.65772266 0.02922012
H  0.43815449 -0.09561837 0.04283750
H  -0.39689264 0.07691525 -0.50056511
H  -0.24682104 0.38829280 0.34282631
H  0.44870862 1.43851843 -0.12007908
H  -1.01628277 -0.39801256 -0.02073384
12
MD Step 644.5 Units = [eV / Ang.]
C  -0.59246773 -1.21796360 0.43324266
C  0.74212540 2.33475901 -0.52534359
C  -0.16462492 -1.25943426 0.98397456
C  0.13946853 0.05711905 -0.65891090
C  0.56602676 -2.17308027 0.45919658
C  1.32156887 1.05652812 -0.60898294
H  -0.52981545 -0.44730159 0.06477283
H  0.41891675 -0.12115032 0.04981710
H  -0.38196357 0.09914789 -0.52094993
H  -0.50317183 0.02929668 0.43094054
H  -0.08589277 2.03773370 -0.11247270
H  -0.93017005 -0.39565443 0.00471579
12
MD Step 645.0 Units = [eV / Ang.]
C  -0.66509967 -1.49297739 0.41226618
C  0.71640118 2.23809699 -0.57455396
C  -0.27434811 -1.13375644 1.04086549
C  0.46751305 0.26354853 -0.76355625
C  0.96893445 -2.69843520 0.50138395
C  1.11041047 1.16597213 -0.68858901
H  -0.35176294 -0.20376292 0.10641506
H  0.37974164 -0.11430921 0.05542446
H  -0.33038492 0.11931120 -0.53017811
H  -0.72895081 -0.29106821 0.50783460
H  -0.55407113 2.53700280 -0.09548302
H  -0.73838321 -0.38962229 0.02817061
12
MD Step 645.5 Units = [eV / Ang.]
C  -0.73329940 -1.75425064 0.39069662
C  0.67982192 2.07571101 -0.61987289
C  -0.39878484 -0.97577352 1.08052501
C  0.75548595 0.40947678 -0.84783449
C  1.22533293 -3.03910285 0.53956469
C  0.81052019 1.25842529 -0.76915963
H  -0.16452306 0.04594431 0.14999818
H  0.32218643 -0.07758273 0.05973441
H  -0.24540607 0.13700769 -0.52856606
H  -0.90934833 -0.55264059 0.56802019
H  -0.87610332 2.85130509 -0.07828122
H  -0.46588239 -0.37851985 0.05517518
12
MD Step 646.0 Units = [eV / Ang.]
C  -0.78591772 -1.97737772 0.37213615
C  0.63080731 1.85540887 -0.66071279
C  -0.53116396 -0.78944351 1.10393056
C  0.99166666 0.48728949 -0.90856417
C  1.27792843 -3.13084349 0.58376330
C  0.45702805 1.33292454 -0.85325684
H  0.01805101 0.27784505 0.19161083
H  0.24959460 -0.01682170 0.06285664
H  -0.13294703 0.15197130 -0.51722838
H  -1.03534696 -0.74334787 0.60823188
H  -0.99367783 2.91316263 -0.07218515
H  -0.14602256 -0.36076760 0.08941795
12
MD Step 646.5 Units = [eV / Ang.]
C  -0.81397998 -2.14265182 0.35959750
C  0.56666417 1.58773763 -0.69653636
C  -0.66278640 -0.57857547 1.11276299
C  1.16802555 0.49426938 -0.94407433
C  1.11478612 -2.94836528 0.64203831
C  0.08668236 1.38634951 -0.94123691
H  0.18427897 0.47289557 0.22797695
H  0.16668565 0.05966743 0.06491246
H  -0.00151507 0.16405701 -0.49804379
H  -1.10213999 -0.85674868 0.62692073
H  -0.89258065 2.69650958 -0.08649344
H  0.18587926 -0.33514485 0.13217589
12
MD Step 647.0 Units = [eV / Ang.]
C  -0.81098230 -2.23559686 0.35534143
C  0.48419131 1.28482957 -0.72686802
C  -0.78336010 -0.34677388 1.10928712
C  1.27910623 0.43018369 -0.95373900
C  0.77487264 -2.51659690 0.71675352
C  -0.26744153 1.41416475 -1.03151703
H  0.32507185 0.61743798 0.25661514
H  0.07898422 0.14228719 0.06602013
H  0.13809159 0.17321613 -0.47353138
H  -1.10763292 -0.88983727 0.62373705
H  -0.60871614 2.22782479 -0.12459373
H  0.49781515 -0.30113918 0.18249475
12
MD Step 647.5 Units = [eV / Ang.]
C  -0.77269306 -2.24667181 0.36085827
C  0.38039231 0.95930922 -0.75131131
C  -0.88160865 -0.09753215 1.09613653
C  1.32141231 0.29587533 -0.93770688
C  0.33252701 -1.90281154 0.80351673
C  -0.57884853 1.41161702 -1.12123782
H  0.43382804 0.70269686 0.27582816
H  -0.00778728 0.22131781 0.06629106
H  0.27341047 0.17946130 -0.44661301
H  -1.05151334 -0.84169683 0.59920137
H  -0.21325871 1.57747224 -0.18277541
H  0.76413944 -0.25903746 0.23781233
12
MD Step 648.0 Units = [eV / Ang.]
C  -0.69676416 -2.17069570 0.37691799
C  0.25314116 0.62340331 -0.76956926
C  -0.94622419 0.16561115 1.07599389
C  1.29352635 0.09307186 -0.89688395
C  -0.12949457 -1.19421965 0.89329829
C  -0.82830220 1.37496922 -1.20697135
H  0.50609970 0.72392967 0.28461230
H  -0.08825139 0.28790344 0.06583159
H  0.39134511 0.18282709 -0.42025879
H  -0.93510398 -0.71325573 0.55463759
H  0.21360012 0.83627355 -0.25229374
H  0.96642806 -0.20981821 0.29468543
12
MD Step 648.5 Units = [eV / Ang.]
C  -0.58240003 -2.00642979 0.40361626
C  0.10169798 0.28835384 -0.78146585
C  -0.96717367 0.43888500 1.05120335
C  1.19697399 -0.17456659 -0.83314895
C  -0.54339228 -0.47361733 0.97603906
C  -1.00310395 1.30245578 -1.28524453
H  0.53929165 0.67971980 0.28257026
H  -0.15778672 0.33474702 0.06474868
H  0.47957399 0.18333436 -0.39705072
H  -0.76202294 -0.50820157 0.49235691
H  0.60550288 0.09027805 -0.32301421
H  1.09283910 -0.15495858 0.34938976
12
MD Step 649.0 Units = [eV / Ang.]
C  -0.43028299 -1.75652261 0.44037891
C  -0.07298472 -0.03590388 -0.78696161
C  -0.93716243 0.71810442 1.02339417
C  1.03771504 -0.49930786 -0.74971933
C  -0.86718412 0.19617196 1.04357374
C  -1.09589066 1.19480802 -1.35282569
H  0.53258072 0.57170263 0.26987877
H  -0.21279627 0.35652292 0.06315264
H  0.52813833 0.18097317 -0.37875043
H  -0.53950963 -0.23494368 0.41599729
H  0.92051152 -0.59535259 -0.38643874
H  1.13686521 -0.09625248 0.39832029
12
MD Step 649.5 Units = [eV / Ang.]
C  -0.24284190 -1.42785012 0.48590868
C  -0.26815458 -0.34087444 -0.78616422
C  -0.85299032 0.99851106 0.99321797
C  0.82785346 -0.86654617 -0.65149743
C  -1.08361484 0.77615037 1.09082270
C  -1.10360421 1.05535715 -1.40684004
H  0.48714064 0.40481371 0.24733157
H  -0.25085464 0.35006287 0.06115710
H  0.53091207 0.17571267 -0.36597762
H  -0.28003570 0.09078071 0.33083618
H  1.13999384 -1.18043384 -0.43702467
H  1.09619618 -0.03568398 0.43822978
12
MD Step 650.0 Units = [eV / Ang.]
C  -0.02485251 -1.03215508 0.53809101
C  -0.47930387 -0.61954528 -0.77932498
C  -0.71642975 1.27462109 0.96028969
C  0.58681523 -1.25222008 -0.54512853
C  -1.19284374 1.24677159 1.11551957
C  -1.02699116 0.88977724 -1.44483247
H  0.40665752 0.18797481 0.21644352
H  -0.27077570 0.31440495 0.05887163
H  0.48659201 0.16753898 -0.35810024
H  -0.00249050 0.44354764 0.24379839
H  1.26147528 -1.64536546 -0.47202353
H  0.97214719 0.02464961 0.46639593
12
MD Step 650.5 Units = [eV / Ang.]
C  0.21578908 -0.58671832 0.59390172
C  -0.70032835 -0.86642095 -0.76682103
C  -0.53436253 1.54009588 0.92336834
C  0.34100585 -1.62188524 -0.43846680
C  -1.20434192 1.60050454 1.11727818
C  -0.87073950 0.70550624 -1.46488856
H  0.29799093 -0.06505843 0.17956775
H  -0.27263923 0.25077524 0.05638863
H  0.39894611 0.15651079 -0.35338056
H  0.26805028 0.78757029 0.16285802
H  1.29080566 -1.98348884 -0.49061644
H  0.76982361 0.08260879 0.48081076
12
MD Step 651.0 Units = [eV / Ang.]
C  0.46744285 -0.11462361 0.64939732
C  -0.92375088 -1.07759723 -0.74912064
C  -0.31808768 1.78766933 0.88073617
C  0.12103196 -1.93305664 -0.33928582
C  -1.13078176 1.83491596 1.09664812
C  -0.64421062 0.51094137 -1.46587542
H  0.17167591 -0.33517036 0.13993965
H  -0.25779704 0.16253290 0.05376318
H  0.27624635 0.14281063 -0.34934350
H  0.50289100 1.07932949 0.09568431
H  1.23636928 -2.19388331 -0.49299563
H  0.49897060 0.13613147 0.48045225
12
MD Step 651.5 Units = [eV / Ang.]
C  0.71469270 0.35591942 0.69988136
C  -1.14098847 -1.25085751 -0.72673257
C  -0.08196616 2.00917107 0.83066882
C  -0.04361620 -2.14169314 -0.25344292
C  -0.98450855 1.94777206 1.05446362
C  -0.36250132 0.31453026 -1.44779717
H  0.04184867 -0.59828390 0.10154401
H  -0.22885450 0.05506898 0.05098735
H  0.13004795 0.12677232 -0.34326574
H  0.67477824 1.27436205 0.04776564
H  1.10587577 -2.27620278 -0.47971167
H  0.17519188 0.18344118 0.46563926
12
MD Step 652.0 Units = [eV / Ang.]
C  0.93934909 0.79369300 0.74032813
C  -1.34266916 -1.38576005 -0.70014196
C  0.15829233 2.19572818 0.77186546
C  -0.13119613 -2.21181932 -0.18318088
C  -0.77612671 1.93437316 0.99154679
C  -0.04734585 0.12388170 -1.41217766
H  -0.07482457 -0.82723157 0.06872260
H  -0.18959864 -0.06439520 0.04796355
H  -0.02638216 0.10887249 -0.33266009
H  0.76425955 1.33715211 0.02071130
H  0.90527152 -2.22784279 -0.45136497
H  -0.17902928 0.22334828 0.43838774
12
MD Step 652.5 Units = [eV / Ang.]
C  1.12268828 1.16812811 0.76606163
C  -1.51902040 -1.48362282 -0.66974358
C  0.38730831 2.33816729 0.70373895
C  -0.13320694 -2.12503161 -0.12643291
C  -0.51461661 1.78707984 0.90873192
C  0.27289788 -0.05495062 -1.36228838
H  -0.16139253 -0.99526282 0.04551825
H  -0.14482864 -0.18717737 0.04448064
H  -0.17962257 0.08968910 -0.31564895
H  0.76491381 1.25081309 0.01161087
H  0.63920399 -2.04340750 -0.40862262
H  -0.53432458 0.25557532 0.40259417
12
MD Step 653.0 Units = [eV / Ang.]
C  1.24862227 1.45394943 0.77356472
C  -1.66036051 -1.54733151 -0.63578921
C  0.59139370 2.42762568 0.62652467
C  -0.05630954 -1.88574717 -0.07762409
C  -0.20856739 1.49720620 0.80717460
C  0.56495979 -0.21786554 -1.30299780
H  -0.20372502 -1.08065008 0.03488411
H  -0.10004128 -0.30373520 0.04020507
H  -0.31737634 0.06983885 -0.29117464
H  0.68501996 1.02235554 0.01393230
H  0.31264786 -1.71661791 -0.35252644
H  -0.85626352 0.28097171 0.36382672
12
MD Step 653.5 Units = [eV / Ang.]
C  1.30694203 1.63556849 0.76118145
C  -1.75771584 -1.58092169 -0.59835944
C  0.75945995 2.45631544 0.54122177
C  0.08018341 -1.51965646 -0.02965448
C  0.13169531 1.05980652 0.68890549
C  0.79453314 -0.36265651 -1.24008292
H  -0.19362647 -1.07114531 0.03800151
H  -0.06095215 -0.40451123 0.03469371
H  -0.42934746 0.04990974 -0.25904882
H  0.54480624 0.68096630 0.01962302
H  -0.06653375 -1.24512481 -0.28504119
H  -1.10944439 0.30144952 0.32855991
12
MD Step 654.0 Units = [eV / Ang.]
C  1.29550474 1.70975293 0.72944736
C  -1.80354109 -1.58895327 -0.55738043
C  0.88348450 2.41831601 0.44942927
C  0.24992250 -1.06618372 0.02387817
C  0.49138189 0.48171639 0.55751173
C  0.93191385 -0.48846545 -1.17903522
H  -0.13085071 -0.96675620 0.05397007
H  -0.03287529 -0.48095747 0.02743802
H  -0.50772114 0.03040200 -0.21987924
H  0.37061466 0.27012225 0.02143773
H  -0.48444529 -0.63853228 -0.20971367
H  -1.26338861 0.31953880 0.30289619
12
MD Step 654.5 Units = [eV / Ang.]
C  1.22052816 1.68557314 0.68091466
C  -1.79247156 -1.57576817 -0.51268674
C  0.95865978 2.31024686 0.35313796
C  0.42566565 -0.56855027 0.08714979
C  0.84863919 -0.20800262 0.41865629
C  0.95798841 -0.59491091 -1.12369355
H  -0.02320769 -0.77977090 0.08001025
H  -0.02004388 -0.52659001 0.01793974
H  -0.54736298 0.01168747 -0.17492248
H  0.18859590 -0.16280869 0.01453132
H  -0.91825174 0.07126285 -0.13214191
H  -1.29873924 0.33763126 0.29110466
12
MD Step 655.0 Units = [eV / Ang.]
C  1.09489180 1.58170665 0.61953203
C  -1.72196817 -1.54479587 -0.46412354
C  0.98335113 2.13172007 0.25452458
C  0.58375506 -0.06546475 0.16165880
C  1.17352763 -0.94884218 0.27993023
C  0.86853387 -0.68123220 -1.07521577
H  0.11527756 -0.53202888 0.11211063
H  -0.02499787 -0.53786892 0.00580837
H  -0.54586422 -0.00601162 -0.12590229
H  0.02019710 -0.57538391 -0.00307677
H  -1.33506281 0.82102829 -0.05975360
H  -1.21164109 0.35717331 0.29450734
12
MD Step 655.5 Units = [eV / Ang.]
C  0.93515766 1.42218081 0.54981553
C  -1.59270174 -1.49805517 -0.41166450
C  0.95897342 1.88547805 0.15577391
C  0.70617396 0.41328412 0.24662577
C  1.43037526 -1.64763611 0.14954221
C  0.67515436 -0.74585100 -1.03183604
H  0.26740933 -0.25048721 0.14587712
H  -0.04817745 -0.51469852 -0.00913925
H  -0.50354872 -0.02262343 -0.07481611
H  -0.11969456 -0.93496566 -0.03094009
H  -1.69452382 1.51522300 -0.00041368
H  -1.01459769 0.37815113 0.31117514
12
MD Step 656.0 Units = [eV / Ang.]
C  0.75840036 1.23205532 0.47608564
C  -1.40857816 -1.43599446 -0.35551741
C  0.88983524 1.57725091 0.05892388
C  0.78072606 0.84728033 0.33975575
C  1.58442592 -2.19248320 0.03388831
C  0.40247740 -0.78656087 -0.98950880
H  0.41597127 0.03738975 0.17730249
H  -0.08782359 -0.46042455 -0.02680071
H  -0.42349076 -0.03820795 -0.02373431
H  -0.22239767 -1.21959450 -0.06701886
H  -1.95608909 2.04020212 0.04007217
H  -0.73345699 0.39908713 0.33655184
12
MD Step 656.5 Units = [eV / Ang.]
C  0.57974810 1.03423695 0.40195792
C  -1.17635936 -1.35766826 -0.29619281
C  0.78294758 1.21535600 -0.03427590
C  0.80040197 1.22334513 0.43795213
C  1.61116272 -2.48262542 -0.06495653
C  0.08278670 -0.80124406 -0.94313102
H  0.54608120 0.30715689 0.20326526
H  -0.14021386 -0.38132423 -0.04675459
H  -0.31153539 -0.05292168 0.02540798
H  -0.28390536 -1.41622330 -0.10847603
H  -2.08936010 2.29439633 0.06049233
H  -0.40175421 0.41751565 0.36471125
12
MD Step 657.0 Units = [eV / Ang.]
C  0.41107421 0.84785718 0.33012811
C  -0.90499004 -1.26119928 -0.23451640
C  0.64773694 0.81015539 -0.12250833
C  0.76266843 1.53249619 0.53779561
C  1.50417283 -2.46331374 -0.15015159
C  -0.24992669 -0.78873358 -0.88782912
H  0.64638459 0.53928433 0.22171598
H  -0.20017100 -0.28572017 -0.06827949
H  -0.17622567 -0.06696757 0.07102757
H  -0.30313775 -1.51798537 -0.15222456
H  -2.08309999 2.22343516 0.06511320
H  -0.05448585 0.43069146 0.38972902
12
MD Step 657.5 Units = [eV / Ang.]
C  0.26072871 0.68796638 0.26238731
C  -0.60475856 -1.14437476 -0.17159345
C  0.49559682 0.37344219 -0.20502509
C  0.66880656 1.76733392 0.63580071
C  1.27732694 -2.14680086 -0.22848624
C  -0.56470566 -0.74941346 -0.81987665
H  0.70922813 0.71958173 0.23162407
H  -0.26172649 -0.18292205 -0.09042132
H  -0.02851989 -0.08053499 0.11210133
H  -0.28055529 -1.52175162 -0.19521161
H  -1.94825681 1.84123847 0.06197782
H  0.27683554 0.43623504 0.40672313
12
MD Step 658.0 Units = [eV / Ang.]
C  0.13397986 0.56598008 0.19975860
C  -0.28648991 -1.00524308 -0.10873390
C  0.33916722 -0.08215998 -0.28175568
C  0.52316061 1.92065171 0.72854291
C  0.96014396 -1.60645268 -0.30713525
C  -0.83629613 -0.68534016 -0.73708123
H  0.73021376 0.83868275 0.23279944
H  -0.31879838 -0.08220660 -0.11209213
H  0.11884305 -0.09373634 0.14833436
H  -0.21737980 -1.42668965 -0.23452655
H  -1.71347761 1.22398681 0.05952064
H  0.56693337 0.43252713 0.41236878
12
MD Step 658.5 Units = [eV / Ang.]
C  0.03370124 0.49026796 0.14265602
C  0.03913277 -0.84261196 -0.04735776
C  0.19129771 -0.54373048 -0.35333604
C  0.33233504 1.98560650 0.81276069
C  0.58906137 -0.94799204 -0.39082694
C  -1.04588996 -0.59995743 -0.63872391
H  0.70757419 0.89121720 0.22569492
H  -0.36577972 0.00801685 -0.13217959
H  0.25240597 -0.10655267 0.18023516
H  -0.11546564 -1.23412873 -0.26745332
H  -1.41581934 0.48104135 0.06358416
H  0.79744637 0.41882347 0.40494661
12
MD Step 659.0 Units = [eV / Ang.]
C  -0.03901955 0.46648594 0.09101165
C  0.36204778 -0.65639431 0.01110271
C  0.06372454 -0.99849270 -0.42101369
C  0.10464823 1.95742637 0.88551046
C  0.19897074 -0.27521259 -0.48084307
C  -1.18062894 -0.49764896 -0.52526743
H  0.64168522 0.87514901 0.21124821
H  -0.39797602 0.08078421 -0.14964880
H  0.35943626 -0.11880107 0.20905206
H  0.02221261 -0.94877651 -0.29157953
H  -1.09133773 -0.27969267 0.07631467
H  0.95623685 0.39517328 0.38411275
12
MD Step 659.5 Units = [eV / Ang.]
C  -0.08457913 0.49744286 0.04435072
C  0.67313611 -0.44781393 0.06529503
C  -0.03437509 -1.43416462 -0.48640169
C  -0.14980106 1.83639137 0.94444166
C  -0.18196391 0.33347742 -0.57573687
C  -1.23265966 -0.38336902 -0.39802697
H  0.53488200 0.79157398 0.19078446
H  -0.41189400 0.13092046 -0.16362598
H  0.42955517 -0.13013757 0.23654335
H  0.19054147 -0.58111863 -0.30505126
H  -0.76901962 -0.97545792 0.09684689
H  1.03617773 0.36225560 0.35058068
12
MD Step 660.0 Units = [eV / Ang.]
C  -0.10491431 0.58245665 0.00182636
C  0.96441313 -0.21951723 0.11402964
C  -0.09766340 -1.83921667 -0.55110816
C  -0.41844173 1.63147362 0.98821871
C  -0.53360245 0.83217471 -0.67272008
C  -1.19834634 -0.26246455 -0.25893050
H  0.39160841 0.64508069 0.16596488
H  -0.40541001 0.15520497 -0.17346227
H  0.45622731 -0.14010032 0.26460817
H  0.38092480 -0.15046702 -0.30700572
H  -0.46888953 -1.55584670 0.12273321
H  1.03409412 0.32122185 0.30584578
12
MD Step 660.5 Units = [eV / Ang.]
C  -0.10384528 0.71633192 -0.03774686
C  1.22917455 0.02437705 0.15635256
C  -0.12543470 -2.20308611 -0.61631016
C  -0.68529468 1.36350835 1.01703710
C  -0.84247442 1.20248159 -0.76880429
C  -1.07797000 -0.14065414 -0.11039660
H  0.21879321 0.44456784 0.13874066
H  -0.37786418 0.15243992 -0.17878061
H  0.43774282 -0.14818779 0.29485243
H  0.58003869 0.31244323 -0.29811566
H  -0.20313947 -1.99780589 0.15117260
H  0.95027345 0.27358401 0.25199883
12
MD Step 661.0 Units = [eV / Ang.]
C  -0.08749849 0.88825902 -0.07581486
C  1.46211649 0.27824675 0.19161427
C  -0.12167901 -2.51637187 -0.68239024
C  -0.93054548 1.06619648 1.03303992
C  -1.09941875 1.44363975 -0.86136719
C  -0.87603305 -0.02405393 0.04469885
H  0.02624571 0.20421603 0.11126225
H  -0.33011203 0.12347914 -0.17951072
H  0.37743586 -0.15395272 0.32820266
H  0.76937689 0.76500031 -0.28103063
H  0.02140589 -2.29579951 0.17967836
H  0.78870595 0.22114055 0.19161733
12
MD Step 661.5 Units = [eV / Ang.]
C  -0.06449269 1.08114612 -0.11391068
C  1.65946056 0.53497362 0.21952489
C  -0.09438494 -2.77105027 -0.74873065
C  -1.13150898 0.78310269 1.04030802
C  -1.29737630 1.56309438 -0.94824453
C  -0.60210591 0.08088473 0.20304154
H  -0.17324800 -0.05593062 0.08569315
H  -0.26453989 0.07123679 -0.17591092
H  0.28308128 -0.15708766 0.36466852
H  0.92639489 1.15622089 -0.26037606
H  0.20072698 -2.45249235 0.20626031
H  0.55799301 0.16590169 0.12767642
12
MD Step 662.0 Units = [eV / Ang.]
C  -0.04553502 1.27202228 -0.15336789
C  1.81904709 0.78601567 0.24019690
C  -0.05423402 -2.96073361 -0.81372049
C  -1.26555211 0.55987316 1.04412962
C  -1.42984140 1.56976290 -1.02758454
C  -0.27195126 0.16762313 0.36096321
H  -0.36446549 -0.31044757 0.06390937
H  -0.18502084 0.00065343 -0.16857502
H  0.16564634 -0.15747879 0.40330899
H  1.02774293 1.43499180 -0.24200888
H  0.33154580 -2.47224377 0.22934271
H  0.27261798 0.10996136 0.06340601
12
MD Step 662.5 Units = [eV / Ang.]
C  -0.04218568 1.43410436 -0.19495379
C  1.94035725 1.02160178 0.25415602
C  -0.01300608 -3.08094362 -0.87495918
C  -1.31465784 0.43313602 1.04954502
C  -1.49003054 1.47030616 -1.09765533
C  0.09162033 0.23001874 0.51466825
H  -0.53116576 -0.53068130 0.04712264
H  -0.09676512 -0.08144174 -0.15841240
H  0.03772018 -0.15521625 0.44239104
H  1.05418904 1.56154185 -0.23153074
H  0.40993419 -2.35769970 0.24760451
H  -0.04600996 0.05527370 0.00202396
12
MD Step 663.0 Units = [eV / Ang.]
C  -0.06480781 1.54063708 -0.23853131
C  2.02438928 1.23112373 0.26230853
C  0.01797116 -3.12937664 -0.92958558
C  -1.27021670 0.42008659 1.05964161
C  -1.47069294 1.26810206 -1.15672355
C  0.45888605 0.26302301 0.66062098
H  -0.65832951 -0.68869795 0.03553820
H  -0.00600761 -0.16666183 -0.14659003
H  -0.08802142 -0.15056204 0.47967702
H  0.99569783 1.51812528 -0.23254382
H  0.43067284 -2.10913797 0.25986308
H  -0.36954118 0.00333866 -0.05367514
12
MD Step 663.5 Units = [eV / Ang.]
C  -0.12017960 1.56986148 -0.28289861
C  2.07335701 1.40375642 0.26585235
C  0.02907851 -3.10606625 -0.97464512
C  -1.13600896 0.51343464 1.07438486
C  -1.36464449 0.96470569 -1.20307802
C  0.79516831 0.26348874 0.79603437
H  -0.73476028 -0.76235829 0.02820279
H  0.08049913 -0.24565218 -0.13442843
H  -0.20005924 -0.14388931 0.51275794
H  0.85454773 1.31417335 -0.24544658
H  0.38754840 -1.72632374 0.26507775
H  -0.66454653 -0.04513055 -0.10181330
12
MD Step 664.0 Units = [eV / Ang.]
C  -0.20950204 1.50968641 -0.32592849
C  2.09017969 1.52932880 0.26612987
C  0.01325711 -3.01339588 -1.00741869
C  -0.92790903 0.68419685 1.09058284
C  -1.16637827 0.56386058 -1.23524962
C  1.06497104 0.23087217 0.91929960
H  -0.75526759 -0.74006808 0.02316309
H  0.15617820 -0.30896913 -0.12325218
H  -0.28887161 -0.13560925 0.53936185
H  0.64500774 0.98338692 -0.26737801
H  0.27497692 -1.21287920 0.26253045
H  -0.89664218 -0.09041019 -0.14184072
12
MD Step 664.5 Units = [eV / Ang.]
C  -0.32760839 1.36040857 -0.36501071
C  2.07784709 1.59935195 0.26444133
C  -0.03354236 -2.85592132 -1.02567494
C  -0.67039470 0.89087780 1.10296629
C  -0.87529031 0.07795698 -1.25245396
C  1.23786070 0.16759585 1.03015525
H  -0.72164482 -0.62350041 0.01793586
H  0.21542146 -0.34817067 -0.11421371
H  -0.34739341 -0.12610374 0.55759739
H  0.38971143 0.57420620 -0.29329509
H  0.09142354 -0.58301972 0.25220935
H  -1.03639022 -0.13368149 -0.17465706
12
MD Step 665.0 Units = [eV / Ang.]
C  -0.46371811 1.13443282 -0.39765647
C  2.03877323 1.60806617 0.26185446
C  -0.11221896 -2.64002177 -1.02783863
C  -0.39142444 1.09063164 1.10577543
C  -0.50072231 -0.46412244 -1.25518958
C  1.29453748 0.07888704 1.12945998
H  -0.64207269 -0.42721983 0.01014108
H  0.25434511 -0.35696169 -0.10812291
H  -0.37121029 -0.11567504 0.56612333
H  0.11440399 0.13807878 -0.31757234
H  -0.15529298 0.13050072 0.23533083
H  -1.06540002 -0.17659639 -0.20230519
12
MD Step 665.5 Units = [eV / Ang.]
C  -0.60349207 0.85317266 -0.42204888
C  1.97429908 1.55327046 0.25905111
C  -0.22059039 -2.37342404 -1.01308988
C  -0.11766800 1.24797396 1.09412536
C  -0.06782894 -1.01080412 -1.24574435
C  1.23102979 -0.02792112 1.21861954
H  -0.52919000 -0.17536368 -0.00192647
H  0.27133259 -0.33215310 -0.10532237
H  -0.35860471 -0.10451886 0.56425419
H  -0.15683669 -0.27997496 -0.33538502
H  -0.44193961 0.87035102 0.21475596
H  -0.98051106 -0.22060821 -0.22728918
12
MD Step 666.0 Units = [eV / Ang.]
C  -0.73166851 0.54240475 -0.43735694
C  1.88450410 1.43675071 0.25625358
C  -0.35359591 -2.06467205 -0.98141718
C  0.12859273 1.33881830 1.06473428
C  0.37879824 -1.48835174 -1.22816837
C  1.05936391 -0.14439365 1.29890222
H  -0.39755560 0.10331602 -0.01897197
H  0.26722950 -0.27420798 -0.10564166
H  -0.31056089 -0.09271971 0.55201691
H  -0.40452592 -0.64618841 -0.34344870
H  -0.72617575 1.55558006 0.19486746
H  -0.79440590 -0.26633629 -0.25176962
12
MD Step 666.5 Units = [eV / Ang.]
C  -0.83445078 0.22773847 -0.44376725
C  1.76837217 1.26416302 0.25324424
C  -0.50357020 -1.72259252 -0.93363293
C  0.33066744 1.35021553 1.01602172
C  0.77828829 -1.81277962 -1.20729129
C  0.80445474 -0.26201780 1.37093941
H  -0.26131496 0.38034176 -0.04067322
H  0.24513622 -0.18723057 -0.10844371
H  -0.23076820 -0.08026709 0.53016758
H  -0.61461585 -0.93852488 -0.34011536
H  -0.94976507 2.09419081 0.18050802
H  -0.53243382 -0.31323711 -0.27695721
12
MD Step 667.0 Units = [eV / Ang.]
C  -0.90108214 -0.06858097 -0.44229886
C  1.62426955 1.04441852 0.24946747
C  -0.66061433 -1.35583272 -0.87134492
C  0.47724710 1.27757139 0.94782354
C  1.06646426 -1.91274777 -1.18686629
C  0.49848646 -0.37302361 1.43458099
H  -0.13261491 0.63103915 -0.06587914
H  0.20985842 -0.07840482 -0.11274944
H  -0.12558680 -0.06708652 0.50016259
H  -0.77783959 -1.14447155 -0.32507710
H  -1.05162798 2.40681626 0.17508996
H  -0.22696004 -0.35969737 -0.30290881
12
MD Step 667.5 Units = [eV / Ang.]
C  -0.92448294 -0.32914839 -0.43452524
C  1.45061109 0.78869031 0.24418073
C  -0.81307606 -0.97249543 -0.79686600
C  0.56147527 1.12123787 0.86100153
C  1.19576821 -1.75459026 -1.16773970
C  0.17485749 -0.47097211 1.48907531
H  -0.02089915 0.83625151 -0.09290395
H  0.16715171 0.04298193 -0.11740674
H  -0.00389595 -0.05307915 0.46406567
H  -0.88839198 -1.25797240 -0.29895812
H  -0.98778827 2.45254488 0.17879333
H  0.08867059 -0.40344875 -0.32871682
12
MD Step 668.0 Units = [eV / Ang.]
C  -0.90109419 -0.54147311 -0.42230994
C  1.24651413 0.50930852 0.23661468
C  -0.94821634 -0.57993010 -0.71303967
C  0.57983117 0.88377735 0.75712008
C  1.15259842 -1.35590588 -1.14730256
C  -0.13651209 -0.55113393 1.53340556
H  0.06709338 0.98251585 -0.11980455
H  0.12294674 0.16668324 -0.12126380
H  0.12330824 -0.03816359 0.42437191
H  -0.94263956 -1.27677473 -0.26297900
H  -0.74861903 2.24317969 0.18810916
H  0.38478912 -0.44208332 -0.35292185
12
MD Step 668.5 Units = [eV / Ang.]
C  -0.83028280 -0.69731231 -0.40761021
C  1.01233048 0.21873713 0.22610448
C  -1.05312405 -0.18466829 -0.62296621
C  0.53121375 0.56849753 0.63825558
C  0.96170279 -0.77932052 -1.12074874
C  -0.41166049 -0.61061928 1.56660778
H  0.12694712 1.06135504 -0.14458624
H  0.08268962 0.28259186 -0.12331123
H  0.24366759 -0.02231168 0.38374009
H  -0.93829632 -1.20083622 -0.21876422
H  -0.36307838 1.83735492 0.19722188
H  0.63789068 -0.47346818 -0.37394297
12
MD Step 669.0 Units = [eV / Ang.]
C  -0.71362842 -0.79189408 -0.39234144
C  0.74996454 -0.07119500 0.21217608
C  -1.11591438 0.20749200 -0.52964597
C  0.41653324 0.17943752 0.50693021
C  0.67504474 -0.11037633 -1.08333168
C  -0.63303552 -0.64819860 1.58797540
H  0.15611050 1.06834997 -0.16533834
H  0.05088782 0.38161852 -0.12277729
H  0.34462101 -0.00557132 0.34464752
H  -0.87430840 -1.03204725 -0.16828571
H  0.11257404 1.31835479 0.20038942
H  0.83115085 -0.49597023 -0.39039821
12
MD Step 669.5 Units = [eV / Ang.]
C  -0.55433586 -0.82345551 -0.37827953
C  0.46296662 -0.34978256 0.19458333
C  -1.12713149 0.59131903 -0.43559608
C  0.23907081 -0.27728572 0.36611694
C  0.35244161 0.56768479 -1.03220421
C  -0.78869545 -0.66387593 1.59714241
H  0.15357328 1.00248165 -0.18033079
H  0.03086495 0.45629816 -0.11917323
H  0.41487049 0.01192812 0.30902689
H  -0.75155484 -0.77528626 -0.11388314
H  0.61423547 0.76848206 0.19387513
H  0.95369442 -0.50850783 -0.40127771
12
MD Step 670.0 Units = [eV / Ang.]
C  -0.35692948 -0.79331221 -0.36695129
C  0.15644006 -0.60768848 0.17330705
C  -1.08116216 0.96193760 -0.34252333
C  0.00570285 -0.79099528 0.21923863
C  0.04466210 1.19080928 -0.96699640
C  -0.87116753 -0.65837238 1.59408214
H  0.11980682 0.86601411 -0.18812150
H  0.02468651 0.50114317 -0.11229977
H  0.44593046 0.02998964 0.27796375
H  -0.57435023 -0.44065589 -0.05827390
H  1.08693712 0.25163702 0.17658159
H  0.99944347 -0.51050658 -0.40600696
12
MD Step 670.5 Units = [eV / Ang.]
C  -0.12729354 -0.70644213 -0.35948063
C  -0.16317288 -0.83705223 0.14853032
C  -0.97736006 1.31462364 -0.25114214
C  -0.27118290 -1.34337362 0.07005645
C  -0.21480661 1.71913249 -0.88930531
C  -0.87659772 -0.63269242 1.57907786
H  0.05699801 0.66496232 -0.18771298
H  0.03319070 0.51282571 -0.10222797
H  0.43342766 0.04837814 0.25154122
H  -0.35249012 -0.04640499 -0.00444169
H  1.49312087 -0.19212096 0.14955700
H  0.96616661 -0.50183596 -0.40445215
12
MD Step 671.0 Units = [eV / Ang.]
C  0.12698561 -0.57244223 -0.35636802
C  -0.48837159 -1.03157267 0.12060095
C  -0.82055811 1.64464046 -0.16119337
C  -0.57178797 -1.90580124 -0.07765136
C  -0.40955485 2.13332429 -0.80177206
C  -0.80455367 -0.58784196 1.55270116
H  -0.03047141 0.40999589 -0.17878078
H  0.05606189 0.49027361 -0.08926586
H  0.37782159 0.06685512 0.22888716
H  -0.10317671 0.37849571 0.04469373
H  1.81249754 -0.54314650 0.11506068
H  0.85510767 -0.48278047 -0.39691223
12
MD Step 671.5 Units = [eV / Ang.]
C  0.39610423 -0.40645158 -0.35722675
C  -0.81088569 -1.18662942 0.08999107
C  -0.62078523 1.94710793 -0.07166021
C  -0.86820182 -2.43870436 -0.22065243
C  -0.53541067 2.42746890 -0.70731462
C  -0.65851077 -0.52468157 1.51582108
H  -0.13546257 0.11738694 -0.16195491
H  0.09190891 0.43474018 -0.07391826
H  0.28435280 0.08520847 0.20841556
H  0.14830943 0.79377157 0.08684942
H  2.03726284 -0.79515288 0.07576251
H  0.67131854 -0.45406419 -0.38411244
12
MD Step 672.0 Units = [eV / Ang.]
C  0.66764843 -0.22946782 -0.36053916
C  -1.12194802 -1.29948481 0.05725197
C  -0.39218702 2.21691903 0.01888010
C  -1.12627819 -2.89462419 -0.35693154
C  -0.59467064 2.60226685 -0.60873545
C  -0.44690617 -0.44386302 1.46962123
H  -0.24771835 -0.19060775 -0.13908272
H  0.13833022 0.34986434 -0.05683940
H  0.16223317 0.10326636 0.18819706
H  0.37049996 1.15103660 0.12105484
H  2.16638835 -0.94839555 0.03430501
H  0.42460825 -0.41691005 -0.36718195
12
MD Step 672.5 Units = [eV / Ang.]
C  0.92668436 -0.06739860 -0.36356322
C  -1.41253420 -1.36952007 0.02296896
C  -0.15137466 2.44870500 0.11186295
C  -1.31081870 -3.22580869 -0.48616283
C  -0.59150199 2.66013508 -0.50866472
C  -0.18439673 -0.34580210 1.41558416
H  -0.35406977 -0.48662638 -0.11334340
H  0.19197855 0.24168296 -0.03877708
H  0.02329492 0.12089266 0.16635790
H  0.53089035 1.40158912 0.14811305
H  2.20107756 -1.00476429 -0.00680166
H  0.13077032 -0.37308471 -0.34757409
12
MD Step 673.0 Units = [eV / Ang.]
C  1.15669582 0.05167561 -0.36253134
C  -1.67358927 -1.39842558 -0.01229188
C  0.08444697 2.63689100 0.20839815
C  -1.39319761 -3.39493956 -0.60961674
C  -0.52919834 2.60240379 -0.40970915
C  0.10726592 -0.23071536 1.35537724
H  -0.43955677 -0.74088181 -0.08906227
H  0.24865766 0.11850758 -0.02050469
H  -0.11956365 0.13796581 0.14141100
H  0.60348702 1.50739796 0.17048200
H  2.14207028 -0.96502628 -0.04507859
H  -0.18751803 -0.32485315 -0.32687374
12
MD Step 673.5 Units = [eV / Ang.]
C  1.34151086 0.10193211 -0.35323638
C  -1.89627541 -1.39020715 -0.04804310
C  0.29919863 2.77586471 0.30904453
C  -1.35876085 -3.38521287 -0.72937038
C  -0.40928574 2.42836653 -0.31466937
C  0.39952765 -0.09874599 1.29059653
H  -0.48955618 -0.92558146 -0.07112409
H  0.30349437 -0.00944220 -0.00274105
H  -0.25381014 0.15435001 0.11246007
H  0.57608384 1.45142935 0.19144845
H  1.98881677 -0.82798016 -0.07790552
H  -0.50094379 -0.27477290 -0.30645969
12
MD Step 674.0 Units = [eV / Ang.]
C  1.46789840 0.06501378 -0.33195209
C  -2.07230001 -1.35090497 -0.08393000
C  0.47925377 2.86032146 0.41370979
C  -1.21069438 -3.20524257 -0.84711821
C  -0.23236721 2.13609220 -0.22669038
C  0.65926045 0.04975944 1.22238899
H  -0.49256546 -1.02016236 -0.06403718
H  0.35122950 -0.13074768 0.01393275
H  -0.36837996 0.16986799 0.07926733
H  0.45396018 1.24269507 0.21389770
H  1.74045931 -0.59138854 -0.10241224
H  -0.77575459 -0.22530381 -0.28705648
12
MD Step 674.5 Units = [eV / Ang.]
C  1.52809143 -0.06561203 -0.29644342
C  -2.19435768 -1.28793860 -0.11977572
C  0.61426545 2.88574607 0.52166237
C  -0.96852615 -2.88633854 -0.96317609
C  -0.00073238 1.72517953 -0.14918992
C  0.85322280 0.21387551 1.15107333
H  -0.44284315 -1.01571815 -0.07088975
H  0.38664564 -0.23386867 0.02914767
H  -0.45437548 0.18428034 0.04220828
H  0.25815529 0.91353861 0.23928123
H  1.39865971 -0.25483737 -0.11558684
H  -0.97820549 -0.17830670 -0.26831114
12
MD Step 675.0 Units = [eV / Ang.]
C  1.52129730 -0.28278169 -0.24670906
C  -2.25668190 -1.20913049 -0.15558972
C  0.69754647 2.84897699 0.63161318
C  -0.66217489 -2.47351544 -1.07615657
C  0.27734155 1.20172578 -0.08537192
C  0.95414216 0.39173391 1.07596310
H  -0.34194287 -0.91695881 -0.09256345
H  0.40510837 -0.30849533 0.04279000
H  -0.50542087 0.19727723 0.00215712
H  0.01922836 0.51051475 0.26726820
H  0.97219285 0.17525733 -0.11479457
H  -1.08063653 -0.13460424 -0.24860630
12
MD Step 675.5 Units = [eV / Ang.]
C  1.45359411 -0.56698325 -0.18516179
C  -2.25566277 -1.12155763 -0.19153518
C  0.72613140 2.74871406 0.74183635
C  -0.32448522 -2.01440255 -1.18335756
C  0.58228028 0.58520754 -0.03715188
C  0.94675181 0.58032066 0.99556951
H  -0.19852666 -0.74092887 -0.12750147
H  0.40315476 -0.34696526 0.05499858
H  -0.51778594 0.20848209 -0.03966038
H  -0.23049777 0.08310712 0.29612735
H  0.48253414 0.67882268 -0.09886524
H  -1.06748813 -0.09381658 -0.22529831
12
MD Step 676.0 Units = [eV / Ang.]
C  1.33625451 -0.89041511 -0.11617955
C  -2.19040509 -1.03051731 -0.22784757
C  0.70067513 2.58588541 0.85030425
C  0.01473203 -1.55038379 -1.28152043
C  0.87899240 -0.08450381 -0.00354549
C  0.83162547 0.77553134 0.90820275
H  -0.02651932 -0.51299695 -0.17210757
H  0.37901426 -0.34543417 0.06610918
H  -0.49040708 0.21746824 -0.08182045
H  -0.46312325 -0.32535017 0.32349369
H  -0.03173296 1.21530663 -0.06969038
H  -0.93910609 -0.05459030 -0.19539842
12
MD Step 676.5 Units = [eV / Ang.]
C  1.18320064 -1.22216731 -0.04523096
C  -2.06308241 -0.93884802 -0.26472164
C  0.62527718 2.36375480 0.95482487
C  0.33173198 -1.11215688 -1.36754542
C  1.11726281 -0.74398126 0.02093222
C  0.62526614 0.97242182 0.81276478
H  0.15765712 -0.26167714 -0.22157918
H  0.33294231 -0.30450267 0.07655696
H  -0.42489493 0.22378904 -0.12284800
H  -0.65824723 -0.68231369 0.34709619
H  -0.51532404 1.72083634 -0.03376703
H  -0.71178956 -0.01515503 -0.15648279
12
MD Step 677.0 Units = [eV / Ang.]
C  1.00850788 -1.53287323 0.02209362
C  -1.87898325 -0.84680095 -0.30219426
C  0.50726602 2.08780452 1.05318621
C  0.60922044 -0.71949828 -1.43893400
C  1.24019662 -1.31204095 0.04670473
C  0.35635623 1.16548565 0.70939222
H  0.33781379 -0.01396958 -0.27084582
H  0.26728016 -0.22913409 0.08676134
H  -0.32554780 0.22701972 -0.16135627
H  -0.80314912 -0.96646785 0.36520377
H  -0.90491770 2.11445099 -0.00253426
H  -0.41404325 0.02602404 -0.10747729
12
MD Step 677.5 Units = [eV / Ang.]
C  0.82466554 -1.79775215 0.08085341
C  -1.64619901 -0.75245358 -0.34005463
C  0.35692476 1.76539509 1.14330526
C  0.83526050 -0.38360195 -1.49394978
C  1.20053858 -1.70718225 0.08718124
C  0.05965094 1.34883577 0.59968361
H  0.49995271 0.20767821 -0.31532173
H  0.18621540 -0.12787250 0.09702322
H  -0.19933951 0.22680750 -0.19617800
H  -0.89125188 -1.16558862 0.37677293
H  -1.14589197 2.31597422 0.00970722
H  -0.08052607 0.06976026 -0.04902276
12
MD Step 678.0 Units = [eV / Ang.]
C  0.64181748 -1.99787290 0.12719557
C  -1.37500005 -0.65251815 -0.37780714
C  0.18706980 1.40530587 1.22337799
C  1.00184859 -0.11025028 -1.53160952
C  0.97860432 -1.87234082 0.15432769
C  -0.23030881 1.51631349 0.48646810
H  0.63320109 0.38657687 -0.35133732
H  0.09529797 -0.01157608 0.10746002
H  -0.05577101 0.22292165 -0.22648198
H  -0.92009922 -1.27359417 0.38140675
H  -1.21079278 2.27106624 -0.00965289
H  0.25413261 0.11596829 0.01665273
12
MD Step 678.5 Units = [eV / Ang.]
C  0.46782569 -2.12008696 0.15847962
C  -1.07703359 -0.54327890 -0.41469218
C  0.01241075 1.01721615 1.29201324
C  1.10382927 0.09743873 -1.55162589
C  0.59184956 -1.79531212 0.25366166
C  -0.48387266 1.66167616 0.37328765
H  0.72988081 0.51159651 -0.37626741
H  0.00082289 0.10802469 0.11798773
H  0.09353213 0.21529351 -0.25186128
H  -0.88968124 -1.28803078 0.37925466
H  -1.10947119 1.97168955 -0.06644700
H  0.55990758 0.16377346 0.08620921
12
MD Step 679.0 Units = [eV / Ang.]
C  0.30875347 -2.15632521 0.17319735
C  -0.76446511 -0.42142936 -0.44975369
C  -0.15141239 0.61120829 1.34832393
C  1.13838015 0.23736315 -1.55437809
C  0.08980253 -1.51293158 0.38164156
C  -0.67863208 1.77897856 0.26384545
H  0.78509532 0.57626422 -0.38846780
H  -0.09079577 0.21964307 0.12834515
H  0.23560108 0.20403263 -0.27236850
H  -0.80150208 -1.20863384 0.37093594
H  -0.88447665 1.46005693 -0.15709561
H  0.81365152 0.21177316 0.15577431
12
MD Step 679.5 Units = [eV / Ang.]
C  0.16939939 -2.10284073 0.17081751
C  -0.44921107 -0.28466898 -0.48193505
C  -0.28910546 0.19735796 1.39194807
C  1.10506639 0.30817470 -1.54092229
C  -0.46265454 -1.09639534 0.52708513
C  -0.79974045 1.86310681 0.16159965
H  0.79621205 0.57777549 -0.38714510
H  -0.17356377 0.31343418 0.13814685
H  0.35730490 0.18941135 -0.28847765
H  -0.65848665 -1.03720812 0.35751590
H  -0.59457453 0.81354413 -0.27006579
H  0.99935374 0.25830856 0.22143277
12
MD Step 680.0 Units = [eV / Ang.]
C  0.05357617 -1.95973828 0.15164611
C  -0.14232190 -0.13202559 -0.51017410
C  -0.38725404 -0.21455534 1.42298603
C  1.00642453 0.31046286 -1.51301582
C  -1.00393746 -0.62668773 0.67551393
C  -0.83901474 1.91031742 0.06956580
H  0.76252514 0.51633975 -0.37225542
H  -0.24230756 0.38161112 0.14694551
H  0.44685341 0.17181557 -0.30096175
H  -0.46565697 -0.77883867 0.34051203
H  -0.29607583 0.11964039 -0.39030370
H  1.10718927 0.30165850 0.27954138
12
MD Step 680.5 Units = [eV / Ang.]
C  -0.03601351 -1.73095502 0.11676396
C  0.14646056 0.03602954 -0.53348665
C  -0.43587213 -0.61521270 1.44186452
C  0.84898590 0.24921304 -1.47308185
C  -1.48772113 -0.17304684 0.81369644
C  -0.79369106 1.91861140 -0.00972151
H  0.68525457 0.39506231 -0.34448477
H  -0.29294069 0.41873035 0.15429298
H  0.49536568 0.15167258 -0.31070183
H  -0.23137500 -0.44423953 0.32186153
H  -0.03067016 -0.54600438 -0.50389424
H  1.13221697 0.34013925 0.32689143
12
MD Step 681.0 Units = [eV / Ang.]
C  -0.09834114 -1.42464867 0.06804542
C  0.40901014 0.21758583 -0.55102492
C  -0.42968301 -0.99584435 1.44916395
C  0.64447480 0.13698031 -1.42402293
C  -1.88582409 0.21774657 0.93231425
C  -0.66541845 1.88779750 -0.07418740
H  0.56790559 0.22037720 -0.30531695
H  -0.32263384 0.42176220 0.15979102
H  0.49818278 0.12937760 -0.31846920
H  0.03125103 -0.05268747 0.30374799
H  0.17770674 -1.13059471 -0.60084071
H  1.07336944 0.37214799 0.36079950
12
MD Step 681.5 Units = [eV / Ang.]
C  -0.13492687 -1.05384598 0.00822986
C  0.63902650 0.40932131 -0.56211585
C  -0.36880105 -1.34829365 1.44546403
C  0.41060531 -0.00334782 -1.36878590
C  -2.18483953 0.52140224 1.02639359
C  -0.45980852 1.81921047 -0.12225061
H  0.41688310 0.00286241 -0.25714980
H  -0.32993481 0.39006011 0.16313141
H  0.45558359 0.10524065 -0.32473929
H  0.30345914 0.36556463 0.28817995
H  0.31966444 -1.60438218 -0.67557970
H  0.93308869 0.39620780 0.37922230
12
MD Step 682.0 Units = [eV / Ang.]
C  -0.15075532 -0.63703630 -0.05903278
C  0.83220188 0.60651127 -0.56627945
C  -0.25865404 -1.66511753 1.43125128
C  0.17062114 -0.13791520 -1.30964891
C  -2.38066692 0.73004599 1.09432357
C  -0.18662789 1.71513851 -0.15298972
H  0.24211388 -0.24191551 -0.20337710
H  -0.31487616 0.32531419 0.16412432
H  0.37272685 0.07947058 -0.32958923
H  0.56129959 0.76907807 0.27629045
H  0.39490059 -1.95464508 -0.72604498
H  0.71771642 0.41107101 0.38097255
12
MD Step 682.5 Units = [eV / Ang.]
C  -0.15478950 -0.19822981 -0.12926897
C  0.98635348 0.80302473 -0.56323789
C  -0.10914106 -1.93975187 1.40691320
C  -0.04915936 -0.22515537 -1.24736912
C  -2.47379399 0.84470087 1.13646654
C  0.13949479 1.57810265 -0.16647732
H  0.05728190 -0.49308018 -0.14832012
H  -0.27908263 0.23152050 0.16271632
H  0.25882166 0.05219771 -0.33270447
H  0.77820452 1.10895000 0.26750883
H  0.40732102 -2.17819154 -0.75229810
H  0.43848917 0.41591232 0.36607110
12
MD Step 683.0 Units = [eV / Ang.]
C  -0.15960783 0.23411405 -0.19750949
C  1.10151352 0.99134317 -0.55291337
C  0.06672520 -2.16670916 1.37280430
C  -0.22382360 -0.22361191 -1.18057338
C  -2.46637006 0.86903478 1.15399858
C  0.49817988 1.41014758 -0.16423487
H  -0.12076964 -0.72528788 -0.09689582
H  -0.22585116 0.11493474 0.15899530
H  0.12576964 0.02352438 -0.33348422
H  0.92966958 1.33708844 0.25899427
H  0.36181331 -2.27518234 -0.75537902
H  0.11275116 0.41060416 0.33619771
12
MD Step 683.5 Units = [eV / Ang.]
C  -0.17980434 0.62968088 -0.25889922
C  1.17991698 1.16269855 -0.53541801
C  0.25439868 -2.34177385 1.32934541
C  -0.33525746 -0.10269258 -1.10585295
C  -2.36095558 0.80532779 1.14821101
C  0.86281624 1.21232810 -0.14967263
H  -0.27378472 -0.91120169 -0.05397685
H  -0.16014273 -0.01607480 0.15317847
H  -0.01340967 -0.00641497 -0.33120470
H  0.99885469 1.41736436 0.24581397
H  0.26265325 -2.24524766 -0.73662994
H  -0.23528533 0.39600586 0.29510544
12
MD Step 684.0 Units = [eV / Ang.]
C  -0.22919386 0.96038038 -0.30951158
C  1.22580462 1.30742066 -0.51102900
C  0.43925344 -2.46212765 1.27711163
C  -0.37635078 0.14762274 -1.01881072
C  -2.16048560 0.65279204 1.12029924
C  1.20124980 0.98452005 -0.12828150
H  -0.38492513 -1.02556373 -0.02352760
H  -0.08840099 -0.15138406 0.14557997
H  -0.14602449 -0.03740048 -0.32519023
H  0.98094806 1.33560139 0.22210572
H  0.11318396 -2.08600451 -0.69751578
H  -0.57505903 0.37414318 0.24876984
12
MD Step 684.5 Units = [eV / Ang.]
C  -0.31746993 1.20508166 -0.34713293
C  1.24497252 1.41556721 -0.48014551
C  0.60775429 -2.52638049 1.21687782
C  -0.35212040 0.51261612 -0.91575597
C  -1.86901860 0.40827114 1.07160785
C  1.47835704 0.72568879 -0.10730389
H  -0.44205225 -1.05002703 -0.00775981
H  -0.01812172 -0.27977643 0.13655678
H  -0.26084163 -0.06909122 -0.31495356
H  0.88428613 1.10388629 0.18289883
H  -0.08354485 -1.79395665 -0.63989116
H  -0.87220061 0.34812060 0.20500156
12
MD Step 685.0 Units = [eV / Ang.]
C  -0.44738833 1.35356369 -0.37172331
C  1.24403805 1.47785665 -0.44323167
C  0.74825448 -2.53450404 1.14961357
C  -0.27725779 0.95634250 -0.79527911
C  -1.49304655 0.06957093 1.00427079
C  1.66065201 0.43465991 -0.09471554
H  -0.44040721 -0.97727223 -0.00661653
H  0.04286001 -0.38994533 0.12644084
H  -0.34880742 -0.10101022 -0.30028292
H  0.72767855 0.75705748 0.12579300
H  -0.32332870 -1.36798104 -0.56663037
H  -1.09324709 0.32166171 0.17236124
12
MD Step 685.5 Units = [eV / Ang.]
C  -0.61355567 1.40823631 -0.38533992
C  1.22946774 1.48683009 -0.40075274
C  0.85153088 -2.48773295 1.07643494
C  -0.17139918 1.43114335 -0.65895981
C  -1.04331453 -0.35833835 0.92210413
C  1.72219310 0.11126431 -0.09761618
H  -0.38366947 -0.81288503 -0.01781353
H  0.08731893 -0.47176604 0.11547087
H  -0.40342995 -0.13254967 -0.28127564
H  0.53522928 0.34309413 0.05171877
H  -0.59865008 -0.81561294 -0.48245299
H  -1.21172104 0.29831679 0.15848208
12
MD Step 686.0 Units = [eV / Ang.]
C  -0.80330299 1.38293197 -0.39153375
C  1.20654808 1.43802758 -0.35312327
C  0.91112619 -2.38845724 0.99853209
C  -0.05429882 1.88878268 -0.51099924
C  -0.53694091 -0.85478661 0.83137820
C  1.65005021 -0.24243983 -0.12048194
H  -0.28296320 -0.57423143 -0.03744034
H  0.10966253 -0.51762046 0.10374458
H  -0.42092161 -0.16299488 -0.25832603
H  0.33092270 -0.08818365 -0.03544514
H  -0.89610330 -0.16159653 -0.39456676
H  -1.21377889 0.28056838 0.16826160
12
MD Step 686.5 Units = [eV / Ang.]
C  -0.99928662 1.29924937 -0.39444685
C  1.17852383 1.33095134 -0.30068624
C  0.92360325 -2.24015308 0.91709498
C  0.05740604 2.28899705 -0.35715825
C  0.00076526 -1.37492440 0.74080751
C  1.44737778 -0.62129911 -0.16393335
H  -0.15422612 -0.28676561 -0.06089096
H  0.10681604 -0.52350935 0.09120902
H  -0.40022647 -0.19156445 -0.23208231
H  0.13482147 -0.49387246 -0.13001237
H  -1.19418644 0.54371376 -0.31247586
H  -1.10138802 0.26917696 0.20257468
12
MD Step 687.0 Units = [eV / Ang.]
C  -1.18280871 1.18186275 -0.39794444
C  1.14614342 1.16951902 -0.24372993
C  0.88874896 -2.04732800 0.83324452
C  0.15136292 2.60348282 -0.20360871
C  0.53608597 -1.84637042 0.65999969
C  1.13282650 -1.01687822 -0.22454178
H  -0.01495749 0.02083299 -0.08378753
H  0.07873124 -0.48965526 0.07769612
H  -0.34302059 -0.21746745 -0.20338020
H  -0.03847234 -0.84221209 -0.22575073
H  -1.46289693 1.22117426 -0.24623375
H  -0.89174297 0.26303959 0.25803675
12
MD Step 687.5 Units = [eV / Ang.]
C  -1.33680815 1.05433334 -0.40502229
C  1.10776370 0.96189555 -0.18254322
C  0.80967286 -1.81546291 0.74797903
C  0.21919652 2.81571262 -0.05613298
C  1.02976770 -2.17722535 0.59618426
C  0.73656840 -1.41800800 -0.29575365
H  0.11860495 0.32111807 -0.10263340
H  0.02838379 -0.42044113 0.06299483
H  -0.25369522 -0.23997406 -0.17315856
H  -0.17951351 -1.11269911 -0.31679319
H  -1.66675784 1.77114976 -0.20301651
H  -0.61318318 0.25960123 0.32789569
12
MD Step 688.0 Units = [eV / Ang.]
C  -1.44783794 0.93641403 -0.41757765
C  1.05997199 0.71970913 -0.11748433
C  0.69277667 -1.55091668 0.66212554
C  0.25559418 2.91831350 0.08022256
C  1.44364573 -2.27831384 0.55040982
C  0.29449495 -1.81181935 -0.36951451
H  0.23324800 0.59086656 -0.11509661
H  -0.03873766 -0.32370284 0.04693723
H  -0.13929537 -0.25849468 -0.14235807
H  -0.28273913 -1.29378379 -0.39805335
H  -1.77190210 2.09611795 -0.18326437
H  -0.29921933 0.25561001 0.40365373
12
MD Step 688.5 Units = [eV / Ang.]
C  -1.50690126 0.84304000 -0.43646414
C  0.99857551 0.45683808 -0.04904609
C  0.54747786 -1.26077803 0.57629639
C  0.25745639 2.90978960 0.20116351
C  1.74942661 -2.09364116 0.51567268
C  -0.15738095 -2.18485594 -0.43795333
H  0.31940657 0.81233788 -0.11998267
H  -0.11550938 -0.20955818 0.02947319
H  -0.00930764 -0.27265550 -0.11180594
H  -0.34501494 -1.37990031 -0.46525410
H  -1.75548593 2.13148205 -0.17888657
H  0.01725717 0.24790151 0.47678708
12
MD Step 689.0 Units = [eV / Ang.]
C  -1.50938200 0.78454490 -0.46170064
C  0.91966011 0.18805873 0.02210731
C  0.38562978 -0.95268079 0.49084644
C  0.22325010 2.79185494 0.30302675
C  1.93593216 -1.62429850 0.47897016
C  -0.58686131 -2.52393994 -0.49459380
H  0.37096393 0.97318579 -0.11702866
H  -0.19418473 -0.08907290 0.01071367
H  0.12481569 -0.28235278 -0.08209609
H  -0.36448954 -1.36901548 -0.51477744
H  -1.61339159 1.86975017 -0.17550837
H  0.30805740 0.23396586 0.54004067
12
MD Step 689.5 Units = [eV / Ang.]
C  -1.45448287 0.76745198 -0.49270567
C  0.82049428 -0.07221235 0.09513508
C  0.22057700 -0.63459154 0.40584769
C  0.15258758 2.56803032 0.38269009
C  2.01093452 -0.93148358 0.42666708
C  -0.96744455 -2.81671981 -0.53489627
H  0.38466369 1.06566476 -0.10664805
H  -0.26732401 0.02697034 -0.00906372
H  0.25049297 -0.28776423 -0.05348589
H  -0.33999730 -1.26131296 -0.54354174
H  -1.36209095 1.36375184 -0.15808564
H  0.55158964 0.21221523 0.58808703
12
MD Step 690.0 Units = [eV / Ang.]
C  -1.34451769 0.79522969 -0.52848458
C  0.70009409 -0.31089388 0.16905017
C  0.06585180 -0.31459106 0.32109635
C  0.04605895 2.24367348 0.43764816
C  1.99652689 -0.11646052 0.34998364
C  -1.27858593 -3.05201463 -0.55623348
H  0.35951169 1.08575185 -0.08971241
H  -0.32849331 0.12901130 -0.02944098
H  0.35522689 -0.28930177 -0.02583957
H  -0.27109773 -1.05920839 -0.54907235
H  -1.03351121 0.70679914 -0.11661849
H  0.73293556 0.18200479 0.61762354
12
MD Step 690.5 Units = [eV / Ang.]
C  -1.18430953 0.86862919 -0.56774431
C  0.55940946 -0.51690154 0.24276695
C  -0.06635680 -0.00064961 0.23618128
C  -0.09443567 1.82736444 0.46635879
C  1.92063271 0.71070704 0.24750048
C  -1.50518480 -3.22017927 -0.55756162
H  0.29640599 1.03262246 -0.06740269
H  -0.37268879 0.20930784 -0.04990581
H  0.42806947 -0.28750376 0.00135263
H  -0.15878634 -0.76868293 -0.52988303
H  -0.66567251 0.00176340 -0.04880055
H  0.84291681 0.14352274 0.62713788
12
MD Step 691.0 Units = [eV / Ang.]
C  -0.98083198 0.98543960 -0.60894763
C  0.40118928 -0.68153913 0.31516091
C  -0.16674100 0.29959575 0.15062024
C  -0.26468511 1.33336777 0.46892447
C  1.80902282 1.45763292 0.12407904
C  -1.63701987 -3.31361949 -0.53903592
H  0.19809217 0.90870232 -0.04112712
H  -0.39652293 0.26223739 -0.06990433
H  0.46110650 -0.28288642 0.02886435
H  -0.00683415 -0.40169640 -0.48621762
H  -0.29369835 -0.66488258 0.04101351
H  0.87692261 0.09764826 0.61657010
12
MD Step 691.5 Units = [eV / Ang.]
C  -0.74311474 1.13968897 -0.65034084
C  0.22963294 -0.79869756 0.38512890
C  -0.23010391 0.57907983 0.06405095
C  -0.45656896 0.78451225 0.44804854
C  1.68087937 2.06232155 -0.01210793
C  -1.66857411 -3.32743245 -0.50173833
H  0.06942488 0.72031833 -0.01247805
H  -0.39824772 0.28439822 -0.08889240
H  0.45062358 -0.27579446 0.05754255
H  0.17646153 0.02093650 -0.42106662
H  0.05551935 -1.23516387 0.14481739
H  0.83406780 0.04583266 0.58703583
12
MD Step 692.0 Units = [eV / Ang.]
C  -0.48233267 1.32050516 -0.68999235
C  0.04996013 -0.86497106 0.45164346
C  -0.25599115 0.83155236 -0.02356836
C  -0.65638431 0.21433739 0.40998285
C  1.54830997 2.49288573 -0.15238449
C  -1.59938836 -3.26000691 -0.44757288
H  -0.08219549 0.47874671 0.01681244
H  -0.37770238 0.27462861 -0.10638126
H  0.39767174 -0.26629744 0.08808123
H  0.37665045 0.46738199 -0.34114805
H  0.36443163 -1.67877015 0.25384951
H  0.71697044 -0.00999240 0.54067792
12
MD Step 692.5 Units = [eV / Ang.]
C  -0.21187033 1.51107520 -0.72588291
C  -0.13201174 -0.87974338 0.51380310
C  -0.24856288 1.05181722 -0.11180640
C  -0.84404251 -0.33316932 0.36491914
C  1.41836574 2.74014374 -0.28916456
C  -1.43487665 -3.11338034 -0.37930279
H  -0.24644838 0.20121903 0.04495713
H  -0.33623871 0.23401143 -0.12197725
H  0.30787514 -0.25416750 0.12081607
H  0.57253637 0.89502201 -0.25728303
H  0.62307207 -1.98531571 0.36028631
H  0.53220186 -0.06751238 0.48063519
12
MD Step 693.0 Units = [eV / Ang.]
C  0.05292169 1.68835624 -0.75606459
C  -0.31020269 -0.84525280 0.57087170
C  -0.21575520 1.23591094 -0.19970403
C  -0.99426776 -0.80783249 0.32615180
C  1.29577265 2.80873778 -0.41633857
C  -1.18735368 -2.89318281 -0.30063446
H  -0.41011320 -0.08878763 0.07026370
H  -0.27664762 0.16589515 -0.13541425
H  0.19054731 -0.23894569 0.15559576
H  0.73768603 1.25471295 -0.18348503
H  0.82618708 -2.15542626 0.45771023
H  0.29122540 -0.12418538 0.41104775
12
MD Step 693.5 Units = [eV / Ang.]
C  0.29559510 1.82426347 -0.77888330
C  -0.47850519 -0.76660850 0.62230747
C  -0.16792930 1.38119545 -0.28583572
C  -1.08048432 -1.16186291 0.30763640
C  1.18521745 2.70983165 -0.52892769
C  -0.87687903 -2.60805292 -0.21621432
H  -0.55782579 -0.36273088 0.09134584
H  -0.20306677 0.07589471 -0.14657806
H  0.05733771 -0.22007512 0.19175911
H  0.84463207 1.49941510 -0.13440088
H  0.97049073 -2.19376745 0.54081785
H  0.01141735 -0.17750261 0.33697330
12
MD Step 694.0 Units = [eV / Ang.]
C  0.50029096 1.88880404 -0.79321085
C  -0.63095219 -0.65166158 0.66777599
C  -0.11636274 1.48632411 -0.36846687
C  -1.08083333 -1.36075193 0.32037059
C  1.09275720 2.45635192 -0.62248429
C  -0.53133679 -2.26859370 -0.13139086
H  -0.67376268 -0.59013811 0.10734461
H  -0.12082090 -0.02821005 -0.15551642
H  -0.07925165 -0.19705736 0.22821289
H  0.87112611 1.59520709 -0.12156219
H  1.05263881 -2.10491251 0.60485673
H  -0.28349280 -0.22536190 0.26407068
12
MD Step 694.5 Units = [eV / Ang.]
C  0.65406634 1.85498344 -0.79860986
C  -0.76187683 -0.51066325 0.70713811
C  -0.07185551 1.55113431 -0.44575843
C  -0.98426467 -1.39236692 0.36895634
C  1.02630001 2.06065731 -0.69257881
C  -0.18505612 -1.88604391 -0.05163979
H  -0.74410499 -0.74349801 0.11808017
H  -0.03613648 -0.13678807 -0.16242769
H  -0.20720805 -0.16959110 0.26358039
H  0.80632041 1.53053652 -0.14984571
H  1.06813880 -1.89186981 0.64514639
H  -0.56432291 -0.26649052 0.19795889
12
MD Step 695.0 Units = [eV / Ang.]
C  0.74932245 1.70433750 -0.79534939
C  -0.86613621 -0.35558285 0.74041224
C  -0.04369256 1.57649751 -0.51596818
C  -0.79400434 -1.27007695 0.44999403
C  0.99514608 1.53446294 -0.73460329
C  0.12450652 -1.47098134 0.01830812
H  -0.75970269 -0.80375603 0.12405225
H  0.04431795 -0.23898952 -0.16762142
H  -0.31601854 -0.13766425 0.29637738
H  0.65416213 1.31946666 -0.21582435
H  1.01136195 -1.55694215 0.65693542
H  -0.79926274 -0.30077152 0.14328719
12
MD Step 695.5 Units = [eV / Ang.]
C  0.78548677 1.43134146 -0.78425951
C  -0.93946540 -0.19909167 0.76770335
C  -0.03899975 1.56419533 -0.57760463
C  -0.52673801 -1.02834246 0.55315083
C  1.00837577 0.89093275 -0.74412859
C  0.36195762 -1.03241541 0.07543364
H  -0.71807601 -0.76460915 0.12626829
H  0.11406436 -0.32372729 -0.17144854
H  -0.39730762 -0.10159049 0.32518262
H  0.43235743 0.99731294 -0.30886725
H  0.87692666 -1.10471997 0.63582760
H  -0.95858184 -0.32928605 0.10274220
12
MD Step 696.0 Units = [eV / Ang.]
C  0.76922479 1.04507227 -0.76647373
C  -0.97894097 -0.05325657 0.78911529
C  -0.06244882 1.51684377 -0.62952313
C  -0.20797671 -0.71294663 0.66432384
C  1.07168911 0.14889466 -0.71803262
C  0.50004654 -0.57754677 0.11912153
H  -0.62399970 -0.63394859 0.12595117
H  0.16756305 -0.38095274 -0.17421121
H  -0.44516399 -0.06199890 0.34877907
H  0.16745719 0.61082207 -0.41439839
H  0.66280584 -0.54703199 0.57898987
H  -1.02025633 -0.35395059 0.07635830
12
MD Step 696.5 Units = [eV / Ang.]
C  0.71298897 0.56751963 -0.74316822
C  -0.98346945 0.07186084 0.80466405
C  -0.11618044 1.43783258 -0.67097097
C  0.13411072 -0.37025301 0.76933311
C  1.18253446 -0.66148869 -0.65649833
C  0.52490476 -0.11218871 0.15124481
H  -0.48842760 -0.43186314 0.12423699
H  0.20094133 -0.40301571 -0.17607262
H  -0.45626365 -0.01979087 0.36626071
H  -0.11159187 0.20730871 -0.51771884
H  0.37522821 0.09088347 0.48721243
H  -0.97477543 -0.37680511 0.06147688
12
MD Step 697.0 Units = [eV / Ang.]
C  0.63234015 0.02936099 -0.71539279
C  -0.95416008 0.16941647 0.81421631
C  -0.19981853 1.33126348 -0.70159968
C  0.47391166 -0.03936580 0.85666066
C  1.32428382 -1.49349544 -0.56554336
C  0.43867440 0.35835326 0.17553532
H  -0.32617383 -0.18603752 0.12196621
H  0.21254601 -0.38583596 -0.17699251
H  -0.42989889 0.02392322 0.37710875
H  -0.37885574 -0.17333912 -0.60687302
H  0.03450320 0.76496344 0.36745370
H  -0.82735216 -0.39920702 0.05346042
12
MD Step 697.5 Units = [eV / Ang.]
C  0.54294655 -0.53515596 -0.68402332
C  -0.89444408 0.23652635 0.81747455
C  -0.31048926 1.20183494 -0.72146311
C  0.79121115 0.25126172 0.91861992
C  1.46198298 -2.28258781 -0.45897413
C  0.25858566 0.82835190 0.19646504
H  -0.15318917 0.07371452 0.11961177
H  0.20317190 -0.32958397 -0.17671362
H  -0.36798693 0.06790026 0.38124335
H  -0.61435238 -0.50219425 -0.67390644
H  -0.32077998 1.41120303 0.23473691
H  -0.59665644 -0.42127075 0.04692908
12
MD Step 698.0 Units = [eV / Ang.]
C  0.45810406 -1.09259022 -0.64980552
C  -0.80984953 0.27435890 0.81401980
C  -0.44285225 1.05470340 -0.73101117
C  1.07170013 0.48341281 0.95119828
C  1.54367332 -2.95293940 -0.35797328
C  0.01293736 1.29095812 0.21807062
H  0.01574099 0.32005374 0.11732329
H  0.17590552 -0.23869858 -0.17480666
H  -0.27506745 0.11084848 0.37904986
H  -0.80453591 -0.76101097 -0.71473942
H  -0.63514416 1.95267935 0.11161182
H  -0.31061206 -0.44177563 0.03706237
12
MD Step 698.5 Units = [eV / Ang.]
C  0.38731655 -1.61304874 -0.61342826
C  -0.70747940 0.28755272 0.80339812
C  -0.58916998 0.89530145 -0.73107324
C  1.30593843 0.64661724 0.95321231
C  1.51061369 -3.43297012 -0.28686236
C  -0.26448862 1.73783658 0.24313415
H  0.16840580 0.53089066 0.11503205
H  0.13561742 -0.12122254 -0.17076372
H  -0.15825006 0.15151991 0.37137512
H  -0.94119973 -0.93982044 -0.72829761
H  -0.84643010 2.31587053 0.02373973
H  -0.00087398 -0.45852725 0.02053372
12
MD Step 699.0 Units = [eV / Ang.]
C  0.33598693 -2.07132445 -0.57557086
C  -0.59530200 0.28315033 0.78522987
C  -0.73953265 0.72917085 -0.72281638
C  1.48774664 0.73519947 0.92536565
C  1.31526236 -3.67532115 -0.26558135
C  -0.53980624 2.15909293 0.27288653
H  0.29564767 0.69027984 0.11256224
H  0.08824086 0.01234836 -0.16411351
H  -0.02700785 0.18880455 0.35947705
H  -1.01983426 -1.03403723 -0.71550888
H  -0.90359363 2.45159542 -0.00780971
H  0.30219216 -0.46895892 -0.00412064
12
MD Step 699.5 Units = [eV / Ang.]
C  0.30595550 -2.44695991 -0.53690511
C  -0.48140236 0.26930296 0.75931179
C  -0.88233907 0.56180906 -0.70765227
C  1.61269155 0.74593675 0.86953779
C  0.93962564 -3.67184609 -0.30218952
C  -0.78294494 2.54345744 0.30716316
H  0.39116858 0.78798816 0.10971882
H  0.03999630 0.15043697 -0.15452818
H  0.10729597 0.22181528 0.34491268
H  -1.03819166 -1.04212101 -0.67853146
H  -0.78471400 2.35089261 0.02579611
H  0.57285849 -0.47071221 -0.03663382
12
MD Step 700.0 Units = [eV / Ang.]
C  0.29649681 -2.72396856 -0.49805099
C  -0.37334684 0.25404160 0.72568941
C  -1.00510612 0.39855076 -0.68708276
C  1.67709898 0.67683519 0.78841779
C  0.40398814 -3.45513419 -0.38967044
C  -0.96973303 2.87879641 0.34477597
H  0.45103100 0.81848613 0.10634138
H  -0.00328298 0.28167713 -0.14189666
H  0.23223410 0.24994853 0.32935863
H  -0.99548398 -0.96430405 -0.62034797
H  -0.50534657 2.04710189 0.11789122
H  0.79145049 -0.46203085 -0.07542557
12
MD Step 700.5 Units = [eV / Ang.]
C  0.30538690 -2.89071518 -0.45951569
C  -0.27772776 0.24431247 0.68469078
C  -1.09562729 0.24448936 -0.66249050
C  1.67786652 0.52717633 0.68544386
C  -0.23905307 -3.08569474 -0.50895001
C  -1.08245808 3.15298384 0.38390194
H  0.47316529 0.77997476 0.10233190
H  -0.03664001 0.39593355 -0.12635580
H  0.33551165 0.27290168 0.31437446
H  -0.89239190 -0.80254880 -0.54469951
H  -0.11231498 1.60312356 0.24935398
H  0.94428272 -0.44193680 -0.11808542
12
MD Step 701.0 Units = [eV / Ang.]
C  0.32974092 -2.94024038 -0.42163259
C  -0.19989474 0.24533871 0.63692270
C  -1.14335663 0.10444760 -0.63491623
C  1.61327008 0.29880759 0.56494944
C  -0.92128824 -2.63216923 -0.63605909
C  -1.10958845 3.35505039 0.42235778
H  0.45710392 0.67384520 0.09766169
H  -0.05628429 0.48498185 -0.10828048
H  0.40640649 0.29063742 0.30115000
H  -0.73191364 -0.56173030 -0.45623992
H  0.33295170 1.09128464 0.39586995
H  1.02285287 -0.41025350 -0.16178326
12
MD Step 701.5 Units = [eV / Ang.]
C  0.36642356 -2.87103998 -0.38452390
C  -0.14384847 0.26029835 0.58323607
C  -1.14080076 -0.01702827 -0.60488223
C  1.48474875 -0.00150426 0.43234583
C  -1.57693272 -2.15426338 -0.74929705
C  -1.04528689 3.47636739 0.45776139
H  0.40404867 0.50472331 0.09236597
H  -0.05971479 0.54287412 -0.08824310
H  0.43722242 0.30330035 0.29029347
H  -0.52093370 -0.25187593 -0.36071522
H  0.77211208 0.57571078 0.53522969
H  1.02296183 -0.36756248 -0.20357091
12
MD Step 702.0 Units = [eV / Ang.]
C  0.41194795 -2.68816411 -0.34808735
C  -0.11221362 0.29022346 0.52467226
C  -1.08461706 -0.11568307 -0.57232551
C  1.29929435 -0.35915148 0.29410544
C  -2.15440214 -1.69402897 -0.83338695
C  -0.88918631 3.51160807 0.48763730
H  0.31727518 0.28105651 0.08652424
H  -0.04574119 0.56609354 -0.06695391
H  0.42443528 0.31110637 0.28172192
H  -0.27212068 0.10903459 -0.26490334
H  1.16110031 0.10305986 0.65160203
H  0.94422792 -0.31515479 -0.24060613
12
MD Step 702.5 Units = [eV / Ang.]
C  0.46192367 -2.40429735 -0.31200383
C  -0.10624446 0.33402587 0.46239280
C  -0.97614387 -0.18763449 -0.53667510
C  1.07156877 -0.74918707 0.15727364
C  -2.61986222 -1.27541222 -0.88017224
C  -0.64660081 3.45929334 0.50955795
H  0.20276231 0.01599279 0.08022438
H  -0.01446021 0.55360176 -0.04518843
H  0.36924469 0.31424134 0.27469311
H  -0.00538333 0.49272710 -0.17603394
H  1.47297807 -0.29836008 0.73629516
H  0.79021738 -0.25499099 -0.27036351
12
MD Step 703.0 Units = [eV / Ang.]
C  0.51028445 -2.04037166 -0.27575319
C  -0.12581451 0.38859939 0.39760106
C  -0.82121926 -0.22958355 -0.49706167
C  0.82442542 -1.13579971 0.02832385
C  -2.95497631 -0.90869323 -0.88714163
C  -0.32912183 3.32185929 0.52139117
H  0.06980002 -0.27190070 0.07350529
H  0.03277882 0.50684766 -0.02370826
H  0.27738969 0.31279858 0.26797596
H  0.25226801 0.86033952 -0.10052583
H  1.69501597 -0.61445781 0.78628725
H  0.56916953 -0.18963779 -0.29089402
12
MD Step 703.5 Units = [eV / Ang.]
C  0.54870559 -1.62512756 -0.23862726
C  -0.16936855 0.44896471 0.33145299
C  -0.62933256 -0.23915624 -0.45260188
C  0.58660939 -1.47540831 -0.08849036
C  -3.15238324 -0.59627677 -0.85532667
C  0.04465584 3.10524512 0.52167534
H  -0.06880844 -0.55870508 0.06628310
H  0.09340539 0.42976526 -0.00317487
H  0.15827429 0.30677132 0.26011499
H  0.46954736 1.16582866 -0.04223234
H  1.82364078 -0.83978340 0.80208845
H  0.29505417 -0.12211771 -0.30116150
12
MD Step 704.0 Units = [eV / Ang.]
C  0.56671891 -1.19305671 -0.19974693
C  -0.23387096 0.50849940 0.26496242
C  -0.41234358 -0.21533344 -0.40267675
C  0.38729837 -1.72405770 -0.19266595
C  -3.21143181 -0.33767700 -0.78754207
C  0.44877949 2.81807711 0.51007342
H  -0.19738524 -0.81664361 0.05828094
H  0.16368219 0.32870980 0.01593966
H  0.02363897 0.29609428 0.24971886
H  0.61665458 1.36373232 -0.00086146
H  1.85983576 -0.97274015 0.78594023
H  -0.01157667 -0.05560428 -0.30142236
12
MD Step 704.5 Units = [eV / Ang.]
C  0.55291228 -0.78053651 -0.15810853
C  -0.31479090 0.55929462 0.19891157
C  -0.18306091 -0.15887058 -0.34713171
C  0.24884563 -1.84764501 -0.28794367
C  -3.13528542 -0.13284684 -0.68731740
C  0.85058006 2.47058652 0.48777573
H  -0.29914636 -1.01732041 0.04899920
H  0.23881809 0.21225776 0.03343592
H  -0.11391485 0.28071274 0.23570553
H  0.67259353 1.41975002 0.02848397
H  1.80612875 -1.01244035 0.74072479
H  -0.32367989 0.00705805 -0.29353540
12
MD Step 705.0 Units = [eV / Ang.]
C  0.49720273 -0.42059294 -0.11268847
C  -0.40619860 0.59274857 0.13377975
C  0.04600610 -0.07258529 -0.28635656
C  0.18061631 -1.83127001 -0.38115575
C  -2.92962409 0.01627754 -0.55849906
C  1.21298760 2.07346429 0.45764673
H  -0.35898780 -1.13635569 0.03776686
H  0.31319592 0.09074568 0.04944890
H  -0.24225875 0.26065466 0.21745989
H  0.63119438 1.32032419 0.05403301
H  1.66538662 -0.95734552 0.66958118
H  -0.60952043 0.06393454 -0.28101648
12
MD Step 705.5 Units = [eV / Ang.]
C  0.39360472 -0.13752931 -0.06262758
C  -0.50103612 0.60039876 0.06971467
C  0.26356779 0.03859906 -0.22125001
C  0.17678316 -1.68344057 -0.47972305
C  -2.60280203 0.10600562 -0.40538962
C  1.49879817 1.63693665 0.42392897
H  -0.36663305 -1.15825953 0.02389240
H  0.38074536 -0.02451615 0.06446543
H  -0.35075073 0.23608463 0.19489309
H  0.50297887 1.07689617 0.08466272
H  1.44128273 -0.80566512 0.57608919
H  -0.83653885 0.11448979 -0.26865620
12
MD Step 706.0 Units = [eV / Ang.]
C  0.24248981 0.05692178 -0.00745458
C  -0.59158841 0.57502406 0.00656554
C  0.46009091 0.16785946 -0.15310325
C  0.21910006 -1.43304841 -0.58896411
C  -2.16725912 0.13297321 -0.23325870
C  1.67640980 1.17033289 0.39142860
H  -0.31909419 -1.07991204 0.00688123
H  0.43547235 -0.12237413 0.07927563
H  -0.43088049 0.20733196 0.16841797
H  0.31188787 0.72272081 0.12701492
H  1.14020218 -0.55756565 0.46483556
H  -0.97683075 0.15973607 -0.26163879
12
MD Step 706.5 Units = [eV / Ang.]
C  0.05136287 0.16460266 0.05271531
C  -0.67013672 0.51184069 -0.05601047
C  0.62806121 0.30692120 -0.08344805
C  0.28304240 -1.12064221 -0.71048460
C  -1.64182665 0.09813628 -0.04900013
C  1.72563529 0.68228700 0.36435867
H  -0.22149034 -0.91131807 -0.01335594
H  0.47209177 -0.19317418 0.09484767
H  -0.47660288 0.17489249 0.13886668
H  0.08849351 0.30381217 0.18372917
H  0.77418666 -0.21922416 0.34211253
H  -1.01281712 0.20186614 -0.26433085
12
MD Step 707.0 Units = [eV / Ang.]
C  -0.16621357 0.19883257 0.11709788
C  -0.72970073 0.40960777 -0.11837924
C  0.76208300 0.44662793 -0.01390970
C  0.34430621 -0.78809623 -0.84215670
C  -1.05416464 0.01226021 0.13843262
C  1.64170341 0.18144340 0.34522081
H  -0.08588874 -0.67333034 -0.03639360
H  0.48667249 -0.23009475 0.11213801
H  -0.48446597 0.13940939 0.10737715
H  -0.13721173 -0.13180534 0.25333999
H  0.36405144 0.19171847 0.21636306
H  -0.94117116 0.24342694 -0.27913028
12
MD Step 707.5 Units = [eV / Ang.]
C  -0.39314072 0.18015022 0.18431618
C  -0.76472573 0.27133132 -0.18073363
C  0.85894968 0.57756777 0.05392041
C  0.38321547 -0.47065312 -0.97927250
C  -0.44187081 -0.09864732 0.31832922
C  1.43596824 -0.32270990 0.33416497
H  0.07135278 -0.39324307 -0.06132637
H  0.47716115 -0.23016258 0.13187275
H  -0.45364727 0.10163991 0.07526309
H  -0.34086894 -0.54249618 0.33143609
H  -0.05891587 0.64088527 0.09784600
H  -0.77347796 0.28633770 -0.30581620
12
MD Step 708.0 Units = [eV / Ang.]
C  -0.61177454 0.13151389 0.25260671
C  -0.77158329 0.10435736 -0.24291817
C  0.91773264 0.69067310 0.11858549
C  0.38627028 -0.19325765 -1.11602428
C  0.14966339 -0.19099703 0.47971947
C  1.13310358 -0.81934696 0.32906555
H  0.23273139 -0.09984527 -0.08692712
H  0.44366686 -0.19469292 0.15435508
H  -0.38596471 0.06241267 0.04387730
H  -0.50572667 -0.89711378 0.41222711
H  -0.45472904 1.07513899 -0.00292282
H  -0.53338989 0.33115759 -0.34164433
12
MD Step 708.5 Units = [eV / Ang.]
C  -0.80644367 0.07441890 0.32008285
C  -0.74878559 -0.08024183 -0.30432705
C  0.93989831 0.77775616 0.17885388
C  0.34556009 0.02923170 -1.24664361
C  0.67391313 -0.20814662 0.61401162
C  0.76592785 -1.29640417 0.32622558
H  0.38224333 0.18060892 -0.11185967
H  0.38844044 -0.12903878 0.17935066
H  -0.28588123 0.02257939 0.01446713
H  -0.62212804 -1.17517413 0.48981860
H  -0.78132094 1.42753927 -0.07787610
H  -0.25142369 0.37687118 -0.38210391
12
MD Step 709.0 Units = [eV / Ang.]
C  -0.96493286 0.02667417 0.38497043
C  -0.69690057 -0.26888051 -0.36389957
C  0.92938262 0.83195797 0.23380375
C  0.25730133 0.18953176 -1.36595782
C  1.09332498 -0.09362886 0.71780572
C  0.36974602 -1.74121277 0.32135248
H  0.50697143 0.42675250 -0.13487102
H  0.31555411 -0.04171091 0.20608136
H  -0.16045935 -0.01703487 -0.01197458
H  -0.68572696 -1.36468754 0.55892205
H  -1.00495488 1.63104797 -0.12424712
H  0.04069411 0.42119110 -0.42198567
12
MD Step 709.5 Units = [eV / Ang.]
C  -1.07893676 0.00176727 0.44576423
C  -0.61821936 -0.44700831 -0.42021301
C  0.89253686 0.84809537 0.28290815
C  0.12049810 0.28481629 -1.46947256
C  1.38876221 0.19005845 0.79426492
C  -0.02214449 -2.14134659 0.31041581
H  0.59759970 0.62281458 -0.15491922
H  0.23036754 0.05689003 0.23332401
H  -0.01916907 -0.05567875 -0.03485604
H  -0.69551576 -1.45931402 0.61507236
H  -1.11026241 1.63774713 -0.14592047
H  0.31448344 0.46115855 -0.45636816
12
MD Step 710.0 Units = [eV / Ang.]
C  -1.14376260 0.00926863 0.50129682
C  -0.51629742 -0.60068584 -0.47163954
C  0.83783243 0.82288644 0.32610296
C  -0.06382655 0.31415654 -1.55323446
C  1.56319157 0.64545110 0.85188969
C  -0.38104326 -2.48534299 0.29015090
H  0.64817809 0.75820321 -0.17123154
H  0.13889928 0.15583907 0.25958260
H  0.12656184 -0.09270921 -0.05410810
H  -0.65231816 -1.45600191 0.65458160
H  -1.10460886 1.43516396 -0.15212121
H  0.54719365 0.49377099 -0.48126972
12
MD Step 710.5 Units = [eV / Ang.]
C  -1.15772322 0.05561094 0.55074260
C  -0.39548499 -0.71790887 -0.51652715
C  0.77522298 0.75506728 0.36381005
C  -0.29280649 0.27713233 -1.61371376
C  1.63729326 1.23572535 0.90113699
C  -0.68367911 -2.76316530 0.25818819
H  0.65557247 0.82662110 -0.18331378
H  0.04722778 0.24487539 0.28328796
H  0.26415634 -0.12760525 -0.07024956
H  -0.55801347 -1.35372688 0.67446234
H  -1.01419669 1.05092158 -0.15390426
H  0.72243115 0.51645234 -0.49391961
12
MD Step 711.0 Units = [eV / Ang.]
C  -1.12156608 0.14468252 0.59359088
C  -0.26052067 -0.78953103 -0.55336189
C  0.71515758 0.64537666 0.39688597
C  -0.56147977 0.17390209 -1.64789918
C  1.63954563 1.89463575 0.95075107
C  -0.91202011 -2.96649128 0.21295422
H  0.61896323 0.82527560 -0.19094106
H  -0.03899846 0.31526823 0.30298098
H  0.38105925 -0.15995340 -0.08436184
H  -0.41553268 -1.15359511 0.67250611
H  -0.87420322 0.54311313 -0.16035826
H  0.82959528 0.52731685 -0.49274700
12
MD Step 711.5 Units = [eV / Ang.]
C  -1.03814102 0.27795368 0.62962217
C  -0.11624248 -0.80977545 -0.58089411
C  0.66730564 0.49645524 0.42647107
C  -0.86223548 0.00676630 -1.65370107
C  1.59623884 2.54520219 1.00562830
C  -1.05282389 -3.08901547 0.15352465
H  0.53960853 0.75452349 -0.19415369
H  -0.11491203 0.36032955 0.31745614
H  0.46617289 -0.18940494 -0.09794837
H  -0.22955278 -0.86036101 0.64763268
H  -0.71829961 -0.01794538 -0.17640115
H  0.86288138 0.52527179 -0.47723663
12
MD Step 712.0 Units = [eV / Ang.]
C  -0.91241912 0.45400414 0.65890318
C  0.03263597 -0.77637070 -0.59821804
C  0.63919732 0.31264966 0.45374438
C  -1.18402107 -0.21694668 -1.63067117
C  1.52569784 3.11789568 1.06672471
C  -1.09752551 -3.12690555 0.07956865
H  0.42095448 0.61811128 -0.19326800
H  -0.17665117 0.37563124 0.32585498
H  0.51131618 -0.21561794 -0.11268447
H  -0.00771819 -0.48518500 0.60053523
H  -0.57194611 -0.56730556 -0.20271094
H  0.82047938 0.51003942 -0.44777850
12
MD Step 712.5 Units = [eV / Ang.]
C  -0.75178872 0.66755679 0.68179739
C  0.18168501 -0.69044832 -0.60481747
C  0.63507674 0.09975088 0.47962758
C  -1.51148830 -0.48127533 -1.58090801
C  1.43758506 3.56168817 1.13226178
C  -1.04266866 -3.07937981 -0.00856614
H  0.26903530 0.42395599 -0.18889437
H  -0.22150019 0.35903945 0.32771778
H  0.51240093 -0.23820423 -0.13009864
H  0.23795722 -0.04902632 0.53450174
H  -0.45061134 -1.05582118 -0.23704096
H  0.70431698 0.48216391 -0.40558066
12
MD Step 713.0 Units = [eV / Ang.]
C  -0.56647390 0.90829587 0.69896982
C  0.32694556 -0.55628186 -0.60058687
C  0.65521477 -0.13529667 0.50450343
C  -1.82447147 -0.75863176 -1.50980107
C  1.33552808 3.84677382 1.19915126
C  -0.89088352 -2.94928075 -0.10965591
H  0.09297281 0.18519583 -0.18193798
H  -0.24799245 0.31066252 0.32300402
H  0.47003420 -0.25670723 -0.15125571
H  0.49010811 0.41461654 0.45607564
H  -0.36145511 -1.45237189 -0.27580741
H  0.52047291 0.44302557 -0.35265921
12
MD Step 713.5 Units = [eV / Ang.]
C  -0.36974494 1.15995616 0.71134234
C  0.46514152 -0.38093697 -0.58583676
C  0.69587799 -0.38473965 0.52803457
C  -2.09851853 -1.00933768 -1.42608324
C  1.22065676 3.96148371 1.26398476
C  -0.65212837 -2.74337554 -0.22138282
H  -0.09473992 -0.07899818 -0.17354203
H  -0.25600278 0.23277555 0.31208976
H  0.38938673 -0.27062253 -0.17652308
H  0.72627448 0.85956694 0.37502068
H  -0.30631488 -1.74060203 -0.31524279
H  0.28011194 0.39483020 -0.29186140
12
MD Step 714.0 Units = [eV / Ang.]
C  -0.17753458 1.40037094 0.71995983
C  0.59392918 -0.17387865 -0.56128693
C  0.74990583 -0.64034834 0.54912323
C  -2.30717035 -1.18574553 -1.34064805
C  1.09445296 3.90684085 1.32346744
C  -0.34477972 -2.47221462 -0.34021976
H  -0.27856677 -0.34355919 -0.16493685
H  -0.24683719 0.12974044 0.29574612
H  0.27937811 -0.27946144 -0.20547217
H  0.92114378 1.23142889 0.30305652
H  -0.28447280 -1.91367677 -0.35195078
H  0.00055155 0.34050342 -0.22683860
12
MD Step 714.5 Units = [eV / Ang.]
C  -0.00711987 1.60314546 0.72575069
C  0.71214907 0.05349661 -0.52803731
C  0.80774227 -0.89377523 0.56602646
C  -2.42612647 -1.24154181 -1.26402809
C  0.96029723 3.69121652 1.37447830
C  0.00410536 -2.14939248 -0.46154235
H  -0.44121208 -0.57931198 -0.15718379
H  -0.22328931 0.00788335 0.27509144
H  0.15138283 -0.28283757 -0.23693315
H  1.05087209 1.47725555 0.25126543
H  -0.29457369 -1.96953985 -0.38302328
H  -0.29422743 0.28340142 -0.16186436
12
MD Step 715.0 Units = [eV / Ang.]
C  0.12520208 1.74123492 0.72922397
C  0.81999291 0.28841945 -0.48750783
C  0.85865145 -1.13689576 0.57658124
C  -2.43837435 -1.14415030 -1.20322700
C  0.82381938 3.32636065 1.41399711
C  0.36007566 -1.79022553 -0.58005026
H  -0.56592147 -0.75670630 -0.15086239
H  -0.18960660 -0.12473731 0.25150983
H  0.01777300 -0.28054759 -0.26917173
H  1.09846811 1.55830027 0.22688118
H  -0.33564450 -1.90784961 -0.40595673
H  -0.57443567 0.22679711 -0.10141741
12
MD Step 715.5 Units = [eV / Ang.]
C  0.20703415 1.79196741 0.73021152
C  0.91900995 0.51744024 -0.44133339
C  0.89186389 -1.36211960 0.57847432
C  -2.33841144 -0.88545202 -1.15930411
C  0.69240656 2.82534543 1.43908645
C  0.68469004 -1.41008080 -0.69048139
H  -0.63941345 -0.85100757 -0.14581134
H  -0.15129612 -0.25874805 0.22652801
H  -0.10941289 -0.27262401 -0.30013389
H  1.05824155 1.46104109 0.23086687
H  -0.40735584 -1.72897094 -0.41856933
H  -0.80735639 0.17320883 -0.04953372
12
MD Step 716.0 Units = [eV / Ang.]
C  0.23256341 1.74213103 0.72779059
C  1.01183918 0.72726922 -0.39121216
C  0.89753159 -1.56265324 0.56949527
C  -2.13368430 -0.48570461 -1.12699982
C  0.57414184 2.20265345 1.44705057
C  0.94096671 -1.02272683 -0.78846426
H  -0.65459500 -0.84753535 -0.14105955
H  -0.11470365 -0.38412447 0.20165225
H  -0.21950040 -0.25934664 -0.32770179
H  0.93732714 1.20134778 0.25757528
H  -0.50961724 -1.43509128 -0.41906366
H  -0.96226930 0.12378093 -0.00906272
12
MD Step 716.5 Units = [eV / Ang.]
C  0.20401692 1.59135935 0.72047183
C  1.10164760 0.90573890 -0.33872390
C  0.86743731 -1.73271253 0.54773356
C  -1.84256930 0.01144687 -1.09664658
C  0.47628039 1.47648236 1.43584336
C  1.09985173 -0.63917938 -0.87124052
H  -0.61209204 -0.74511706 -0.13502719
H  -0.08635361 -0.49108829 0.17818372
H  -0.30384179 -0.24121581 -0.34991777
H  0.75355621 0.81967173 0.29672983
H  -0.64149901 -1.03339106 -0.40632968
H  -1.01643440 0.07800491 0.01892334
12
MD Step 717.0 Units = [eV / Ang.]
C  0.13128069 1.35247953 0.70661555
C  1.19130741 1.04279168 -0.28515076
C  0.79553505 -1.86768242 0.51171840
C  -1.48987638 0.55046314 -1.05734615
C  0.40317704 0.67296531 1.40473172
C  1.14581891 -0.26734641 -0.93799151
H  -0.51997999 -0.55638005 -0.12595451
H  -0.07210354 -0.57115400 0.15704522
H  -0.35617754 -0.21889914 -0.36516056
H  0.53070770 0.36966938 0.33669227
H  -0.79942255 -0.54089495 -0.38051181
H  -0.96026680 0.03398793 0.03531215
12
MD Step 717.5 Units = [eV / Ang.]
C  0.02980106 1.04872783 0.68492340
C  1.28247008 1.13134186 -0.23134843
C  0.67837737 -1.96422462 0.46051628
C  -1.10185852 1.07664887 -0.99988659
C  0.35370884 -0.16889104 1.35509177
C  1.07965587 0.08752619 -0.98964446
H  -0.39182953 -0.30477639 -0.11239957
H  -0.07625701 -0.61814706 0.13866257
H  -0.37279263 -0.19316785 -0.37227273
H  0.29322839 -0.09449823 0.36746972
H  -0.97474853 0.01022861 -0.34372790
H  -0.79975538 -0.01076817 0.04261592
12
MD Step 718.0 Units = [eV / Ang.]
C  -0.08247552 0.70899081 0.65481937
C  1.37476057 1.16784645 -0.17770144
C  0.51549446 -2.02033067 0.39381211
C  -0.70243501 1.54543287 -0.91837181
C  0.31867608 -0.99406855 1.29100993
C  0.91742185 0.42192793 -1.02826510
H  -0.24382377 -0.01953066 -0.09361865
H  -0.10082625 -0.62898821 0.12293446
H  -0.35258674 -0.16483405 -0.37065195
H  0.06228197 -0.52750085 0.38241002
H  -1.15137288 0.56943987 -0.30061169
H  -0.55511476 -0.05838494 0.04423476
12
MD Step 718.5 Units = [eV / Ang.]
C  -0.18810015 0.36284039 0.61660544
C  1.46531642 1.15243721 -0.12418216
C  0.30970969 -2.03530224 0.31198910
C  -0.31133787 1.92624724 -0.81044263
C  0.27948869 -1.73372901 1.21916708
C  0.68608416 0.73312587 -1.05630901
H  -0.09194298 0.26965112 -0.06971702
H  -0.14513339 -0.60405674 0.10930494
H  -0.29712435 -0.13469566 -0.36031729
H  -0.14608219 -0.89689055 0.37844990
H  -1.30466117 1.07020434 -0.25815415
H  -0.25621684 -0.10983198 0.04360580
12
MD Step 719.0 Units = [eV / Ang.]
C  -0.27230218 0.03679579 0.57139016
C  1.54881867 1.08857690 -0.07049318
C  0.06735248 -2.00963805 0.21620379
C  0.05610068 2.20177707 -0.67660265
C  0.20990846 -2.31542222 1.14755154
C  0.41758368 1.01848269 -1.07600844
H  0.05004413 0.53659943 -0.04157505
H  -0.20586081 -0.54704912 0.09692101
H  -0.21068896 -0.10349233 -0.34195395
H  -0.32090234 -1.18265119 0.35542464
H  -1.40346446 1.44064956 -0.22438933
H  0.06341066 -0.16462852 0.04353146
12
MD Step 719.5 Units = [eV / Ang.]
C  -0.32406647 -0.24761119 0.52087839
C  1.61800187 0.98230125 -0.01625661
C  -0.20171554 -1.94483958 0.10843526
C  0.38818718 2.36468195 -0.51927938
C  0.08202662 -2.68026746 1.08308985
C  0.14330931 1.27513023 -1.08904223
H  0.17153144 0.76077665 -0.01063937
H  -0.27753827 -0.46437396 0.08483339
H  -0.10027781 -0.07187052 -0.31692477
H  -0.45520634 -1.37429363 0.31507877
H  -1.41626435 1.62139964 -0.20601816
H  0.37201235 -0.22103335 0.04584486
12
MD Step 720.0 Units = [eV / Ang.]
C  -0.33625862 -0.47419182 0.46712185
C  1.66453068 0.84122371 0.03880619
C  -0.48437023 -1.84315209 -0.00852965
C  0.67576234 2.41377929 -0.34203500
C  -0.12457047 -2.80074011 1.02912988
C  -0.10969712 1.49990455 -1.09647561
H  0.26513449 0.92764183 0.02131556
H  -0.35333820 -0.36423920 0.07218887
H  0.02456495 -0.04036024 -0.28722710
H  -0.54462020 -1.46742968 0.26021680
H  -1.32028844 1.58408929 -0.20591002
H  0.64315083 -0.27652555 0.05139824
12
MD Step 720.5 Units = [eV / Ang.]
C  -0.30515320 -0.63154925 0.41230445
C  1.68001520 0.67349809 0.09474123
C  -0.76487598 -1.70727435 -0.13120880
C  0.91113725 2.35098938 -0.14907031
C  -0.41415872 -2.68999385 0.98415273
C  -0.32045558 1.68943069 -1.09886551
H  0.32623360 1.02795039 0.05238509
H  -0.42598897 -0.25563543 0.05837379
H  0.15221138 -0.00936535 -0.25536718
H  -0.58621051 -1.46104300 0.19416468
H  -1.10984146 1.34132432 -0.22186691
H  0.85708701 -0.32833162 0.06025674
12
MD Step 721.0 Units = [eV / Ang.]
C  -0.22976055 -0.71229398 0.35858901
C  1.65697300 0.48694498 0.15129590
C  -1.02600725 -1.54007537 -0.25566382
C  1.08738436 2.17962465 0.05501337
C  -0.77127764 -2.39714450 0.94252702
C  -0.47412914 1.84029368 -1.09642002
H  0.35237500 1.05671266 0.08067081
H  -0.48861393 -0.14741007 0.04308816
H  0.26982437 0.02082779 -0.22413226
H  -0.57785024 -1.35601360 0.12053009
H  -0.79944880 0.94236861 -0.24745826
H  1.00053081 -0.37383486 0.07196001
12
MD Step 721.5 Units = [eV / Ang.]
C  -0.11123696 -0.71254285 0.30800507
C  1.58959442 0.28843203 0.20792084
C  -1.25059348 -1.34436142 -0.37785297
C  1.19822752 1.90421226 0.26530310
C  -1.16419790 -1.99091915 0.89683837
C  -0.56124624 1.94929801 -1.08913643
H  0.34280789 1.01237312 0.10437644
H  -0.53537736 -0.04754412 0.02635209
H  0.36464940 0.05001966 -0.19626796
H  -0.51824811 -1.15504874 0.04315265
H  -0.41996722 0.45690116 -0.27444954
H  1.06558803 -0.41081997 0.08575834
12
MD Step 722.0 Units = [eV / Ang.]
C  0.04743353 -0.63194773 0.26234985
C  1.47425513 0.08356060 0.26381919
C  -1.42336861 -1.12271173 -0.49405778
C  1.23880176 1.53175532 0.47664446
C  -1.55345160 -1.54023107 0.84043237
C  -0.57678627 2.01378063 -1.07689282
H  0.29830924 0.89653341 0.12190275
H  -0.56188790 0.03732595 0.00846392
H  0.42560313 0.07804841 -0.17410162
H  -0.40771305 -0.86396930 -0.03389934
H  -0.00985899 -0.04455155 -0.29544262
H  1.04866363 -0.43759295 0.10078165
12
MD Step 722.5 Units = [eV / Ang.]
C  0.24142563 -0.47430019 0.22305540
C  1.30977434 -0.12339501 0.31802677
C  -1.53281919 -0.87740171 -0.60129643
C  1.20734123 1.07419679 0.68381846
C  -1.90102844 -1.10007160 0.76899890
C  -0.51965228 2.03194567 -1.05949830
H  0.22134457 0.71431699 0.13198524
H  -0.56538343 0.10217517 -0.01007188
H  0.44487229 0.10473240 -0.15918832
H  -0.24964106 -0.49412867 -0.10644373
H  0.39393314 -0.50501934 -0.30552999
H  0.94983321 -0.45305050 0.11614388
12
MD Step 723.0 Units = [eV / Ang.]
C  0.46374834 -0.24856936 0.19099246
C  1.09748838 -0.32936114 0.36950620
C  -1.57268130 -0.61044789 -0.69763283
C  1.10758130 0.55149862 0.88194074
C  -2.17664954 -0.70619705 0.68089128
C  -0.39277389 2.00318544 -1.03672185
H  0.11651276 0.47526772 0.13390554
H  -0.54475645 0.14371360 -0.02862698
H  0.41916475 0.12982330 -0.15206683
H  -0.05251212 -0.06539401 -0.17055281
H  0.76194980 -0.88675830 -0.30263595
H  0.77292796 -0.45676092 0.13100101
12
MD Step 723.5 Units = [eV / Ang.]
C  0.70478871 0.02997093 0.16621011
C  0.84116063 -0.53223990 0.41724264
C  -1.54273129 -0.32377166 -0.78230566
C  0.95119590 -0.00580626 1.06713923
C  -2.36001306 -0.37702388 0.57659582
C  -0.20385755 1.92835176 -1.00832149
H  -0.00888690 0.19443949 0.12777619
H  -0.50047814 0.16042994 -0.04653164
H  0.35027738 0.15298710 -0.15219586
H  0.16818577 0.39143034 -0.22323842
H  1.07402994 -1.16968306 -0.28695737
H  0.52632862 -0.44908480 0.14458648
12
MD Step 724.0 Units = [eV / Ang.]
C  0.95196921 0.33909021 0.14765746
C  0.54681608 -0.73065398 0.46034073
C  -1.44870075 -0.01951188 -0.85565461
C  0.75912166 -0.55623876 1.23740632
C  -2.43999107 -0.11906494 0.45795314
C  0.03347633 1.80996326 -0.97408782
H  -0.14444554 -0.10690005 0.11484516
H  -0.43447280 0.15261423 -0.06315306
H  0.24482686 0.17382262 -0.15808892
H  0.38914171 0.83441045 -0.26334330
H  1.31804769 -1.34621918 -0.26011592
H  0.22421062 -0.43131199 0.15624082
12
MD Step 724.5 Units = [eV / Ang.]
C  1.18992443 0.65015770 0.13300037
C  0.22249854 -0.92369595 0.49811493
C  -1.30135829 0.29954261 -0.91887460
C  0.56036113 -1.05087884 1.39327651
C  -2.41236776 0.06726567 0.32753045
C  0.29867403 1.65230177 -0.93389984
H  -0.27677859 -0.40171486 0.09770305
H  -0.34995204 0.12235948 -0.07796733
H  0.11322208 0.19191171 -0.16760694
H  0.58078068 1.21423518 -0.29227144
H  1.48728968 -1.41574927 -0.22444554
H  -0.11229392 -0.40573520 0.16544039
12
MD Step 725.0 Units = [eV / Ang.]
C  1.40153353 0.93051728 0.11868673
C  -0.12202551 -1.11070229 0.53017670
C  -1.11500892 0.62946227 -0.97367740
C  0.38745678 -1.44132435 1.53782745
C  -2.27744085 0.18322470 0.18827482
C  0.56412355 1.46131477 -0.88777613
H  -0.39055173 -0.65944535 0.08022887
H  -0.25121008 0.07352932 -0.09062446
H  -0.03184710 0.20688432 -0.17832821
H  0.71194360 1.48247801 -0.31403221
H  1.57785956 -1.38039618 -0.18257327
H  -0.45483282 -0.37554248 0.17181712
12
MD Step 725.5 Units = [eV / Ang.]
C  1.56996642 1.14784813 0.10039908
C  -0.47563526 -1.29103986 0.55650253
C  -0.90577632 0.96472528 -1.02194581
C  0.26925182 -1.69041007 1.67564482
C  -2.03821415 0.22921809 0.04341071
C  0.79677056 1.24426247 -0.83590163
H  -0.47054108 -0.85024231 0.06713358
H  -0.14335622 0.01163134 -0.10100009
H  -0.17703029 0.21847597 -0.18790322
H  0.75701982 1.60264183 -0.33422583
H  1.58689675 -1.24269108 -0.13726963
H  -0.76935205 -0.34441978 0.17515550
12
MD Step 726.0 Units = [eV / Ang.]
C  1.68142826 1.27573979 0.07390218
C  -0.82630300 -1.46388277 0.57747437
C  -0.69000165 1.29793754 -1.06545012
C  0.22343398 -1.78172733 1.81094206
C  -1.69956653 0.20421224 -0.10352090
C  0.96199660 1.00909398 -0.77861221
H  -0.50440663 -0.95044795 0.06309073
H  -0.03197196 -0.05646527 -0.10922603
H  -0.30973226 0.22656203 -0.19432874
H  0.70309543 1.55994060 -0.35815747
H  1.51198434 -1.00511455 -0.09146820
H  -1.01995658 -0.31584829 0.17535433
12
MD Step 726.5 Units = [eV / Ang.]
C  1.72785531 1.29891691 0.03609406
C  -1.16165430 -1.62797544 0.59387447
C  -0.48297855 1.61985123 -1.10566122
C  0.25205885 -1.72362905 1.94564709
C  -1.26860773 0.10696145 -0.24860130
C  1.02948183 0.76368371 -0.71634700
H  -0.48540772 -0.94773831 0.07164970
H  0.07730773 -0.12301811 -0.11568887
H  -0.41913551 0.23116266 -0.19611155
H  0.55395678 1.36541927 -0.38889412
H  1.35195246 -0.67138622 -0.04832409
H  -1.17482916 -0.29224812 0.17236282
12
MD Step 727.0 Units = [eV / Ang.]
C  1.70858620 1.21622623 -0.01409817
C  -1.46961477 -1.78135945 0.60682106
C  -0.29807976 1.91973573 -1.14365653
C  0.34209765 -1.54577641 2.07841852
C  -0.75640558 -0.06105327 -0.38759526
C  0.97963081 0.51520382 -0.64960105
H  -0.41408027 -0.84403947 0.09429920
H  0.17925804 -0.18011618 -0.12098711
H  -0.49680761 0.23242078 -0.19233111
H  0.32898988 1.05240893 -0.42623637
H  1.10918995 -0.24937147 -0.01115569
H  -1.21276455 -0.27427925 0.16612251
12
MD Step 727.5 Units = [eV / Ang.]
C  1.63033244 1.04025455 -0.07533201
C  -1.73910026 -1.92111636 0.61764256
C  -0.14620597 2.18607126 -1.18009348
C  0.47047257 -1.28999274 2.20502289
C  -0.18102709 -0.29129079 -0.51629706
C  0.80840881 0.26989144 -0.57892245
H  -0.29820159 -0.65504203 0.13004451
H  0.26951354 -0.22053780 -0.12584589
H  -0.53697523 0.23056364 -0.18262839
H  0.05758399 0.66710631 -0.46704740
H  0.79331523 0.24472404 0.01689978
H  -1.12811642 -0.26063153 0.15655692
12
MD Step 728.0 Units = [eV / Ang.]
C  1.50544882 0.79378787 -0.14412222
C  -1.96067022 -2.04317828 0.62770294
C  -0.03541598 2.40744715 -1.21520833
C  0.61090907 -0.99968549 2.31970028
C  0.42883414 -0.56337436 -0.63129648
C  0.52868468 0.03331255 -0.50496979
H  -0.15105116 -0.40651154 0.17565699
H  0.34493021 -0.23863889 -0.13100055
H  -0.53660695 0.22585708 -0.16715758
H  -0.22824070 0.25760467 -0.50658356
H  0.42538899 0.78183141 0.03365146
H  -0.93221091 -0.24845216 0.14362685
12
MD Step 728.5 Units = [eV / Ang.]
C  1.34918658 0.50457993 -0.21563213
C  -2.12705215 -2.14231166 0.63820118
C  0.02938489 2.57352384 -1.24881481
C  0.73970462 -0.71180636 2.41672896
C  1.03143527 -0.84186571 -0.73114488
C  0.16749360 -0.18906433 -0.42860248
H  0.01133668 -0.12886428 0.22645742
H  0.40379260 -0.23110230 -0.13706770
H  -0.49542512 0.21856254 -0.14652421
H  -0.50000907 -0.13456176 -0.54003540
H  0.04077772 1.31716592 0.03900421
H  -0.65062560 -0.23425586 0.12742984
12
MD Step 729.0 Units = [eV / Ang.]
C  1.17689281 0.20029062 -0.28464883
C  -2.23345502 -2.21232753 0.64998914
C  0.04676683 2.67589070 -1.28029260
C  0.83882668 -0.45313517 2.49153322
C  1.57350507 -1.07742114 -0.81753811
C  -0.23967324 -0.39138566 -0.35094192
H  0.17295135 0.14810130 0.27729781
H  0.44583114 -0.19738594 -0.14443382
H  -0.41593702 0.20890275 -0.12172571
H  -0.73612693 -0.47849121 -0.56362878
H  -0.31212153 1.79190146 0.03610060
H  -0.31746015 -0.21494017 0.10828900
12
MD Step 729.5 Units = [eV / Ang.]
C  1.00193773 -0.09503453 -0.34641243
C  -2.27765563 -2.24655884 0.66343672
C  0.01906239 2.70873124 -1.30857250
C  0.89643254 -0.24040511 2.54113021
C  1.99793401 -1.21466932 -0.89575351
C  -0.65539057 -0.56737344 -0.27335414
H  0.31984706 0.39892356 0.32340671
H  0.47205633 -0.13976868 -0.15318433
H  -0.30347156 0.19703904 -0.09409311
H  -0.92240396 -0.75404904 -0.57507350
H  -0.57956966 2.14169052 0.03168437
H  0.03122132 -0.18852540 0.08678552
12
MD Step 730.0 Units = [eV / Ang.]
C  0.83466747 -0.36254543 -0.39711623
C  -2.25986339 -2.23854458 0.67837579
C  -0.04745279 2.66922779 -1.33214323
C  0.90581788 -0.08262476 2.56407060
C  2.25705799 -1.20627620 -0.97355744
C  -1.04562690 -0.71082837 -0.19734381
H  0.44114947 0.60419289 0.36090936
H  0.48445914 -0.06299090 -0.16308903
H  -0.16617554 0.18306134 -0.06522575
H  -1.05078797 -0.94969107 -0.57350914
H  -0.71597721 2.31145423 0.03490753
H  0.36273184 -0.15443495 0.06372134
12
MD Step 730.5 Units = [eV / Ang.]
C  0.68225884 -0.58858079 -0.43407159
C  -2.18243516 -2.18280222 0.69412515
C  -0.14266115 2.55767902 -1.34910666
C  0.86390338 0.01605033 2.56015589
C  2.32668361 -1.02840304 -1.05852259
C  -1.38277187 -0.81646518 -0.12439806
H  0.52917311 0.75061403 0.38701374
H  0.48564876 0.02642232 -0.17364210
H  -0.01482076 0.16699396 -0.03690363
H  -1.11749266 -1.05963736 -0.55922417
H  -0.69829258 2.27149183 0.05453659
H  0.65080648 -0.11336290 0.04003742
12
MD Step 731.0 Units = [eV / Ang.]
C  0.54912937 -0.76382276 -0.45564244
C  -2.04950034 -2.07554729 0.70958667
C  -0.25313210 2.37736471 -1.35729867
C  0.76997822 0.05398657 2.53015348
C  2.21374629 -0.69014803 -1.15486435
C  -1.64643094 -0.88069791 -0.05583862
H  0.57901556 0.83014148 0.39996688
H  0.47849581 0.12100341 -0.18414320
H  0.13771731 0.14881403 -0.01096686
H  -1.12136905 -1.08152223 -0.53337155
H  -0.53405377 2.02734027 0.09569517
H  0.87640363 -0.06691225 0.01672349
12
MD Step 731.5 Units = [eV / Ang.]
C  0.43751772 -0.88232365 -0.46108878
C  -1.86656566 -1.91522969 0.72338650
C  -0.36318960 2.13418791 -1.35448302
C  0.62501409 0.03083749 2.47563421
C  1.95311888 -0.23177677 -1.26153069
C  -1.82270437 -0.90204468 0.00727207
H  0.58802011 0.83890912 0.39891885
H  0.46583367 0.21318848 -0.19379829
H  0.27743492 0.12848442 0.01084155
H  -1.06297587 -1.01509539 -0.49779565
H  -0.25849568 1.61805956 0.15789561
H  1.02699180 -0.01719681 -0.00525236
12
MD Step 732.0 Units = [eV / Ang.]
C  0.34794857 -0.94087983 -0.45042738
C  -1.64014250 -1.70281102 0.73403513
C  -0.45651546 1.83616806 -1.33860005
C  0.43166225 -0.05243920 2.39893518
C  1.59534448 0.28740595 -1.37258332
C  -1.90290439 -0.88112568 0.06414822
H  0.55539682 0.77646688 0.38380580
H  0.45023747 0.29604723 -0.20182079
H  0.39062846 0.10599793 0.02705482
H  -0.94450492 -0.86217767 -0.45497581
H  0.07761377 1.10386917 0.23541352
H  1.09523545 0.03347818 -0.02498531
12
MD Step 732.5 Units = [eV / Ang.]
C  0.27940181 -0.93900564 -0.42437684
C  -1.37741705 -1.44179288 0.74007640
C  -0.51811078 1.49287832 -1.30803460
C  0.19493271 -0.19232649 2.30318386
C  1.19193174 0.80521990 -1.47942363
C  -1.88247298 -0.82037604 0.11424382
H  0.48216419 0.64558973 0.35531359
H  0.43387958 0.36382818 -0.20751727
H  0.46562536 0.08142683 0.03665671
H  -0.77053800 -0.62787922 -0.40801785
H  0.42278991 0.54961654 0.31955452
H  1.07781351 0.08282076 -0.04165873
12
MD Step 733.0 Units = [eV / Ang.]
C  0.22915038 -0.87949892 -0.38439457
C  -1.08597974 -1.13802247 0.74021360
C  -0.53628091 1.11487252 -1.26185785
C  -0.07657212 -0.38046314 2.19224381
C  0.78474172 1.26968464 -1.57344494
C  -1.76056916 -0.72370626 0.15718518
H  0.37144770 0.45269715 0.31493307
H  0.41844402 0.41230946 -0.21035067
H  0.49448840 0.05496681 0.03921254
H  -0.54943151 -0.32287124 -0.36055358
H  0.73571937 0.01135874 0.40138300
H  0.97484186 0.12867271 -0.05456960
12
MD Step 733.5 Units = [eV / Ang.]
C  0.19230211 -0.76943448 -0.33277602
C  -0.77358923 -0.79935486 0.73339969
C  -0.50422380 0.71316528 -1.19999013
C  -0.36922938 -0.60088191 2.07041118
C  0.40207750 1.64529549 -1.64787722
C  -1.54047168 -0.59623744 0.19272706
H  0.22905483 0.20872451 0.26506862
H  0.40507577 0.43898331 -0.20998045
H  0.47429466 0.02696443 0.03492279
H  -0.29487994 0.03384496 -0.31637676
H  0.98949109 -0.47017002 0.47365046
H  0.79009808 0.16910073 -0.06317924
12
MD Step 734.0 Units = [eV / Ang.]
C  0.16126751 -0.62118496 -0.27272873
C  -0.44797259 -0.43523836 0.71889177
C  -0.42084827 0.29879549 -1.12325562
C  -0.66349991 -0.82785142 1.94171219
C  0.06018754 1.91290515 -1.69842792
C  -1.23071950 -0.44414924 0.22076187
H  0.06410381 -0.06994885 0.20911356
H  0.39434918 0.44311183 -0.20628138
H  0.40763514 -0.00208355 0.02458194
H  -0.02687083 0.41277933 -0.27867064
H  1.17034069 -0.86965414 0.53150782
H  0.53202723 0.20251871 -0.06720486
12
MD Step 734.5 Units = [eV / Ang.]
C  0.12548067 -0.45291031 -0.20831043
C  -0.11663875 -0.05624612 0.69627295
C  -0.29066769 -0.11754799 -1.03332354
C  -0.93455969 -1.02590602 1.80880534
C  -0.23273043 2.06585649 -1.72302143
C  -0.84665131 -0.27461805 0.24140633
H  -0.11064436 -0.36110339 0.15137617
H  0.38624545 0.42568382 -0.19934293
H  0.30220186 -0.03156147 0.00945208
H  0.22898017 0.77403501 -0.24884894
H  1.27373914 -1.17356256 0.57229075
H  0.21524493 0.22788058 -0.06675633
12
MD Step 735.0 Units = [eV / Ang.]
C  0.07182295 -0.28782804 -0.14411593
C  0.21329064 0.32640010 0.66544572
C  -0.12284664 -0.52582839 -0.93255021
C  -1.15526593 -1.15363620 1.67180220
C  -0.47248888 2.10504017 -1.72115301
C  -0.41175704 -0.09577587 0.25514923
H  -0.27918857 -0.63752644 0.09674069
H  0.38014074 0.38929375 -0.18945212
H  0.16957177 -0.06079175 -0.00891954
H  0.44452351 1.07122781 -0.22535038
H  1.30025425 -1.37551557 0.59489792
H  -0.13805680 0.24494042 -0.06249456
12
MD Step 735.5 Units = [eV / Ang.]
C  -0.01390919 -0.15174966 -0.08466572
C  0.53523461 0.70133083 0.62659763
C  0.07026233 -0.91687862 -0.82376165
C  -1.30136088 -1.17170682 1.52764992
C  -0.65608978 2.03459876 -1.69325570
C  0.04202722 0.08337434 0.26300430
H  -0.42377474 -0.86963371 0.05001962
H  0.37481949 0.33793001 -0.17705794
H  0.02352656 -0.08910250 -0.02889556
H  0.59448873 1.25968746 -0.20305336
H  1.25247496 -1.47236170 0.59917347
H  -0.49769932 0.25451162 -0.05575504
12
MD Step 736.0 Units = [eV / Ang.]
C  -0.14441960 -0.06894175 -0.03358588
C  0.84324523 1.05755374 0.58014601
C  0.27471197 -1.28255169 -0.71001271
C  -1.35743292 -1.05326727 1.37074456
C  -0.78044280 1.85904619 -1.64028720
C  0.47605902 0.25324542 0.26657202
H  -0.52748628 -1.02982886 0.01509114
H  0.36853079 0.27666397 -0.16271956
H  -0.12168927 -0.11588746 -0.04892025
H  0.66268108 1.30710325 -0.17399401
H  1.13338026 -1.46172602 0.58551356
H  -0.82713747 0.25859049 -0.04854768
12
MD Step 736.5 Units = [eV / Ang.]
C  -0.32774926 -0.05717694 0.00718067
C  1.13204625 1.38498680 0.52666503
C  0.47635421 -1.61575426 -0.59435422
C  -1.32115947 -0.79286137 1.19492485
C  -0.84244554 1.58212574 -1.56360563
C  0.84934455 0.40424696 0.26790929
H  -0.57743304 -1.09770939 -0.00592945
H  0.35910676 0.21122968 -0.14704081
H  -0.25284058 -0.14064557 -0.06764474
H  0.64642669 1.20265486 -0.12952923
H  0.94609209 -1.34128235 0.55477117
H  -1.08774266 0.26018584 -0.04334695
12
MD Step 737.0 Units = [eV / Ang.]
C  -0.56447748 -0.12354059 0.03782796
C  1.39696044 1.67498984 0.46679809
C  0.66188238 -1.91039624 -0.47962825
C  -1.20373818 -0.40963293 0.99612277
C  -0.84018851 1.20757948 -1.46513647
C  1.12517696 0.52769933 0.26916399
H  -0.56756782 -1.06450964 -0.01316704
H  0.34416011 0.14749545 -0.13059538
H  -0.35872996 -0.16299151 -0.08400099
H  0.55710492 0.96041991 -0.06319287
H  0.69483489 -1.10988120 0.50845452
H  -1.24541775 0.26276811 -0.04264633
12
MD Step 737.5 Units = [eV / Ang.]
C  -0.84638639 -0.26259823 0.06059018
C  1.63375927 1.92084694 0.40117187
C  0.81953700 -2.16128934 -0.36829782
C  -1.02627825 0.05687856 0.77440093
C  -0.77501519 0.74202812 -1.34778080
C  1.27839208 0.61691152 0.27205758
H  -0.50008602 -0.93511971 -0.00889583
H  0.32135376 0.09087251 -0.11385753
H  -0.43077781 -0.18264183 -0.09723324
H  0.41647425 0.61534913 0.02706641
H  0.38689046 -0.77066414 0.44914871
H  -1.27786316 0.26942646 -0.04837047
12
MD Step 738.0 Units = [eV / Ang.]
C  -1.15718379 -0.45766888 0.07911469
C  1.83845379 2.11813751 0.33032408
C  0.93960363 -2.36406310 -0.26232051
C  -0.81393914 0.55642135 0.53439893
C  -0.65405828 0.19982878 -1.21591409
C  1.30076986 0.66809962 0.27739370
H  -0.38484727 -0.72686280 0.00310852
H  0.28872147 0.04572783 -0.09714658
H  -0.46326667 -0.19938622 -0.10689912
H  0.25057470 0.21377270 0.13828262
H  0.03513564 -0.33601812 0.38099836
H  -1.17996394 0.28201134 -0.06134060
12
MD Step 738.5 Units = [eV / Ang.]
C  -1.47506988 -0.68467536 0.09755506
C  2.00710007 2.26493090 0.25466024
C  1.01484099 -2.51515084 -0.16306121
C  -0.59041247 1.03890439 0.28417956
C  -0.49250029 -0.39098858 -1.07566990
C  1.20242254 0.68076588 0.28482790
H  -0.23706774 -0.46553327 0.01851168
H  0.24498999 0.01489631 -0.08060211
H  -0.45340114 -0.21305648 -0.11285666
H  0.08385848 -0.19727001 0.26354639
H  -0.33966012 0.16656175 0.30992962
H  -0.96510043 0.30061532 -0.08102056
12
MD Step 739.0 Units = [eV / Ang.]
C  -1.77626070 -0.91705729 0.11971405
C  2.13569757 2.36174664 0.17445149
C  1.04094279 -2.61186273 -0.07124959
C  -0.37457465 1.46256216 0.03326535
C  -0.31425474 -0.98409544 -0.93456468
C  1.00863731 0.65736749 0.29299494
H  -0.07418733 -0.18021685 0.03332128
H  0.18984605 -0.00062161 -0.06419257
H  -0.40132530 -0.22350520 -0.11524513
H  -0.06453410 -0.57798552 0.39397020
H  -0.70815452 0.69006622 0.24318356
H  -0.66183237 0.32360214 -0.10564891
12
MD Step 739.5 Units = [eV / Ang.]
C  -2.03835312 -1.13007407 0.14848115
C  2.22023707 2.41126364 0.08987739
C  1.01701230 -2.65250873 0.01300697
C  -0.17963446 1.79770042 -0.20915804
C  -0.14957362 -1.51528024 -0.80011043
C  0.75353013 0.60236759 0.29993978
H  0.08702471 0.10138737 0.04448362
H  0.12408808 -0.00171329 -0.04775740
H  -0.31016118 -0.23060151 -0.11446006
H  -0.18190281 -0.89941474 0.52056363
H  -1.03491697 1.16873620 0.18782665
H  -0.30735013 0.34813735 -0.13269327
12
MD Step 740.0 Units = [eV / Ang.]
C  -2.24276421 -1.30347928 0.18562510
C  2.25691838 2.41781065 0.00110400
C  0.94599823 -2.63652528 0.09016088
C  -0.01400640 2.02656337 -0.43531057
C  -0.02894093 -1.91135502 -0.67757262
C  0.47299732 0.52104662 0.30365425
H  0.23241614 0.35603783 0.05010358
H  0.04962911 0.00904600 -0.03107225
H  -0.18606959 -0.23424684 -0.11112106
H  -0.26120820 -1.14323125 0.63542370
H  -1.28474703 1.52738356 0.14843255
H  0.05977719 0.37094964 -0.15942757
12
MD Step 740.5 Units = [eV / Ang.]
C  -2.37599157 -1.42240079 0.23185882
C  2.24251708 2.38670973 -0.09161877
C  0.83493789 -2.56453715 0.16110318
C  0.11719330 2.14092630 -0.63910535
C  0.02533714 -2.10752787 -0.56783524
C  0.19918000 0.41845940 0.30251282
H  0.35127465 0.56617641 0.04936598
H  -0.03065912 0.02780609 -0.01392063
H  -0.03823970 -0.23440804 -0.10602166
H  -0.29943442 -1.29940622 0.73215850
H  -1.43140832 1.69918572 0.12492606
H  0.40529308 0.38901641 -0.18342368
12
MD Step 741.0 Units = [eV / Ang.]
C  -2.42985749 -1.47691562 0.28703635
C  2.17481687 2.32358386 -0.18786285
C  0.69485217 -2.43835280 0.22699361
C  0.21080916 2.13906407 -0.81592519
C  0.00629134 -2.06745469 -0.46677377
C  -0.04249337 0.29883311 0.29549378
H  0.43627078 0.71973957 0.04230095
H  -0.11322948 0.04998189 0.00384283
H  0.12134948 -0.23115676 -0.10005331
H  -0.29594382 -1.36337197 0.80578687
H  -1.46517744 1.64606433 0.11200106
H  0.70231181 0.39998502 -0.20284034
12
MD Step 741.5 Units = [eV / Ang.]
C  -2.40111836 -1.46105123 0.35036582
C  2.05302030 2.23373190 -0.28694846
C  0.54013006 -2.26087320 0.28904453
C  0.26482032 2.02319242 -0.96223214
C  -0.07557533 -1.79624319 -0.36690870
C  -0.23384758 0.16547226 0.28218918
H  0.48294238 0.80924904 0.02952065
H  -0.19421802 0.07082261 0.02225025
H  0.27856378 -0.22470259 -0.09409752
H  -0.25128787 -1.33376195 0.85244938
H  -1.39533812 1.37185650 0.10087143
H  0.93190844 0.40230742 -0.21650443
12
MD Step 742.0 Units = [eV / Ang.]
C  -2.29081286 -1.37185055 0.42057197
C  1.87806180 2.12165328 -0.38790653
C  0.38730362 -2.03596150 0.34828635
C  0.27803425 1.79801037 -1.07530201
C  -0.19638746 -1.33913414 -0.26062033
C  -0.36297563 0.02104573 0.26268523
H  0.48911270 0.83082565 0.01200424
H  -0.26982263 0.08592957 0.04120404
H  0.41826831 -0.21540191 -0.08889390
H  -0.16664864 -1.21127103 0.86922045
H  -1.24627072 0.92097646 0.08260404
H  1.08213726 0.39517807 -0.22385355
12
MD Step 742.5 Units = [eV / Ang.]
C  -2.10363167 -1.20890842 0.49600227
C  1.65274543 1.99077046 -0.48948005
C  0.25325699 -1.76828084 0.40534323
C  0.25024968 1.47056677 -1.15327667
C  -0.32694226 -0.76667282 -0.14313417
C  -0.42272623 -0.13194868 0.23740475
H  0.45451167 0.78356469 -0.00904696
H  -0.33664410 0.09166315 0.06048395
H  0.52597431 -0.20373142 -0.08490485
H  -0.04392316 -0.99881597 0.85422241
H  -1.04936635 0.36339937 0.05120890
H  1.14649569 0.37839369 -0.22482279
12
MD Step 743.0 Units = [eV / Ang.]
C  -1.84748177 -0.97454420 0.57468833
C  1.38170605 1.84334321 -0.59016357
C  0.15308058 -1.46314161 0.46026558
C  0.18287074 1.05146795 -1.19565022
C  -0.44064128 -0.15450705 -0.01382102
C  -0.40948312 -0.29080976 0.20698936
H  0.38073450 0.66949523 -0.03229175
H  -0.39196195 0.08542551 0.07977307
H  0.58977508 -0.19022287 -0.08221071
H  0.11359440 -0.70296585 0.80715786
H  -0.83481887 -0.22577129 0.00500569
H  1.12262565 0.35223075 -0.21974262
12
MD Step 743.5 Units = [eV / Ang.]
C  -1.53333472 -0.67459516 0.65440131
C  1.07122063 1.68056674 -0.68827468
C  0.09797191 -1.12637601 0.51246008
C  0.07999087 0.55717222 -1.20418888
C  -0.51836394 0.43286280 0.12435033
C  -0.32266191 -0.45247119 0.17224572
H  0.27155481 0.49416182 -0.05629928
H  -0.43392810 0.06582355 0.09869402
H  0.60216829 -0.17537270 -0.08047137
H  0.30004150 -0.33639249 0.73025811
H  -0.62637850 -0.78276546 -0.05389861
H  1.01171917 0.31738590 -0.20927674
12
MD Step 744.0 Units = [eV / Ang.]
C  -1.17528069 -0.31961884 0.73273123
C  0.72889668 1.50280211 -0.78204879
C  0.09365545 -0.76423913 0.56075152
C  -0.05023352 0.01270941 -1.18409589
C  -0.54961955 0.94970438 0.26633664
C  -0.16511101 -0.61363127 0.13415765
H  0.13348371 0.26766053 -0.07960108
H  -0.46167632 0.03273056 0.11684923
H  0.56130701 -0.15955084 -0.07897941
H  0.50558059 0.07930922 0.62944443
H  -0.43980096 -1.26286232 -0.12114142
H  0.81879861 0.27498619 -0.19440411
12
MD Step 744.5 Units = [eV / Ang.]
C  -0.79062548 0.07389310 0.80721291
C  0.36331645 1.30990324 -0.86974455
C  0.13969363 -0.38335426 0.60356786
C  -0.19437564 -0.54637279 -1.14495186
C  -0.53113912 1.36871329 0.40652538
C  0.05572313 -0.77104621 0.09392801
H  -0.02366092 0.00574425 -0.10077284
H  -0.47535522 -0.01273014 0.13385826
H  0.47133016 -0.14293791 -0.07679817
H  0.71525482 0.51163230 0.51522259
H  -0.28394756 -1.64007544 -0.19162881
H  0.55378573 0.22663057 -0.17641877
12
MD Step 745.0 Units = [eV / Ang.]
C  -0.39968954 0.48290823 0.87550610
C  -0.01631243 1.10160367 -0.94975389
C  0.22982955 0.00928760 0.63921891
C  -0.33347067 -1.07452213 -1.10068845
C  -0.46446007 1.67628889 0.53968556
C  0.32619955 -0.92185983 0.05299983
H  -0.18654401 -0.26962906 -0.11856011
H  -0.47608919 -0.06826610 0.14938937
H  0.34166496 -0.12551025 -0.07295328
H  0.90886349 0.91768847 0.40256158
H  -0.16299784 -1.90238828 -0.26050101
H  0.23300620 0.17439880 -0.15690462
12
MD Step 745.5 Units = [eV / Ang.]
C  -0.02489443 0.87859910 0.93560525
C  -0.40047251 0.87791827 -1.02070138
C  0.35319821 0.40627739 0.66620161
C  -0.44454097 -1.52066993 -1.06786585
C  -0.35362776 1.86680786 0.66132008
C  0.62514412 -1.06375573 0.01299894
H  -0.33889773 -0.53107079 -0.13203336
H  -0.46586956 -0.13055997 0.16318121
H  0.18551641 -0.10707759 -0.06662515
H  1.06265372 1.24878974 0.30903850
H  -0.07865288 -2.04600305 -0.32348819
H  -0.11955662 0.12074469 -0.13763165
12
MD Step 746.0 Units = [eV / Ang.]
C  0.31115454 1.22898220 0.98602877
C  -0.77959151 0.63954876 -1.08152581
C  0.49602615 0.79968020 0.68346930
C  -0.50428427 -1.83689703 -1.06210336
C  -0.20349978 1.93800511 0.76762267
C  0.92367854 -1.19480945 -0.02444740
H  -0.46320635 -0.74844247 -0.14072738
H  -0.44737542 -0.19548388 0.17505257
H  0.01795533 -0.08735727 -0.05729680
H  1.15314803 1.45927357 0.25112422
H  -0.03179404 -2.07070768 -0.37686429
H  -0.47221122 0.06820794 -0.12033250
12
MD Step 746.5 Units = [eV / Ang.]
C  0.58853526 1.50345598 1.02591766
C  -1.14424651 0.38824308 -1.13153144
C  0.64339086 1.18092190 0.69061354
C  -0.49428242 -1.98917176 -1.09359750
C  -0.01871638 1.88827081 0.85527525
C  1.18719057 -1.31302185 -0.05801038
H  -0.54344275 -0.89344671 -0.14470306
H  -0.42372846 -0.25838561 0.18489921
H  -0.14594309 -0.06606372 -0.04482997
H  1.16240883 1.51743140 0.23958398
H  -0.02346331 -1.97718199 -0.41725302
H  -0.78770259 0.01894846 -0.10636428
12
MD Step 747.0 Units = [eV / Ang.]
C  0.79322939 1.67827628 1.05500413
C  -1.48536286 0.12707379 -1.17040448
C  0.78070025 1.54075506 0.68793279
C  -0.40597943 -1.96606390 -1.16362361
C  0.19673709 1.71607217 0.92129059
C  1.37992771 -1.41569115 -0.08700840
H  -0.56825053 -0.94516785 -0.14448587
H  -0.39819036 -0.31445202 0.19267823
H  -0.29256660 -0.04298978 -0.02946764
H  1.08294449 1.41437686 0.27591962
H  -0.05515554 -1.76641040 -0.44150057
H  -1.02803363 -0.02577906 -0.09633478
12
MD Step 747.5 Units = [eV / Ang.]
C  0.91968215 1.74128774 1.07345468
C  -1.79442083 -0.13938293 -1.19819473
C  0.89473518 1.86936694 0.67639707
C  -0.24330991 -1.78141991 -1.26382932
C  0.43936363 1.42146531 0.96306489
C  1.47162692 -1.49889175 -0.11165039
H  -0.53355729 -0.89483756 -0.14088783
H  -0.37382615 -0.35912978 0.19838294
H  -0.41071003 -0.01806681 -0.01178175
H  0.92013496 1.16676606 0.35167811
H  -0.12837926 -1.44116720 -0.44678856
H  -1.16133938 -0.06599011 -0.08984511
12
MD Step 748.0 Units = [eV / Ang.]
C  0.97169963 1.69414888 1.08165646
C  -2.06371373 -0.40504087 -1.21526268
C  0.97428146 2.15672499 0.65752633
C  -0.02175705 -1.46966723 -1.37877585
C  0.70522189 1.00962592 0.97878889
C  1.44431868 -1.55738266 -0.13302174
H  -0.44360614 -0.74801231 -0.13477760
H  -0.35317320 -0.38856566 0.20201242
H  -0.49202876 0.00859716 0.00741205
H  0.69100854 0.81199396 0.45107361
H  -0.24335419 -1.00947105 -0.43112814
H  -1.16889712 -0.10295113 -0.08550374
12
MD Step 748.5 Units = [eV / Ang.]
C  0.96126328 1.55121257 1.08004305
C  -2.28663911 -0.66247101 -1.22220955
C  1.01049379 2.39310701 0.63321634
C  0.23566745 -1.07603646 -1.49045396
C  0.98799822 0.49589527 0.96830318
C  1.29681335 -1.58505210 -0.15275765
H  -0.30997240 -0.52327555 -0.12688901
H  -0.33795892 -0.40001500 0.20354499
H  -0.53116385 0.03670119 0.02715099
H  0.41994821 0.39818103 0.55562202
H  -0.39674180 -0.48954103 -0.39429987
H  -1.04970821 -0.13870592 -0.08127050
12
MD Step 749.0 Units = [eV / Ang.]
C  0.90566570 1.33560868 1.06900960
C  -2.45799243 -0.90326747 -1.21979351
C  0.99716219 2.56978569 0.60553742
C  0.50368018 -0.64608809 -1.58268746
C  1.27615796 -0.08895797 0.93429362
C  1.04499857 -1.57578966 -0.17250071
H  -0.14896050 -0.24800770 -0.11772841
H  -0.32891554 -0.39215370 0.20292117
H  -0.52571516 0.06574797 0.04642413
H  0.13325540 -0.02663716 0.64866609
H  -0.57860175 0.08507015 -0.33911462
H  -0.82073460 -0.17531074 -0.07502732
12
MD Step 749.5 Units = [eV / Ang.]
C  0.82398761 1.07413786 1.04892414
C  -2.57419752 -1.11858267 -1.20885037
C  0.93099779 2.67972120 0.57652576
C  0.75925543 -0.21824033 -1.64386677
C  1.54994946 -0.69589315 0.88337993
C  0.71783911 -1.52444411 -0.19336804
H  0.02162514 0.04712628 -0.10758594
H  -0.32572079 -0.36524312 0.20004343
H  -0.47620289 0.09505586 0.06427124
H  -0.14537933 -0.42232305 0.71820240
H  -0.76946566 0.66278999 -0.27252204
H  -0.51268836 -0.21410474 -0.06515375
12
MD Step 750.0 Units = [eV / Ang.]
C  0.73400448 0.79275117 1.02018721
C  -2.63343894 -1.29978615 -1.19022462
C  0.81199865 2.71816605 0.54797946
C  0.98426341 0.17927708 -1.66765530
C  1.78008750 -1.26055990 0.82627404
C  0.35078875 -1.42758840 -0.21563529
H  0.18528250 0.33313011 -0.09660919
H  -0.32707669 -0.32111124 0.19479280
H  -0.38609647 0.12378569 0.07988433
H  -0.39736330 -0.75997705 0.75763492
H  -0.93932399 1.17721659 -0.20573386
H  -0.16312590 -0.25530394 -0.05089448
12
MD Step 750.5 Units = [eV / Ang.]
C  0.65017981 0.51370179 0.98328991
C  -2.63566157 -1.43916620 -1.16471630
C  0.64382670 2.68309874 0.52126693
C  1.16620121 0.52781123 -1.65225922
C  1.93036694 -1.71434001 0.77616605
C  -0.02088494 -1.28396069 -0.23872604
H  0.32855597 0.58589257 -0.08488883
H  -0.33090528 -0.26295969 0.18705945
H  -0.26188635 0.15099018 0.09271457
H  -0.60965558 -1.02151832 0.76504152
H  -1.05069933 1.55846262 -0.15251746
H  0.19056242 -0.29801222 -0.03243059
12
MD Step 751.0 Units = [eV / Ang.]
C  0.58287873 0.25454563 0.93884458
C  -2.58245564 -1.53058122 -1.13304922
C  0.43407061 2.57542010 0.49715903
C  1.29757348 0.81576465 -1.59912614
C  1.96536258 -2.00174925 0.74521912
C  -0.36690448 -1.09464985 -0.26143883
H  0.44163446 0.78743305 -0.07252461
H  -0.33462500 -0.19502595 0.17678024
H  -0.11309764 0.17568825 0.10258058
H  -0.77388776 -1.19721669 0.74183288
H  -1.06678288 1.75090621 -0.12556761
H  0.51623352 -0.34053491 -0.01071002
12
MD Step 751.5 Units = [eV / Ang.]
C  0.53851104 0.02846704 0.88758106
C  -2.47685637 -1.56998479 -1.09585654
C  0.19419418 2.39892376 0.47570069
C  1.37463521 1.03576445 -1.51173122
C  1.86137814 -2.09740033 0.74040329
C  -0.66418672 -0.86313784 -0.28226953
H  0.51811567 0.92565879 -0.05966200
H  -0.33546074 -0.12215699 0.16397371
H  0.04792731 0.19696357 0.10976187
H  -0.88498796 -1.28279030 0.69148322
H  -0.96263479 1.73048525 -0.13221451
H  0.78936503 -0.38079262 0.01282997
12
MD Step 752.0 Units = [eV / Ang.]
C  0.52016531 -0.15481845 0.83032535
C  -2.32309752 -1.55575760 -1.05368717
C  -0.06101178 2.16004453 0.45615554
C  1.39604455 1.18256135 -1.39475910
C  1.61573058 -2.01382332 0.76082731
C  -0.89684902 -0.59525749 -0.29969732
H  0.55438094 0.99339219 -0.04650532
H  -0.33073930 -0.04936153 0.14876613
H  0.20666252 0.21407501 0.11504884
H  -0.93994972 -1.27711064 0.61866103
H  -0.73446104 1.51272524 -0.17166349
H  0.99312447 -0.41666929 0.03652820
12
MD Step 752.5 Units = [eV / Ang.]
C  0.52834791 -0.28823834 0.76796941
C  -2.12634974 -1.48883981 -1.00702068
C  -0.31461536 1.86746048 0.43705133
C  1.36183200 1.25207820 -1.25370781
C  1.24926664 -1.79565687 0.79816022
C  -1.05496999 -0.29901498 -0.31235921
H  0.54896727 0.98734774 -0.03331584
H  -0.31814389 0.01861590 0.13140140
H  0.34758160 0.22655618 0.11971416
H  -0.93712249 -1.18099475 0.52880274
H  -0.40190698 1.14691462 -0.23538265
H  1.11711304 -0.44622838 0.05868694
12
MD Step 753.0 Units = [eV / Ang.]
C  0.56154469 -0.36702613 0.70144209
C  -1.89247134 -1.37264957 -0.95629460
C  -0.54932639 1.53160576 0.41636404
C  1.27298005 1.24171001 -1.09480006
C  0.80066612 -1.50355330 0.83985769
C  -1.13303274 0.01577904 -0.31910834
H  0.50218806 0.90752178 -0.02039860
H  -0.29590313 0.07764853 0.11223514
H  0.45586102 0.23427435 0.12537651
H  -0.87621440 -0.99722894 0.42800680
H  -0.00205549 0.69973354 -0.31035835
H  1.15576354 -0.46781508 0.07767769
12
MD Step 753.5 Units = [eV / Ang.]
C  0.61645926 -0.38903778 0.63167474
C  -1.62776544 -1.21284986 -0.90192807
C  -0.74965856 1.16417375 0.39183406
C  1.13184578 1.15177220 -0.92499162
C  0.31584500 -1.19631017 0.87328761
C  -1.12877679 0.33807843 -0.31899474
H  0.41611775 0.75721252 -0.00807485
H  -0.26291972 0.12450633 0.09171197
H  0.51938712 0.23742486 0.13375231
H  -0.75906857 -0.73177177 0.32303536
H  0.42141174 0.23690943 -0.38330189
H  1.10712241 -0.48010792 0.09199512
12
MD Step 754.0 Units = [eV / Ang.]
C  0.68790139 -0.35568793 0.55955712
C  -1.33875790 -1.01700525 -0.84434142
C  -0.90402757 0.77765973 0.36138157
C  0.94346476 0.98784237 -0.75184222
C  -0.16221302 -0.91873685 0.88878021
C  -1.04281541 0.65632565 -0.31123418
H  0.29492953 0.54366822 0.00336492
H  -0.21884219 0.15705141 0.07032916
H  0.53063731 0.23645373 0.14633300
H  -0.59113815 -0.39590821 0.22115939
H  0.82846348 -0.18948079 -0.44379731
H  0.97239776 -0.48218207 0.10030976
12
MD Step 754.5 Units = [eV / Ang.]
C  0.76842387 -0.27325787 0.48587064
C  -1.03199426 -0.79417128 -0.78396507
C  -1.00629781 0.38494678 0.32353647
C  0.71746093 0.76341548 -0.58297745
C  -0.59952619 -0.69776446 0.88076575
C  -0.87916555 0.95923375 -0.29522787
H  0.14546242 0.27914336 0.01373555
H  -0.16408851 0.17435655 0.04859046
H  0.48795648 0.23192764 0.16406106
H  -0.38332689 -0.00878815 0.12956638
H  1.18867517 -0.54541657 -0.48552127
H  0.75642034 -0.47362523 0.10156536
12
MD Step 755.0 Units = [eV / Ang.]
C  0.84792715 -0.15411584 0.41119480
C  -0.71384943 -0.55445520 -0.72123543
C  -1.05637552 -0.00110639 0.27778227
C  0.46981763 0.50189838 -0.42495976
C  -0.97251956 -0.54488322 0.84736538
C  -0.64657237 1.23655201 -0.27067721
H  -0.02223706 -0.01809958 0.02305580
H  -0.09982901 0.17675371 0.02695508
H  0.39585552 0.22439061 0.18709420
H  -0.15349528 0.40067427 0.05414613
H  1.48236409 -0.81290040 -0.50587769
H  0.46891386 -0.45470835 0.09515642
12
MD Step 755.5 Units = [eV / Ang.]
C  0.91359742 -0.01717686 0.33580521
C  -0.39037349 -0.30855519 -0.65657885
C  -1.05973897 -0.36810428 0.22472847
C  0.22336047 0.23648935 -0.28163016
C  -1.26633467 -0.46139092 0.78927794
C  -0.36027096 1.47971543 -0.23781245
H  -0.19476596 -0.32352525 0.03165197
H  -0.02792675 0.16580750 0.00578642
H  0.26424972 0.21425162 0.21472423
H  0.07345395 0.79402422 -0.00225569
H  1.69853099 -0.98497428 -0.50489123
H  0.12621826 -0.42656136 0.08119415
12
MD Step 756.0 Units = [eV / Ang.]
C  0.95058318 0.11316645 0.25960353
C  -0.06717147 -0.06727859 -0.59038817
C  -1.02608451 -0.70462723 0.16607326
C  0.00572772 0.00662154 -0.15244662
C  -1.47201241 -0.44367222 0.70866312
C  -0.04347983 1.68228411 -0.19769102
H  -0.35602383 -0.60757156 0.04022158
H  0.04916687 0.14420556 -0.01469248
H  0.10685644 0.20173127 0.24546932
H  0.26800277 1.12700570 -0.04155342
H  1.83167263 -1.06061249 -0.48407644
H  -0.24723756 -0.39125254 0.06081736
12
MD Step 756.5 Units = [eV / Ang.]
C  0.94369056 0.21010340 0.18213532
C  0.25065888 0.15895665 -0.52299656
C  -0.96752134 -1.00078416 0.10437636
C  -0.15557508 -0.14933328 -0.03175710
C  -1.58394311 -0.48709235 0.60835658
C  0.27235480 1.84005821 -0.15245808
H  -0.48893426 -0.83888909 0.04980027
H  0.12856409 0.11555887 -0.03443031
H  -0.06079263 0.18687406 0.27730140
H  0.40128813 1.35712367 -0.07112556
H  1.87894153 -1.04093742 -0.44564407
H  -0.61873158 -0.35163855 0.03644176
12
MD Step 757.0 Units = [eV / Ang.]
C  0.88000826 0.24925629 0.10274824
C  0.55851284 0.36064574 -0.45466141
C  -0.89675904 -1.24874800 0.04270709
C  -0.23990506 -0.20342363 0.09009537
C  -1.59832250 -0.58808891 0.49149056
C  0.54964526 1.95077397 -0.10540360
H  -0.57812085 -0.98936256 0.06158559
H  0.20714235 0.08409757 -0.05355812
H  -0.22326308 0.16960864 0.30793980
H  0.45204552 1.45332128 -0.10259316
H  1.83841664 -0.92719427 -0.39213019
H  -0.94940032 -0.31088612 0.01177984
12
MD Step 757.5 Units = [eV / Ang.]
C  0.75187601 0.21413362 0.02087668
C  0.85217619 0.52970109 -0.38556413
C  -0.82564033 -1.44315935 -0.01575389
C  -0.23941434 -0.14604161 0.22374895
C  -1.51286303 -0.74448612 0.36145497
C  0.74962157 2.01344802 -0.06064789
H  -0.61291058 -1.03973062 0.07663139
H  0.28178313 0.05427715 -0.07237128
H  -0.36670611 0.14983018 0.33513826
H  0.41260175 1.40420140 -0.14859851
H  1.70879356 -0.72047510 -0.32638503
H  -1.19931782 -0.27169865 -0.00852953
12
MD Step 758.0 Units = [eV / Ang.]
C  0.55921009 0.10036031 -0.06362320
C  1.12765403 0.65991889 -0.31583341
C  -0.76417150 -1.58131263 -0.06807918
C  -0.16137389 0.01118377 0.37700052
C  -1.32793429 -0.95407777 0.22209700
C  0.83957019 2.02758978 -0.02240697
H  -0.58968168 -0.98394223 0.09549920
H  0.34962807 0.03032044 -0.09128219
H  -0.47979947 0.12748174 0.35691491
H  0.29113855 1.22110435 -0.21874736
H  1.49063370 -0.42314454 -0.25180630
H  -1.33487379 -0.23548211 -0.01973302
12
MD Step 758.5 Units = [eV / Ang.]
C  0.31031412 -0.08298963 -0.15023199
C  1.38095494 0.74733864 -0.24558764
C  -0.72001055 -1.66307826 -0.11187693
C  -0.02576782 0.23896586 0.55196092
C  -1.04913304 -1.21151031 0.07802642
C  0.80030394 1.99267519 0.00600866
H  -0.51266208 -0.83056632 0.11800698
H  0.40831846 0.01575048 -0.11074609
H  -0.55419358 0.10261962 0.37170804
H  0.10908747 0.93456028 -0.31655996
H  1.18917754 -0.04193931 -0.17265737
H  -1.33638941 -0.20182623 -0.01805105
12
MD Step 759.0 Units = [eV / Ang.]
C  0.02078771 -0.31549685 -0.23772940
C  1.60790280 0.79045425 -0.17499095
C  -0.69825804 -1.69058402 -0.14546749
C  0.14052983 0.49862145 0.74444434
C  -0.69096165 -1.50373240 -0.06519265
C  0.63111204 1.90818177 0.02310546
H  -0.39285716 -0.60067260 0.14318843
H  0.45618834 0.01297759 -0.13116931
H  -0.58463634 0.07545592 0.37846695
H  -0.10501291 0.58589109 -0.43874078
H  0.81834643 0.40752223 -0.09423941
H  -1.20314104 -0.16861844 -0.00167520
12
MD Step 759.5 Units = [eV / Ang.]
C  -0.28902109 -0.57007173 -0.32437779
C  1.80403882 0.79022432 -0.10430854
C  -0.70138010 -1.66775318 -0.16795857
C  0.31023335 0.75132969 0.94552842
C  -0.28048267 -1.80499853 -0.20125344
C  0.35005003 1.77421514 0.02963798
H  -0.24555374 -0.32306175 0.16947968
H  0.49237492 0.02301519 -0.15281747
H  -0.56895689 0.04637822 0.37669644
H  -0.32237879 0.21771087 -0.57673180
H  0.40473064 0.89582314 -0.02261885
H  -0.95365446 -0.13281138 0.02872395
12
MD Step 760.0 Units = [eV / Ang.]
C  -0.59713367 -0.81837345 -0.40825342
C  1.96467087 0.74987462 -0.03394680
C  -0.72913753 -1.59977495 -0.17924345
C  0.46031395 0.96498784 1.14414672
C  0.14131449 -2.07362474 -0.32400211
C  -0.01054287 1.59236757 0.02837497
H  -0.08735057 -0.02865963 0.19505213
H  0.51683746 0.04536697 -0.17573938
H  -0.50805050 0.01594510 0.36647648
H  -0.51902489 -0.13325061 -0.71940234
H  -0.01076610 1.37666052 0.03635382
H  -0.62113063 -0.09151923 0.07018338
12
MD Step 760.5 Units = [eV / Ang.]
C  -0.88269769 -1.03525887 -0.48758391
C  2.08509170 0.67450773 0.03553235
C  -0.77847153 -1.49259120 -0.17994788
C  0.57396009 1.11723938 1.32943566
C  0.52321591 -2.25370394 -0.42900336
C  -0.41139886 1.36633517 0.02331810
H  0.06635538 0.25416584 0.21815792
H  0.53027978 0.07811040 -0.19972426
H  -0.40592595 -0.01514272 0.34846583
H  -0.67796303 -0.43952458 -0.85555773
H  -0.37650372 1.78882629 0.07869598
H  -0.24594207 -0.04296349 0.11821129
12
MD Step 761.0 Units = [eV / Ang.]
C  -1.12782578 -1.20130063 -0.56099002
C  2.16093666 0.57057329 0.10342648
C  -0.84340105 -1.35243601 -0.17134165
C  0.64033291 1.19513604 1.49211844
C  0.81403228 -2.28439485 -0.51521545
C  -0.81373917 1.10197610 0.01873290
H  0.20289107 0.50238018 0.23738389
H  0.53399834 0.11815249 -0.22429922
H  -0.26977796 -0.04609583 0.32388364
H  -0.78897422 -0.68292602 -0.97549907
H  -0.64042704 2.06586600 0.10401978
H  0.13195395 0.01306925 0.16778028
12
MD Step 761.5 Units = [eV / Ang.]
C  -1.31847380 -1.30338437 -0.62758906
C  2.18863479 0.44527745 0.16893175
C  -0.91505200 -1.18545063 -0.15521438
C  0.65326071 1.19287579 1.62489805
C  0.97707748 -2.11606792 -0.58573595
C  -1.18451887 0.80685575 0.01835322
H  0.31281420 0.69913060 0.25177671
H  0.52968425 0.16160810 -0.24876710
H  -0.10996130 -0.07611246 0.29445100
H  -0.84705857 -0.85263548 -1.07156272
H  -0.76485753 2.15260243 0.11627016
H  0.47845065 0.07530073 0.21418831
12
MD Step 762.0 Units = [eV / Ang.]
C  -1.44459106 -1.33401543 -0.68697840
C  2.16586833 0.30600607 0.23120080
C  -0.98198067 -0.99741278 -0.13370209
C  0.60983981 1.10908569 1.72222663
C  1.00245717 -1.72757756 -0.64680001
C  -1.49868490 0.48960986 0.02496952
H  0.38970477 0.83325893 0.26085853
H  0.51920927 0.20423959 -0.27227763
H  0.06032159 -0.10446763 0.26226669
H  -0.85061479 -0.94275239 -1.13798387
H  -0.73928742 2.02265077 0.12264322
H  0.76775790 0.14137488 0.25357661
12
MD Step 762.5 Units = [eV / Ang.]
C  -1.49991145 -1.29010115 -0.73915513
C  2.09197765 0.15982984 0.28940476
C  -1.03095930 -0.79357928 -0.10905235
C  0.50948411 0.94461488 1.77989317
C  0.91016100 -1.13610392 -0.70527427
C  -1.73892807 0.15945517 0.04040042
H  0.42964179 0.89824204 0.26458343
H  0.50442584 0.24189001 -0.29391653
H  0.22580402 -0.13059642 0.22960167
H  -0.80001455 -0.95027611 -1.17052454
H  -0.58406630 1.68826429 0.13094401
H  0.98238524 0.20836065 0.28309536
12
MD Step 763.0 Units = [eV / Ang.]
C  -1.48166811 -1.17187849 -0.78441858
C  1.96823073 0.01313414 0.34278923
C  -1.04829658 -0.57867325 -0.08332721
C  0.35355389 0.70139387 1.79477859
C  0.74177378 -0.39392761 -0.76600013
C  -1.89402433 -0.17398267 0.06571411
H  0.43071100 0.89120562 0.26327878
H  0.48699932 0.27085980 -0.31280026
H  0.37051332 -0.15414644 0.19861623
H  -0.69687661 -0.87403142 -1.16623076
H  -0.34262462 1.19687908 0.14677524
H  1.11170820 0.27316737 0.30082477
12
MD Step 763.5 Units = [eV / Ang.]
C  -1.39045083 -0.98236405 -0.82329582
C  1.79793819 -0.12864060 0.39071977
C  -1.02162543 -0.35698330 -0.05808947
C  0.14557066 0.38254194 1.76499822
C  0.54542492 0.42618516 -0.83042257
C  -1.95692504 -0.50067725 0.10151974
H  0.39276460 0.81241924 0.25759827
H  0.46827832 0.28821093 -0.32816257
H  0.47963349 -0.17497626 0.17104399
H  -0.54410633 -0.71475043 -1.12355573
H  -0.06670350 0.61621994 0.17204474
H  1.15020096 0.33281469 0.30560145
12
MD Step 764.0 Units = [eV / Ang.]
C  -1.23027605 -0.72750478 -0.85649782
C  1.58637728 -0.26112929 0.43271133
C  -0.94187657 -0.13256426 -0.03413340
C  -0.10810704 -0.00623166 1.69053319
C  0.36179895 1.24926825 -0.89692488
C  -1.92342471 -0.81025820 0.14817864
H  0.31753483 0.66545030 0.24848892
H  0.44920825 0.29197332 -0.33942437
H  0.54158452 -0.19309145 0.14791205
H  -0.34662815 -0.47637314 -1.04296241
H  0.19770648 0.01587382 0.20524970
H  1.09610220 0.38458709 0.29686906
12
MD Step 764.5 Units = [eV / Ang.]
C  -1.00888205 -0.41693375 -0.88489246
C  1.34055165 -0.38109548 0.46844541
C  -0.80499827 0.09053374 -0.01134483
C  -0.39725317 -0.45411417 1.57430933
C  0.21661872 2.01217447 -0.96219195
C  -1.79183938 -1.09235834 0.20585003
H  0.20908441 0.45793554 0.23714946
H  0.43027777 0.28127590 -0.34624303
H  0.54984522 -0.20853217 0.12938304
H  -0.11262063 -0.16843836 -0.92796695
H  0.41828738 -0.54659858 0.24287171
H  0.95092837 0.42615120 0.27463026
12
MD Step 765.0 Units = [eV / Ang.]
C  -0.73812480 -0.06509337 -0.90945355
C  1.06882040 -0.48640240 0.49777410
C  -0.61296339 0.30803159 0.01125302
C  -0.70673329 -0.94205166 1.42346478
C  0.12021272 2.66972733 -1.02261711
C  -1.56382080 -1.33726566 0.27434766
H  0.07446042 0.20272266 0.22494004
H  0.41149867 0.25639583 -0.34853687
H  0.50404607 -0.22125040 0.11477314
H  0.14514516 0.19092799 -0.78634972
H  0.57746764 -1.03145263 0.28087301
H  0.71999119 0.45571073 0.23953150
12
MD Step 765.5 Units = [eV / Ang.]
C  -0.43424785 0.30780113 -0.93113510
C  0.78046460 -0.57592825 0.52071523
C  -0.37374969 0.51526832 0.03526859
C  -1.01600371 -1.44010478 1.25022432
C  0.07150322 3.19410741 -1.07515640
C  -1.24613782 -1.53683869 0.35283048
H  -0.07573345 -0.08113567 0.21319872
H  0.39241102 0.21874041 -0.34648685
H  0.40999790 -0.23102404 0.10274935
H  0.40851047 0.57250317 -0.63094785
H  0.66916290 -1.41564110 0.31566547
H  0.41382241 0.47225209 0.19307404
12
MD Step 766.0 Units = [eV / Ang.]
C  -0.11759808 0.67566761 -0.95063613
C  0.48521018 -0.64942503 0.53743862
C  -0.10029875 0.70714768 0.06257829
C  -1.29993734 -1.90698145 1.07154739
C  0.06322867 3.57063983 -1.11757302
C  -0.85298088 -1.68548185 0.43941250
H  -0.22726486 -0.36827442 0.20294037
H  0.37211786 0.17075343 -0.34051309
H  0.27866691 -0.23744006 0.09164794
H  0.65451260 0.93564050 -0.47919302
H  0.69422993 -1.68811498 0.34445913
H  0.05011375 0.47586873 0.13789103
12
MD Step 766.5 Units = [eV / Ang.]
C  0.18859780 1.00807665 -0.96806967
C  0.19278881 -0.70732984 0.54823919
C  0.19126145 0.87820396 0.09493115
C  -1.53159037 -2.29355505 0.90681527
C  0.08631526 3.79284705 -1.14829788
C  -0.40798587 -1.78090794 0.53081843
H  -0.36314687 -0.62857932 0.19447316
H  0.34934979 0.11574606 -0.33122721
H  0.12439133 -0.23995319 0.07982077
H  0.85800711 1.23192819 -0.35067408
H  0.65660278 -1.84454028 0.36519600
H  -0.34459122 0.46806369 0.07797488
12
MD Step 767.0 Units = [eV / Ang.]
C  0.46065480 1.27381658 -0.98264608
C  -0.08745018 -0.75051520 0.55349793
C  0.48364128 1.02276188 0.13361811
C  -1.68682659 -2.55107772 0.77357553
C  0.13266295 3.85841165 -1.16616132
C  0.05519346 -1.82441800 0.62227431
H  -0.46572221 -0.83086164 0.18705241
H  0.32256849 0.05764017 -0.31936258
H  -0.03716759 -0.23799575 0.06592110
H  0.99623691 1.41353957 -0.26277275
H  0.56082716 -1.88314313 0.37632381
H  -0.73461847 0.45184159 0.01867954
12
MD Step 767.5 Units = [eV / Ang.]
C  0.67783465 1.44607745 -0.99253552
C  -0.34688232 -0.78002255 0.55362792
C  0.76022037 1.13522106 0.17927025
C  -1.74957694 -2.64247802 0.68261006
C  0.19635085 3.76668532 -1.17017288
C  0.49501107 -1.82039662 0.70781254
H  -0.51974590 -0.94824972 0.17875722
H  0.29010934 0.00063320 -0.30568737
H  -0.19088366 -0.23110077 0.04907619
H  1.05411934 1.44462100 -0.22567157
H  0.41098140 -1.80235754 0.37659496
H  -1.07753822 0.43136719 -0.03368180
12
MD Step 768.0 Units = [eV / Ang.]
C  0.82592015 1.50792190 -0.99507782
C  -0.57789845 -0.79677710 0.54900877
C  1.00637637 1.21040737 0.23180596
C  -1.71574626 -2.55263901 0.63452769
C  0.27362286 3.51800695 -1.15944808
C  0.86753173 -1.77502266 0.78108356
H  -0.51568057 -0.96390829 0.16675187
H  0.25036342 -0.05119944 -0.29090873
H  -0.32353037 -0.21900303 0.02893973
H  1.02817627 1.31158843 -0.23895780
H  0.21072782 -1.60045947 0.36500175
H  -1.32986295 0.41108437 -0.07272690
12
MD Step 768.5 Units = [eV / Ang.]
C  0.89978464 1.45609316 -0.98736560
C  -0.77417672 -0.80135088 0.53992195
C  1.21025430 1.24401773 0.29050488
C  -1.59400172 -2.29300485 0.61971585
C  0.36193426 3.11504224 -1.13333565
C  1.13461366 -1.69448156 0.83655332
H  -0.45204840 -0.87507349 0.14794473
H  0.20198776 -0.09432573 -0.27558369
H  -0.42458170 -0.20170159 0.00565201
H  0.92729646 1.02763494 -0.29167039
H  -0.03572248 -1.27731131 0.34091455
H  -1.45534006 0.39446136 -0.09325197
12
MD Step 769.0 Units = [eV / Ang.]
C  0.90398671 1.30162030 -0.96702979
C  -0.93093820 -0.79379914 0.52650010
C  1.36307170 1.23308271 0.35416406
C  -1.40309662 -1.89822058 0.62178058
C  0.45824638 2.56636187 -1.09177811
C  1.27240971 -1.58330909 0.87072389
H  -0.33589112 -0.69378537 0.11985130
H  0.14412386 -0.12614774 -0.26005006
H  -0.48654102 -0.17947913 -0.02025563
H  0.76996223 0.62916294 -0.36589517
H  -0.32189442 -0.83832228 0.30445069
H  -1.43343921 0.38283551 -0.09246185
12
MD Step 769.5 Units = [eV / Ang.]
C  0.85114442 1.06696687 -0.93292610
C  -1.04517104 -0.77361440 0.50870747
C  1.45915881 1.17638763 0.42128401
C  -1.16704807 -1.41651808 0.62271971
C  0.55676176 1.89207130 -1.03588236
C  1.27699686 -1.44355268 0.88291437
H  -0.18112799 -0.44399008 0.08133124
H  0.07659168 -0.14529703 -0.24439307
H  -0.50498100 -0.15288947 -0.04797313
H  0.57927702 0.16589509 -0.44212323
H  -0.63681416 -0.30038245 0.25704303
H  -1.26478827 0.37492331 -0.07070195
12
MD Step 770.0 Units = [eV / Ang.]
C  0.75875679 0.78093509 -0.88546670
C  -1.11579086 -0.73981111 0.48636295
C  1.49592692 1.07475645 0.49024645
C  -0.91020110 -0.89831592 0.60746473
C  0.64655091 1.13024267 -0.96853571
C  1.16472503 -1.27511249 0.87527584
H  -0.00548672 -0.15621045 0.03292675
H  0.00003057 -0.15178748 -0.22845524
H  -0.47848048 -0.12272167 -0.07652391
H  0.37792111 -0.31079073 -0.50396159
H  -0.96279570 0.30152461 0.20203325
H  -0.97115645 0.36729103 -0.03136680
12
MD Step 770.5 Units = [eV / Ang.]
C  0.64562768 0.47325415 -0.82652029
C  -1.14366686 -0.69110700 0.45920300
C  1.47387225 0.93112129 0.55945947
C  -0.65375957 -0.38740950 0.56628525
C  0.71003590 0.34109976 -0.89472052
C  0.96725887 -1.07700522 0.85206560
H  0.17284273 0.13822805 -0.02327101
H  -0.08404641 -0.14699255 -0.21188849
H  -0.40858830 -0.08994766 -0.10486685
H  0.18470155 -0.75687570 -0.54065609
H  -1.27428956 0.91005923 0.14493272
H  -0.58998829 0.35557516 0.01997721
12
MD Step 771.0 Units = [eV / Ang.]
C  0.52895789 0.17050859 -0.75900929
C  -1.13150454 -0.62618699 0.42697582
C  1.39664508 0.75035806 0.62746572
C  -0.41423292 0.08321137 0.49497549
C  0.72370736 -0.39546459 -0.82105421
C  0.72354105 -0.84892821 0.81852459
H  0.33781654 0.41167732 -0.08408893
H  -0.17329760 -0.13345139 -0.19423991
H  -0.29985034 -0.05565185 -0.13199056
H  0.01322416 -1.13998764 -0.54732451
H  -1.53918620 1.44804165 0.09288447
H  -0.16582048 0.33587367 0.07688132
12
MD Step 771.5 Units = [eV / Ang.]
C  0.42262671 -0.10588900 -0.68641338
C  -1.08355974 -0.54397706 0.38954276
C  1.27111944 0.53891390 0.69302018
C  -0.20334180 0.49133452 0.39367262
C  0.66213793 -0.99253497 -0.75428336
C  0.47187445 -0.59247737 0.77980708
H  0.47692445 0.64254348 -0.14583852
H  -0.26469607 -0.11454233 -0.17505235
H  -0.15986004 -0.02094357 -0.15700140
H  -0.12774789 -1.43941283 -0.52375157
H  -1.72358837 1.83124736 0.05306969
H  0.25811093 0.30573788 0.13322826
12
MD Step 772.0 Units = [eV / Ang.]
C  0.33664938 -0.33993106 -0.61235232
C  -1.00524042 -0.44390531 0.34696779
C  1.10734323 0.30429825 0.75514804
C  -0.02867567 0.82305166 0.26530080
C  0.50494533 -1.37768652 -0.69908415
C  0.24446361 -0.31170849 0.74027246
H  0.58144731 0.81572886 -0.20479146
H  -0.35475393 -0.09407782 -0.15396151
H  0.00080073 0.01314757 -0.17920520
H  -0.23306702 -1.64361390 -0.47275864
H  -1.79954301 1.99018114 0.03043284
H  0.64563046 0.26451563 0.18403135
12
MD Step 772.5 Units = [eV / Ang.]
C  0.27744294 -0.52018615 -0.54032001
C  -0.90264978 -0.32610820 0.29957556
C  0.91819565 0.05452866 0.81318642
C  0.10541569 1.06964212 0.11428716
C  0.24430218 -1.51522921 -0.65622062
C  0.06514229 -0.01308232 0.70321057
H  0.64599404 0.92184588 -0.25748076
H  -0.43979263 -0.07588950 -0.13077199
H  0.16891009 0.04578134 -0.19817377
H  -0.29982718 -1.74708312 -0.39882465
H  -1.75311446 1.89263423 0.02579956
H  0.96998119 0.21314628 0.22573253
12
MD Step 773.0 Units = [eV / Ang.]
C  0.24846331 -0.63871659 -0.47355115
C  -0.78214153 -0.19157828 0.24797279
C  0.71861835 -0.20238663 0.86679793
C  0.19687352 1.22508363 -0.05422065
C  -0.11056184 -1.41771732 -0.62220347
C  -0.05033390 0.29501845 0.67089900
H  0.66778649 0.95600315 -0.30084577
H  -0.51622733 -0.06345345 -0.10550229
H  0.32941707 0.07639836 -0.21377957
H  -0.32628474 -1.74776986 -0.30721832
H  -1.58905194 1.55543403 0.03553776
H  1.21344255 0.15368451 0.25611374
12
MD Step 773.5 Units = [eV / Ang.]
C  0.25084964 -0.69033250 -0.41494215
C  -0.64993923 -0.04226136 0.19303124
C  0.52434211 -0.45883214 0.91594480
C  0.24504486 1.28481692 -0.23469189
C  -0.53429527 -1.13997238 -0.59072391
C  -0.09266554 0.60297363 0.64481547
H  0.64606128 0.91679307 -0.33230164
H  -0.58083488 -0.05958991 -0.07839581
H  0.46679443 0.10476320 -0.22618052
H  -0.31128888 -1.64570471 -0.20361110
H  -1.32956360 1.03853761 0.05304094
H  1.36549507 0.08880857 0.27401457
12
MD Step 774.0 Units = [eV / Ang.]
C  0.28382912 -0.67246519 -0.36695112
C  -0.51184392 0.11889801 0.13584157
C  0.35020002 -0.70780017 0.96080732
C  0.25008824 1.24597913 -0.42127040
C  -0.99140040 -0.75906801 -0.55500939
C  -0.05714808 0.90064798 0.62586776
H  0.58179567 0.80583230 -0.34982233
H  -0.63098236 -0.06625369 -0.04990005
H  0.56684489 0.13093228 -0.23574598
H  -0.25430614 -1.44302693 -0.09399966
H  -1.00779708 0.42487250 0.07115669
H  1.42072004 0.02145180 0.27902559
12
MD Step 774.5 Units = [eV / Ang.]
C  0.34477075 -0.58572445 -0.33140407
C  -0.37302715 0.28794683 0.07764983
C  0.20826517 -0.94290565 1.00165259
C  0.21298290 1.10903231 -0.60776809
C  -1.44419948 -0.35114889 -0.50981019
C  0.05764323 1.17804476 0.61454649
H  0.47783092 0.62798076 -0.35211840
H  -0.66481027 -0.08440345 -0.02062188
H  0.61867714 0.15514017 -0.24293079
H  -0.15608069 -1.14539287 0.01529015
H  -0.65931508 -0.20314606 0.08424706
H  1.37726258 -0.04542346 0.27126729
12
MD Step 775.0 Units = [eV / Ang.]
C  0.42887437 -0.43500704 -0.30916779
C  -0.23789355 0.45995450 0.01977962
C  0.10624613 -1.15825972 1.03867568
C  0.13638808 0.88051481 -0.78780501
C  -1.85942584 0.02478707 -0.45227230
C  0.25024010 1.42582906 0.61095734
H  0.33934604 0.39216202 -0.33894959
H  -0.68136395 -0.11394120 0.00873523
H  0.61639673 0.17762920 -0.24812835
H  -0.01990518 -0.76450832 0.11776411
H  -0.31518939 -0.78019605 0.08910498
H  1.23628647 -0.10896435 0.25130609
12
MD Step 775.5 Units = [eV / Ang.]
C  0.52864973 -0.23081176 -0.29971262
C  -0.10999425 0.62909350 -0.03644407
C  0.04651882 -1.34827389 1.07185684
C  0.02624695 0.57623820 -0.95531091
C  -2.21158936 0.33240898 -0.38177352
C  0.51563632 1.63573819 0.61473547
H  0.17449878 0.11247683 -0.31155590
H  -0.68067357 -0.15370418 0.03744239
H  0.56007499 0.19847354 -0.25154700
H  0.14668136 -0.32114417 0.20730734
H  0.00140164 -1.26392910 0.08479186
H  1.00254858 -0.16656616 0.22021010
12
MD Step 776.0 Units = [eV / Ang.]
C  0.63346927 0.00975479 -0.30066399
C  0.00803172 0.78877811 -0.08977286
C  0.02608273 -1.50752290 1.10087306
C  -0.10638046 0.22374834 -1.10549562
C  -2.48329620 0.55519220 -0.29925557
C  0.84369862 1.80093923 0.62486017
H  -0.00508041 -0.19092341 -0.27309807
H  -0.66377850 -0.20150190 0.06482083
H  0.45571053 0.21745865 -0.25314757
H  0.33025734 0.15258011 0.27922920
H  0.27528629 -1.63241056 0.07193207
H  0.68599906 -0.21609266 0.17971835
12
MD Step 776.5 Units = [eV / Ang.]
C  0.72963431 0.26301074 -0.30753786
C  0.11447451 0.93189046 -0.13910964
C  0.03742060 -1.63076368 1.12508845
C  -0.24422908 -0.13767495 -1.23615205
C  -2.66376724 0.68972213 -0.20653771
C  1.21705696 1.91641900 0.63943022
H  -0.18437035 -0.49193969 -0.22890340
H  -0.63268117 -0.25420648 0.09031402
H  0.31420498 0.23405615 -0.25266103
H  0.51081624 0.61338569 0.33164630
H  0.49746277 -1.87767667 0.05196994
H  0.30397746 -0.25622270 0.13245277
12
MD Step 777.0 Units = [eV / Ang.]
C  0.80137621 0.50045508 -0.31392445
C  0.20852810 1.05108661 -0.18357576
C  0.07001116 -1.71315453 1.14362107
C  -0.36465419 -0.46109750 -1.34878225
C  -2.74681224 0.73888057 -0.10584671
C  1.60923099 1.97941486 0.65550808
H  -0.34602842 -0.76032729 -0.18624754
H  -0.59022367 -0.30789766 0.11354986
H  0.14964691 0.24749850 -0.24967375
H  0.66305581 1.01114069 0.36666639
H  0.66267445 -1.99911339 0.02664665
H  -0.11680510 -0.28688594 0.08205841
12
MD Step 777.5 Units = [eV / Ang.]
C  0.83298893 0.69255140 -0.31232205
C  0.29020227 1.13920382 -0.22256693
C  0.11206870 -1.75065219 1.15545989
C  -0.44310488 -0.70042583 -1.44876593
C  -2.72906037 0.70679036 0.00041908
C  1.98420652 1.98978534 0.66917412
H  -0.47261927 -0.96552153 -0.15346466
H  -0.53986913 -0.35808902 0.13438469
H  -0.02263663 0.25692150 -0.24374786
H  0.76030484 1.29761626 0.39057119
H  0.76727705 -1.99854629 -0.00226321
H  -0.53975804 -0.30963380 0.03312167
12
MD Step 778.0 Units = [eV / Ang.]
C  0.81182142 0.81401589 -0.29560213
C  0.36013308 1.18973722 -0.25578522
C  0.15212747 -1.74049531 1.15960099
C  -0.45882287 -0.82128417 -1.54399609
C  -2.60874835 0.59606265 0.10977035
C  2.29875958 1.95007397 0.67592488
H  -0.54968115 -1.08197158 -0.13840995
H  -0.48539013 -0.40004122 0.15291868
H  -0.18783459 0.26152619 -0.23453921
H  0.78054817 1.43763113 0.41240737
H  0.80781998 -1.87756977 -0.03302315
H  -0.92073261 -0.32768499 -0.00926653
12
MD Step 778.5 Units = [eV / Ang.]
C  0.73128013 0.84916082 -0.25875261
C  0.41930609 1.19736638 -0.28323870
C  0.18022389 -1.68167063 1.15517421
C  -0.40080435 -0.81012083 -1.64217577
C  -2.38524967 0.40729747 0.21962976
C  2.50827743 1.86502905 0.67145257
H  -0.56877510 -1.09452701 -0.14664256
H  -0.43048324 -0.42915966 0.16947602
H  -0.33294776 0.26071704 -0.22188542
H  0.71254434 1.41837467 0.44119115
H  0.78055273 -1.63707802 -0.06390227
H  -1.21392449 -0.34538927 -0.04032640
12
MD Step 779.0 Units = [eV / Ang.]
C  0.59275932 0.79542076 -0.20028451
C  0.46869974 1.15846563 -0.30520038
C  0.18859645 -1.57522321 1.14154481
C  -0.27138354 -0.67736479 -1.74790681
C  -2.05949138 0.14075007 0.32733256
C  2.57533938 1.74050089 0.65264341
H  -0.52942358 -1.00197157 -0.17996009
H  -0.37835277 -0.44145251 0.18454554
H  -0.44755446 0.25419319 -0.20585297
H  0.55936477 1.25264906 0.48287633
H  0.68205190 -1.27890427 -0.09312673
H  -1.38060584 -0.36706325 -0.05661116
12
MD Step 779.5 Units = [eV / Ang.]
C  0.40570671 0.66365613 -0.12272776
C  0.50891597 1.07155813 -0.32212649
C  0.17197595 -1.42435694 1.11837955
C  -0.08571448 -0.45315345 -1.86098421
C  -1.63555960 -0.19993562 0.43018213
C  2.47856957 1.58205575 0.61845549
H  -0.43915488 -0.81728130 -0.23587645
H  -0.33132869 -0.43399532 0.19868813
H  -0.52413956 0.24198683 -0.18674381
H  0.33765446 0.97449666 0.53853175
H  0.51120832 -0.80950930 -0.11889782
H  -1.39813377 -0.39552157 -0.05688049
12
MD Step 780.0 Units = [eV / Ang.]
C  0.18577130 0.47517374 -0.03202284
C  0.53988527 0.93762915 -0.33454554
C  0.12760518 -1.23427105 1.08567562
C  0.13251862 -0.17789121 -1.97662360
C  -1.12370197 -0.60225275 0.52562997
C  2.21833696 1.39388707 0.57029878
H  -0.31164294 -0.56451252 -0.30824822
H  -0.29059149 -0.40533094 0.21242413
H  -0.55815522 0.22445873 -0.16507013
H  0.07303510 0.62943880 0.60448089
H  0.27268758 -0.24539997 -0.13955742
H  -1.26574839 -0.43092905 -0.04244166
12
MD Step 780.5 Units = [eV / Ang.]
C  -0.04823682 0.25669615 0.06390988
C  0.56073572 0.76025529 -0.34294060
C  0.05515193 -1.01180191 1.04375117
C  0.35700836 0.10799793 -2.08721703
C  -0.54440318 -1.03879419 0.61163392
C  1.81679163 1.17859106 0.51172322
H  -0.16369684 -0.27357674 -0.38876023
H  -0.25605962 -0.35573283 0.22612350
H  -0.54797968 0.20226131 -0.14150606
H  -0.20612772 0.26375105 0.67401534
H  -0.01856975 0.38090502 -0.15395273
H  -1.00461402 -0.47055213 -0.01678038
12
MD Step 781.0 Units = [eV / Ang.]
C  -0.27748343 0.03517947 0.15682325
C  0.56987518 0.54552185 -0.34764609
C  -0.04337499 -0.76494176 0.99319444
C  0.56392140 0.37136240 -2.18454427
C  0.06793585 -1.46325169 0.68716365
C  1.31225991 0.93788348 0.44754938
H  -0.01219942 0.02518482 -0.46865956
H  -0.22646645 -0.28727587 0.23991962
H  -0.49489370 0.17627823 -0.11681893
H  -0.47408019 -0.08339461 0.73960360
H  -0.33336685 1.01699510 -0.16195248
H  -0.65212731 -0.50954141 0.01536739
12
MD Step 781.5 Units = [eV / Ang.]
C  -0.48547948 -0.16602931 0.23947237
C  0.56527920 0.30170772 -0.34878536
C  -0.16366435 -0.50230235 0.93477725
C  0.73479473 0.58923353 -2.26147512
C  0.66449893 -1.81222447 0.75264570
C  0.75045544 0.67384072 0.38280299
H  0.12814813 0.30507942 -0.54016912
H  -0.19961077 -0.20369146 0.25366740
H  -0.40310431 0.14754493 -0.09178315
H  -0.71069780 -0.38339658 0.79462016
H  -0.62762214 1.59258643 -0.16489057
H  -0.25299759 -0.54234860 0.04911745
12
MD Step 782.0 Units = [eV / Ang.]
C  -0.65931242 -0.32908777 0.30634562
C  0.54492592 0.03879425 -0.34625696
C  -0.29913707 -0.23260858 0.86933800
C  0.85719741 0.74812655 -2.31278521
C  1.18775587 -2.01587188 0.80998368
C  0.17594041 0.39000700 0.32183761
H  0.24593911 0.54514745 -0.59729098
H  -0.17272771 -0.11002929 0.26695110
H  -0.27976637 0.11715103 -0.06707736
H  -0.90210868 -0.61798061 0.83419941
H  -0.84811477 2.03048034 -0.16556245
H  0.14940830 -0.56412849 0.08031754
12
MD Step 782.5 Units = [eV / Ang.]
C  -0.78987508 -0.44184001 0.35382411
C  0.50726630 -0.23215794 -0.33976780
C  -0.44106810 0.03577731 0.79764534
C  0.92394777 0.84143306 -2.33522153
C  1.58405542 -2.01643755 0.86186174
C  -0.37364981 0.09187993 0.26784725
H  0.33318383 0.73047082 -0.63601643
H  -0.14290278 -0.01218788 0.27913831
H  -0.13488651 0.08612692 -0.04317030
H  -1.03973211 -0.77690984 0.85533872
H  -0.94526150 2.26547726 -0.16748259
H  0.51892256 -0.57163209 0.10600318
12
MD Step 783.0 Units = [eV / Ang.]
C  -0.87146766 -0.49700894 0.37998060
C  0.45163913 -0.49968186 -0.32889997
C  -0.57894602 0.29523693 0.72026063
C  0.93178153 0.86653559 -2.32717939
C  1.81914385 -1.78782101 0.91046421
C  -0.86988198 -0.21327296 0.22276765
H  0.38485086 0.85140792 -0.65415236
H  -0.10746075 0.08361719 0.28946592
H  0.01906512 0.05532625 -0.02021061
H  -1.11873045 -0.85523125 0.85660603
H  -0.88889503 2.26434853 -0.17354887
H  0.82890139 -0.56345638 0.12444617
12
MD Step 783.5 Units = [eV / Ang.]
C  -0.90118835 -0.49111958 0.38425451
C  0.37855398 -0.75256589 -0.31319456
C  -0.70119184 0.53918232 0.63742993
C  0.88011703 0.82264011 -2.28832391
C  1.88896519 -1.34632128 0.95627507
C  -1.29299664 -0.51700990 0.18743319
H  0.39824148 0.90249421 -0.65100472
H  -0.06427620 0.17137400 0.29714141
H  0.16797190 0.02532493 0.00205272
H  -1.13663221 -0.85107684 0.83778197
H  -0.67932086 2.03688942 -0.18479254
H  1.06175652 -0.53981149 0.13494693
12
MD Step 784.0 Units = [eV / Ang.]
C  -0.87842800 -0.42370359 0.36717913
C  0.28980192 -0.98044857 -0.29223117
C  -0.79629947 0.76221330 0.54903880
C  0.77026519 0.70979060 -2.21936660
C  1.81948625 -0.74642505 0.99771461
C  -1.62991639 -0.81035311 0.16183834
H  0.37251256 0.88158560 -0.62710483
H  -0.01197767 0.24572493 0.30144100
H  0.29738357 -0.00363289 0.02428585
H  -1.09256656 -0.76450665 0.79964343
H  -0.34730831 1.63183155 -0.19997811
H  1.20704692 -0.50207610 0.13753955
12
MD Step 784.5 Units = [eV / Ang.]
C  -0.80464559 -0.29709676 0.33025247
C  0.18839828 -1.17433012 -0.26569370
C  -0.85430491 0.96014777 0.45466309
C  0.60529701 0.52917158 -2.12206414
C  1.65569484 -0.06409858 1.03180505
C  -1.87205080 -1.08422961 0.14539208
H  0.30851778 0.78957303 -0.58407184
H  0.04994817 0.30233059 0.30179464
H  0.39421445 -0.03161488 0.04749087
H  -0.98730915 -0.59756240 0.74396269
H  0.05689221 1.12007188 -0.21625993
H  1.25934772 -0.45236250 0.13272871
12
MD Step 785.0 Units = [eV / Ang.]
C  -0.68350424 -0.11688393 0.27595608
C  0.07839227 -1.32699650 -0.23341907
C  -0.86835099 1.12993999 0.35372832
C  0.39068339 0.28462514 -1.99940914
C  1.44618282 0.62341813 1.05536962
C  -2.01376383 -1.32973278 0.13711055
H  0.20901984 0.63078236 -0.52461967
H  0.12113575 0.33813995 0.29785165
H  0.44855071 -0.05889479 0.07282436
H  -0.82416992 -0.35551801 0.67368975
H  0.47912465 0.57432483 -0.23039648
H  1.21669955 -0.39320438 0.12131401
12
MD Step 785.5 Units = [eV / Ang.]
C  -0.52130731 0.10711417 0.20785687
C  -0.03543301 -1.43336200 -0.19542626
C  -0.83595415 1.26952108 0.24575451
C  0.13565576 -0.01485150 -1.85587598
C  1.23086333 1.25254497 1.06604825
C  -2.05195388 -1.53833117 0.13572949
H  0.07920918 0.41395636 -0.45263949
H  0.20037982 0.35157946 0.28952431
H  0.45515350 -0.08578048 0.10133868
H  -0.61057926 -0.04914017 0.59317928
H  0.87392473 0.05413238 -0.23979950
H  1.08004128 -0.32738310 0.10430985
12
MD Step 786.0 Units = [eV / Ang.]
C  -0.32758024 0.35966148 0.13066198
C  -0.14789519 -1.49072129 -0.15193338
C  -0.75964141 1.37760469 0.13062845
C  -0.14506278 -0.35220707 -1.69748175
C  1.03562027 1.77945315 1.06273991
C  -1.98683292 -1.70217877 0.13974895
H  -0.07265331 0.15349149 -0.37322605
H  0.28571076 0.34267640 0.27701022
H  0.41427077 -0.11242342 0.13370804
H  -0.35993483 0.30258567 0.50821841
H  1.21026517 -0.40010762 -0.24301633
H  0.85373371 -0.25783471 0.08294157
12
MD Step 786.5 Units = [eV / Ang.]
C  -0.11547568 0.61931912 0.05005315
C  -0.25375159 -1.49890596 -0.10336926
C  -0.64671816 1.45350792 0.00883076
C  -0.42999773 -0.70009786 -1.53136495
C  0.87320374 2.17886998 1.04553190
C  -1.82374579 -1.81457282 0.14743878
H  -0.23479705 -0.12968390 -0.29247265
H  0.37449717 0.31311756 0.26079470
H  0.33152428 -0.13867151 0.17001605
H  -0.09286936 0.67034052 0.42555137
H  1.47106175 -0.76567208 -0.23969075
H  0.54706845 -0.18755098 0.05868089
12
MD Step 787.0 Units = [eV / Ang.]
C  0.09841524 0.85884018 -0.02784605
C  -0.34799807 -1.46031437 -0.05037532
C  -0.50822742 1.49701654 -0.11844845
C  -0.69131102 -1.02090587 -1.36464318
C  0.74739310 2.43925593 1.01538810
C  -1.57556281 -1.87055555 0.15684310
H  -0.39213259 -0.40840007 -0.21688539
H  0.46356991 0.26623338 0.24162983
H  0.21691987 -0.16401237 0.20966293
H  0.16323045 1.01458596 0.35167367
H  1.64932451 -1.03236811 -0.23026902
H  0.17637882 -0.11937563 0.03326980
12
MD Step 787.5 Units = [eV / Ang.]
C  0.29525401 1.04745234 -0.09740760
C  -0.42609844 -1.37977103 0.00620147
C  -0.35737353 1.50828877 -0.24933299
C  -0.89791885 -1.27057469 -1.20264581
C  0.65767738 2.55745139 0.97383517
C  -1.26485723 -1.86758307 0.16583870
H  -0.52746445 -0.65146264 -0.15238454
H  0.54937174 0.20687876 0.22048888
H  0.08326222 -0.18762213 0.25141507
H  0.37747380 1.28950332 0.29100970
H  1.74368348 -1.19692826 -0.21569318
H  -0.23301012 -0.05563274 0.00867512
12
MD Step 788.0 Units = [eV / Ang.]
C  0.45628662 1.15525962 -0.15466354
C  -0.48415758 -1.26418553 0.06533510
C  -0.20780249 1.48780235 -0.38140814
C  -1.02139632 -1.40669506 -1.04713024
C  0.60285352 2.53440573 0.92275831
C  -0.92467052 -1.80614092 0.17229696
H  -0.62385246 -0.82804456 -0.10308163
H  0.62814159 0.14116991 0.19849369
H  -0.05561245 -0.20849541 0.29357192
H  0.52150983 1.45119992 0.24410893
H  1.75486091 -1.25866229 -0.19720420
H  -0.64616064 0.00238622 -0.01307716
12
MD Step 788.5 Units = [eV / Ang.]
C  0.56596147 1.15900639 -0.19829277
C  -0.51902971 -1.12199378 0.12587010
C  -0.07212391 1.43633870 -0.51194656
C  -1.04305707 -1.39906271 -0.89547106
C  0.58301901 2.37253202 0.86432045
C  -0.59657605 -1.69009930 0.17436528
H  -0.66773490 -0.91352165 -0.07024750
H  0.69612947 0.07605622 0.17681729
H  -0.18641592 -0.22561030 0.33419684
H  0.57672875 1.46836610 0.20686755
H  1.68364667 -1.21692201 -0.17627779
H  -1.02054781 0.05491029 -0.03020184
12
MD Step 789.0 Units = [eV / Ang.]
C  0.61495099 1.04750984 -0.22997325
C  -0.52842019 -0.96241879 0.18659896
C  0.03912093 1.35503206 -0.63815868
C  -0.95929999 -1.23874240 -0.74157265
C  0.59993077 2.07474003 0.80096652
C  -0.32524485 -1.52655379 0.17081920
H  -0.65191012 -0.89502815 -0.05194551
H  0.74984122 0.01871746 0.15656799
H  -0.29757006 -0.23808204 0.37135489
H  0.53967578 1.33138762 0.17152848
H  1.53044310 -1.07042776 -0.15465597
H  -1.31151757 0.10386591 -0.04152999
12
MD Step 789.5 Units = [eV / Ang.]
C  0.60199789 0.82471525 -0.25384491
C  -0.51098731 -0.79459445 0.24635983
C  0.11799668 1.24546444 -0.75742540
C  -0.78258798 -0.94143548 -0.57833697
C  0.65582569 1.64524579 0.73544925
C  -0.15010707 -1.32497185 0.16135657
H  -0.57728742 -0.77465666 -0.04358644
H  0.78629642 -0.02417433 0.13866915
H  -0.37990793 -0.24527312 0.40331594
H  0.42302498 1.05568506 0.12927395
H  1.29633518 -0.81847608 -0.13440532
H  -1.48059914 0.15247143 -0.04682566
12
MD Step 790.0 Units = [eV / Ang.]
C  0.53385216 0.50907992 -0.27524866
C  -0.46646255 -0.62668600 0.30413980
C  0.15932857 1.10981946 -0.86748662
C  -0.53753442 -0.54340843 -0.40053338
C  0.75077722 1.09231731 0.67078913
C  -0.09643795 -1.09570923 0.14668206
H  -0.45268501 -0.56895910 -0.03924577
H  0.80327270 -0.04723475 0.12375435
H  -0.42699551 -0.24685296 0.42870540
H  0.25157143 0.67754786 0.07322646
H  0.98563315 -0.46412884 -0.11789863
H  -1.50431979 0.20421474 -0.04688415
12
MD Step 790.5 Units = [eV / Ang.]
C  0.42337111 0.12955337 -0.29924362
C  -0.39577643 -0.46512782 0.35915849
C  0.16065430 0.95102076 -0.96657782
C  -0.25408002 -0.09193953 -0.20669771
C  0.87884796 0.43297026 0.61003639
C  -0.16918995 -0.84832089 0.12829646
H  -0.29276932 -0.30497299 -0.03322557
H  0.79950907 -0.04706339 0.11209802
H  -0.43522191 -0.24281222 0.44660445
H  0.05522415 0.24447395 0.00045187
H  0.60961953 -0.01932739 -0.10757590
H  -1.38018849 0.26154589 -0.04332507
12
MD Step 791.0 Units = [eV / Ang.]
C  0.28655481 -0.28022659 -0.32945887
C  -0.30115006 -0.31410100 0.41091599
C  0.12213995 0.77280808 -1.05352007
C  0.03917506 0.36540231 0.00060230
C  1.02393456 -0.30116728 0.55568777
C  -0.35216394 -0.59031968 0.10804869
H  -0.11495900 -0.01437783 -0.02128848
H  0.77484042 -0.02272557 0.10359623
H  -0.40380370 -0.23344658 0.45661012
H  -0.13788199 -0.19563234 -0.08771955
H  0.19056662 0.48892397 -0.10533306
H  -1.12725273 0.32486251 -0.03814109
12
MD Step 791.5 Units = [eV / Ang.]
C  0.13958133 -0.68742970 -0.36758652
C  -0.18610566 -0.17534899 0.45918893
C  0.04655751 0.57972388 -1.12776486
C  0.31920607 0.78870182 0.21581647
C  1.15722143 -1.05911778 0.50870265
C  -0.61275972 -0.32685159 0.08762758
H  0.06360122 0.27211688 -0.00123694
H  0.73024085 0.02408726 0.09780324
H  -0.33479545 -0.21932375 0.45886507
H  -0.30581291 -0.60245399 -0.18674194
H  -0.23592721 1.01364497 -0.11149049
H  -0.78100746 0.39225097 -0.03318319
12
MD Step 792.0 Units = [eV / Ang.]
C  -0.00334398 -1.06377289 -0.41348444
C  -0.05537459 -0.04833851 0.50398023
C  -0.06067562 0.37698553 -1.18939765
C  0.56985851 1.14920411 0.43194415
C  1.23894402 -1.77081472 0.46734605
C  -0.91012487 -0.06133095 0.06818995
H  0.22817977 0.52864532 0.02714563
H  0.66776922 0.08925243 0.09401505
H  -0.23312337 -0.20123641 0.45405644
H  -0.43421196 -0.94680006 -0.29042376
H  -0.62298446 1.48816332 -0.12359355
H  -0.38491266 0.46004282 -0.02977811
12
MD Step 792.5 Units = [eV / Ang.]
C  -0.13103508 -1.38710426 -0.46563640
C  0.08530992 0.06926562 0.54543422
C  -0.19146792 0.17027974 -1.23909084
C  0.78101536 1.42895443 0.64182384
C  1.22637996 -2.35619448 0.42651196
C  -1.20343686 0.20339542 0.05022586
H  0.36743780 0.73586229 0.06254682
H  0.59041856 0.16673077 0.09138289
H  -0.10658642 -0.18014306 0.44337309
H  -0.51540904 -1.21029706 -0.39227164
H  -0.92076195 1.83541632 -0.13572198
H  0.01813567 0.52383427 -0.02857783
12
MD Step 793.0 Units = [eV / Ang.]
C  -0.23543846 -1.64129676 -0.52168921
C  0.22951491 0.18093314 0.58374103
C  -0.33518093 -0.03449805 -1.27799323
C  0.94686728 1.61825357 0.83887696
C  1.08685814 -2.74344467 0.37837219
C  -1.45780968 0.46391934 0.03364026
H  0.47344561 0.88084750 0.10268891
H  0.50189210 0.24928957 0.08903295
H  0.03430636 -0.15709153 0.42840113
H  -0.54650954 -1.38293494 -0.48627803
H  -1.08975614 1.98653913 -0.13917525
H  0.39181034 0.57948370 -0.02961771
12
MD Step 793.5 Units = [eV / Ang.]
C  -0.31117940 -1.81529865 -0.57888853
C  0.37046039 0.29053053 0.61905055
C  -0.47905952 -0.23151479 -1.30754082
C  1.06422692 1.71258793 1.01735299
C  0.81042820 -2.89041742 0.31470525
C  -1.64698067 0.71564064 0.01795277
H  0.54115876 0.95604909 0.14481510
H  0.40633256 0.32929654 0.08617159
H  0.17681166 -0.13312409 0.41094180
H  -0.52747277 -1.46012547 -0.56719152
H  -1.11368675 1.90262203 -0.12488070
H  0.70896063 0.62375367 -0.03248848
12
MD Step 794.0 Units = [eV / Ang.]
C  -0.35495718 -1.90209470 -0.63435338
C  0.50139096 0.40162831 0.65141027
C  -0.60909300 -0.41526717 -1.32918994
C  1.13133706 1.71015349 1.17229681
C  0.41530186 -2.79865827 0.23008520
C  -1.75332631 0.95277181 0.00250829
H  0.56777033 0.95804273 0.18602829
H  0.30803650 0.39946378 0.08216282
H  0.30688178 -0.10916920 0.39274971
H  -0.45973239 -1.44035793 -0.63048927
H  -1.00503275 1.58896545 -0.08668494
H  0.95142314 0.65452170 -0.03652388
12
MD Step 794.5 Units = [eV / Ang.]
C  -0.36507477 -1.89808341 -0.68522753
C  0.61592132 0.51693113 0.68073172
C  -0.71133174 -0.58079500 -1.34409909
C  1.14729763 1.61054292 1.29946607
C  -0.05726296 -2.51194526 0.12422718
C  -1.76641345 1.16886928 -0.01337449
H  0.55224570 0.88664382 0.22350715
H  0.21118033 0.45344984 0.07657271
H  0.41056866 -0.08593938 0.37522304
H  -0.34554616 -1.32399365 -0.67230041
H  -0.79988374 1.09364291 -0.02378042
H  1.10829919 0.67067680 -0.04094591
12
MD Step 795.0 Units = [eV / Ang.]
C  -0.34129987 -1.80308856 -0.72878418
C  0.70832807 0.63787679 0.70678313
C  -0.77352521 -0.72383195 -1.35282372
C  1.11209945 1.41482327 1.39539887
C  -0.55562018 -2.10012213 0.00215132
C  -1.68122603 1.35760146 -0.03033325
H  0.49520820 0.74464650 0.25466536
H  0.11957876 0.48628417 0.06918340
H  0.47577292 -0.06385800 0.35910957
H  -0.18806972 -1.11338643 -0.68949111
H  -0.54515944 0.49117486 0.05909431
H  1.17391305 0.67188002 -0.04495370
12
MD Step 795.5 Units = [eV / Ang.]
C  -0.28511491 -1.62100791 -0.76256435
C  0.77377298 0.76438267 0.72920052
C  -0.78680622 -0.84084088 -1.35511053
C  1.02726470 1.12701079 1.45777488
C  -1.03107152 -1.63733051 -0.12770766
C  -1.49684828 1.51347743 -0.04896126
H  0.39922850 0.53824034 0.27732992
H  0.03647936 0.49462540 0.05998366
H  0.49402931 -0.04304174 0.34431546
H  0.00793556 -0.81433061 -0.68006380
H  -0.28514373 -0.13952712 0.15357143
H  1.14627426 0.65834214 -0.04776828
12
MD Step 796.0 Units = [eV / Ang.]
C  -0.20035935 -1.36089584 -0.78461198
C  0.80849757 0.89475919 0.74750910
C  -0.74702376 -0.92898773 -1.34986843
C  0.89699568 0.75674661 1.48614377
C  -1.44630196 -1.18484512 -0.25613926
C  -1.21600982 1.63226288 -0.06982989
H  0.26945478 0.27795722 0.28999532
H  -0.03560617 0.47688497 0.04914412
H  0.46190292 -0.02334744 0.32989215
H  0.23492377 -0.43862953 -0.64393768
H  -0.05296377 -0.73261012 0.25036289
H  1.02649011 0.63070490 -0.04866011
12
MD Step 796.5 Units = [eV / Ang.]
C  -0.09404958 -1.03810028 -0.79381347
C  0.80996356 1.02573005 0.76115082
C  -0.65537050 -0.98603775 -1.33535006
C  0.72960791 0.32255875 1.48294989
C  -1.77758677 -0.78358134 -0.37518803
C  -0.84558483 1.71102137 -0.09349566
H  0.11438456 -0.02022088 0.29216230
H  -0.09503961 0.43325493 0.03698336
H  0.38162672 -0.00447388 0.31422895
H  0.48122328 -0.00719505 -0.58402031
H  0.13156729 -1.24301030 0.34137869
H  0.81925797 0.59005437 -0.04698648
12
MD Step 797.0 Units = [eV / Ang.]
C  0.02296851 -0.67488654 -0.79028390
C  0.77698483 1.15258152 0.76951596
C  -0.51812391 -1.01028093 -1.30950902
C  0.53868929 -0.14548813 1.45453349
C  -2.01268700 -0.45514569 -0.47902036
C  -0.39796711 1.74780973 -0.12045115
H  -0.05358039 -0.33418838 0.28470175
H  -0.14116433 0.36566813 0.02392938
H  0.26078579 0.01391193 0.29541098
H  0.73007213 0.44751836 -0.50722762
H  0.25967775 -1.64553539 0.42066289
H  0.53434446 0.53803540 -0.04226241
12
MD Step 797.5 Units = [eV / Ang.]
C  0.13603199 -0.29980561 -0.77565437
C  0.70984507 1.26941489 0.77198283
C  -0.34557711 -1.00052614 -1.27044163
C  0.34321047 -0.60552353 1.41149731
C  -2.14721097 -0.20745681 -0.56382178
C  0.10708597 1.74121405 -0.15100335
H  -0.21828222 -0.63623945 0.27009862
H  -0.17437779 0.27769678 0.01047806
H  0.11113398 0.03206159 0.27164477
H  0.95978094 0.88151042 -0.42482380
H  0.32971930 -1.92933182 0.48432184
H  0.18864037 0.47698564 -0.03427848
12
MD Step 798.0 Units = [eV / Ang.]
C  0.22786057 0.05477404 -0.75305907
C  0.61036888 1.36951693 0.76796571
C  -0.15046468 -0.95622220 -1.21679930
C  0.16580859 -1.00776110 1.36770797
C  -2.18135188 -0.04119543 -0.62722376
C  0.64085961 1.68999063 -0.18509344
H  -0.36111448 -0.89543790 0.25237763
H  -0.19615059 0.17437681 -0.00284990
H  -0.05312251 0.05007367 0.24163868
H  1.14573995 1.24343862 -0.35134751
H  0.34357115 -2.09151766 0.52993929
H  -0.19200461 0.40996359 -0.02325629
12
MD Step 798.5 Units = [eV / Ang.]
C  0.28108988 0.35706029 -0.72665709
C  0.48194656 1.44583847 0.75697044
C  0.05372342 -0.87768345 -1.14807923
C  0.02903043 -1.30308129 1.33756151
C  -2.11775842 0.04503084 -0.66768056
C  1.16548094 1.59305454 -0.22210468
H  -0.46363903 -1.08195646 0.23655055
H  -0.20896725 0.06193486 -0.01555226
H  -0.21715992 0.06787428 0.20485121
H  1.26443778 1.48353676 -0.30177122
H  0.30418547 -2.13214192 0.55591345
H  -0.57236985 0.34053308 -0.01000212
12
MD Step 799.0 Units = [eV / Ang.]
C  0.28178434 0.58136102 -0.70069611
C  0.32941759 1.49157816 0.73865367
C  0.25418036 -0.76636109 -1.06475031
C  -0.04966939 -1.45440732 1.33205925
C  -1.96050786 0.05159895 -0.68403103
C  1.63634725 1.44990495 -0.26074433
H  -0.51108688 -1.17260537 0.22759631
H  -0.21615661 -0.05261125 -0.02718691
H  -0.36711086 0.08524177 0.16157584
H  1.29863373 1.56529648 -0.28746971
H  0.21434967 -2.05123401 0.56097553
H  -0.91018133 0.27223771 0.00401779
12
MD Step 799.5 Units = [eV / Ang.]
C  0.22285782 0.71308898 -0.67836982
C  0.15881623 1.50082936 0.71287851
C  0.43977267 -0.62506814 -0.96822446
C  -0.06241833 -1.44662182 1.35523733
C  -1.71490861 -0.02300367 -0.67535247
C  2.00788030 1.26140231 -0.29909407
H  -0.49570542 -1.15588922 0.22923708
H  -0.22159916 -0.16197517 -0.03740702
H  -0.49116951 0.10185645 0.11288130
H  1.24185922 1.47558637 -0.31257495
H  0.07648435 -1.84805877 0.54401945
H  -1.16186957 0.20785332 0.01676911
12
MD Step 800.0 Units = [eV / Ang.]
C  0.10615364 0.75144019 -0.66089747
C  -0.02306986 1.46925454 0.67975497
C  0.60156008 -0.45807753 -0.86070880
C  -0.01298706 -1.29048467 1.40272197
C  -1.38790004 -0.18078871 -0.64116099
C  2.24188241 1.03054000 -0.33489303
H  -0.41870992 -1.03472380 0.24295147
H  -0.22930937 -0.25923041 -0.04598635
H  -0.58020752 0.11735659 0.06045457
H  1.10029134 1.22859454 -0.37251507
H  -0.10668963 -1.52258044 0.50431710
H  -1.29101408 0.14869970 0.02596163
12
MD Step 800.5 Units = [eV / Ang.]
C  -0.05768592 0.70868762 -0.64721055
C  -0.20927397 1.39468869 0.63965510
C  0.73295325 -0.27103067 -0.74499117
C  0.08448171 -1.01862680 1.46320767
C  -0.98898614 -0.42055333 -0.58200944
C  2.31607249 0.76281254 -0.36601502
H  -0.29003261 -0.82570655 0.26762218
H  -0.24293613 -0.33847126 -0.05282861
H  -0.62800497 0.13138514 0.00639673
H  0.89111086 0.86163423 -0.45553131
H  -0.33070491 -1.07918632 0.44216492
H  -1.27699366 0.09436671 0.02953950
12
MD Step 801.0 Units = [eV / Ang.]
C  -0.25150643 0.60644615 -0.63435204
C  -0.39326486 1.27759065 0.59319994
C  0.82966895 -0.07068235 -0.62419203
C  0.20939182 -0.67567749 1.52206583
C  -0.53174160 -0.73207005 -0.50046712
C  2.22951721 0.46593803 -0.39099549
H  -0.12597556 -0.55524112 0.29993457
H  -0.26525841 -0.39540552 -0.05796056
H  -0.63125562 0.14362197 -0.04699465
H  0.63812420 0.42489120 -0.54636765
H  -0.58723286 -0.53247253 0.35993369
H  -1.12046684 0.04306107 0.02619551
12
MD Step 801.5 Units = [eV / Ang.]
C  -0.45515202 0.47044021 -0.61836703
C  -0.56948850 1.12126956 0.54121986
C  0.88966031 0.13545784 -0.50150370
C  0.33946206 -0.30710210 1.56530946
C  -0.03568179 -1.08926645 -0.40227606
C  2.00256752 0.14904049 -0.40940330
H  0.05426892 -0.25406373 0.33530376
H  -0.29776087 -0.42778661 -0.06150942
H  -0.58950620 0.15380088 -0.09744466
H  0.36656098 -0.03024033 -0.63032726
H  -0.86166901 0.08600320 0.26328749
H  -0.84326140 -0.00755296 0.01571085
12
MD Step 802.0 Units = [eV / Ang.]
C  -0.64896050 0.32563292 -0.59528554
C  -0.73372011 0.93181731 0.48469598
C  0.91310501 0.33951963 -0.37993180
C  0.45460593 0.04905053 1.58236904
C  0.47222645 -1.44514133 -0.29713552
C  1.67135102 -0.17833657 -0.42191667
H  0.23199279 0.04795037 0.36892829
H  -0.34038567 -0.43559076 -0.06366956
H  -0.50511352 0.16171611 -0.14292030
H  0.09891923 -0.45995662 -0.69611931
H  -1.13131069 0.72275584 0.16199833
H  -0.48270994 -0.05941744 -0.00101295
12
MD Step 802.5 Units = [eV / Ang.]
C  -0.81631103 0.19299780 -0.56186454
C  -0.88313897 0.71775395 0.42469743
C  0.90247024 0.53363924 -0.26203249
C  0.53908004 0.36568920 1.56711520
C  0.95776574 -1.73267365 -0.19826178
C  1.27925249 -0.50698925 -0.43009715
H  0.39132287 0.32534951 0.39661638
H  -0.39151204 -0.42091332 -0.06466651
H  -0.38324683 0.16722190 -0.18185811
H  -0.14720207 -0.83210338 -0.73692237
H  -1.36557002 1.30349011 0.06949114
H  -0.08291042 -0.11346211 -0.02221722
12
MD Step 803.0 Units = [eV / Ang.]
C  -0.94486881 0.08824471 -0.51594631
C  -1.01616674 0.48942380 0.36232025
C  0.86257906 0.71028658 -0.14966448
C  0.58203450 0.62613844 1.51750228
C  1.38282979 -1.87557364 -0.12002294
C  0.86870564 -0.82841519 -0.43599335
H  0.52027098 0.55866595 0.41523001
H  -0.44816267 -0.38761442 -0.06472305
H  -0.23186679 0.17022949 -0.21339261
H  -0.35938971 -1.12606903 -0.75002808
H  -1.52967044 1.74416093 0.00042205
H  0.31370520 -0.16947763 -0.04570377
12
MD Step 803.5 Units = [eV / Ang.]
C  -1.02673678 0.02207881 -0.45648608
C  -1.13210880 0.25823026 0.29864088
C  0.80056872 0.86252811 -0.04376718
C  0.57707718 0.82136649 1.43454859
C  1.71226710 -1.80857970 -0.07388461
C  0.47570549 -1.13485169 -0.44173814
H  0.61071785 0.73435182 0.42277858
H  -0.50639180 -0.34078697 -0.06403510
H  -0.06156809 0.17070309 -0.23756393
H  -0.52951219 -1.33029875 -0.73580349
H  -1.59205650 1.97163709 -0.03345223
H  0.67203782 -0.22637856 -0.06923728
12
MD Step 804.0 Units = [eV / Ang.]
C  -1.05794370 0.00121536 -0.38339274
C  -1.23072724 0.03580519 0.23468149
C  0.72558058 0.98426119 0.05578796
C  0.52143637 0.94677055 1.32127489
C  1.92233830 -1.50020893 -0.06429178
C  0.12770352 -1.41916551 -0.44926703
H  0.65782117 0.84384321 0.41830227
H  -0.56176869 -0.28615268 -0.06275745
H  0.11486937 0.16865492 -0.25545669
H  -0.65238963 -1.43919671 -0.69660832
H  -1.53344444 1.94678611 -0.02745652
H  0.96652440 -0.28261270 -0.09081608
12
MD Step 804.5 Units = [eV / Ang.]
C  -1.03771066 0.02945218 -0.29732760
C  -1.31185632 -0.16679678 0.17138862
C  0.64807402 1.07042366 0.15021637
C  0.41505105 0.99971433 1.18192541
C  2.00701788 -0.96650935 -0.08677822
C  -0.15587351 -1.67475888 -0.46019091
H  0.65930650 0.88245110 0.40168677
H  -0.60986749 -0.22948257 -0.06100014
H  0.28334748 0.16413944 -0.26920401
H  -0.72460694 -1.45059680 -0.63601172
H  -1.35350473 1.67847372 0.01408257
H  1.18062273 -0.33651004 -0.10878713
12
MD Step 805.0 Units = [eV / Ang.]
C  -0.96783462 0.10829746 -0.19955581
C  -1.37514149 -0.33981415 0.10961626
C  0.57874984 1.11719163 0.24165270
C  0.25977542 0.97834774 1.02155566
C  1.97872437 -0.26774108 -0.12955080
C  -0.36181364 -1.89557783 -0.47579961
H  0.61497794 0.84860387 0.37351377
H  -0.64669382 -0.17610631 -0.05883227
H  0.42974904 0.15724752 -0.28179888
H  -0.74380469 -1.36437387 -0.55839413
H  -1.07158651 1.22040315 0.07943474
H  1.30489817 -0.38647814 -0.12184164
12
MD Step 805.5 Units = [eV / Ang.]
C  -0.85238214 0.23692572 -0.09189238
C  -1.41992042 -0.47536265 0.05011430
C  0.52716533 1.12216583 0.33276643
C  0.05894678 0.88183999 0.84591961
C  1.86295254 0.51027049 -0.17766344
C  -0.48124341 -2.07625236 -0.49712174
H  0.52660641 0.74370700 0.33499057
H  -0.66900888 -0.13054313 -0.05629007
H  0.54156684 0.14810209 -0.29668433
H  -0.70863534 -1.18240061 -0.46885776
H  -0.72097403 0.65260450 0.15367585
H  1.33492633 -0.43105687 -0.12895703
12
MD Step 806.0 Units = [eV / Ang.]
C  -0.69775747 0.41142362 0.02327290
C  -1.44524191 -0.56787733 -0.00648248
C  0.50030772 1.08454494 0.42619610
C  -0.18243179 0.71193110 0.66150425
C  1.68972912 1.27992944 -0.21745771
C  -0.50847863 -2.21235610 -0.52498083
H  0.39822902 0.57270200 0.28795273
H  -0.67454489 -0.09624869 -0.05338711
H  0.60956142 0.13685843 -0.31716712
H  -0.61947677 -0.90983253 -0.37327574
H  -0.33970545 0.05782562 0.22316788
H  1.26980963 -0.46890051 -0.12934288
12
MD Step 806.5 Units = [eV / Ang.]
C  -0.51306368 0.62351969 0.14292635
C  -1.44996515 -0.61440041 -0.05966349
C  0.50144558 1.00524646 0.52390667
C  -0.45671163 0.47556558 0.47549272
C  1.48600672 1.97003917 -0.23933377
C  -0.44096853 -2.30073915 -0.55998615
H  0.23673734 0.34517478 0.23488891
H  -0.66212417 -0.07545764 -0.05012355
H  0.62908361 0.12370870 -0.34576909
H  -0.47989378 -0.55751770 -0.27824426
H  0.03775594 -0.49637562 0.27834353
H  1.11169774 -0.49876384 -0.12243787
12
MD Step 807.0 Units = [eV / Ang.]
C  -0.31053938 0.85917187 0.26343883
C  -1.43289009 -0.61472375 -0.10904594
C  0.52957564 0.88696595 0.62662658
C  -0.75196316 0.18801082 0.29538790
C  1.27164541 2.53345578 -0.23835977
C  -0.28035280 -2.33979677 -0.60242836
H  0.05250536 0.07664072 0.17890719
H  -0.63170595 -0.06909345 -0.04649435
H  0.60071061 0.10888883 -0.38368003
H  -0.29860858 -0.14495531 -0.19066215
H  0.38521149 -0.96500601 0.31429685
H  0.86641145 -0.51955869 -0.10798674
12
MD Step 807.5 Units = [eV / Ang.]
C  -0.10567486 1.09769757 0.38073025
C  -1.39286092 -0.57137624 -0.15437091
C  0.57959480 0.73412787 0.73350771
C  -1.05025910 -0.12466906 0.12807020
C  1.05916079 2.94575078 -0.21341610
C  -0.03442020 -2.32956527 -0.65207382
H  -0.14035536 -0.21066774 0.12354917
H  -0.58437524 -0.07672859 -0.04249584
H  0.53003131 0.09268230 -0.43045911
H  -0.09135335 0.29733768 -0.11671002
H  0.68549154 -1.32407329 0.32987731
H  0.54502058 -0.53051600 -0.08620884
12
MD Step 808.0 Units = [eV / Ang.]
C  0.08345780 1.31224259 0.49065092
C  -1.32883869 -0.48946160 -0.19548924
C  0.64315803 0.55270925 0.84209842
C  -1.32697880 -0.42544968 -0.02173712
C  0.85581749 3.19924158 -0.16585280
C  0.28056045 -2.27153327 -0.70787932
H  -0.32457560 -0.48834653 0.07239132
H  -0.52228204 -0.09658818 -0.03813094
H  0.42664281 0.07541501 -0.48406336
H  0.11848155 0.72775030 -0.06022685
H  0.92864084 -1.56453261 0.32628389
H  0.16591616 -0.53144687 -0.05804492
12
MD Step 808.5 Units = [eV / Ang.]
C  0.23799151 1.47232149 0.58956059
C  -1.23992242 -0.37631905 -0.23233976
C  0.70995095 0.34989715 0.94861643
C  -1.55244456 -0.67014365 -0.15317834
C  0.66642983 3.29626794 -0.09833052
C  0.63798787 -2.16820319 -0.76770085
H  -0.48149290 -0.72443663 0.02845756
H  -0.44851805 -0.12561973 -0.03341306
H  0.30265172 0.05743889 -0.54117416
H  0.30165930 1.09749353 -0.02092825
H  1.10916610 -1.68566349 0.30585132
H  -0.24345935 -0.52303328 -0.02542097
12
MD Step 809.0 Units = [eV / Ang.]
C  0.34115360 1.54849725 0.67495397
C  -1.12538750 -0.24103281 -0.26491984
C  0.76905534 0.13364555 1.04843460
C  -1.69657135 -0.81565776 -0.27027716
C  0.49573244 3.24380217 -0.01408295
C  1.00077671 -2.02251359 -0.82811212
H  -0.59393719 -0.88821456 -0.00640552
H  -0.36691984 -0.15965344 -0.02836988
H  0.17104806 0.03910559 -0.59771438
H  0.42801785 1.35901238 0.00662062
H  1.22349322 -1.68998219 0.27128769
H  -0.64646135 -0.50700859 0.00858499
12
MD Step 809.5 Units = [eV / Ang.]
C  0.38159065 1.51831129 0.74589391
C  -0.98475459 -0.09378022 -0.29325461
C  0.81013030 -0.08787654 1.13665517
C  -1.73579449 -0.83082663 -0.38128832
C  0.34986168 3.05007005 0.08341880
C  1.32413470 -1.83739748 -0.88449107
H  -0.64959155 -0.95623009 -0.03194915
H  -0.28178488 -0.19368334 -0.02304625
H  0.04428202 0.02073984 -0.64941515
H  0.47364123 1.47704894 0.03229543
H  1.26821493 -1.58032224 0.22535274
H  -0.99993001 -0.48605359 0.03982849
12
MD Step 810.0 Units = [eV / Ang.]
C  0.35606283 1.37158564 0.80304176
C  -0.81795809 0.05493182 -0.31737241
C  0.82426261 -0.30682755 1.20865896
C  -1.65972476 -0.70573012 -0.49611731
C  0.23677349 2.72321714 0.19051993
C  1.56180402 -1.61569492 -0.93150254
H  -0.64372397 -0.91769845 -0.04952275
H  -0.19750518 -0.22228702 -0.01750549
H  -0.06676968 0.00261841 -0.69231676
H  0.42768568 1.43821195 0.06769307
H  1.23938093 -1.35903456 0.17085731
H  -1.26028785 -0.46329234 0.06356623
12
MD Step 810.5 Units = [eV / Ang.]
C  0.27042631 1.11309608 0.84823785
C  -0.62561424 0.19509434 -0.33728624
C  0.80446987 -0.51615392 1.26055093
C  -1.47445758 -0.45515989 -0.62271484
C  0.16548776 2.27190866 0.30327043
C  1.67484463 -1.36047274 -0.96397587
H  -0.58022372 -0.77718634 -0.06160913
H  -0.11814476 -0.24017324 -0.01183043
H  -0.15341527 -0.01503832 -0.72313978
H  0.29573151 1.25466725 0.12234422
H  1.13300911 -1.02912630 0.11084715
H  -1.39211363 -0.44145560 0.07530570
12
MD Step 811.0 Units = [eV / Ang.]
C  0.13845297 0.76152810 0.88381052
C  -0.40936239 0.31799721 -0.35299091
C  0.74596707 -0.70989152 1.28947392
C  -1.20083749 -0.11446863 -0.76415215
C  0.14394188 1.70783225 0.41727123
C  1.64036405 -1.07557010 -0.97797450
H  -0.47050209 -0.55346327 -0.07107130
H  -0.04701594 -0.24280092 -0.00612159
H  -0.20943353 -0.03206109 -0.73952221
H  0.09797808 0.96012432 0.20061376
H  0.94702999 -0.59722131 0.04882843
H  -1.37658261 -0.42200506 0.07183482
12
MD Step 811.5 Units = [eV / Ang.]
C  -0.02106171 0.34523366 0.91190697
C  -0.17219101 0.41691914 -0.36446951
C  0.64630799 -0.88329360 1.29379171
C  -0.86863018 0.27012413 -0.91772242
C  0.17530900 1.04985045 0.52763121
C  1.45688346 -0.76597519 -0.97169582
H  -0.33072501 -0.27502761 -0.08041329
H  0.01367568 -0.22698338 -0.00049393
H  -0.23116306 -0.04831796 -0.74014714
H  -0.13673831 0.60016961 0.30068130
H  0.68477012 -0.07807361 -0.01113585
H  -1.21643698 -0.40462564 0.05206679
12
MD Step 812.0 Units = [eV / Ang.]
C  -0.18782930 -0.10343839 0.93409187
C  0.08134931 0.48759364 -0.37171283
C  0.50553062 -1.03280943 1.27316379
C  -0.50943307 0.65235560 -1.07616536
C  0.25312648 0.32897210 0.62922093
C  1.14411440 -0.43776868 -0.94584588
H  -0.17845770 0.02588793 -0.09130907
H  0.06304603 -0.19136373 0.00492959
H  -0.21753180 -0.06369844 -0.72479806
H  -0.37821342 0.22138152 0.41573082
H  0.35958709 0.50024144 -0.06465784
H  -0.93528864 -0.38735355 0.01735203
12
MD Step 812.5 Units = [eV / Ang.]
C  -0.34312070 -0.55320784 0.95128051
C  0.34512317 0.52838827 -0.37474328
C  0.32634742 -1.15596073 1.22854028
C  -0.15112986 0.99387088 -1.23000867
C  0.35664844 -0.40786632 0.71738988
C  0.73742487 -0.09765119 -0.90336129
H  -0.02982535 0.31874887 -0.10448101
H  0.10156505 -0.13666644 0.01002594
H  -0.17010904 -0.07810266 -0.69436859
H  -0.60055072 -0.13675735 0.53634069
H  -0.00078968 1.09248284 -0.10774983
H  -0.57158360 -0.36727834 -0.02886461
12
MD Step 813.0 Units = [eV / Ang.]
C  -0.47169135 -0.97707086 0.96391399
C  0.61161921 0.54017138 -0.37363870
C  0.11435288 -1.25115818 1.16208826
C  0.18478066 1.26766625 -1.36978955
C  0.44921860 -1.09830057 0.78910948
C  0.27947897 0.24764008 -0.84863322
H  0.10218607 0.57824264 -0.11984992
H  0.13089899 -0.06566883 0.01468114
H  -0.09318487 -0.09144088 -0.65082535
H  -0.78488344 -0.44549263 0.65281067
H  -0.35294664 1.63688516 -0.13799749
H  -0.16982907 -0.34147357 -0.08186931
12
MD Step 813.5 Units = [eV / Ang.]
C  -0.56247647 -1.35342294 0.97222111
C  0.87234608 0.52587098 -0.36855194
C  -0.12183913 -1.31746381 1.07704835
C  0.48326259 1.45763738 -1.48742352
C  0.48285921 -1.67220804 0.84412960
C  -0.18773762 0.59164532 -0.78657563
H  0.20824145 0.78561131 -0.13680770
H  0.15359803 0.01710588 0.01879961
H  0.00617735 -0.10364565 -0.59710544
H  -0.91940915 -0.68658004 0.75665142
H  -0.64261948 2.06320566 -0.15575089
H  0.22759716 -0.30775604 -0.13663497
12
MD Step 814.0 Units = [eV / Ang.]
C  -0.60839571 -1.66569011 0.97643697
C  1.11836161 0.48984337 -0.35972036
C  -0.37069195 -1.35434882 0.97748944
C  0.73434514 1.55596279 -1.57663833
C  0.41025085 -2.06662852 0.88539264
C  -0.62827133 0.92806489 -0.72185777
H  0.28233670 0.92833645 -0.15448642
H  0.17269728 0.10590547 0.02231135
H  0.11825627 -0.11469194 -0.53690677
H  -0.99788028 -0.84993138 0.84112596
H  -0.81678499 2.30823000 -0.16456350
H  0.58577639 -0.26505220 -0.18858322
12
MD Step 814.5 Units = [eV / Ang.]
C  -0.60569559 -1.90131827 0.97692050
C  1.34082919 0.43713255 -0.34746591
C  -0.61819442 -1.36145733 0.86794257
C  0.93132846 1.55998694 -1.63279653
C  0.20077712 -2.24318679 0.91810143
C  -1.01441252 1.25033086 -0.65846456
H  0.32110651 0.99901439 -0.17195857
H  0.19130483 0.19437761 0.02517631
H  0.23110393 -0.12461979 -0.47434246
H  -1.01769602 -0.93075080 0.90114385
H  -0.83965709 2.33387613 -0.17025821
H  0.87920560 -0.21338549 -0.23399841
12
MD Step 815.0 Units = [eV / Ang.]
C  -0.55322494 -2.05086797 0.97417133
C  1.53153980 0.37275346 -0.33218650
C  -0.84881240 -1.33841952 0.75290574
C  1.06931541 1.46968970 -1.65250665
C  -0.14681801 -2.19987578 0.94762338
C  -1.32646344 1.55122374 -0.59957523
H  0.32314865 0.99417833 -0.18836011
H  0.21223908 0.27620440 0.02738553
H  0.33144345 -0.13354685 -0.41345383
H  -0.97836707 -0.92722324 0.93291133
H  -0.70518221 2.13953049 -0.17879829
H  1.09118167 -0.15364678 -0.27011671
12
MD Step 815.5 Units = [eV / Ang.]
C  -0.45192104 -2.10768772 0.96878377
C  1.68335984 0.30109405 -0.31433814
C  -1.04693132 -1.28476935 0.63626855
C  1.14444020 1.28629904 -1.63334070
C  -0.60221299 -1.97073934 0.97730611
C  -1.55127241 1.82284732 -0.54765225
H  0.28860924 0.91357764 -0.20295682
H  0.23775599 0.34565738 0.02895866
H  0.40605860 -0.14165833 -0.35763803
H  -0.88072128 -0.83926453 0.93367231
H  -0.43910084 1.76196981 -0.19405093
H  1.21193601 -0.08732599 -0.29501254
12
MD Step 816.0 Units = [eV / Ang.]
C  -0.30461575 -2.06836942 0.96137834
C  1.79057000 0.22547459 -0.29441158
C  -1.19865714 -1.19996450 0.52076847
C  1.15394524 1.01223072 -1.57386761
C  -1.11291024 -1.61360842 1.00740124
C  -1.68061990 2.05707883 -0.50459118
H  0.21913641 0.76015324 -0.21518357
H  0.26937246 0.39803317 0.02993803
H  0.44354246 -0.14916895 -0.30910509
H  -0.72695593 -0.66851340 0.90176377
H  -0.08947782 1.26296802 -0.21666617
H  1.23667020 -0.01631389 -0.30742466
12
MD Step 816.5 Units = [eV / Ang.]
C  -0.11623283 -1.93393626 0.95255350
C  1.84910632 0.14789524 -0.27290590
C  -1.29366361 -1.08352046 0.40762287
C  1.09715173 0.65237489 -1.47410952
C  -1.61975148 -1.19253704 1.03547469
C  -1.71017366 2.24634881 -0.47182041
H  0.11821352 0.54073904 -0.22467858
H  0.30778214 0.42995412 0.03037973
H  0.43609073 -0.15625879 -0.26851196
H  -0.52149786 -0.41958025 0.83710309
H  0.28872594 0.71132515 -0.24447575
H  1.16424906 0.05719557 -0.30663176
12
MD Step 817.0 Units = [eV / Ang.]
C  0.10571383 -1.71150305 0.94287110
C  1.85671177 0.06895062 -0.25029921
C  -1.32667736 -0.93521571 0.29646226
C  0.97720472 0.21654857 -1.33642131
C  -2.07081652 -0.76301211 1.05771935
C  -1.63938638 2.38447855 -0.45027135
H  -0.00822844 0.26728121 -0.23131894
H  0.35283852 0.43955653 0.03034207
H  0.38090397 -0.16299914 -0.23490184
H  -0.27248789 -0.10240135 0.74209922
H  0.64731782 0.16757321 -0.27383522
H  0.99690597 0.13074267 -0.29244613
12
MD Step 817.5 Units = [eV / Ang.]
C  0.35050616 -1.41588927 0.93286403
C  1.81301418 -0.01209917 -0.22701919
C  -1.29821931 -0.75534695 0.18561515
C  0.80314080 -0.27737102 -1.16662227
C  -2.42893651 -0.36452709 1.07028257
C  -1.47240642 2.46733268 -0.44019867
H  -0.15113817 -0.04189118 -0.23524039
H  0.40359265 0.42658237 0.02987209
H  0.28081232 -0.16929067 -0.20599053
H  0.00652614 0.26478459 0.62278975
H  0.95206808 -0.32393467 -0.30099986
H  0.74104007 0.20165038 -0.26535267
12
MD Step 818.0 Units = [eV / Ang.]
C  0.60385833 -1.07039768 0.92304032
C  1.71953033 -0.09713833 -0.20341625
C  -1.21440609 -0.54498934 0.07267395
C  0.59146503 -0.80071124 -0.97491606
C  -2.67267297 -0.02030583 1.07006945
C  -1.21979164 2.49308979 -0.44087769
H  -0.29797454 -0.36148803 -0.23681242
H  0.45836532 0.39239828 0.02899217
H  0.14392927 -0.17483651 -0.17872970
H  0.29544333 0.65289905 0.48972036
H  1.18334596 -0.73569251 -0.32296689
H  0.40890767 0.26717235 -0.22677722
12
MD Step 818.5 Units = [eV / Ang.]
C  0.84825531 -0.70586550 0.91383017
C  1.57962526 -0.18889532 -0.17973944
C  -1.08589368 -0.30625796 -0.04480972
C  0.36609156 -1.31334194 -0.77587291
C  -2.79331530 0.25867924 1.05498318
C  -0.90050332 2.46208940 -0.45025675
H  -0.43309402 -0.66026975 -0.23652975
H  0.51485205 0.33994121 0.02768616
H  -0.01756800 -0.17916005 -0.14998740
H  0.56804516 1.02160609 0.35782888
H  1.33282396 -1.05333233 -0.33772019
H  0.02068100 0.32480690 -0.17941224
12
MD Step 819.0 Units = [eV / Ang.]
C  1.06440280 -0.35733903 0.90545372
C  1.39841728 -0.29053434 -0.15611669
C  -0.92628154 -0.04255345 -0.16869090
C  0.15567900 -1.76690751 -0.58675029
C  -2.79072625 0.46847311 1.02383366
C  -0.54326798 2.37628974 -0.46470853
H  -0.53927002 -0.90431633 -0.23481193
H  0.57025912 0.27357282 0.02588912
H  -0.18918932 -0.18166376 -0.11716167
H  0.79491700 1.32282154 0.24461961
H  1.39912089 -1.27062151 -0.34410062
H  -0.39406099 0.37277874 -0.12745548
12
MD Step 819.5 Units = [eV / Ang.]
C  1.23386456 -0.05849947 0.89773530
C  1.18261368 -0.40517494 -0.13254253
C  -0.75037067 0.24124075 -0.29979334
C  -0.01172944 -2.11273927 -0.42399659
C  -2.66980648 0.60762718 0.97615035
C  -0.18607939 2.23854390 -0.47907629
H  -0.60037133 -1.06247071 -0.23175699
H  0.62147066 0.19882681 0.02348112
H  -0.35597931 -0.18171238 -0.07859480
H  0.94890146 1.50890916 0.16650417
H  1.38417730 -1.38512885 -0.34155366
H  -0.79669105 0.41057783 -0.07655675
12
MD Step 820.0 Units = [eV / Ang.]
C  1.34237537 0.16487920 0.88995525
C  0.94027638 -0.53534598 -0.10887370
C  -0.57266160 0.53864562 -0.43773285
C  -0.11533749 -2.31291171 -0.29886893
C  -2.43824614 0.67426672 0.91204175
C  0.12728850 2.05201584 -0.48719917
H  -0.60465150 -1.11272918 -0.22695801
H  0.66524631 0.12202581 0.02028905
H  -0.50407902 -0.17871862 -0.03373813
H  1.01166345 1.54397317 0.13428423
H  1.29106105 -1.39541513 -0.32992275
H  -1.14293532 0.43931425 -0.03327674
12
MD Step 820.5 Units = [eV / Ang.]
C  1.38282140 0.30030115 0.88085510
C  0.68048702 -0.68242103 -0.08483706
C  -0.40627351 0.84162972 -0.58098110
C  -0.14689902 -2.35042386 -0.21404226
C  -2.10560798 0.66495196 0.83215286
C  0.35403448 1.82007787 -0.48296764
H  -0.54760520 -1.04746275 -0.21950262
H  0.69844365 0.04976330 0.01609793
H  -0.62181199 -0.17221635 0.01690049
H  0.97876847 1.41416083 0.14969281
H  1.12326582 -1.29996782 -0.30936406
H  -1.38962313 0.46160697 -0.00400446
12
MD Step 821.0 Units = [eV / Ang.]
C  1.35676240 0.35065735 0.86884911
C  0.41292201 -0.84610119 -0.06005113
C  -0.26231180 1.14084615 -0.72709831
C  -0.11226319 -2.23384561 -0.16298298
C  -1.68357550 0.57541355 0.73771822
C  0.46104802 1.54686217 -0.46169447
H  -0.43327407 -0.87539176 -0.20820554
H  0.71824981 -0.01171118 0.01067274
H  -0.70027889 -0.16191252 0.07195131
H  0.86086110 1.13226597 0.20478908
H  0.88534760 -1.09794402 -0.28039924
H  -1.50348747 0.48086111 0.00645119
12
MD Step 821.5 Units = [eV / Ang.]
C  1.27387082 0.33225680 0.85238707
C  0.14735665 -1.02400807 -0.03406756
C  -0.14955666 1.42607483 -0.87305466
C  -0.02854486 -1.99409804 -0.13247953
C  -1.18715175 0.40321693 0.63068943
C  0.43275636 1.23826126 -0.42134196
H  -0.27343750 -0.61946183 -0.19199802
H  0.72240715 -0.05715055 0.00379161
H  -0.73358769 -0.14771924 0.12944206
H  0.68033724 0.73429143 0.28459698
H  0.58467168 -0.79176845 -0.24408257
H  -1.46912141 0.50010492 -0.00388285
12
MD Step 822.0 Units = [eV / Ang.]
C  1.14955903 0.26972353 0.83031765
C  -0.10685799 -1.21148823 -0.00642683
C  -0.07430231 1.68682497 -1.01556819
C  0.08150181 -1.67501746 -0.10702155
C  -0.63649944 0.15226656 0.51387747
C  0.27495245 0.90284262 -0.36308441
H  -0.08502195 -0.31152255 -0.17030987
H  0.70940544 -0.08290316 -0.00471470
H  -0.71888777 -0.12976915 0.18706728
H  0.46514199 0.26965620 0.37164899
H  0.23388814 -0.39147984 -0.20221164
H  -1.29287940 0.52086652 -0.03357421
12
MD Step 822.5 Units = [eV / Ang.]
C  1.00172343 0.18987613 0.80211589
C  -0.34127412 -1.40166996 0.02327407
C  -0.04017715 1.91298111 -1.15141263
C  0.19525091 -1.32215155 -0.07295793
C  -0.05878654 -0.16156829 0.39099824
C  0.01293413 0.55209146 -0.29095110
H  0.11325113 0.01410439 -0.14328940
H  0.67862411 -0.08734773 -0.01492144
H  -0.65636767 -0.10841733 0.24244166
H  0.24244151 -0.21041195 0.45032255
H  -0.14662559 0.07989904 -0.15744857
H  -1.00099415 0.54261468 -0.07817133
12
MD Step 823.0 Units = [eV / Ang.]
C  0.84772995 0.11668028 0.76791705
C  -0.54873454 -1.58580989 0.05531062
C  -0.04787367 2.09540559 -1.27767139
C  0.29407241 -0.97413764 -0.02096224
C  0.51115111 -0.50558591 0.26645759
C  -0.31516430 0.19972858 -0.21071272
H  0.30384104 0.32604719 -0.11180659
H  0.63040229 -0.07107929 -0.02677595
H  -0.54929850 -0.08422773 0.29333443
H  0.03432310 -0.66188370 0.50945413
H  -0.52765458 0.58187052 -0.11317011
H  -0.63279432 0.56299201 -0.13137481
12
MD Step 823.5 Units = [eV / Ang.]
C  0.70236167 0.06844563 0.72840373
C  -0.72362864 -1.75389993 0.08976690
C  -0.09480294 2.22639379 -1.39193798
C  0.36471355 -0.65869737 0.05346861
C  1.03282760 -0.82932741 0.14473588
C  -0.66697479 -0.13969922 -0.12850481
H  0.47226902 0.59909512 -0.07729149
H  0.56603091 -0.03681238 -0.04007760
H  -0.40412247 -0.05793706 0.33789105
H  -0.14379694 -1.05222834 0.54293141
H  -0.87295699 1.05602569 -0.07289640
H  -0.23191997 0.57864149 -0.18648930
12
MD Step 824.0 Units = [eV / Ang.]
C  0.57690248 0.05724233 0.68463286
C  -0.86199488 -1.89545195 0.12649202
C  -0.17480581 2.29994190 -1.49246941
C  0.39885024 -0.39280210 0.15085205
C  1.46571243 -1.07089162 0.02942267
C  -1.00332889 -0.45241793 -0.04969300
H  0.60778597 0.81513693 -0.04151042
H  0.48766438 0.01098269 -0.05447709
H  -0.23049331 -0.03038809 0.37484115
H  -0.28264243 -1.36044458 0.54888723
H  -1.14495049 1.43291253 -0.03934664
H  0.16130031 0.58617989 -0.23763142
12
MD Step 824.5 Units = [eV / Ang.]
C  0.47909992 0.08981862 0.63788237
C  -0.96150307 -2.00037185 0.16507950
C  -0.27810174 2.31183664 -1.57828888
C  0.39185210 -0.18524218 0.26903824
C  1.77752387 -1.17129921 -0.07773693
C  -1.29266175 -0.72674324 0.02174383
H  0.70314474 0.96251838 -0.00636784
H  0.39816671 0.06663252 -0.06949549
H  -0.04109697 -0.00242771 0.40367342
H  -0.37748439 -1.57458585 0.52836331
H  -1.31335580 1.64693598 -0.01348838
H  0.51441637 0.58292790 -0.28040312
12
MD Step 825.0 Units = [eV / Ang.]
C  0.41358979 0.16908631 0.58955177
C  -1.02133392 -2.05978631 0.20487680
C  -0.39169236 2.25959273 -1.64922712
C  0.34157832 -0.03982702 0.40439253
C  1.95207679 -1.09275029 -0.17722849
C  -1.51223567 -0.95385640 0.08332331
H  0.75395127 1.03471750 0.02622720
H  0.30091012 0.12390254 -0.08456019
H  0.14893359 0.02522224 0.42473789
H  -0.42640333 -1.68860152 0.48408400
H  -1.36356394 1.65505698 0.00585504
H  0.80418934 0.56724325 -0.31203274
12
MD Step 825.5 Units = [eV / Ang.]
C  0.38239752 0.29542217 0.54110751
C  -1.04201159 -2.06674929 0.24501683
C  -0.50036878 2.14231258 -1.70586133
C  0.24756825 0.04200918 0.55256924
C  1.99280142 -0.83251092 -0.27124005
C  -1.64714913 -1.12803496 0.13384297
H  0.75802352 1.02909644 0.05444024
H  0.19955061 0.17662557 -0.09905104
H  0.32316596 0.05209772 0.43922216
H  -0.42895107 -1.69974044 0.41963604
H  -1.30067396 1.45094963 0.02148331
H  1.01564724 0.53852231 -0.33116587
12
MD Step 826.0 Units = [eV / Ang.]
C  0.38525448 0.46734237 0.49403464
C  -1.02521657 -2.01676415 0.28447103
C  -0.58833103 1.96055329 -1.74932744
C  0.11065146 0.05980407 0.70886080
C  1.91999025 -0.42493304 -0.36244080
C  -1.68843585 -1.24650213 0.17305046
H  0.71503854 0.94619290 0.07657630
H  0.09780483 0.21923410 -0.11234967
H  0.46557402 0.07808591 0.44896188
H  -0.38544339 -1.60715556 0.33908715
H  -1.14704539 1.06710852 0.03660102
H  1.14015866 0.49703372 -0.33752537
12
MD Step 826.5 Units = [eV / Ang.]
C  0.41959600 0.68135684 0.44974845
C  -0.97361172 -1.90809227 0.32211298
C  -0.64123114 1.71627217 -1.78100316
C  -0.06704342 0.01409401 0.86824321
C  1.76329558 0.06953505 -0.45275418
C  -1.63131675 -1.30912838 0.20135480
H  0.62660920 0.78976275 0.09118215
H  -0.00075807 0.24715807 -0.12388616
H  0.56260413 0.10343911 0.45608397
H  -0.29694509 -1.41195731 0.24693610
H  -0.93476977 0.56382550 0.05358448
H  1.17357105 0.44373446 -0.33160263
12
MD Step 827.0 Units = [eV / Ang.]
C  0.48021951 0.93107787 0.40941818
C  -0.89068376 -1.74186218 0.35678320
C  -0.64824498 1.41291184 -1.80211811
C  -0.28167591 -0.09211229 1.02527747
C  1.55332428 0.58227359 -0.54273024
C  -1.47424215 -1.31815558 0.21964696
H  0.49678756 0.56754136 0.09723560
H  -0.09289823 0.25707788 -0.13317758
H  0.60518943 0.12867851 0.46254698
H  -0.16593322 -1.11874248 0.14822821
H  -0.69690713 0.01116086 0.07335109
H  1.11506459 0.38015064 -0.31446176
12
MD Step 827.5 Units = [eV / Ang.]
C  0.55869244 1.20584720 0.37367610
C  -0.78057916 -1.52199294 0.38735525
C  -0.60367269 1.05560297 -1.81339694
C  -0.52678324 -0.25062082 1.17406470
C  1.31572419 1.05279555 -0.63163699
C  -1.21897674 -1.27802514 0.22923724
H  0.33285599 0.29247581 0.09444413
H  -0.17586158 0.24705375 -0.13985660
H  0.59020145 0.15440079 0.46969592
H  0.00244394 -0.73839188 0.04862732
H  -0.46105794 -0.52747977 0.09546099
H  0.96701336 0.30833447 -0.28767111
12
MD Step 828.0 Units = [eV / Ang.]
C  0.64280908 1.48942111 0.34223657
C  -0.64792073 -1.25495170 0.41279138
C  -0.50768083 0.65142040 -1.81484614
C  -0.79198691 -0.44473117 1.30846310
C  1.06903197 1.43790683 -0.71796663
C  -0.87171727 -1.19525822 0.23188275
H  0.14608447 -0.01610582 0.08362810
H  -0.24751222 0.21655550 -0.14369019
H  0.52093623 0.18103631 0.47796098
H  0.19876094 -0.29150359 -0.04577937
H  -0.24669174 -1.00464102 0.11864921
H  0.73588703 0.23085137 -0.25332976
12
MD Step 828.5 Units = [eV / Ang.]
C  0.71653284 1.75948003 0.31352003
C  -0.49758839 -0.94937314 0.43219097
C  -0.36602268 0.20955063 -1.80575831
C  -1.06172547 -0.64655729 1.42274047
C  0.82545281 1.71314731 -0.79996360
C  -0.44495018 -1.07825371 0.22983565
H  -0.04802467 -0.33216105 0.06708412
H  -0.30644263 0.16642398 -0.14458768
H  0.40649308 0.20863579 0.48678918
H  0.40789924 0.18884268 -0.12912995
H  -0.06559063 -1.39044654 0.14139526
H  0.43396668 0.15071131 -0.21411614
12
MD Step 829.0 Units = [eV / Ang.]
C  0.76097203 1.98879350 0.28446561
C  -0.33445826 -0.61555764 0.44482689
C  -0.18889167 -0.25873892 -1.78492969
C  -1.31486193 -0.81690633 1.51267380
C  0.59300977 1.86918102 -0.87596086
C  0.04050094 -0.93682072 0.22582570
H  -0.23055415 -0.62430832 0.04874106
H  -0.35206207 0.09877900 -0.14259928
H  0.26022779 0.23674957 0.49481647
H  0.60869402 0.65694915 -0.19690417
H  0.07609928 -1.66926564 0.16230188
H  0.08132424 0.07114533 -0.17325739
12
MD Step 829.5 Units = [eV / Ang.]
C  0.75671878 2.14858903 0.25074819
C  -0.16312736 -0.26488387 0.45017249
C  0.01067983 -0.74039555 -1.75101450
C  -1.52613088 -0.90961342 1.57680189
C  0.37772639 1.90638108 -0.94450478
C  0.55420518 -0.78135796 0.22286632
H  -0.38139264 -0.85945541 0.03388911
H  -0.38465216 0.01688207 -0.13790544
H  0.09773562 0.26443205 0.50020544
H  0.77560332 1.05893262 -0.24720487
H  0.17552861 -1.83467381 0.18025117
H  -0.29289469 -0.00483682 -0.13430502
12
MD Step 830.0 Units = [eV / Ang.]
C  0.68739381 2.21380355 0.20753254
C  0.01232700 0.09083001 0.44791475
C  0.21845949 -1.22112710 -1.70290338
C  -1.66996513 -0.88085671 1.61721461
C  0.18518163 1.82987832 -1.00435611
C  1.05681720 -0.62171466 0.22381426
H  -0.48267630 -1.00837574 0.02835436
H  -0.40537680 -0.07505078 -0.13079651
H  -0.06515189 0.29035525 0.50103715
H  0.88285948 1.34227824 -0.28157877
H  0.23125689 -1.88495274 0.19441348
H  -0.65112537 -0.07506765 -0.10064640
12
MD Step 830.5 Units = [eV / Ang.]
C  0.54351209 2.16887433 0.15067050
C  0.18849908 0.43996082 0.43795262
C  0.42033477 -1.68610830 -1.64003050
C  -1.72603805 -0.70129812 1.63924566
C  0.02126932 1.64620212 -1.05446093
C  1.50379768 -0.46601959 0.23070655
H  -0.52256907 -1.05182798 0.03722511
H  -0.41622640 -0.17208865 -0.12164351
H  -0.21396338 0.31298937 0.49565281
H  0.91036107 1.46833483 -0.30472958
H  0.24208721 -1.82019379 0.20420249
H  -0.95106432 -0.13882504 -0.07479124
12
MD Step 831.0 Units = [eV / Ang.]
C  0.32532429 2.01196725 0.07796567
C  0.36267270 0.77167394 0.42037919
C  0.60321902 -2.12074710 -1.56255349
C  -1.68458005 -0.36631193 1.64991009
C  -0.10774678 1.36188891 -1.09395960
C  1.85224750 -0.31988687 0.24407536
H  -0.49804806 -0.98507862 0.06351661
H  -0.41987818 -0.26888718 -0.11086114
H  -0.33662803 0.33080048 0.48288764
H  0.84923330 1.42299228 -0.32296141
H  0.20667569 -1.64131158 0.20924670
H  -1.15249139 -0.19709957 -0.05764561
12
MD Step 831.5 Units = [eV / Ang.]
C  0.04347686 1.75590067 -0.00999120
C  0.53267461 1.07642016 0.39544954
C  0.75558870 -2.51142110 -1.47139459
C  -1.54907194 0.10061383 1.65569564
C  -0.19583400 0.98411740 -1.12226077
C  2.06943639 -0.18637405 0.26254794
H  -0.41555680 -0.81899739 0.10729100
H  -0.41946542 -0.36003966 -0.09886637
H  -0.42398207 0.34242868 0.46218557
H  0.70457317 1.22058599 -0.34197130
H  0.12394132 -1.35098548 0.20941713
H  -1.22578080 -0.25224905 -0.04810257
12
MD Step 832.0 Units = [eV / Ang.]
C  -0.28282761 1.42532562 -0.10977731
C  0.69660229 1.34631911 0.36353594
C  0.86784628 -2.84612668 -1.36816522
C  -1.33500729 0.65317540 1.66076136
C  -0.23848882 0.52329685 -1.13918429
C  2.14013467 -0.06674159 0.28301826
H  -0.28925345 -0.57725587 0.16559711
H  -0.41826252 -0.44046001 -0.08603630
H  -0.46992223 0.34682998 0.43361860
H  0.49403156 0.89910367 -0.36505840
H  -0.00566513 -0.95642873 0.20492292
H  -1.15918775 -0.30703775 -0.04323265
12
MD Step 832.5 Units = [eV / Ang.]
C  -0.62942725 1.05136565 -0.21586983
C  0.85247458 1.57540603 0.32508186
C  0.93269213 -3.11501516 -1.25500548
C  -1.06542114 1.23374320 1.66629769
C  -0.23480906 -0.00279722 -1.14513381
C  2.06982102 0.03837479 0.30141259
H  -0.13761398 -0.29082485 0.23321902
H  -0.41931476 -0.50576383 -0.07267276
H  -0.47139954 0.34337915 0.39784269
H  0.24295851 0.50916675 -0.39252824
H  -0.17803131 -0.47360496 0.19644852
H  -0.96192919 -0.36342955 -0.03909225
12
MD Step 833.0 Units = [eV / Ang.]
C  -0.97125527 0.66577728 -0.32181095
C  0.99791291 1.75972393 0.28056296
C  0.94563952 -3.31079917 -1.13437363
C  -0.76536416 1.78590844 1.67105286
C  -0.19017657 -0.56439625 -1.14122582
C  1.88238950 0.12798559 0.31377069
H  0.02029450 0.00812288 0.30387783
H  -0.42506582 -0.55259677 -0.05897922
H  -0.42841868 0.33193509 0.35601373
H  -0.02160904 0.10187844 -0.42229744
H  -0.38267272 0.06815416 0.18525781
H  -0.66167417 -0.42169362 -0.03184882
12
MD Step 833.5 Units = [eV / Ang.]
C  -1.28561401 0.29647955 -0.42134168
C  1.12990862 1.89727933 0.23046555
C  0.90566592 -3.42900979 -1.00881635
C  -0.45753505 2.26358208 1.67242965
C  -0.11874286 -1.11671954 -1.12924083
C  1.61348132 0.20039546 0.31719577
H  0.16769619 0.29098644 0.37141071
H  -0.43703815 -0.57887638 -0.04505467
H  -0.34412032 0.31286770 0.30967400
H  -0.27578512 -0.28000683 -0.45109438
H  -0.60031542 0.62323783 0.17313424
H  -0.29760113 -0.48021584 -0.01876200
12
MD Step 834.0 Units = [eV / Ang.]
C  -1.55411683 -0.03472988 -0.50918258
C  1.24476062 1.98785286 0.17528569
C  0.81589851 -3.46806465 -0.88073923
C  -0.16014490 2.63487379 1.66750504
C  -0.04418952 -1.60145532 -1.11127187
C  1.30228119 0.25348792 0.31035577
H  0.29162240 0.53529854 0.43059198
H  -0.45562847 -0.58390547 -0.03090582
H  -0.22492509 0.28703687 0.26060174
H  -0.50130459 -0.60585215 -0.47558050
H  -0.80232989 1.13146285 0.16202609
H  0.08807656 -0.53600534 0.00131369
12
MD Step 834.5 Units = [eV / Ang.]
C  -1.76329168 -0.31245557 -0.58136859
C  1.33816792 2.03268866 0.11554965
C  0.68412318 -3.42910738 -0.75219037
C  0.11317679 2.88155836 1.65364080
C  0.00302722 -1.95503902 -1.08905114
C  0.98465115 0.28530849 0.29346594
H  0.38316363 0.72520554 0.47749823
H  -0.48005387 -0.56835077 -0.01647496
H  -0.08061398 0.25570546 0.21061566
H  -0.68575546 -0.85666904 -0.49302896
H  -0.95375290 1.52670533 0.15338142
H  0.45715800 -0.58555006 0.02796233
12
MD Step 835.0 Units = [eV / Ang.]
C  -1.90430394 -0.52674696 -0.63523705
C  1.40547859 2.03410229 0.05184623
C  0.52282816 -3.31559641 -0.62466382
C  0.35229591 2.99608442 1.62869112
C  -0.00732817 -2.12314836 -1.06318842
C  0.68920609 0.29453721 0.26793144
H  0.43693546 0.85062227 0.50951592
H  -0.50845761 -0.53409523 -0.00167741
H  0.07587162 0.22037498 0.16133291
H  -0.82143137 -1.02236622 -0.50154820
H  -1.02053848 1.75184264 0.14740421
H  0.77944374 -0.62561064 0.05959308
12
MD Step 835.5 Units = [eV / Ang.]
C  -1.97227065 -0.67176838 -0.66924402
C  1.44203477 1.99505175 -0.01513633
C  0.34855517 -3.13268406 -0.49893616
C  0.54917661 2.97801486 1.59098269
C  -0.09575933 -2.07652490 -1.03275615
C  0.43631736 0.28066396 0.23588146
H  0.45027558 0.90591515 0.52516778
H  -0.53815146 -0.48399461 0.01355968
H  0.22913816 0.18254501 0.11390427
H  -0.90375259 -1.09854495 -0.50002342
H  -0.97923415 1.77503369 0.14267083
H  1.03367052 -0.65370753 0.09392935
12
MD Step 836.0 Units = [eV / Ang.]
C  -1.96557367 -0.74472395 -0.68276394
C  1.44355825 1.91872311 -0.08458149
C  0.18039966 -2.88646906 -0.37497275
C  0.69679129 2.83107999 1.53925373
C  -0.26514404 -1.82068079 -0.99558595
C  0.23910579 0.24390897 0.19976880
H  0.42256444 0.88877658 0.52392033
H  -0.56594765 -0.42157739 0.02926362
H  0.36271713 0.14343574 0.06878243
H  -0.92992915 -1.08397690 -0.48797014
H  -0.82494455 1.59977828 0.13646685
H  1.20640248 -0.66827458 0.12841852
12
MD Step 836.5 Units = [eV / Ang.]
C  -1.88541645 -0.74542266 -0.67598390
C  1.40652089 1.80820015 -0.15553283
C  0.03775160 -2.58329905 -0.25195003
C  0.78862245 2.56143652 1.47265427
C  -0.49861232 -1.39424303 -0.94922061
C  0.10524719 0.18508129 0.16210806
H  0.35488740 0.79968882 0.50608287
H  -0.58852321 -0.35073018 0.04539374
H  0.46107631 0.10374624 0.02560476
H  -0.89823494 -0.97927233 -0.46543049
H  -0.57344275 1.26340696 0.12577951
H  1.29012383 -0.66859276 0.16049465
12
MD Step 837.0 Units = [eV / Ang.]
C  -1.73572029 -0.67660292 -0.64992881
C  1.32845351 1.66626039 -0.22690232
C  -0.06240201 -2.22926721 -0.12844945
C  0.81898657 2.17732136 1.39085889
C  -0.76443335 -0.85679648 -0.89200396
C  0.03862935 0.10553120 0.12532877
H  0.25010637 0.64212590 0.47283542
H  -0.60276015 -0.27540495 0.06183149
H  0.51196530 0.06353962 -0.01673629
H  -0.80807887 -0.78689989 -0.43297748
H  -0.25627516 0.82484306 0.10842494
H  1.28152874 -0.65465007 0.18771880
12
MD Step 837.5 Units = [eV / Ang.]
C  -1.52336644 -0.54495257 -0.60660868
C  1.20817396 1.49531725 -0.29750146
C  -0.10802192 -1.83002912 -0.00282410
C  0.78425387 1.69008639 1.29426648
C  -1.02524942 -0.27258942 -0.82373831
C  0.04030324 0.00727092 0.09168962
H  0.11329881 0.42345494 0.42637028
H  -0.60602776 -0.19936399 0.07838276
H  0.50854904 0.02232422 -0.05980855
H  -0.66092453 -0.51251360 -0.39182419
H  0.08842392 0.34803213 0.08373089
H  1.18058723 -0.62703714 0.20786526
12
MD Step 838.0 Units = [eV / Ang.]
C  -1.25864405 -0.36253920 -0.54920684
C  1.04593476 1.29753266 -0.36608963
C  -0.09378672 -1.39098034 0.12632146
C  0.68492719 1.11641808 1.18422436
C  -1.24718930 0.30273235 -0.74568429
C  0.10844918 -0.10679854 0.06317613
H  -0.04760697 0.15627139 0.37006216
H  -0.59638072 -0.12597871 0.09478975
H  0.45072135 -0.02066767 -0.10519602
H  -0.46199436 -0.16738492 -0.34397790
H  0.42493969 -0.11167961 0.05254647
H  0.99062995 -0.58692548 0.21903432
12
MD Step 838.5 Units = [eV / Ang.]
C  -0.95562689 -0.14810648 -0.48216744
C  0.84349117 1.07506549 -0.43143748
C  -0.02165370 -0.91769431 0.25966442
C  0.52822728 0.48117427 1.06315984
C  -1.40557522 0.82856283 -0.66010078
C  0.23735306 -0.23264455 0.04131408
H  -0.22129959 -0.14036521 0.30852370
H  -0.57266889 -0.05808218 0.11074868
H  0.34518653 -0.06608412 -0.15402132
H  -0.22242558 0.22861927 -0.29231625
H  0.72555675 -0.51433188 0.01677427
H  0.71943509 -0.53611311 0.21985828
12
MD Step 839.0 Units = [eV / Ang.]
C  -0.63207801 0.07255524 -0.41101486
C  0.60412162 0.83042186 -0.49239543
C  0.09985731 -0.41648085 0.39685076
C  0.33033187 -0.18029650 0.93445156
C  -1.48645573 1.27934761 -0.56969410
C  0.41566646 -0.36496753 0.02686704
H  -0.39307502 -0.44058266 0.24737528
H  -0.53456886 0.00213316 0.12593069
H  0.20427179 -0.11407589 -0.20658173
H  0.03888713 0.64464834 -0.24041261
H  0.97202132 -0.83563681 -0.02121223
H  0.38102014 -0.47706596 0.20983562
12
MD Step 839.5 Units = [eV / Ang.]
C  -0.30845279 0.26803637 -0.34175810
C  0.33261057 0.56685328 -0.54796228
C  0.25733582 0.10508412 0.53642901
C  0.11697615 -0.82205168 0.80189392
C  -1.48514038 1.64087542 -0.47722835
C  0.62455997 -0.49727587 0.01943236
H  -0.54578199 -0.71312266 0.19259157
H  -0.48254306 0.05316965 0.14000240
H  0.04384570 -0.16406111 -0.26220205
H  0.29498267 1.03878634 -0.19196366
H  1.15410168 -1.06345016 -0.05900132
H  -0.00249433 -0.41284369 0.18976651
12
MD Step 840.0 Units = [eV / Ang.]
C  -0.00576755 0.40506982 -0.27988873
C  0.03519901 0.28872044 -0.59734870
C  0.43455102 0.63779270 0.67603548
C  -0.07896892 -1.39142743 0.66876354
C  -1.40339914 1.90560381 -0.38537083
C  0.83677063 -0.62226699 0.01705056
H  -0.66194053 -0.92507983 0.14944427
H  -0.41774757 0.09424193 0.15264464
H  -0.11905140 -0.21469647 -0.31932095
H  0.51335846 1.36202712 -0.14983319
H  1.26696244 -1.19318782 -0.09434329
H  -0.39996644 -0.34679727 0.16216719
12
MD Step 840.5 Units = [eV / Ang.]
C  0.25744657 0.45428776 -0.22920780
C  -0.28049970 0.00176767 -0.64002861
C  0.61439705 1.17062727 0.81275529
C  -0.22343312 -1.83745690 0.53678475
C  -1.24665768 2.06879486 -0.29670722
C  1.01773848 -0.73251426 0.01603756
H  -0.72678648 -1.04763674 0.12129202
H  -0.34189990 0.12525382 0.16356731
H  -0.26829379 -0.26403333 -0.37574956
H  0.66181469 1.56687152 -0.11501904
H  1.30866539 -1.22396335 -0.12516656
H  -0.77249150 -0.28199832 0.13144188
12
MD Step 841.0 Units = [eV / Ang.]
C  0.46829769 0.39650704 -0.19092304
C  -0.60564778 -0.28677192 -0.67577913
C  0.78038006 1.69082593 0.94354304
C  -0.28933613 -2.12202637 0.40553337
C  -1.02188619 2.12620562 -0.21382125
C  1.12975129 -0.82134674 0.01129219
H  -0.73142240 -1.06231320 0.10867086
H  -0.25712536 0.14674140 0.17252191
H  -0.39012010 -0.30978599 -0.42899964
H  0.71636250 1.61868272 -0.08608781
H  1.27849260 -1.15620252 -0.14950573
H  -1.07774618 -0.22051597 0.10355521
12
MD Step 841.5 Units = [eV / Ang.]
C  0.62171107 0.22736233 -0.16342981
C  -0.93043346 -0.56828582 -0.70469747
C  0.91758254 2.18419798 1.06560312
C  -0.26395582 -2.22960911 0.27274835
C  -0.73651197 2.07351706 -0.13932719
C  1.13891569 -0.88362890 -0.00277902
H  -0.67495532 -0.96554014 0.10911313
H  -0.16579358 0.15977981 0.17930718
H  -0.47389115 -0.34962465 -0.47660112
H  0.66819574 1.50557694 -0.05954331
H  1.17636309 -0.99091664 -0.16544885
H  -1.27722684 -0.16282886 0.08505499
12
MD Step 842.0 Units = [eV / Ang.]
C  0.72074332 -0.04157315 -0.14294620
C  -1.24443511 -0.83313021 -0.72719205
C  1.01321790 2.63573758 1.17666347
C  -0.15213272 -2.17108340 0.13553322
C  -0.39847734 1.90748742 -0.07578112
C  1.02323384 -0.91610846 -0.03084775
H  -0.56474343 -0.76968323 0.11784925
H  -0.07036378 0.16586536 0.18377281
H  -0.51230778 -0.38143645 -0.51635218
H  0.52644108 1.24227137 -0.03110075
H  1.00342726 -0.73062723 -0.17119162
H  -1.34460325 -0.10771959 0.08159293
12
MD Step 842.5 Units = [eV / Ang.]
C  0.77492128 -0.38560481 -0.12473345
C  -1.53711295 -1.07120153 -0.74394223
C  1.05700749 3.03051458 1.27513621
C  0.02617243 -1.97968177 -0.00813614
C  -0.01750743 1.62874591 -0.02538547
C  0.77886388 -0.91717944 -0.07522822
H  -0.41463656 -0.50007395 0.12912492
H  0.02675418 0.16677430 0.18581822
H  -0.50135278 -0.40352960 -0.54650356
H  0.31528012 0.86592153 0.00273023
H  0.76382285 -0.38186615 -0.16529330
H  -1.27221252 -0.05281905 0.09641279
12
MD Step 843.0 Units = [eV / Ang.]
C  0.79729323 -0.77243526 -0.10441144
C  -1.79837069 -1.27268025 -0.75582154
C  1.04157755 3.35477878 1.36018356
C  0.24253067 -1.70109157 -0.15836265
C  0.39255365 1.24590592 0.01055179
C  0.42189423 -0.88620621 -0.13500704
H  -0.24193122 -0.18930113 0.13760976
H  0.12331033 0.16441463 0.18538919
H  -0.44019536 -0.41478819 -0.56589260
H  0.06693445 0.42599020 0.04353196
H  0.46737505 0.04103907 -0.14719352
H  -1.07297187 0.00437402 0.12942253
12
MD Step 843.5 Units = [eV / Ang.]
C  0.80132017 -1.16823953 -0.07889348
C  -2.01913791 -1.42884486 -0.76378733
C  0.96301626 3.59712997 1.43172371
C  0.46763300 -1.38225987 -0.31314901
C  0.81095339 0.78011721 0.03238957
C  -0.01519114 -0.82284787 -0.20613312
H  -0.06416540 0.12905749 0.13941160
H  0.21729155 0.16068134 0.18247174
H  -0.33122930 -0.41479286 -0.57405538
H  -0.18618538 -0.02723072 0.09074894
H  0.13256936 0.51176997 -0.11797058
H  -0.77687460 0.06545972 0.17724334
12
MD Step 844.0 Units = [eV / Ang.]
C  0.79851515 -1.54238153 -0.04675192
C  -2.19188069 -1.53285015 -0.76875733
C  0.82159785 3.74958265 1.49041101
C  0.67691340 -1.06306932 -0.46895062
C  1.20810029 0.26821395 0.04295189
C  -0.49080662 -0.72680280 -0.28238889
H  0.10329570 0.42531979 0.13248773
H  0.30696564 0.15732645 0.17708763
H  -0.18029366 -0.40391418 -0.57132697
H  -0.41721099 -0.45120089 0.14220540
H  -0.21157315 0.98923439 -0.08113901
H  -0.42362293 0.13054163 0.23417107
12
MD Step 844.5 Units = [eV / Ang.]
C  0.79726949 -1.86993330 -0.00809658
C  -2.31100026 -1.58035106 -0.77148534
C  0.62255116 3.80833847 1.53759247
C  0.85299641 -0.77265007 -0.62151721
C  1.54642934 -0.23816017 0.04793839
C  -0.96236448 -0.59809150 -0.35678505
H  0.24848027 0.67629960 0.11653222
H  0.39089212 0.15585555 0.16928979
H  0.00300461 -0.38336576 -0.55891727
H  -0.60724693 -0.81499181 0.19492029
H  -0.52661519 1.41880851 -0.04305153
H  -0.05439652 0.19824155 0.29357982
12
MD Step 845.0 Units = [eV / Ang.]
C  0.80272396 -2.13218153 0.03580468
C  -2.37305435 -1.56988042 -0.77246369
C  0.37660835 3.77412325 1.57522403
C  0.98551171 -0.52969706 -0.76662246
C  1.78558842 -0.67968201 0.05539803
C  -1.39254010 -0.43769830 -0.42283358
H  0.36296196 0.86579503 0.09257416
H  0.46790809 0.15745343 0.15916029
H  0.20507494 -0.35517798 -0.53891635
H  -0.74502339 -1.09903373 0.24581205
H  -0.77031240 1.73981005 -0.01234734
H  0.29455280 0.26616928 0.34921020
12
MD Step 845.5 Units = [eV / Ang.]
C  0.81731733 -2.31590971 0.08294437
C  -2.37682156 -1.50295362 -0.77186917
C  0.09999792 3.65201140 1.60569341
C  1.06948806 -0.34500767 -0.90050198
C  1.89163823 -1.00246344 0.07396301
C  -1.75248552 -0.24822066 -0.47535001
H  0.44135454 0.98373806 0.06251557
H  0.53709429 0.16294836 0.14680960
H  0.40855662 -0.32203830 -0.51416323
H  -0.82506948 -1.29254693 0.29211212
H  -0.90628503 1.89890487 0.00186023
H  0.59521460 0.33153764 0.39598610
12
MD Step 846.0 Units = [eV / Ang.]
C  0.84156111 -2.41232574 0.13090833
C  -2.32319734 -1.38387396 -0.76956156
C  -0.18645835 3.45072143 1.63150083
C  1.10348038 -0.22448972 -1.02002176
C  1.84709644 -1.17302124 0.11022691
C  -2.02226441 -0.03420545 -0.51073260
H  0.48059942 1.02489147 0.02874801
H  0.59773382 0.17280060 0.13237686
H  0.59328180 -0.28696202 -0.48791876
H  -0.84561651 -1.39043044 0.33150936
H  -0.91450662 1.86523164 -0.00733722
H  0.82829027 0.39166345 0.43030161
12
MD Step 846.5 Units = [eV / Ang.]
C  0.87471706 -2.41627202 0.17708990
C  -2.21497566 -1.21933103 -0.76512856
C  -0.45935511 3.18151605 1.65477727
C  1.08806543 -0.17152472 -1.12268197
C  1.65706485 -1.18831620 0.16639175
C  -2.18958510 0.19794867 -0.52685896
H  0.47938624 0.98776166 -0.00611234
H  0.64926659 0.18712497 0.11602954
H  0.73821892 -0.25280275 -0.46333083
H  -0.80698073 -1.39077103 0.36214141
H  -0.79771604 1.64042132 -0.04224432
H  0.98189354 0.44424508 0.44992711
12
MD Step 847.0 Units = [eV / Ang.]
C  0.91517114 -2.32608216 0.21882766
C  -2.05655739 -1.01782550 -0.75796852
C  -0.69568451 2.85688791 1.67671290
C  1.02497902 -0.18813177 -1.20658131
C  1.34805886 -1.07566932 0.23942449
C  -2.24799781 0.44051099 -0.52280717
H  0.43791056 0.87412022 -0.03940195
H  0.69125214 0.20572335 0.09796245
H  0.82428413 -0.22169482 -0.44277619
H  -0.71074877 -1.29354763 0.38256109
H  -0.58033450 1.25826830 -0.09970128
H  1.04966713 0.48744042 0.45374785
12
MD Step 847.5 Units = [eV / Ang.]
C  0.96039221 -2.14413322 0.25352897
C  -1.85362072 -0.78903780 -0.74738595
C  -0.87629381 2.48933793 1.69705084
C  0.91696353 -0.27476612 -1.27043496
C  0.96016869 -0.88264938 0.32215594
C  -2.19542117 0.68513596 -0.49857566
H  0.35804520 0.68925419 -0.06856498
H  0.72334172 0.22813035 0.07839516
H  0.83754371 -0.19459182 -0.42725490
H  -0.55982907 -1.10073190 0.39177674
H  -0.30049213 0.77421669 -0.17220554
H  1.02920185 0.51983513 0.44151435
12
MD Step 848.0 Units = [eV / Ang.]
C  1.00647861 -1.87796808 0.27885273
C  -1.61278517 -0.54319743 -0.73268322
C  -0.98895113 2.09050440 1.71385234
C  0.76833838 -0.42875409 -1.31370895
C  0.53662825 -0.66234578 0.40563465
C  -2.03345552 0.92359714 -0.45490459
H  0.24389728 0.44284846 -0.09135602
H  0.74526311 0.25366042 0.05756756
H  0.77196265 -0.17107777 -0.41606169
H  -0.35929610 -0.81778408 0.38942366
H  0.00066882 0.25011771 -0.25032289
H  0.92125083 0.54039910 0.41370641
12
MD Step 848.5 Units = [eV / Ang.]
C  1.04741117 -1.54159115 0.29299894
C  -1.34129901 -0.29049513 -0.71323371
C  -1.03015137 1.67079610 1.72368306
C  0.58618626 -0.64160778 -1.33688536
C  0.11539226 -0.46065730 0.48149978
C  -1.76765048 1.14828689 -0.39324608
H  0.10259725 0.15016183 -0.10614175
H  0.75682266 0.28144683 0.03573420
H  0.63084200 -0.14954952 -0.40689173
H  -0.11781665 -0.45631285 0.37606985
H  0.28773102 -0.25898294 -0.32513529
H  0.72993488 0.54850501 0.37154810
12
MD Step 849.0 Units = [eV / Ang.]
C  1.07429918 -1.15634438 0.29510368
C  -1.04673052 -0.04057397 -0.68852827
C  -1.00513187 1.23948433 1.72221307
C  0.38183211 -0.89580216 -1.34179281
C  -0.27492880 -0.30959333 0.54345946
C  -1.40864906 1.35242578 -0.31587020
H  -0.05499221 -0.16710635 -0.11230067
H  0.75791926 0.31047606 0.01315826
H  0.42643264 -0.12772665 -0.39638104
H  0.15075952 -0.03728296 0.35357789
H  0.53530474 -0.71200238 -0.38978961
H  0.46388499 0.54404602 0.31715026
12
MD Step 849.5 Units = [eV / Ang.]
C  1.07508943 -0.75057122 0.28566380
C  -0.73669180 0.19790551 -0.65820115
C  -0.92616631 0.80504220 1.70506570
C  0.17191135 -1.16225159 -1.33182552
C  -0.61510452 -0.22665549 0.58768268
C  -0.97387564 1.52994943 -0.22603881
H  -0.21410696 -0.48105415 -0.11063782
H  0.74857055 0.33961234 -0.00989468
H  0.17782515 -0.10331201 -0.38091145
H  0.42638043 0.40649447 0.32533453
H  0.72816064 -1.08280045 -0.43993650
H  0.13800768 0.52764098 0.25369924
12
MD Step 850.0 Units = [eV / Ang.]
C  1.03528453 -0.35736433 0.26681528
C  -0.41859130 0.41761839 -0.62203715
C  -0.80980024 0.37545865 1.66864964
C  -0.02193668 -1.40028675 -1.31178180
C  -0.89306668 -0.21805633 0.61244102
C  -0.48915062 1.67522945 -0.12811895
H  -0.35695648 -0.75969088 -0.10363960
H  0.72894611 0.36761542 -0.03316153
H  -0.09219348 -0.07458060 -0.35741505
H  0.68330875 0.83043683 0.29607614
H  0.85893165 -1.35723537 -0.47338612
H  -0.22477556 0.50085553 0.18555812
12
MD Step 850.5 Units = [eV / Ang.]
C  0.94000145 -0.01017130 0.24225635
C  -0.09943191 0.61284293 -0.57997381
C  -0.67389945 -0.04166044 1.61075856
C  -0.17560374 -1.56193540 -1.28708926
C  -1.10122936 -0.28317581 0.61746933
C  0.01077128 1.78282046 -0.02746423
H  -0.46493400 -0.97119716 -0.09535121
H  0.69939948 0.39316071 -0.05638501
H  -0.36040381 -0.04073586 -0.32395399
H  0.89299653 1.18264455 0.27108218
H  0.92517874 -1.52890036 -0.48945447
H  -0.59284520 0.46630767 0.11810555
12
MD Step 851.0 Units = [eV / Ang.]
C  0.77721584 0.26302310 0.21667094
C  0.21430845 0.77963058 -0.53210097
C  -0.53527057 -0.43923838 1.53082717
C  -0.26732563 -1.60096949 -1.26243935
C  -1.23441484 -0.41847852 0.60338481
C  0.48386071 1.84748149 0.07008395
H  -0.52193307 -1.08967273 -0.09073293
H  0.66049443 0.41486303 -0.07931564
H  -0.60575501 -0.00198699 -0.27997175
H  1.02930846 1.41318549 0.25477726
H  0.92695472 -1.59533947 -0.48835564
H  -0.92744348 0.42750188 0.05717215
12
MD Step 851.5 Units = [eV / Ang.]
C  0.54135149 0.44528245 0.19471329
C  0.51668945 0.91586116 -0.47866519
C  -0.40822948 -0.81101130 1.42988393
C  -0.28345875 -1.48464189 -1.24028970
C  -1.28880427 -0.62001870 0.57132464
C  0.88546515 1.86460067 0.15909533
H  -0.51789849 -1.10071915 -0.09456463
H  0.61301650 0.43131059 -0.10171154
H  -0.81092822 0.04059382 -0.22624849
H  1.07473426 1.48607321 0.24921271
H  0.86535214 -1.55563032 -0.47081873
H  -1.18728979 0.38829945 0.00806836
12
MD Step 852.0 Units = [eV / Ang.]
C  0.23592152 0.53401712 0.17987098
C  0.80222549 1.02116144 -0.42007321
C  -0.30407092 -1.15178445 1.31030330
C  -0.22286929 -1.20363132 -1.21997285
C  -1.26189961 -0.88423044 0.52284205
C  1.17561429 1.83097232 0.23564673
H  -0.45134163 -1.00479313 -0.11023057
H  0.55796528 0.44111643 -0.12333885
H  -0.96291068 0.08532968 -0.16466925
H  1.02515666 1.38938976 0.25317824
H  0.74213193 -1.40964189 -0.43798269
H  -1.33592304 0.35209446 -0.02557386
12
MD Step 852.5 Units = [eV / Ang.]
C  -0.12585316 0.54070786 0.17363218
C  1.06571838 1.09669638 -0.35689153
C  -0.23117380 -1.45752983 1.17547987
C  -0.09775998 -0.77556334 -1.19797615
C  -1.15337636 -1.20692516 0.46003651
C  1.32713605 1.74559326 0.29820698
H  -0.32979980 -0.81695568 -0.13883871
H  0.49652708 0.44298059 -0.14397064
H  -1.05288426 0.13021853 -0.09791977
H  0.89094761 1.13885676 0.26250560
H  0.56038389 -1.15905299 -0.39154546
H  -1.34986565 0.32097362 -0.04271887
12
MD Step 853.0 Units = [eV / Ang.]
C  -0.52273831 0.48720316 0.17527910
C  1.30208726 1.14483260 -0.28983514
C  -0.19533570 -1.72528973 1.02950193
C  0.06954664 -0.24032860 -1.16930945
C  -0.96665193 -1.58054177 0.38585588
C  1.33167765 1.61011454 0.34790200
H  -0.16805113 -0.56312913 -0.17900822
H  0.43002732 0.43576539 -0.16338849
H  -1.07583066 0.17317709 -0.02918989
H  0.69383546 0.77307206 0.27147602
H  0.32609058 -0.81010102 -0.33409971
H  -1.22465717 0.29522540 -0.04518403
12
MD Step 853.5 Units = [eV / Ang.]
C  -0.92882446 0.40016581 0.18230834
C  1.50627451 1.16872789 -0.21973891
C  -0.20001088 -1.95294926 0.87684830
C  0.25237558 0.35044967 -1.12927435
C  -0.71091180 -1.98996852 0.30444436
C  1.20111627 1.42866821 0.38799126
H  0.01515659 -0.27439513 -0.22734144
H  0.35986915 0.41857307 -0.18138519
H  -1.03019375 0.21223577 0.03809545
H  0.46105116 0.34278994 0.27462964
H  0.05028801 -0.37773948 -0.26950885
H  -0.97619038 0.27344203 -0.03706860
12
MD Step 854.0 Units = [eV / Ang.]
C  -1.31730279 0.30571403 0.19122292
C  1.67329538 1.17189566 -0.14751951
C  -0.24623019 -2.13899911 0.72209069
C  0.42549913 0.94497909 -1.07482008
C  -0.40300249 -2.40796139 0.22130707
C  0.96375923 1.20713320 0.42277107
H  0.20061877 0.01860585 -0.27930623
H  0.28746414 0.39081919 -0.19777014
H  -0.91781370 0.24569752 0.10053801
H  0.21930988 -0.10086343 0.26815356
H  -0.24885288 0.10982052 -0.20308025
H  -0.63674449 0.25315887 -0.02358710
12
MD Step 854.5 Units = [eV / Ang.]
C  -1.66362214 0.22574284 0.19833017
C  1.79846752 1.15779318 -0.07412698
C  -0.33212784 -2.28237711 0.56956485
C  0.56900505 1.49967754 -1.00507777
C  -0.06810734 -2.79219463 0.14298560
C  0.65702280 0.95216308 0.45637038
H  0.37136870 0.28963109 -0.33015159
H  0.21416110 0.35229639 -0.21237744
H  -0.74420316 0.27228033 0.15506398
H  -0.00934124 -0.51497938 0.25042875
H  -0.54518984 0.60825469 -0.14121799
H  -0.24743360 0.23171199 -0.00979197
12
MD Step 855.0 Units = [eV / Ang.]
C  -1.94747073 0.17639699 0.20030403
C  1.87778242 1.12949017 -0.00049797
C  -0.45221314 -2.38244651 0.42297404
C  0.66966081 1.98269492 -0.92116071
C  0.26211401 -3.08680654 0.07600096
C  0.31952356 0.67033388 0.49187096
H  0.51408362 0.51862826 -0.37558110
H  0.14118095 0.30321965 -0.22507663
H  -0.51905796 0.29125624 0.19929655
H  -0.20913147 -0.86855645 0.22182777
H  -0.80641515 1.05884018 -0.09032134
H  0.14994308 0.20694922 0.00036344
12
MD Step 855.5 Units = [eV / Ang.]
C  -2.15363963 0.16827366 0.19444286
C  1.90835493 1.08943243 0.07248048
C  -0.59663236 -2.43908254 0.28492478
C  0.72032305 2.37335286 -0.82559805
C  0.55470080 -3.23071303 0.02517132
C  -0.01486151 0.36764700 0.53094342
H  0.61933188 0.69173817 -0.41209536
H  0.06956216 0.24425053 -0.23578433
H  -0.25675351 0.30257329 0.23200712
H  -0.37013801 -1.14205654 0.18413639
H  -0.99930971 1.39700224 -0.05505223
H  0.51906193 0.17758193 0.00442361
12
MD Step 856.0 Units = [eV / Ang.]
C  -2.27210535 0.20754937 0.17869440
C  1.88886066 1.03931319 0.14399696
C  -0.75086244 -2.45278943 0.15645464
C  0.71841383 2.65938445 -0.72174379
C  0.78300430 -3.17212562 -0.00806839
C  -0.31987186 0.04942050 0.57393700
H  0.68110762 0.80028835 -0.43706412
H  0.00011928 0.17649795 -0.24447683
H  0.02358691 0.30692242 0.25358238
H  -0.48680508 -1.32471464 0.13995581
H  -1.09757604 1.56706380 -0.03662904
H  0.83212817 0.14318965 0.00136099
12
MD Step 856.5 Units = [eV / Ang.]
C  -2.29774421 0.29725284 0.15158528
C  1.81986339 0.98003638 0.21332536
C  -0.89627086 -2.42475799 0.03668646
C  0.66428110 2.83377823 -0.61334446
C  0.93390416 -2.88447944 -0.02639873
C  -0.57698429 -0.27951553 0.62022959
H  0.69615066 0.83955520 -0.44866001
H  -0.06658168 0.10149132 -0.25119934
H  0.29889540 0.30568872 0.26636554
H  -0.55628578 -1.41138076 0.09227921
H  -1.08937098 1.53830880 -0.03211249
H  1.07014309 0.10402223 -0.00875642
12
MD Step 857.0 Units = [eV / Ang.]
C  -2.22999455 0.43814606 0.11216714
C  1.70396234 0.91176052 0.27982720
C  -1.01187421 -2.35677338 -0.07719921
C  0.55990619 2.89235309 -0.50429844
C  1.01110424 -2.37642518 -0.03579694
C  -0.77388750 -0.61445694 0.66864809
H  0.66342438 0.80784937 -0.44578013
H  -0.13022815 0.02112535 -0.25607018
H  0.54416219 0.30073764 0.27467222
H  -0.57714574 -1.40002889 0.04427642
H  -0.98093296 1.31495058 -0.03529120
H  1.22150376 0.06076178 -0.02515497
12
MD Step 857.5 Units = [eV / Ang.]
C  -2.07268256 0.62890384 0.06006894
C  1.54573742 0.83400968 0.34294348
C  -1.07725715 -2.25096549 -0.18950375
C  0.40812036 2.83263579 -0.39855026
C  1.03266134 -1.69064497 -0.04347211
C  -0.90246279 -0.95041009 0.71783323
H  0.58397386 0.70624259 -0.42804983
H  -0.19074572 -0.06242375 -0.25927673
H  0.73559855 0.29403215 0.28430520
H  -0.54868383 -1.29048187 -0.00077847
H  -0.79436017 0.93475564 -0.03884011
H  1.28010067 0.01434647 -0.04667961
12
MD Step 858.0 Units = [eV / Ang.]
C  -1.83407354 0.86554139 -0.00432283
C  1.35148285 0.74582952 0.40218895
C  -1.07614551 -2.10945459 -0.30502380
C  0.21242658 2.65419644 -0.30002119
C  1.02400636 -0.89216529 -0.05562756
C  -0.95718534 -1.28177582 0.76649506
H  0.46122425 0.53902795 -0.39595025
H  -0.24826284 -0.14680412 -0.26106307
H  0.85442013 0.28715956 0.30152664
H  -0.47096795 -1.08453788 -0.03954837
H  -0.56071636 0.45709404 -0.03664687
H  1.24379136 -0.03411120 -0.07200672
12
MD Step 858.5 Units = [eV / Ang.]
C  -1.52712186 1.14018821 -0.07957072
C  1.12877845 0.64600107 0.45714209
C  -0.99964421 -1.93407521 -0.42772560
C  -0.02251219 2.36042593 -0.21245987
C  1.00990436 -0.05222486 -0.07608297
C  -0.93446755 -1.60222978 0.81354837
H  0.30164187 0.31481751 -0.35106065
H  -0.30305356 -0.22961307 -0.26170762
H  0.89024001 0.28091827 0.33168454
H  -0.34561091 -0.78749479 -0.06877288
H  -0.31188455 -0.05338017 -0.02523807
H  1.11373013 -0.08333311 -0.09975663
12
MD Step 859.0 Units = [eV / Ang.]
C  -1.16973040 1.43957774 -0.16286373
C  0.88596869 0.53329863 0.50743869
C  -0.84812218 -1.72631931 -0.55947322
C  -0.28966835 1.96149095 -0.13908642
C  1.00862177 0.76528736 -0.10608776
C  -0.83315427 -1.90485441 0.85814953
H  0.11550760 0.04793285 -0.29633644
H  -0.35546660 -0.30852566 -0.26149451
H  0.84299953 0.27512449 0.37789065
H  -0.17722903 -0.41086626 -0.08563990
H  -0.07445927 -0.54028880 -0.00395497
H  0.89473250 -0.13185758 -0.12854193
12
MD Step 859.5 Units = [eV / Ang.]
C  -0.78464431 1.74386799 -0.24981617
C  0.63161971 0.40679076 0.55276436
C  -0.63110014 -1.48759911 -0.69924559
C  -0.57792022 1.47782281 -0.08193712
C  1.02970019 1.51096894 -0.14495205
C  -0.65611686 -2.18246494 0.89966304
H  -0.08262152 -0.24053751 -0.23627467
H  -0.40584225 -0.38141906 -0.26068156
H  0.72276631 0.26872371 0.44019977
H  0.02467770 0.02432930 -0.08847881
H  0.13288777 -0.96242857 0.02574778
H  0.59659363 -0.17805432 -0.15698899
12
MD Step 860.0 Units = [eV / Ang.]
C  -0.39849655 2.02665553 -0.33458368
C  0.37404178 0.26616195 0.59284703
C  -0.36523532 -1.21977705 -0.84310869
C  -0.87037671 0.94284136 -0.04093949
C  1.07476773 2.15081908 -0.19089651
C  -0.41254925 -2.42799221 0.93759952
H  -0.27431269 -0.52288614 -0.17676831
H  -0.45443150 -0.44647399 -0.25947039
H  0.54749302 0.26016112 0.51556140
H  0.24404789 0.48497831 -0.07773655
H  0.29906302 -1.29426074 0.06126151
H  0.23598857 -0.22022723 -0.18376583
12
MD Step 860.5 Units = [eV / Ang.]
C  -0.03957809 2.25701266 -0.41046399
C  0.12092734 0.11202380 0.62744808
C  -0.07117793 -0.92579344 -0.98491057
C  -1.14378257 0.40300910 -0.01297284
C  1.13998299 2.66340102 -0.24170043
C  -0.12022815 -2.63476906 0.97155093
H  -0.43898708 -0.76698528 -0.12447815
H  -0.50132136 -0.50224968 -0.25798231
H  0.33953272 0.24786159 0.59850865
H  0.45780824 0.92588256 -0.05696112
H  0.41859516 -1.52255102 0.09959463
H  -0.16177128 -0.25684225 -0.20763288
12
MD Step 861.0 Units = [eV / Ang.]
C  0.26571539 2.40384393 -0.47099790
C  -0.12087869 -0.05382487 0.65635073
C  0.22966548 -0.61019825 -1.11739552
C  -1.37020260 -0.08669003 0.00854503
C  1.21878302 3.03587980 -0.29502590
C  0.19342593 -2.79660521 1.00113917
H  -0.55704160 -0.94084414 -0.08570721
H  -0.54638123 -0.54772210 -0.25624400
H  0.12200987 0.23064608 0.68227799
H  0.63780598 1.29428414 -0.03323481
H  0.48934606 -1.64190390 0.13780480
H  -0.56224762 -0.28686545 -0.22751237
12
MD Step 861.5 Units = [eV / Ang.]
C  0.49708827 2.44185523 -0.51133129
C  -0.34545799 -0.22824030 0.67935021
C  0.51762746 -0.27944623 -1.23336233
C  -1.52155440 -0.47231119 0.03293236
C  1.30414429 3.26066899 -0.34848868
C  0.49277335 -2.90768378 1.02596822
H  -0.61373957 -1.01879058 -0.06502010
H  -0.58923490 -0.58228722 -0.25418453
H  -0.08405049 0.20797311 0.75997025
H  0.75563585 1.53939045 -0.01642720
H  0.51065815 -1.65100633 0.17314357
H  -0.92389002 -0.31012215 -0.24255047
12
MD Step 862.0 Units = [eV / Ang.]
C  0.64399317 2.35731436 -0.52937000
C  -0.54782531 -0.40670948 0.69624474
C  0.77618756 0.05809525 -1.32657028
C  -1.57616823 -0.71335457 0.07011695
C  1.39005890 3.33347072 -0.39961127
C  0.73865055 -2.96243234 1.04556019
H  -0.60262428 -0.98742745 -0.06408139
H  -0.62926110 -0.60573492 -0.25164283
H  -0.26141905 0.17998564 0.82545485
H  0.78944490 1.62471100 -0.01700933
H  0.48225233 -1.55040593 0.20304618
H  -1.20328945 -0.32751229 -0.25213780
12
MD Step 862.5 Units = [eV / Ang.]
C  0.70733253 2.15141011 -0.52624671
C  -0.72388179 -0.58349467 0.70682924
C  0.99237958 0.39243605 -1.39227104
C  -1.52492353 -0.79326955 0.12765981
C  1.47215271 3.25294470 -0.44579208
C  0.89586044 -2.95561252 1.05927554
H  -0.52710682 -0.84909653 -0.08120240
H  -0.66562411 -0.61819898 -0.24838462
H  -0.39723935 0.14741399 0.87390021
H  0.73020960 1.53843862 -0.04299635
H  0.40396430 -1.34206321 0.22510389
H  -1.36312356 -0.34090800 -0.25587548
12
MD Step 863.0 Units = [eV / Ang.]
C  0.69854915 1.83980348 -0.50588840
C  -0.87039736 -0.75195551 0.71089493
C  1.15658009 0.71250583 -1.42740050
C  -1.37411043 -0.72320036 0.20820182
C  1.54740702 3.02202750 -0.48440015
C  0.94134902 -2.88277806 1.06625259
H  -0.39953707 -0.62138822 -0.11181499
H  -0.69732984 -0.62009240 -0.24412549
H  -0.48285001 0.11140955 0.90197328
H  0.58459481 1.29699979 -0.09732160
H  0.27634470 -1.03066749 0.23714247
H  -1.38060007 -0.35266410 -0.25351396
12
MD Step 863.5 Units = [eV / Ang.]
C  0.63646218 1.44860597 -0.47388152
C  -0.98501737 -0.90501178 0.70823293
C  1.26210239 1.00688880 -1.43054914
C  -1.14357379 -0.53719442 0.30857662
C  1.61293900 2.65074303 -0.51308014
C  0.86996759 -2.74100998 1.06542619
H  -0.23814829 -0.33291009 -0.14967234
H  -0.72329584 -0.61203808 -0.23855722
H  -0.51329526 0.07336917 0.90783853
H  0.37296133 0.93997165 -0.17691427
H  0.10212886 -0.62653680 0.23750374
H  -1.25323080 -0.36487748 -0.24492339
12
MD Step 864.0 Units = [eV / Ang.]
C  0.54310701 1.00855452 -0.43612226
C  -1.06630939 -1.03570592 0.69864171
C  1.30493539 1.26465772 -1.40183565
C  -0.86111728 -0.28140906 0.42093614
C  1.66385581 2.15997361 -0.53031951
C  0.69540469 -2.52965255 1.05566437
H  -0.06311628 -0.01708462 -0.18828116
H  -0.74243050 -0.59479831 -0.23137492
H  -0.48688175 0.03478068 0.89108551
H  0.12356593 0.51893281 -0.27383951
H  -0.11154386 -0.14955379 0.22558314
H  -0.99946977 -0.37869509 -0.23013786
12
MD Step 864.5 Units = [eV / Ang.]
C  0.43992270 0.54956028 -0.39773625
C  -1.11379320 -1.13778717 0.68194189
C  1.28382559 1.47621492 -1.34278993
C  -0.55583128 -0.00240136 0.53513575
C  1.69057941 1.58496555 -0.53621431
C  0.44596294 -2.25073072 1.03599493
H  0.10690416 0.29377452 -0.22206763
H  -0.75370876 -0.56921139 -0.22230245
H  -0.40501779 -0.00290878 0.85267858
H  -0.13428423 0.08536971 -0.37774243
H  -0.35063642 0.36712621 0.20255827
H  -0.65392310 -0.39397177 -0.20945641
12
MD Step 865.0 Units = [eV / Ang.]
C  0.34519555 0.09718973 -0.36251945
C  -1.12795013 -1.20623474 0.65799330
C  1.20074563 1.63402306 -1.25628678
C  -0.25294136 0.26119296 0.64117022
C  1.67668476 0.97640166 -0.53318595
C  0.15721039 -1.90891198 1.00583944
H  0.25691201 0.57248209 -0.24700872
H  -0.75623761 -0.53613854 -0.21111369
H  -0.27240627 -0.03841328 0.79495641
H  -0.37548091 -0.31798133 -0.47836229
H  -0.59249638 0.87577632 0.17205200
H  -0.25923567 -0.40938596 -0.18353448
12
MD Step 865.5 Units = [eV / Ang.]
C  0.27290759 -0.32856558 -0.33287444
C  -1.11017322 -1.23766976 0.62671986
C  1.06162519 1.73317538 -1.14651356
C  0.02867039 0.48197842 0.73078188
C  1.59886155 0.39657900 -0.52618978
C  -0.13549785 -1.51115303 0.96516774
H  0.37624988 0.79865539 -0.26074242
H  -0.74930941 -0.49642038 -0.19765036
H  -0.09751369 -0.07073253 0.72164328
H  -0.58156486 -0.66070664 -0.56720793
H  -0.80644567 1.31774766 0.14026814
H  0.14219009 -0.42288790 -0.15340242
12
MD Step 866.0 Units = [eV / Ang.]
C  0.23266285 -0.71276538 -0.31005586
C  -1.06267617 -1.23059878 0.58813802
C  0.87709290 1.77174410 -1.01889157
C  0.27652230 0.64303642 0.79803057
C  1.43048021 -0.09064422 -0.52193734
C  -0.40222299 -1.06627114 0.91454559
H  0.45824316 0.95852564 -0.26233887
H  -0.73243577 -0.45085022 -0.18183255
H  0.10691177 -0.09928089 0.63777847
H  -0.74068607 -0.92408557 -0.63816402
H  -0.95800591 1.63342240 0.11512599
H  0.51411373 -0.43223236 -0.12039843
12
MD Step 866.5 Units = [eV / Ang.]
C  0.23019261 -1.04416783 -0.29451506
C  -0.98837702 -1.18550001 0.54239015
C  0.66283205 1.75090878 -0.87982802
C  0.48317044 0.73505306 0.83910910
C  1.14881178 -0.43428078 -0.52702479
C  -0.62061268 -0.58465629 0.85509535
H  0.49935386 1.04378154 -0.25194525
H  -0.70536650 -0.40016044 -0.16366392
H  0.32365017 -0.12400015 0.54943923
H  -0.84614566 -1.09824338 -0.68730518
H  -1.01663541 1.77665396 0.10429963
H  0.82912634 -0.43538845 -0.08605123
12
MD Step 867.0 Units = [eV / Ang.]
C  0.26799408 -1.31390073 -0.28618871
C  -0.89077089 -1.10474992 0.48977544
C  0.43910408 1.67482719 -0.73618610
C  0.64439375 0.75314887 0.85183114
C  0.74360148 -0.60963567 -0.54556322
C  -0.77557781 -0.07813978 0.78841925
H  0.49832790 1.05028049 -0.23046152
H  -0.66809249 -0.34502242 -0.14322919
H  0.53159567 -0.14541258 0.46315213
H  -0.89459373 -1.17890549 -0.71235998
H  -0.96456272 1.72825877 0.11277752
H  1.06858067 -0.43074873 -0.05196674
12
MD Step 867.5 Units = [eV / Ang.]
C  0.34584252 -1.51473740 -0.28466369
C  -0.77381952 -0.99242385 0.43077503
C  0.22907683 1.55025402 -0.59444338
C  0.75756863 0.69450738 0.83513831
C  0.22307511 -0.62429049 -0.57744895
C  -0.85766519 0.44011977 0.71651872
H  0.45563187 0.97720357 -0.19932262
H  -0.62083504 -0.28606133 -0.12068644
H  0.70748976 -0.16455876 0.38498376
H  -0.88459678 -1.16488657 -0.71219093
H  -0.80275621 1.50204943 0.14109190
H  1.22098801 -0.41717578 -0.01975172
12
MD Step 868.0 Units = [eV / Ang.]
C  0.46102932 -1.64125094 -0.28921792
C  -0.64186260 -0.85400757 0.36606244
C  0.05591771 1.38591429 -0.45966714
C  0.82063316 0.55730164 0.78882195
C  -0.38581537 -0.51351051 -0.61820987
C  -0.86123926 0.95590852 0.64172051
H  0.37331171 0.82694180 -0.16039373
H  -0.56402391 -0.22388177 -0.09625412
H  0.82885822 -0.18278264 0.31946038
H  -0.81593200 -1.05683452 -0.68651041
H  -0.55094565 1.14017824 0.18516593
H  1.28006867 -0.39397654 0.00902197
12
MD Step 868.5 Units = [eV / Ang.]
C  0.60828765 -1.69088611 -0.29877102
C  -0.49953303 -0.69604809 0.29649447
C  -0.06092639 1.19170898 -0.33459605
C  0.83188678 0.34103119 0.71355362
C  -1.04303335 -0.32756642 -0.66045964
C  -0.78323343 1.45449119 0.56659096
H  0.25527618 0.60577143 -0.11594665
H  -0.49826871 -0.15910098 -0.07019654
H  0.87772024 -0.20138313 0.26862157
H  -0.68973810 -0.85738654 -0.63593225
H  -0.24171815 0.70025926 0.23780530
H  1.24328031 -0.36089078 0.03283625
12
MD Step 869.0 Units = [eV / Ang.]
C  0.77947871 -1.66572214 -0.31181740
C  -0.35168202 -0.52576927 0.22308032
C  -0.10931872 0.97788180 -0.21918508
C  0.79077162 0.04822787 0.61123335
C  -1.70405468 -0.11729921 -0.69609084
C  -0.62287405 1.92140772 0.49380511
H  0.10789185 0.32512842 -0.06864937
H  -0.42432514 -0.09238914 -0.04280861
H  0.84412454 -0.22122044 0.23157263
H  -0.50951885 -0.57270517 -0.56236374
H  0.08821639 0.24060513 0.29095557
H  1.11129036 -0.31814558 0.05026807
12
MD Step 869.5 Units = [eV / Ang.]
C  0.96319799 -1.57444407 -0.32642933
C  -0.20327180 -0.35066330 0.14692983
C  -0.08678390 0.75429351 -0.11084610
C  0.69961877 -0.31271790 0.48558477
C  -2.32763709 0.07631519 -0.71814541
C  -0.38250358 2.34341432 0.42593882
H  -0.05934368 0.00303636 -0.02149091
H  -0.34306115 -0.02450785 -0.01440298
H  0.72838678 -0.24241231 0.20476766
H  -0.28284852 -0.21515256 -0.46964268
H  0.40570190 -0.19057876 0.33763712
H  0.88854428 -0.26658263 0.06009921
12
MD Step 870.0 Units = [eV / Ang.]
C  1.14464038 -1.43369766 -0.34040303
C  -0.05924481 -0.17809030 0.06919106
C  -0.00081901 0.52995954 -0.00535821
C  0.56592936 -0.72424868 0.34278399
C  -2.88037875 0.22628847 -0.72176594
C  -0.06940316 2.70940178 0.36515168
H  -0.23342996 -0.33507838 0.02243020
H  -0.25542470 0.04365469 0.01469906
H  0.54122492 -0.26424113 0.18297746
H  -0.02335065 0.19354354 -0.36418545
H  0.68540622 -0.55967076 0.37294554
H  0.58485016 -0.20782110 0.06153364
12
MD Step 870.5 Units = [eV / Ang.]
C  1.30613389 -1.26785050 -0.35159001
C  0.07565619 -0.01488077 -0.00901370
C  0.13292094 0.31283677 0.10186200
C  0.40432592 -1.15709954 0.19173695
C  -3.33791364 0.31849411 -0.70427155
C  0.30181583 3.01111663 0.31276031
H  -0.39824672 -0.65712500 0.06028479
H  -0.16241694 0.11105916 0.04417205
H  0.30171965 -0.28530548 0.16061721
H  0.24789128 0.61992510 -0.25523616
H  0.91055090 -0.84680487 0.39413959
H  0.21756270 -0.14436560 0.05453852
12
MD Step 871.0 Units = [eV / Ang.]
C  1.42873000 -1.10632404 -0.35836429
C  0.19709820 0.13302400 -0.08664352
C  0.29387179 0.10979290 0.21456165
C  0.23682468 -1.57037698 0.04351028
C  -3.68385982 0.34786068 -0.66473552
C  0.70705781 3.24350026 0.26875153
H  -0.53607111 -0.92744471 0.09000645
H  -0.06507288 0.17650628 0.07368757
H  0.03382322 -0.30385182 0.13298680
H  0.50269642 1.01912017 -0.15422132
H  1.07136353 -1.04227125 0.40019456
H  -0.18646185 -0.07953551 0.04026581
12
MD Step 871.5 Units = [eV / Ang.]
C  1.49486610 -0.97840340 -0.36007834
C  0.30137389 0.26087481 -0.16277335
C  0.46016204 -0.07338838 0.33485529
C  0.09024198 -1.91601994 -0.09040100
C  -3.90794715 0.31414967 -0.60345317
C  1.11212432 3.40450407 0.23137274
H  -0.63023887 -1.11231086 0.11074652
H  0.03555076 0.23864764 0.10291124
H  -0.23745979 -0.31815577 0.09708091
H  0.70901163 1.33962224 -0.07290162
H  1.16274186 -1.14242705 0.39121806
H  -0.59042677 -0.01709304 0.02142274
12
MD Step 872.0 Units = [eV / Ang.]
C  1.49162299 -0.90667349 -0.35729784
C  0.38559501 0.36533387 -0.23660709
C  0.61158791 -0.23206891 0.46295474
C  -0.00947499 -2.14800585 -0.20074508
C  -4.00431476 0.21870885 -0.52153484
C  1.47497674 3.49438116 0.19701744
H  -0.66840655 -1.18670040 0.12308646
H  0.13837595 0.29602168 0.13150039
H  -0.48921332 -0.32683136 0.05185268
H  0.83710658 1.53286808 -0.02057642
H  1.18221117 -1.14649455 0.36798296
H  -0.95006674 0.03946092 0.00236660
12
MD Step 872.5 Units = [eV / Ang.]
C  1.41356684 -0.90126219 -0.35166832
C  0.44780418 0.44457782 -0.30746790
C  0.73145223 -0.36288890 0.59733619
C  -0.04442894 -2.23401774 -0.28316122
C  -3.97050350 0.06273972 -0.42070483
C  1.75164411 3.51464391 0.16064362
H  -0.64536432 -1.14013700 0.12886488
H  0.24229860 0.34711327 0.15910207
H  -0.70253549 -0.32900062 -0.00197074
H  0.86711022 1.56526189 -0.00133726
H  1.12873899 -1.05480246 0.33167980
H  -1.21978292 0.08777230 -0.01131629
12
MD Step 873.0 Units = [eV / Ang.]
C  1.26411200 -0.95720563 -0.34542703
C  0.48700020 0.49827260 -0.37477579
C  0.80724839 -0.46390434 0.73515986
C  -0.01043466 -2.16495984 -0.33949972
C  -3.80736597 -0.15276562 -0.30329268
C  1.90497318 3.46708817 0.11680938
H  -0.56430851 -0.97930227 0.13064381
H  0.34617531 0.39043933 0.18535661
H  -0.86325661 -0.32432607 -0.06231751
H  0.79483888 1.42793401 -0.01270517
H  1.00264551 -0.86862473 0.28389097
H  -1.36162770 0.12735440 -0.01384272
12
MD Step 873.5 Units = [eV / Ang.]
C  1.05486682 -1.05606561 -0.34075301
C  0.50305889 0.52741337 -0.43801641
C  0.83054220 -0.53462600 0.87275803
C  0.08163070 -1.95778009 -0.37701374
C  -3.51995289 -0.42543352 -0.17236333
C  1.91356018 3.35334102 0.06111690
H  -0.43603536 -0.72629685 0.13101541
H  0.44880845 0.42465586 0.20990566
H  -0.96180544 -0.31294959 -0.12625617
H  0.63309421 1.13960757 -0.04646217
H  0.80666986 -0.59161678 0.22673608
H  -1.35443764 0.15975062 -0.00066725
12
MD Step 874.0 Units = [eV / Ang.]
C  0.80324032 -1.17104330 -0.33921817
C  0.49660134 0.53405326 -0.49671568
C  0.79650007 -0.57590640 1.00608247
C  0.20950587 -1.65013644 -0.40577568
C  -3.11932286 -0.74841245 -0.03189734
C  1.77731177 3.17515772 -0.00845050
H  -0.27640368 -0.41331039 0.13201675
H  0.54893295 0.44867545 0.23240800
H  -0.99270296 -0.29539319 -0.19042219
H  0.40774258 0.74108765 -0.09131642
H  0.54808661 -0.23273216 0.16309229
H  -1.19949201 0.18796025 0.03019647
12
MD Step 874.5 Units = [eV / Ang.]
C  0.52927009 -1.27345563 -0.34151297
C  0.46885913 0.52096092 -0.55042618
C  0.70345897 -0.58969120 1.13106731
C  0.34628131 -1.28963148 -0.43559165
C  -2.62483817 -1.10625165 0.11311708
C  1.51711631 2.93526922 -0.09086901
H  -0.10307957 -0.07585442 0.13482876
H  0.64520601 0.46178973 0.25256105
H  -0.95409123 -0.27246291 -0.25135490
H  0.15054539 0.28413345 -0.13609952
H  0.24142420 0.18985466 0.09673996
H  -0.92015244 0.21533932 0.07754007
12
MD Step 875.0 Units = [eV / Ang.]
C  0.25271698 -1.33825063 -0.34747219
C  0.42158178 0.49126556 -0.59872716
C  0.55280480 -0.57870904 1.24392416
C  0.46706794 -0.92253446 -0.47372241
C  -2.06601967 -1.47096727 0.25686139
C  1.16881813 2.63825750 -0.18236058
H  0.06732366 0.25311358 0.13977867
H  0.73620639 0.46377539 0.27012653
H  -0.84756722 -0.24517489 -0.30577365
H  -0.10804526 -0.18026880 -0.17215650
H  -0.08923576 0.64501696 0.03223458
H  -0.55565177 0.24447611 0.13728715
12
MD Step 875.5 Units = [eV / Ang.]
C  -0.00891300 -1.34721260 -0.35629512
C  0.35701277 0.44812572 -0.64123665
C  0.34924033 -0.54616653 1.34140867
C  0.55319427 -0.58606266 -0.52400042
C  -1.48233607 -1.80040380 0.39330119
C  0.77420058 2.29095245 -0.27743762
H  0.22103657 0.54679347 0.14653986
H  0.82043857 0.45498000 0.28495674
H  -0.67841370 -0.21470063 -0.35084486
H  -0.34365016 -0.61007678 -0.19431561
H  -0.41002673 1.08726584 -0.02566548
H  -0.15178343 0.27650553 0.20358929
12
MD Step 876.0 Units = [eV / Ang.]
C  -0.24128284 -1.28971093 -0.36682686
C  0.27792299 0.39447023 -0.67763130
C  0.10135579 -0.49552788 1.42110205
C  0.59336625 -0.30556840 -0.58713118
C  -0.91929557 -2.04143462 0.51723077
C  0.37255019 1.90216269 -0.37019474
H  0.34774917 0.78569994 0.15439397
H  0.89634478 0.43637043 0.29701782
H  -0.45614402 -0.18230996 -0.38448513
H  -0.53959385 -0.97538284 -0.20063885
H  -0.68085180 1.46020678 -0.07301250
H  0.24787889 0.31102455 0.27017595
12
MD Step 876.5 Units = [eV / Ang.]
C  -0.43334703 -1.16170726 -0.37780552
C  0.18766790 0.33282792 -0.70766846
C  -0.17775141 -0.43040836 1.48172188
C  0.58261700 -0.09563594 -0.66158501
C  -0.42039635 -2.13942807 0.62542753
C  -0.00470305 1.48191219 -0.45535030
H  0.44037253 0.95707077 0.16245853
H  0.96232102 0.40953767 0.30640611
H  -0.19510294 -0.14928704 -0.40570887
H  -0.68614112 -1.25758445 -0.19154759
H  -0.86323815 1.70624950 -0.10780133
H  0.60770160 0.34645307 0.33145303
12
MD Step 877.0 Units = [eV / Ang.]
C  -0.57707234 -0.96401470 -0.38803335
C  0.09023041 0.26523929 -0.73120235
C  -0.47019940 -0.35458594 1.52342057
C  0.52034632 0.03688909 -0.74454234
C  -0.01696396 -2.05231226 0.71734328
C  -0.33568900 1.04056796 -0.52880070
H  0.49440063 1.05347450 0.16984288
H  1.01673788 0.37665011 0.31335273
H  0.08529340 -0.11679774 -0.41496793
H  -0.77860309 -1.44649851 -0.16887256
H  -0.93052084 1.78083672 -0.13063806
H  0.90203999 0.38055147 0.38309782
12
MD Step 877.5 Units = [eV / Ang.]
C  -0.66710672 -0.70061345 -0.39647875
C  -0.00978483 0.19325135 -0.74818943
C  -0.75389057 -0.27210890 1.54796662
C  0.40844810 0.08966104 -0.83260177
C  0.27983944 -1.76400537 0.79485140
C  -0.60699164 0.58818686 -0.58771945
H  0.50727285 1.07142786 0.17573840
H  1.05796508 0.34035238 0.31821303
H  0.36119209 -0.08571037 -0.41436413
H  -0.81535748 -1.53716385 -0.13513210
H  -0.87607700 1.66585451 -0.14445911
H  1.11449068 0.41086794 0.42217530
12
MD Step 878.0 Units = [eV / Ang.]
C  -0.70061981 -0.37757349 -0.40233277
C  -0.10724097 0.11796248 -0.75868156
C  -1.00428948 -0.18742060 1.55865727
C  0.25000602 0.06245595 -0.92218627
C  0.48067834 -1.29076978 0.86109382
C  -0.81118115 0.13425762 -0.63038634
H  0.47800397 1.01054208 0.17947021
H  1.08440275 0.30360571 0.32143923
H  0.60621151 -0.05640826 -0.40757506
H  -0.79639651 -1.52742303 -0.09311671
H  -0.71535566 1.37574539 -0.15333921
H  1.23578099 0.43502592 0.44695740
12
MD Step 878.5 Units = [eV / Ang.]
C  -0.67744493 -0.00280872 -0.40504956
C  -0.19664702 0.04010921 -0.76280496
C  -1.19748781 -0.10541510 1.55984405
C  0.04870295 -0.04387332 -1.00970932
C  0.61232992 -0.67721338 0.91904240
C  -0.94423741 -0.31220106 -0.65594771
H  0.40721861 0.87343849 0.18053666
H  1.09452351 0.26947595 0.32353515
H  0.79468883 -0.02866335 -0.39936675
H  -0.72264538 -1.41678966 -0.04572620
H  -0.48054118 0.95306710 -0.16100442
H  1.26153990 0.45087387 0.45665065
12
MD Step 879.0 Units = [eV / Ang.]
C  -0.60055785 0.41331424 -0.40438610
C  -0.27242491 -0.03981243 -0.76072610
C  -1.31407965 -0.03129856 1.55606578
C  -0.19107516 -0.22698965 -1.09160424
C  0.70759509 0.01583784 0.97050994
C  -1.00373042 -0.74238689 -0.66424799
H  0.29762109 0.66645834 0.17865602
H  1.08693249 0.24086993 0.32499555
H  0.90576314 -0.00165283 -0.39469464
H  -0.59610348 -1.20677952 0.00404567
H  -0.21069077 0.45586582 -0.16979592
H  1.19075044 0.45657372 0.45118205
12
MD Step 879.5 Units = [eV / Ang.]
C  -0.47681614 0.85672787 -0.40045116
C  -0.32923946 -0.12140141 -0.75260944
C  -1.34283570 0.02976830 1.55098476
C  -0.46345471 -0.48121779 -1.16433025
C  0.79562950 0.72552307 1.01594289
C  -0.98821590 -1.14755657 -0.65579293
H  0.15480906 0.40096690 0.17382322
H  1.06044854 0.22024733 0.32623591
H  0.92724314 0.02584057 -0.39759145
H  -0.42075872 -0.90270704 0.05309765
H  0.05792290 -0.05689814 -0.18043363
H  1.02526751 0.45070690 0.43112443
12
MD Step 880.0 Units = [eV / Ang.]
C  -0.31774015 1.30825492 -0.39373999
C  -0.36235802 -0.20417736 -0.73857171
C  -1.28301188 0.07321628 1.54645717
C  -0.75971852 -0.79452149 -1.22446584
C  0.89618627 1.39752579 1.05481502
C  -0.89797625 -1.51914935 -0.63185934
H  -0.01181327 0.09478088 0.16636038
H  1.01421124 0.20932725 0.32752068
H  0.85803995 0.05507907 -0.41018640
H  -0.20410159 -0.51670922 0.09829842
H  0.29778222 -0.53608083 -0.19240868
H  0.77050001 0.43245408 0.39778027
12
MD Step 880.5 Units = [eV / Ang.]
C  -0.13993730 1.74278524 -0.38512578
C  -0.36798506 -0.28739249 -0.71863999
C  -1.14445063 0.09564836 1.54207546
C  -1.06670527 -1.14499385 -1.26897907
C  1.01847382 1.99071521 1.08621053
C  -0.73699730 -1.84924301 -0.59470914
H  -0.18845059 -0.22704580 0.15692741
H  0.94781067 0.20883370 0.32890309
H  0.70829738 0.08698143 -0.43220643
H  0.04116360 -0.07129586 0.13675382
H  0.49165183 -0.94685216 -0.20459741
H  0.43712885 0.40185923 0.35338751
12
MD Step 881.0 Units = [eV / Ang.]
C  0.03542529 2.12998102 -0.37576226
C  -0.34355015 -0.36983317 -0.69271899
C  -0.94546463 0.09525920 1.53533629
C  -1.36565182 -1.49825755 -1.29570784
C  1.16322006 2.47676837 1.10928224
C  -0.51571639 -2.13122564 -0.54781451
H  -0.35723371 -0.53304154 0.14644987
H  0.86142941 0.21831353 0.33018539
H  0.49719214 0.12183482 -0.46112118
H  0.29596011 0.39800343 0.16629835
H  0.63096609 -1.26793421 -0.21577525
H  0.04342360 0.36013174 0.30134791
12
MD Step 881.5 Units = [eV / Ang.]
C  0.18456915 2.43724375 -0.36687067
C  -0.28790808 -0.44967334 -0.66058164
C  -0.70927440 0.07198221 1.52233525
C  -1.63249740 -1.80783309 -1.30395108
C  1.32599617 2.83718234 1.12347976
C  -0.25365975 -2.36045399 -0.49593996
H  -0.49792805 -0.78850163 0.13593852
H  0.75597567 0.23607422 0.33091408
H  0.24920497 0.15919542 -0.49283429
H  0.53526766 0.84299446 0.18610960
H  0.71294891 -1.48806694 -0.22491133
H  -0.38269483 0.30985659 0.24631175
12
MD Step 882.0 Units = [eV / Ang.]
C  0.28458021 2.63492176 -0.35944130
C  -0.20144327 -0.52437704 -0.62188031
C  -0.46018399 0.02731353 1.49869476
C  -1.84054316 -2.02039039 -1.29489716
C  1.50033369 3.05980910 1.12859386
C  0.01939221 -2.53456166 -0.44488002
H  -0.59111380 -0.96103425 0.12622510
H  0.63318711 0.25925229 0.33041083
H  -0.00992863 0.19798470 -0.52262817
H  0.73102285 1.20812752 0.19716909
H  0.73785885 -1.60197158 -0.23127823
H  -0.80316208 0.25492600 0.19391156
12
MD Step 882.5 Units = [eV / Ang.]
C  0.31776404 2.70256959 -0.35393816
C  -0.08609818 -0.59072450 -0.57618687
C  -0.22050426 -0.03606585 1.46041869
C  -1.96551483 -2.08619466 -1.27155162
C  1.67993055 3.13624368 1.12471353
C  0.26521383 -2.65319810 -0.40069720
H  -0.62219464 -1.02724651 0.11770081
H  0.49567389 0.28402555 0.32784084
H  -0.25651823 0.23671065 -0.54604278
H  0.85749257 1.44106465 0.20221564
H  0.70704763 -1.60720655 -0.23446276
H  -1.17229237 0.20002206 0.14998988
12
MD Step 883.0 Units = [eV / Ang.]
C  0.27556320 2.63408908 -0.35013642
C  0.05467058 -0.64494841 -0.52305335
C  -0.00875537 -0.11474951 1.40446774
C  -1.99162847 -1.97207121 -1.23797137
C  1.85978206 3.06061388 1.11217525
C  0.44277780 -2.71716026 -0.36850228
H  -0.58493654 -0.97833571 0.11017782
H  0.34688458 0.30594124 0.32230795
H  -0.47092370 0.27372130 -0.55947908
H  0.89765277 1.50580333 0.20499630
H  0.62201952 -1.50253902 -0.23435074
H  -1.44310642 0.14963530 0.11936818
12
MD Step 883.5 Units = [eV / Ang.]
C  0.16056374 2.43959537 -0.34718249
C  0.21598899 -0.68298672 -0.46208606
C  0.16091711 -0.20498595 1.32901919
C  -1.91616903 -1.67173149 -1.19802289
C  2.03629763 2.83000365 1.09154569
C  0.51701646 -2.72724673 -0.35110788
H  -0.48313012 -0.82233222 0.10295433
H  0.19098770 0.32031596 0.31296315
H  -0.63829452 0.30741661 -0.56048233
H  0.84799233 1.39313249 0.20902031
H  0.48447822 -1.28806332 -0.23112930
H  -1.57664849 0.10688236 0.10450829
12
MD Step 884.0 Units = [eV / Ang.]
C  -0.01418742 2.14313660 -0.34385872
C  0.39172369 -0.70082902 -0.39302248
C  0.27849679 -0.30292572 1.23347756
C  -1.75032992 -1.20846456 -1.15422947
C  2.20648879 2.44658397 1.06364699
C  0.46796750 -2.68341381 -0.34813463
H  -0.32966412 -0.58202148 0.09506426
H  0.03267354 0.32266010 0.29911044
H  -0.74842556 0.33639172 -0.54777477
H  0.71943778 1.12340851 0.21638825
H  0.29730357 -0.96714513 -0.22531352
H  -1.55148465 0.07261880 0.10464609
12
MD Step 884.5 Units = [eV / Ang.]
C  -0.22822215 1.77721630 -0.33894111
C  0.57471748 -0.69489660 -0.31580151
C  0.33752247 -0.40473547 1.11834819
C  -1.51587990 -0.62882731 -1.10726351
C  2.36630329 1.92136055 1.02958218
C  0.29659895 -2.58475557 -0.35605205
H  -0.14341980 -0.28944323 0.08559995
H  -0.12310173 0.30907151 0.28029503
H  -0.79522353 0.35951795 -0.52115254
H  0.53394560 0.74026333 0.22726395
H  0.06635896 -0.55008560 -0.21776519
H  -1.36959965 0.04531414 0.11588662
12
MD Step 885.0 Units = [eV / Ang.]
C  -0.45781600 1.37634160 -0.33150623
C  0.75712024 -0.66241502 -0.23061726
C  0.33464045 -0.50665973 0.98506648
C  -1.23930750 0.00954204 -1.05623120
C  2.50830036 1.27889949 0.99069473
C  0.02466752 -2.43038374 -0.36922752
H  0.05473413 0.02080871 0.07397199
H  -0.27140078 0.27655891 0.25636382
H  -0.77622147 0.37599061 -0.48134842
H  0.31845903 0.29842325 0.24015448
H  -0.19716612 -0.05889689 -0.20963502
H  -1.05600985 0.02179076 0.13231415
12
MD Step 885.5 Units = [eV / Ang.]
C  -0.67986041 0.97176661 -0.32109552
C  0.93082951 -0.60172346 -0.13795547
C  0.26953618 -0.60511239 0.83585062
C  -0.94601990 0.65049174 -0.99944518
C  2.61929286 0.56146291 0.94835866
C  -0.31129380 -2.22078436 -0.38153041
H  0.24544984 0.31722536 0.06002752
H  -0.40759778 0.22328050 0.22749280
H  -0.69240634 0.38537025 -0.42991762
H  0.09890360 -0.14883871 0.25269831
H  -0.47459968 0.46839618 -0.20213163
H  -0.65223409 -0.00153463 0.14764790
12
MD Step 886.0 Units = [eV / Ang.]
C  -0.87453922 0.58862471 -0.30772887
C  1.08801616 -0.51249285 -0.03861092
C  0.14534457 -0.69684607 0.67358514
C  -0.65652957 1.24794499 -0.93521136
C  2.67917637 -0.17021559 0.90353775
C  -0.66903145 -1.95897094 -0.38781531
H  0.41305704 0.57467263 0.04402966
H  -0.52765173 0.14868872 0.19418210
H  -0.54846702 0.38763330 -0.36915233
H  -0.10376277 -0.55823388 0.26249057
H  -0.73908697 0.97669221 -0.19605435
H  -0.20652541 -0.02749723 0.15674791
12
MD Step 886.5 Units = [eV / Ang.]
C  -1.02658569 0.24537615 -0.29181756
C  1.22167759 -0.39584128 0.06631576
C  -0.03058961 -0.77917313 0.50171677
C  -0.38511593 1.76910878 -0.86232439
C  2.66246712 -0.84252552 0.85618437
C  -1.00900916 -1.65098688 -0.38478519
H  0.54626543 0.77529517 0.02655423
H  -0.62835269 0.05359426 0.15722145
H  -0.35337377 0.38322534 -0.30199032
H  -0.27489594 -0.89960030 0.26762276
H  -0.95780952 1.39907079 -0.19116633
H  0.23532216 -0.05754336 0.15646845
12
MD Step 887.0 Units = [eV / Ang.]
C  -1.12544852 -0.04521422 -0.27404063
C  1.32615877 -0.25438192 0.17543835
C  -0.24586347 -0.85016557 0.32410908
C  -0.14037548 2.19346586 -0.78021829
C  2.54343040 -1.38217976 0.80476554
C  -1.29970175 -1.30569157 -0.37113767
H  0.63782177 0.90776957 0.00836851
H  -0.70753378 -0.05983324 0.11763116
H  -0.12103273 0.37308676 -0.23185717
H  -0.40553217 -1.15483236 0.26687244
H  -1.09785471 1.66965528 -0.18570374
H  0.63593166 -0.09167883 0.14577241
12
MD Step 887.5 Units = [eV / Ang.]
C  -1.16483730 -0.27456584 -0.25522827
C  1.39756612 -0.09219548 0.28712713
C  -0.48258332 -0.90872158 0.14479570
C  0.07330708 2.50963860 -0.68889653
C  2.30384150 -1.73402307 0.74633824
C  -1.51921843 -0.93408649 -0.34721396
H  0.68369873 0.96587788 -0.00966934
H  -0.76424010 -0.18812515 0.07658343
H  0.12943889 0.35859892 -0.16237981
H  -0.49081619 -1.31474227 0.25965115
H  -1.13457836 1.74114685 -0.17644670
H  0.96842139 -0.12880235 0.12533896
12
MD Step 888.0 Units = [eV / Ang.]
C  -1.14210496 -0.43700413 -0.23627005
C  1.43401640 0.08521273 0.39956808
C  -0.71783831 -0.95441277 -0.03240069
C  0.25409668 2.71200128 -0.58878613
C  1.94030007 -1.87622366 0.67740640
C  -1.65424733 -0.54848408 -0.31446493
H  0.68230577 0.94718162 -0.02667897
H  -0.79884854 -0.32661889 0.03531020
H  0.37434246 0.34140339 -0.09694745
H  -0.52836176 -1.37570627 0.24585616
H  -1.05921362 1.59980308 -0.15958757
H  1.21555314 -0.16715229 0.09699495
12
MD Step 888.5 Units = [eV / Ang.]
C  -1.05775619 -0.52916399 -0.21804666
C  1.43568788 0.27100307 0.51084488
C  -0.92557334 -0.98707762 -0.20434344
C  0.40129140 2.79813308 -0.48062364
C  1.46744147 -1.82523949 0.59529703
C  -1.69778563 -0.16171670 -0.27497185
H  0.63402794 0.85227908 -0.04180709
H  -0.81311622 -0.46962251 -0.00499861
H  0.58738752 0.32307579 -0.03817195
H  -0.51705827 -1.33719681 0.22573391
H  -0.88199057 1.27020827 -0.13212303
H  1.36744403 -0.20468215 0.06321044
12
MD Step 889.0 Units = [eV / Ang.]
C  -0.91524832 -0.55024854 -0.20136432
C  1.40464573 0.45711749 0.61903253
C  -1.07988618 -1.00623924 -0.36902465
C  0.51437277 2.76763266 -0.36540961
C  0.91526662 -1.62791717 0.49934970
C  -1.64690710 0.21356347 -0.23113119
H  0.54122582 0.68484265 -0.05427914
H  -0.81013293 -0.61063871 -0.04329493
H  0.74310133 0.30471104 0.01261022
H  -0.45654656 -1.20066360 0.19980748
H  -0.62905997 0.80714392 -0.09305815
H  1.41916880 -0.23930398 0.02676206
12
MD Step 889.5 Units = [eV / Ang.]
C  -0.72114475 -0.50307184 -0.18687435
C  1.34446902 0.63449027 0.72230375
C  -1.15926452 -1.01052030 -0.52579881
C  0.59273001 2.62240439 -0.24442556
C  0.32206411 -1.34515939 0.39129291
C  -1.50130545 0.56547808 -0.18549623
H  0.40868531 0.45241445 -0.06347712
H  -0.79414323 -0.74266797 -0.07876362
H  0.82112965 0.28655143 0.05560074
H  -0.34743835 -0.96987268 0.16887378
H  -0.33486441 0.27898109 -0.04378945
H  1.36908261 -0.26902750 -0.00944604
12
MD Step 890.0 Units = [eV / Ang.]
C  -0.48552694 -0.39561720 -0.17495668
C  1.25970201 0.79336761 0.81902923
C  -1.15061672 -0.99728891 -0.67525194
C  0.63621395 2.36834310 -0.11928325
C  -0.27355561 -1.03525654 0.27472012
C  -1.26295738 0.88344488 -0.14070744
H  0.24435923 0.16771160 -0.06906077
H  -0.77021839 -0.85858596 -0.11088991
H  0.81028148 0.26782677 0.09241099
H  -0.19227250 -0.65259672 0.13404575
H  -0.03369127 -0.24928686 0.01242133
H  1.21828214 -0.29206178 -0.04247743
12
MD Step 890.5 Units = [eV / Ang.]
C  -0.22242532 -0.24256947 -0.16556986
C  1.15521056 0.92378239 0.90785870
C  -1.05181683 -0.96269712 -0.81871075
C  0.64657152 2.01806847 0.00804914
C  -0.83836930 -0.74318126 0.15409644
C  -0.93698152 1.15862317 -0.09941515
H  0.06007679 -0.15007474 -0.07112418
H  -0.74377554 -0.95158870 -0.13948831
H  0.71099180 0.24691797 0.12553750
H  0.00289267 -0.26332876 0.09679093
H  0.24629930 -0.72700542 0.07144742
H  0.97132588 -0.30694653 -0.06947188
12
MD Step 891.0 Units = [eV / Ang.]
C  0.05018054 -0.06602748 -0.15809517
C  1.03550907 1.01618743 0.98776676
C  -0.87184862 -0.90216204 -0.95754781
C  0.62946147 1.59395221 0.13529836
C  -1.34686523 -0.49750655 0.03384879
C  -0.53356196 1.38431471 -0.06408900
H  -0.12826518 -0.47477350 -0.07035325
H  -0.71997242 -1.01568228 -0.16468529
H  0.53529297 0.22182192 0.15760934
H  0.22659346 0.17376105 0.05889879
H  0.48537260 -1.12112904 0.12921999
H  0.63810329 -0.31275644 -0.08787150
12
MD Step 891.5 Units = [eV / Ang.]
C  0.31131698 0.10552669 -0.15124829
C  0.90416092 1.06220898 1.05805519
C  -0.62854826 -0.81114917 -1.09254500
C  0.59633677 1.13007537 0.26007352
C  -1.78086476 -0.31288775 -0.08215322
C  -0.07052902 1.55630048 -0.03662634
H  -0.30157570 -0.77443835 -0.06810752
H  -0.70305447 -1.04617172 -0.18685137
H  0.30429624 0.19075391 0.19067794
H  0.46048220 0.62299163 0.02231176
H  0.67154899 -1.41383329 0.18225852
H  0.23643011 -0.30937678 -0.09584519
12
MD Step 892.0 Units = [eV / Ang.]
C  0.53926331 0.24061475 -0.14314272
C  0.76336828 1.05544182 1.11830694
C  -0.34485215 -0.68602201 -1.22353203
C  0.56501964 0.67125553 0.38020027
C  -2.12783015 -0.19492388 -0.19070835
C  0.42427633 1.67309060 -0.01774845
H  -0.43983972 -1.01488460 -0.06633593
H  -0.69576146 -1.04009442 -0.20649153
H  0.04411156 0.15266760 0.22577962
H  0.67933981 1.03831429 -0.01119821
H  0.79845092 -1.59767799 0.22779086
H  -0.20554636 -0.29778171 -0.09292048
12
MD Step 892.5 Units = [eV / Ang.]
C  0.71496137 0.31031987 -0.13157337
C  0.61380728 0.99219759 1.16831178
C  -0.04481485 -0.52480140 -1.34937351
C  0.55778111 0.26770139 0.49411690
C  -2.37905487 -0.14491572 -0.28914167
C  0.91222896 1.73596884 -0.00630098
H  -0.52559783 -1.16536927 -0.06726552
H  -0.69890520 -0.99654785 -0.22411447
H  -0.21845812 0.10753106 0.26285439
H  0.85363991 1.36891396 -0.04042876
H  0.86296442 -1.67083274 0.26361294
H  -0.64855219 -0.28016573 -0.08069774
12
MD Step 893.0 Units = [eV / Ang.]
C  0.82571077 0.29464271 -0.11449059
C  0.45476350 0.87208371 1.20797986
C  0.24949428 -0.32770310 -1.46822430
C  0.59654493 -0.03460553 0.60114945
C  -2.52837100 -0.16322149 -0.37508829
C  1.34633290 1.74866601 0.00124055
H  -0.54772388 -1.20503039 -0.07289893
H  -0.71121952 -0.91685237 -0.24010624
H  -0.45931156 0.05632539 0.30095102
H  0.95495088 1.56911639 -0.06504217
H  0.86347559 -1.63367480 0.28786807
H  -1.04464689 -0.25974654 -0.06333842
12
MD Step 893.5 Units = [eV / Ang.]
C  0.86784438 0.18746570 -0.09052189
C  0.28453316 0.69831298 1.23727360
C  0.51973666 -0.09744578 -1.57790655
C  0.69634770 -0.20504046 0.70147954
C  -2.57160258 -0.25078386 -0.44634481
C  1.67775741 1.71657408 0.01064145
H  -0.50414964 -1.12787999 -0.08447383
H  -0.72952052 -0.80452281 -0.25463632
H  -0.65899817 0.00083819 0.33857255
H  0.96291897 1.60981371 -0.08556507
H  0.79901353 -1.48720229 0.29888929
H  -1.34388092 -0.24012946 -0.04740796
12
MD Step 894.0 Units = [eV / Ang.]
C  0.84727462 -0.00188694 -0.05934092
C  0.10100258 0.47771320 1.25617539
C  0.75176274 0.16066212 -1.67627003
C  0.85968310 -0.23645180 0.79575605
C  -2.50683898 -0.40873903 -0.50089629
C  1.86567892 1.64559498 0.02885885
H  -0.40239488 -0.94432947 -0.10209739
H  -0.74914495 -0.66504621 -0.26761366
H  -0.80330193 -0.05662886 0.37402365
H  0.87117841 1.48677500 -0.10304054
H  0.66942447 -1.23333080 0.29521425
H  -1.50432412 -0.22433220 -0.04076937
12
MD Step 894.5 Units = [eV / Ang.]
C  0.77764284 -0.25111880 -0.02172628
C  -0.09769206 0.22039459 1.26469834
C  0.93524539 0.43887529 -1.76146628
C  1.07448107 -0.14633818 0.88453053
C  -2.33558224 -0.63617416 -0.53719314
C  1.88741206 1.54100504 0.06217439
H  -0.25765841 -0.67860004 -0.12471033
H  -0.76458275 -0.50548653 -0.27869866
H  -0.88292744 -0.11354448 0.40568207
H  0.68943526 1.22184499 -0.11849890
H  0.47662333 -0.87702553 0.27585309
H  -1.50239705 -0.21383220 -0.05064484
12
MD Step 895.0 Units = [eV / Ang.]
C  0.67684461 -0.53038437 0.02068878
C  -0.31255855 -0.06085901 1.26292864
C  1.06302617 0.72739473 -1.83211882
C  1.31677142 0.02945890 0.96780510
C  -2.06478517 -0.92623596 -0.55472637
C  1.74472180 1.40683324 0.11416188
H  -0.08927110 -0.36312077 -0.15038020
H  -0.77017304 -0.33397297 -0.28736280
H  -0.89283062 -0.16737860 0.43217777
H  0.44071143 0.85643596 -0.13252891
H  0.22686365 -0.43007407 0.24085958
H  -1.33932060 -0.20809708 -0.08150464
12
MD Step 895.5 Units = [eV / Ang.]
C  0.56327863 -0.80848174 0.06584737
C  -0.54326971 -0.35140993 1.25108313
C  1.13060986 1.01497589 -1.88742023
C  1.55673472 0.24738886 1.04489905
C  -1.70949771 -1.26128191 -0.55485272
C  1.46336418 1.24601481 0.18437866
H  0.08311245 -0.03211276 -0.17677906
H  -0.76074633 -0.15913475 -0.29297855
H  -0.83165803 -0.21578387 0.45250237
H  0.15514397 0.44048340 -0.14514363
H  -0.06635867 0.08420073 0.19215751
H  -1.04071336 -0.20485873 -0.13369389
12
MD Step 896.0 Units = [eV / Ang.]
C  0.45297765 -1.05781850 0.11169608
C  -0.78788461 -0.63569265 1.22955763
C  1.13610540 1.28971031 -1.92717452
C  1.76535199 0.46643305 1.11462055
C  -1.29522593 -1.60870211 -0.54164518
C  1.08608406 1.06118974 0.26837625
H  0.24240452 0.28358610 -0.20165325
H  -0.73212234 0.01045124 -0.29491984
H  -0.70156785 -0.25675923 0.46608013
H  -0.13682455 0.02166105 -0.15593008
H  -0.37975690 0.62693356 0.13438877
H  -0.64954144 -0.20099256 -0.20339655
12
MD Step 896.5 Units = [eV / Ang.]
C  0.35813904 -1.25712442 0.15647968
C  -1.04277576 -0.89817237 1.19895092
C  1.08068877 1.53993142 -1.95181241
C  1.91925746 0.65454736 1.17558942
C  -0.85832206 -1.92007616 -0.52229203
C  0.66223263 0.85563234 0.35892760
H  0.37553655 0.55941114 -0.22314529
H  -0.68142777 0.16675585 -0.29265428
H  -0.50852045 -0.28883224 0.47282295
H  -0.40942320 -0.36164839 -0.16432412
H  -0.67975699 1.14313409 0.07529842
H  -0.21562821 -0.19355863 -0.28384087
12
MD Step 897.0 Units = [eV / Ang.]
C  0.28693634 -1.39201414 0.19887068
C  -1.30275054 -1.12425429 1.16005748
C  0.96949652 1.75515770 -1.96237392
C  2.00284020 0.79048439 1.22654360
C  -0.44255275 -2.13654007 -0.50643550
C  0.23814262 0.63384918 0.44781003
H  0.47361563 0.77774657 -0.23993371
H  -0.60723792 0.30270988 -0.28581676
H  -0.26294750 -0.31127667 0.47316673
H  -0.64372261 -0.68270726 -0.16985336
H  -0.92591123 1.56740735 0.02504242
H  0.21409123 -0.18056265 -0.36707768
12
MD Step 897.5 Units = [eV / Ang.]
C  0.24411615 -1.45414069 0.23796972
C  -1.56132876 -1.30112244 1.11383527
C  0.81265584 1.92699335 -1.96043531
C  2.00804185 0.86223789 1.26654611
C  -0.09116732 -2.20127356 -0.50411837
C  -0.14894843 0.40161061 0.52739264
H  0.53129335 0.92714599 -0.25123167
H  -0.50958176 0.41253728 -0.27425996
H  0.01949495 -0.32434709 0.46805886
H  -0.82744187 -0.92526709 -0.17227284
H  -1.07888162 1.83686702 -0.00591216
H  0.60174764 -0.16124126 -0.44557230
12
MD Step 898.0 Units = [eV / Ang.]
C  0.23185805 -1.43984792 0.27324484
C  -1.81112032 -1.41846888 1.06135748
C  0.62595974 2.04984046 -1.94794002
C  1.93290309 0.86402836 1.29508771
C  0.16359843 -2.07596422 -0.52277386
C  -0.47283730 0.16555674 0.59158611
H  0.54589110 1.00100346 -0.25671593
H  -0.38985589 0.49202397 -0.25808070
H  0.31756401 -0.32945784 0.45884677
H  -0.95346924 -1.08076029 -0.17160417
H  -1.11104310 1.90799165 -0.00984484
H  0.92055144 -0.13594549 -0.51316339
12
MD Step 898.5 Units = [eV / Ang.]
C  0.25051041 -1.34899342 0.30446831
C  -2.04426086 -1.46912376 1.00376172
C  0.43059436 2.12127848 -1.92689034
C  1.77979133 0.79340020 1.31211415
C  0.30917178 -1.75423662 -0.56455868
C  -0.71722698 -0.06736722 0.63611946
H  0.51668042 0.99638726 -0.25645119
H  -0.25068907 0.53874631 -0.23762510
H  0.60505089 -0.32919124 0.44701915
H  -1.01811189 -1.14538718 -0.16812345
H  -1.01524032 1.77031055 0.01551959
H  1.15372994 -0.10582336 -0.56535361
12
MD Step 899.0 Units = [eV / Ang.]
C  0.29896304 -1.18438173 0.33168734
C  -2.25284972 -1.44955153 0.94220382
C  0.25139801 2.14196489 -1.89890810
C  1.55392117 0.64932896 1.31801429
C  0.35497615 -1.26509074 -0.62547155
C  -0.87314907 -0.29038243 0.65835973
H  0.44454357 0.91348354 -0.25084615
H  -0.09578246 0.55226971 -0.21347288
H  0.85287950 -0.32701291 0.43379867
H  -1.01975575 -1.11802299 -0.16233972
H  -0.80717924 1.44988217 0.06612824
H  1.29203481 -0.07248693 -0.59915371
12
MD Step 899.5 Units = [eV / Ang.]
C  0.37458314 -0.95196940 0.35523851
C  -2.42936822 -1.36020630 0.87781743
C  0.11350040 2.11501404 -1.86474374
C  1.26244594 0.43169054 1.31358593
C  0.32720862 -0.66442592 -0.69676680
C  -0.93632392 -0.49713819 0.65694840
H  0.33208722 0.75582677 -0.24065279
H  0.07026726 0.53431322 -0.18640160
H  1.03280405 -0.32664005 0.41966854
H  -0.95827376 -0.99934529 -0.15498327
H  -0.52013307 1.00064303 0.13304853
H  1.33120234 -0.03776244 -0.61275914
12
MD Step 900.0 Units = [eV / Ang.]
C  0.47273007 -0.66178210 0.37579041
C  -2.56704590 -1.20569156 0.81167431
C  0.03787629 2.04497858 -1.82390894
C  0.91429346 0.14211129 1.29998166
C  0.25898301 -0.01921901 -0.76782801
C  -0.90533115 -0.68182990 0.63147635
H  0.18415900 0.53127615 -0.22698895
H  0.24216721 0.48884430 -0.15733006
H  1.12212760 -0.33115871 0.40400568
H  -0.83531291 -0.79229780 -0.14699353
H  -0.19486064 0.48830755 0.20540401
H  1.27021397 -0.00353880 -0.60528293
12
MD Step 900.5 Units = [eV / Ang.]
C  0.58599823 -0.32926859 0.39437216
C  -2.66016244 -0.99465345 0.74473832
C  0.03698744 1.93672846 -1.77462680
C  0.52079857 -0.21393058 1.27861999
C  0.18074614 0.60800353 -0.82899742
C  -0.78100529 -0.83927250 0.58233119
H  0.00859871 0.25345272 -0.21134331
H  0.41416439 0.42204077 -0.12724074
H  1.10821303 -0.34214960 0.38501935
H  -0.65544194 -0.50383450 -0.13947726
H  0.13035747 -0.02543740 0.27327651
H  1.11074567 0.02832112 -0.57667200
12
MD Step 901.0 Units = [eV / Ang.]
C  0.70348146 0.02351147 0.41232873
C  -2.70426650 -0.73935254 0.67780718
C  0.11198028 1.79461565 -1.71420939
C  0.09701779 -0.62413880 1.25101943
C  0.11453305 1.16885308 -0.87326354
C  -0.56717098 -0.96507336 0.51078028
H  -0.18309572 -0.05695879 -0.19550005
H  0.58032311 0.34204744 -0.09708510
H  0.99128791 -0.35915775 0.36010600
H  -0.42793805 -0.14763510 -0.13357968
H  0.42594467 -0.49277736 0.32945652
H  0.85790297 0.05606606 -0.52786037
12
MD Step 901.5 Units = [eV / Ang.]
C  0.81051161 0.36770236 0.43113881
C  -2.69628863 -0.45484305 0.61144779
C  0.25247147 1.62217262 -1.63978440
C  -0.33674559 -1.06632156 1.21851261
C  0.07279563 1.63168616 -0.89661320
C  -0.27257375 -1.05592179 0.41927826
H  -0.37563808 -0.37192128 -0.18132399
H  0.73483897 0.25846009 -0.06768238
H  0.78448972 -0.37974286 0.32654470
H  -0.16866619 0.25294899 -0.13021516
H  0.67270545 -0.88241699 0.36982750
H  0.52209939 0.07819732 -0.46113055
12
MD Step 902.0 Units = [eV / Ang.]
C  0.88936346 0.66941625 0.45206712
C  -2.63454833 -0.15777890 0.54594032
C  0.43898037 1.42235392 -1.54912660
C  -0.75413498 -1.50655903 1.18181956
C  0.06040129 1.97920719 -0.89749838
C  0.08645912 -1.10999311 0.31189498
H  -0.55083727 -0.65773431 -0.17038555
H  0.87236886 0.18151417 -0.03962817
H  0.51112515 -0.40010089 0.28229015
H  0.09892893 0.66309459 -0.12963672
H  0.86026717 -1.17712390 0.39283022
H  0.12162622 0.09370403 -0.38056693
12
MD Step 902.5 Units = [eV / Ang.]
C  0.92124808 0.89396147 0.47570982
C  -2.51865436 0.13508342 0.48125052
C  0.64705740 1.19807297 -1.44129851
C  -1.12388297 -1.90042033 1.14055143
C  0.07781634 2.20399777 -0.87601466
C  0.48354651 -1.12735466 0.19464397
H  -0.68976466 -0.87926402 -0.16349199
H  0.98834117 0.12102906 -0.01323270
H  0.20013985 -0.41601105 0.22657521
H  0.34497038 1.03769669 -0.13092811
H  0.98418890 -1.36917445 0.39860675
H  -0.31500663 0.10238312 -0.29237173
12
MD Step 903.0 Units = [eV / Ang.]
C  0.88942239 1.01208335 0.50158960
C  -2.34934508 0.40849290 0.41705032
C  0.85166329 0.95269217 -1.31691859
C  -1.41381660 -2.19863572 1.09286258
C  0.12402357 2.30415909 -0.83319738
C  0.88139564 -1.11022717 0.07539700
H  -0.77597292 -1.00626643 -0.16029309
H  1.07921424 0.08524297 0.01149322
H  -0.11868299 -0.42375507 0.16014557
H  0.53732251 1.32702043 -0.13164892
H  1.04316438 -1.45595713 0.38824331
H  -0.74838844 0.10515062 -0.20472361
12
MD Step 903.5 Units = [eV / Ang.]
C  0.78264045 1.00650459 0.52801367
C  -2.12832279 0.65017911 0.35279532
C  1.03056773 0.69024938 -1.17805269
C  -1.59737888 -2.35701091 1.03555899
C  0.19843600 2.28019583 -0.77060277
C  1.23416760 -1.06291385 -0.03692097
H  -0.79892605 -1.02009947 -0.15917404
H  1.14265012 0.07974184 0.03479508
H  -0.41851171 -0.42074223 0.08512673
H  0.64841791 1.48661302 -0.12795216
H  1.03705466 -1.43689010 0.36329660
H  -1.13079506 0.10417278 -0.12688375
12
MD Step 904.0 Units = [eV / Ang.]
C  0.59778305 0.87635024 0.55232976
C  -1.85817010 0.85193173 0.28784941
C  1.16618869 0.41538456 -1.02786422
C  -1.66060021 -2.34778224 0.96486673
C  0.30163994 2.13352901 -0.69017713
C  1.49396976 -0.99125417 -0.13391694
H  -0.75643138 -0.91837084 -0.15756706
H  1.17759276 0.10670392 0.05708210
H  -0.67761673 -0.40574592 0.00465907
H  0.66258990 1.48866645 -0.11537990
H  0.96599016 -1.31203627 0.32562242
H  -1.41293585 0.10262352 -0.06750424
12
MD Step 904.5 Units = [eV / Ang.]
C  0.34068694 0.63755396 0.57153621
C  -1.54238865 1.01009390 0.22163034
C  1.24597829 0.13310977 -0.87019789
C  -1.60640032 -2.16780028 0.87771785
C  0.43497899 1.86673379 -0.59435273
C  1.62061421 -0.90159416 -0.20971932
H  -0.65510378 -0.71557531 -0.15261743
H  1.18425025 0.16462404 0.07880480
H  -0.87997754 -0.37882164 -0.07752917
H  0.58072711 1.33017172 -0.09018269
H  0.83058978 -1.08248811 0.27745054
H  -1.55395527 0.10399232 -0.03254052
12
MD Step 905.0 Units = [eV / Ang.]
C  0.02493336 0.31901423 0.58301379
C  -1.18558339 1.12541417 0.15374305
C  1.26186152 -0.15141028 -0.70922200
C  -1.45396539 -1.83966652 0.77302260
C  0.59905896 1.48553756 -0.48627460
C  1.59162377 -0.79954279 -0.26258981
H  -0.50867701 -0.43942545 -0.14195206
H  1.16399756 0.24857198 0.10033260
H  -1.01484805 -0.34104689 -0.15749032
H  0.41991646 1.03395343 -0.05061927
H  0.63328618 -0.75250995 0.22161022
H  -1.53160397 0.11111050 -0.02357419
12
MD Step 905.5 Units = [eV / Ang.]
C  -0.33079399 -0.04389201 0.58510002
C  -0.79372014 1.20232837 0.08406855
C  1.20934439 -0.43297430 -0.54917390
C  -1.23338683 -1.40525922 0.65231530
C  0.79127790 1.00242909 -0.37002596
C  1.40839055 -0.68895100 -0.29536087
H  -0.33488128 -0.12443847 -0.12425350
H  1.11921791 0.35091560 0.12185921
H  -1.07589927 -0.29421825 -0.23132341
H  0.20822507 0.64204500 0.00238734
H  0.38065344 -0.33327199 0.16176405
H  -1.34842775 0.12528718 -0.03735682
12
MD Step 906.0 Units = [eV / Ang.]
C  -0.70570676 -0.41595400 0.57734171
C  -0.37437066 1.24788558 0.01279320
C  1.08679116 -0.70635512 -0.39417765
C  -0.97810250 -0.91486560 0.51950229
C  1.00276694 0.44125496 -0.25066064
C  1.09566850 -0.57154631 -0.31442212
H  -0.15207584 0.19475410 -0.09946739
H  1.05310695 0.46232858 0.14335286
H  -1.06044777 -0.24058757 -0.29536707
H  -0.02282917 0.20464661 0.06550956
H  0.08631881 0.15248303 0.10244989
H  -1.03111965 0.14595574 -0.06685464
12
MD Step 906.5 Units = [eV / Ang.]
C  -1.07932676 -0.76694534 0.56043017
C  0.06316126 1.27054614 -0.05961654
C  0.89517339 -0.96627907 -0.24807218
C  -0.71827197 -0.41661597 0.37994548
C  1.21571715 -0.15881932 -0.13380631
C  0.69467184 -0.44733737 -0.32771348
H  0.02335009 0.48835607 -0.06866254
H  0.96945652 0.57287506 0.16455467
H  -0.96909281 -0.18266187 -0.34638074
H  -0.24493254 -0.23057104 0.13395540
H  -0.22657133 0.66647805 0.04868679
H  -0.62333485 0.17097466 -0.10332071
12
MD Step 907.0 Units = [eV / Ang.]
C  -1.43290444 -1.07380846 0.53595859
C  0.50790947 1.27906908 -0.13248388
C  0.63840104 -1.20746415 -0.11416893
C  -0.47699830 0.05035132 0.23938732
C  1.40274068 -0.74266069 -0.02469267
C  0.25298610 -0.31556250 -0.34262332
H  0.17834412 0.73377799 -0.03369679
H  0.87243705 0.67298198 0.18501673
H  -0.80589597 -0.12304545 -0.38178918
H  -0.43676857 -0.62535747 0.20257189
H  -0.52501890 1.15433790 0.00499537
H  -0.17523227 0.19738044 -0.13847513
12
MD Step 907.5 Units = [eV / Ang.]
C  -1.74992187 -1.32062234 0.50614037
C  0.94753939 1.28161266 -0.20500865
C  0.32415109 -1.42476765 0.00511040
C  -0.26954287 0.45813358 0.10314372
C  1.53008101 -1.24469619 0.07325643
C  -0.18470504 -0.17574926 -0.36455631
H  0.30343723 0.91577423 0.00314231
H  0.76638615 0.75418981 0.20416503
H  -0.57905079 -0.06427910 -0.40004228
H  -0.58476091 -0.95311128 0.26667495
H  -0.76975623 1.55130387 -0.02601497
H  0.26614284 0.22221166 -0.16601099
12
MD Step 908.0 Units = [eV / Ang.]
C  -2.01605285 -1.49727544 0.47357967
C  1.36884440 1.28508280 -0.27635298
C  -0.03506662 -1.61345516 0.10871535
C  -0.10449228 0.78888291 -0.02427508
C  1.56521718 -1.60152903 0.15967437
C  -0.58239045 -0.02853781 -0.39644058
H  0.39228291 1.02524977 0.03941464
H  0.65561137 0.80964726 0.22137204
H  -0.30180025 -0.00863231 -0.40109216
H  -0.68178755 -1.19763681 0.32243906
H  -0.92324558 1.79511402 -0.04489061
H  0.66287974 0.24308981 -0.18214372
12
MD Step 908.5 Units = [eV / Ang.]
C  -2.21899925 -1.59781356 0.44111233
C  1.75840777 1.29470518 -0.34571507
C  -0.42105542 -1.76957747 0.19749529
C  0.01432028 1.03203393 -0.13919536
C  1.48686321 -1.76845791 0.23752660
C  -0.91451441 0.12389632 -0.43898760
H  0.44095829 1.05769331 0.07269542
H  0.54420738 0.83438187 0.23602861
H  0.00684441 0.04217306 -0.38690929
H  -0.72513099 -1.35028826 0.36691914
H  -0.96000268 1.84280168 -0.05557673
H  0.98810142 0.25845186 -0.18539333
12
MD Step 909.0 Units = [eV / Ang.]
C  -2.34849411 -1.61915602 0.41168624
C  2.10335984 1.31374161 -0.41238220
C  -0.80989124 -1.89036432 0.27458363
C  0.08599206 1.18147236 -0.23863566
C  1.29299907 -1.73288441 0.31195619
C  -1.16488813 0.27782154 -0.49132266
H  0.44738381 1.01191566 0.10066571
H  0.43588068 0.82541340 0.24760885
H  0.32220106 0.08727432 -0.36184969
H  -0.71460194 -1.40705501 0.39788080
H  -0.87479758 1.68431835 -0.06420408
H  1.22485647 0.26750253 -0.17598712
12
MD Step 909.5 Units = [eV / Ang.]
C  -2.39665479 -1.56054406 0.38822802
C  2.39215756 1.34329480 -0.47576797
C  -1.17328669 -1.97451331 0.34538621
C  0.11122759 1.23356099 -0.32015241
C  1.00268141 -1.51769237 0.38813453
C  -1.32430194 0.42823705 -0.55164825
H  0.41108611 0.88947884 0.12119041
H  0.33377967 0.78177217 0.25572532
H  0.61543298 0.12691659 -0.33261504
H  -0.65130967 -1.36651136 0.41361261
H  -0.68444894 1.34597149 -0.07686889
H  1.36363671 0.27002918 -0.15522455
12
MD Step 910.0 Units = [eV / Ang.]
C  -2.35874249 -1.42384968 0.37343944
C  2.61531952 1.38215860 -0.53543480
C  -1.48164551 -2.02221580 0.41692783
C  0.09164754 1.18643164 -0.38179540
C  0.65061539 -1.17272654 0.46925280
C  -1.38816343 0.56934860 -0.61775178
H  0.33340526 0.69494245 0.13245291
H  0.24031942 0.70447876 0.26017371
H  0.85677831 0.16249328 -0.30756220
H  -0.53722476 -1.22904048 0.41285016
H  -0.42220347 0.88177946 -0.09755902
H  1.39989422 0.26619970 -0.12499364
12
MD Step 910.5 Units = [eV / Ang.]
C  -2.23427405 -1.21465933 0.36947498
C  2.76604450 1.42672535 -0.59110593
C  -1.70849089 -2.03479881 0.49649891
C  0.02980421 1.04068042 -0.42224942
C  0.27746672 -0.75901987 0.55563169
C  -1.35495961 0.69508758 -0.68730213
H  0.21813640 0.43685143 0.13320914
H  0.15700830 0.59649074 0.26096501
H  1.02015132 0.19625749 -0.29530327
H  -0.37551913 -0.99746696 0.39489686
H  -0.12776143 0.35743385 -0.12722737
H  1.33239367 0.25641811 -0.08748849
12
MD Step 911.0 Units = [eV / Ang.]
C  -2.02832493 -0.94382309 0.37748343
C  2.84067436 1.47101196 -0.64266513
C  -1.83519699 -2.01400690 0.58985560
C  -0.07009728 0.80139461 -0.44119213
C  -0.07939427 -0.33339013 0.64510592
C  -1.22590445 0.79955833 -0.75795893
H  0.07246384 0.12916804 0.12318674
H  0.08428875 0.46260528 0.25834038
H  1.08800285 0.23070053 -0.30285899
H  -0.17157133 -0.67903943 0.35997675
H  0.16226529 -0.16544080 -0.16417842
H  1.16279418 0.24126160 -0.04509522
12
MD Step 911.5 Units = [eV / Ang.]
C  -1.75264923 -0.62890402 0.39705111
C  2.83893755 1.50687345 -0.69013876
C  -1.85449763 -1.96113849 0.69953783
C  -0.20090239 0.48120949 -0.43984947
C  -0.39143021 0.06103316 0.73410878
C  -1.00586200 0.87734201 -0.82736944
H  -0.09213688 -0.20742433 0.10359393
H  0.02142817 0.30926941 0.25276317
H  1.05488481 0.26776810 -0.33393023
H  0.06559031 -0.28844044 0.30979434
H  0.42008824 -0.63908319 -0.20519043
H  0.89654928 0.22149484 -0.00037084
12
MD Step 912.0 Units = [eV / Ang.]
C  -1.42606222 -0.29464938 0.42569182
C  2.76393839 1.52448258 -0.73365806
C  -1.77153810 -1.87635778 0.82392853
C  -0.35102695 0.10355213 -0.42160459
C  -0.64023220 0.39713321 0.81875400
C  -0.70534400 0.92367258 -0.89314539
H  -0.25956328 -0.54520964 0.07759220
H  -0.03349602 0.14425069 0.24488240
H  0.92843714 0.30820260 -0.38792144
H  0.32186191 0.14901095 0.24815381
H  0.62807278 -1.03222233 -0.24664768
H  0.54495254 0.19813439 0.04397440
12
MD Step 912.5 Units = [eV / Ang.]
C  -1.07344168 0.02841800 0.45862975
C  2.62186987 1.51311003 -0.77339377
C  -1.60209784 -1.75849680 0.95743152
C  -0.50357191 -0.29541482 -0.39237661
C  -0.81593812 0.66110658 0.89551483
C  -0.34312084 0.93454676 -0.95290876
H  -0.40993503 -0.85104810 0.05047870
H  -0.08346283 -0.02386769 0.23546329
H  0.72743603 0.35126962 -0.46008992
H  0.57739136 0.59548908 0.18133803
H  0.77705471 -1.32762610 -0.28526660
H  0.12781629 0.17251345 0.08517954
12
MD Step 913.0 Units = [eV / Ang.]
C  -0.72293060 0.30786183 0.48916407
C  2.42144474 1.46216845 -0.80947127
C  -1.36876377 -1.60542889 1.09166446
C  -0.63694350 -0.66816334 -0.36035741
C  -0.91462654 0.84768170 0.96146904
C  0.05156592 0.90686985 -1.00448004
H  -0.52204883 -1.09045396 0.02928512
H  -0.13219134 -0.18635963 0.22529045
H  0.47768918 0.39495242 -0.54271775
H  0.80755239 1.00213806 0.11783393
H  0.86349644 -1.51754534 -0.31836640
H  -0.32424409 0.14627885 0.12068579
12
MD Step 913.5 Units = [eV / Ang.]
C  -0.40153565 0.51521126 0.50977034
C  2.17308601 1.36240198 -0.84187270
C  -1.09645010 -1.41489323 1.21718028
C  -0.72770218 -0.96202745 -0.33478324
C  -0.93595170 0.95553053 1.01427031
C  0.43867101 0.83875203 -1.04621557
H  -0.57725449 -1.23371634 0.02163351
H  -0.18364590 -0.33512916 0.21505519
H  0.20723340 0.43648548 -0.62681602
H  0.98617389 1.31546380 0.06707768
H  0.88684066 -1.59932702 -0.34384144
H  -0.76946493 0.12124814 0.14854167
12
MD Step 914.0 Units = [eV / Ang.]
C  -0.13020112 0.63223558 0.51377822
C  1.88796670 1.20706213 -0.87035309
C  -0.80864595 -1.18547034 1.32511564
C  -0.75537979 -1.12996296 -0.32381563
C  -0.88159732 0.98402921 1.05202754
C  0.77047083 0.72997634 -1.07739463
H  -0.56373547 -1.26240485 0.03401653
H  -0.24141686 -0.46347517 0.20524973
H  -0.05774644 0.47298831 -0.70376001
H  1.09071099 1.48827673 0.03730377
H  0.84771153 -1.57234820 -0.36002189
H  -1.15813710 0.09909322 0.16785381
12
MD Step 914.5 Units = [eV / Ang.]
C  0.08001036 0.65528742 0.49709698
C  1.57704533 0.99287315 -0.89439078
C  -0.52514201 -0.91744599 1.40834419
C  -0.70779907 -1.14264640 -0.33220122
C  -0.75465981 0.93179546 1.07322727
C  0.99888829 0.58256071 -1.09846521
H  -0.47963442 -1.17389168 0.07004465
H  -0.30808913 -0.56670481 0.19609092
H  -0.29548488 0.50198131 -0.76643749
H  1.10780237 1.49196582 0.03318380
H  0.74715930 -1.43668547 -0.36557212
H  -1.44009632 0.08091050 0.17907900
12
MD Step 915.0 Units = [eV / Ang.]
C  0.22921000 0.59586545 0.45930762
C  1.25024039 0.72063014 -0.91319671
C  -0.26129103 -0.61336836 1.46201120
C  -0.58468273 -0.99686027 -0.35976562
C  -0.55985689 0.79711700 1.07678469
C  1.08578872 0.40118077 -1.11094319
H  -0.33368898 -0.98199195 0.12935805
H  -0.38473180 -0.64247898 0.18749429
H  -0.48961374 0.52167897 -0.80978966
H  1.03692873 1.32497698 0.05431863
H  0.58694062 -1.19359479 -0.35952018
H  -1.57524330 0.06684504 0.18394089
12
MD Step 915.5 Units = [eV / Ang.]
C  0.32705770 0.47716141 0.40368004
C  0.91591387 0.39535760 -0.92578445
C  -0.02836257 -0.27827225 1.48355786
C  -0.39783839 -0.71608451 -0.40151872
C  -0.30451729 0.58026459 1.06226921
C  1.01287439 0.19322792 -1.11691000
H  -0.14308954 -0.71345572 0.20765539
H  -0.47063051 -0.69082807 0.17910448
H  -0.62898943 0.53106930 -0.83086022
H  0.89045211 1.01337756 0.09537454
H  0.37078090 -0.84779261 -0.34147421
H  -1.54365124 0.05597477 0.18490608
12
MD Step 916.0 Units = [eV / Ang.]
C  0.38908247 0.32812620 0.33617584
C  0.58071862 0.02601992 -0.93109169
C  0.16560968 0.08040513 1.47245577
C  -0.16788505 -0.34302162 -0.44932032
C  -0.00023996 0.28750395 1.03030391
C  0.78701781 -0.03165791 -1.11828790
H  0.07051541 -0.40180910 0.29777911
H  -0.56331819 -0.71385755 0.17037511
H  -0.70696392 0.52985018 -0.82857138
H  0.69003326 0.60321396 0.14780526
H  0.10646408 -0.41133899 -0.31202628
H  -1.35103421 0.04656583 0.18440259
12
MD Step 916.5 Units = [eV / Ang.]
C  0.43252320 0.17736836 0.26394010
C  0.24980237 -0.37510936 -0.92812571
C  0.31502295 0.45309155 1.42985696
C  0.08087147 0.07224079 -0.49424993
C  0.33507564 -0.06392546 0.98305952
C  0.43851018 -0.26246039 -1.11623289
H  0.28528928 -0.08091579 0.39133864
H  -0.65889125 -0.71522857 0.16067707
H  -0.72062772 0.51830776 -0.80342664
H  0.46113585 0.14840622 0.20228863
H  -0.19168415 0.09161329 -0.27325234
H  -1.02702782 0.03661158 0.18412658
12
MD Step 917.0 Units = [eV / Ang.]
C  0.47302158 0.04878890 0.19388666
C  -0.07272234 -0.79330263 -0.91610301
C  0.41628891 0.82848074 1.35829832
C  0.32526772 0.48326868 -0.52863299
C  0.67563807 -0.44159523 0.92460825
C  0.01308240 -0.48781448 -1.11090159
H  0.48241042 0.21979700 0.48023989
H  -0.75251948 -0.69953801 0.14940995
H  -0.67036873 0.49719196 -0.75726723
H  0.22788973 -0.30062996 0.25081207
H  -0.50086366 0.62093963 -0.22907693
H  -0.61712462 0.02441340 0.18472662
12
MD Step 917.5 Units = [eV / Ang.]
C  0.52282283 -0.04035569 0.13177673
C  -0.38320539 -1.21231157 -0.89455204
C  0.46795934 1.19398757 1.26149898
C  0.54635525 0.85401082 -0.54711685
C  0.98798332 -0.79721497 0.86079190
C  -0.43874093 -0.69691191 -1.10164022
H  0.64763636 0.47766231 0.55770132
H  -0.83903350 -0.67171725 0.13609517
H  -0.55988663 0.46761457 -0.69311635
H  0.00986471 -0.70405122 0.28778374
H  -0.78987310 1.12032368 -0.18513999
H  -0.17188226 0.00896365 0.18591762
12
MD Step 918.0 Units = [eV / Ang.]
C  0.59035284 -0.07930594 0.08186553
C  -0.67794202 -1.61530668 -0.86337009
C  0.47135989 1.53628008 1.14422880
C  0.73046461 1.16053876 -0.54679611
C  1.23440640 -1.07236419 0.79827854
C  -0.87085324 -0.88016794 -1.08739898
H  0.77141459 0.67695279 0.61866371
H  -0.91347572 -0.63653280 0.12043806
H  -0.39663168 0.43095993 -0.61507417
H  -0.17893474 -1.03463016 0.31015845
H  -1.02261497 1.52354014 -0.14785040
H  0.26245406 -0.00996401 0.18685665
12
MD Step 918.5 Units = [eV / Ang.]
C  0.68064656 -0.06251100 0.04696034
C  -0.95282548 -1.98575718 -0.82283003
C  0.43151939 1.84190667 1.01214981
C  0.86880559 1.38922940 -0.52675583
C  1.37994507 -1.21135258 0.74284538
C  -1.24692623 -1.02964811 -1.06714305
H  0.84813327 0.80779917 0.65974925
H  -0.97153737 -0.59823255 0.10235455
H  -0.19244953 0.38877917 -0.52816721
H  -0.32945119 -1.27618292 0.31695330
H  -1.16529535 1.76792520 -0.12266513
H  0.64943525 -0.03195527 0.18654862
12
MD Step 919.0 Units = [eV / Ang.]
C  0.79606774 0.01194526 0.02866369
C  -1.20324214 -2.30826651 -0.77355223
C  0.35802024 2.09803523 0.87151828
C  0.95640933 1.53346607 -0.48745173
C  1.40105639 -1.17772411 0.69750169
C  -1.54171578 -1.13936009 -1.04011789
H  0.87512350 0.86474216 0.67900980
H  -1.00985456 -0.56032874 0.08196900
H  0.03595019 0.34263865 -0.43803538
H  -0.43621259 -1.42041986 0.30857909
H  -1.19538396 1.81145843 -0.11221603
H  0.96378163 -0.05618648 0.18413171
12
MD Step 919.5 Units = [eV / Ang.]
C  0.93690201 0.14350630 0.02759178
C  -1.42420277 -2.56933921 -0.71645313
C  0.26523113 2.29329732 0.72864540
C  0.99098085 1.59047171 -0.43019068
C  1.29234065 -0.96717750 0.66142752
C  -1.73961434 -1.20543297 -1.00593807
H  0.85187279 0.84560240 0.67568238
H  -1.02616733 -0.52549538 0.05958964
H  0.26721705 0.29391168 -0.35036516
H  -0.49594661 -1.46385212 0.28627142
H  -1.10854586 1.64613677 -0.11526810
H  1.18993243 -0.08162899 0.17900699
12
MD Step 920.0 Units = [eV / Ang.]
C  1.10159435 0.32957097 0.04344941
C  -1.61065920 -2.75812565 -0.65268420
C  0.17143128 2.41867333 0.58911569
C  0.97198496 1.55922750 -0.35682298
C  1.06788218 -0.61006764 0.63039566
C  -1.83210087 -1.22619978 -0.96456074
H  0.77969159 0.75104046 0.65008887
H  -1.01938289 -0.49552435 0.03566955
H  0.47676062 0.24354561 -0.27007459
H  -0.50660891 -1.40569201 0.25174359
H  -0.92002705 1.30072404 -0.12717685
H  1.31943394 -0.10717247 0.17085658
12
MD Step 920.5 Units = [eV / Ang.]
C  1.28654234 0.56505077 0.07491314
C  -1.75791524 -2.86706156 -0.58356551
C  0.09651532 2.46825734 0.45689877
C  0.90014602 1.43984011 -0.26963908
C  0.75649326 -0.16197892 0.59846440
C  -1.81536712 -1.20216268 -0.91621303
H  0.66190649 0.58495659 0.60373366
H  -0.98956630 -0.47131881 0.01075815
H  0.63956769 0.19188646 -0.20040065
H  -0.46704596 -1.24713827 0.20706385
H  -0.65974737 0.83134233 -0.14162572
H  1.34847087 -0.13167337 0.15961203
12
MD Step 921.0 Units = [eV / Ang.]
C  1.48550959 0.84116600 0.11935482
C  -1.86204620 -2.89240039 -0.51051448
C  0.05854080 2.43977051 0.33364599
C  0.77752978 1.23440842 -0.17141508
C  0.39339425 0.31261466 0.55999559
C  -1.68887091 -1.13584408 -0.86132592
H  0.50450010 0.35565036 0.53956734
H  -0.93789257 -0.45288748 -0.01455446
H  0.73411827 0.13866146 -0.14218610
H  -0.37739435 -0.99212874 0.15469903
H  -0.36369518 0.30495383 -0.15268662
H  1.27630641 -0.15396456 0.14541989
12
MD Step 921.5 Units = [eV / Ang.]
C  1.68885902 1.14382315 0.17252855
C  -1.92022926 -2.83455549 -0.43496453
C  0.06993551 2.33468481 0.21848753
C  0.60836092 0.94923529 -0.06551217
C  0.01222563 0.75582825 0.51105118
C  -1.45511160 -1.03153306 -0.80049966
H  0.31695442 0.07741252 0.46228928
H  -0.86656830 -0.43933767 -0.03969950
H  0.74648954 0.08318439 -0.09369033
H  -0.24023967 -0.64943144 0.09762591
H  -0.06563516 -0.21643516 -0.15624206
H  1.10495894 -0.17287558 0.12862579
12
MD Step 922.0 Units = [eV / Ang.]
C  1.88299879 1.45220956 0.22842781
C  -1.93094919 -2.69816809 -0.35827317
C  0.13460139 2.15794617 0.10850615
C  0.40054485 0.59792640 0.04408373
C  -0.35984873 1.12554403 0.44981477
C  -1.12064823 -0.89491967 -0.73450365
H  0.11287425 -0.22809843 0.37847531
H  -0.77870895 -0.42889087 -0.06419376
H  0.67335561 0.02475116 -0.05109959
H  -0.06240732 -0.23564303 0.03938588
H  0.20801733 -0.68534536 -0.15040192
H  0.84017021 -0.18731186 0.10977844
12
MD Step 922.5 Units = [eV / Ang.]
C  2.05058887 1.73856048 0.27957921
C  -1.89405232 -2.49188265 -0.28162775
C  0.24697570 1.91741907 -0.00020748
C  0.16753214 0.20442825 0.15292510
C  -0.70343785 1.39728912 0.37627563
C  -0.69815335 -0.73257795 -0.66428337
H  -0.09018268 -0.53166299 0.29625370
H  -0.67816266 -0.41894175 -0.08770030
H  0.52279532 -0.03691324 -0.00962852
H  0.14304698 0.22186204 -0.01606630
H  0.43957162 -1.07115020 -0.13514997
H  0.49347824 -0.19643017 0.08963005
12
MD Step 923.0 Units = [eV / Ang.]
C  2.17201781 1.97006868 0.31797593
C  -1.81067371 -2.22775040 -0.20596127
C  0.39336584 1.62317792 -0.11128313
C  -0.07035169 -0.19556769 0.25658018
C  -1.00572970 1.56108411 0.29162941
C  -0.20897298 -0.55129861 -0.59093869
H  -0.27218772 -0.79849599 0.22432666
H  -0.56925453 -0.40621225 -0.11007479
H  0.31260714 -0.10133578 0.03516383
H  0.35552973 0.68364015 -0.06483450
H  0.61878568 -1.35739019 -0.11168453
H  0.08486412 -0.19991995 0.06910090
12
MD Step 923.5 Units = [eV / Ang.]
C  2.22830813 2.11346072 0.33662367
C  -1.68308989 -1.92031923 -0.13189822
C  0.55501500 1.28682496 -0.22702391
C  -0.28638867 -0.55676553 0.35141568
C  -1.25831116 1.61630470 0.19774548
C  0.31481785 -0.35731960 -0.51562895
H  -0.41358594 -0.99295923 0.17036828
H  -0.45645523 -0.38702369 -0.13138422
H  0.06674302 -0.16722881 0.08629369
H  0.54752726 1.10047186 -0.10386278
H  0.74048166 -1.53710328 -0.08181728
H  -0.35506201 -0.19834288 0.04916856
12
MD Step 924.0 Units = [eV / Ang.]
C  2.20492120 2.14160516 0.33130354
C  -1.51455768 -1.58543533 -0.05975212
C  0.71173992 0.92083465 -0.34787596
C  -0.45084666 -0.83111388 0.43546016
C  -1.45511876 1.56683336 0.09683638
C  0.83033242 -0.15562497 -0.43938690
H  -0.49914289 -1.08535648 0.13920914
H  -0.34398669 -0.35770415 -0.15188573
H  -0.18889540 -0.23267820 0.14480741
H  0.68818470 1.42044839 -0.13179364
H  0.80222690 -1.60840829 -0.04758749
H  -0.78485705 -0.19340027 0.03066521
12
MD Step 924.5 Units = [eV / Ang.]
C  2.09526295 2.04022768 0.30186888
C  -1.30919072 -1.23891117 0.01041578
C  0.84502873 0.53793896 -0.47245275
C  -0.53723011 -0.97850113 0.50892643
C  -1.59105684 1.41766341 -0.00868170
C  1.28728065 0.05042589 -0.36287232
H  -0.52145864 -1.05885201 0.13150233
H  -0.23542353 -0.31509172 -0.17196131
H  -0.43009052 -0.29548338 0.20980840
H  0.74976509 1.59996888 -0.14947851
H  0.80269875 -1.57145944 -0.01109199
H  -1.15558582 -0.18792596 0.01401675
12
MD Step 925.0 Units = [eV / Ang.]
C  1.90249796 1.81214209 0.25244760
C  -1.07189761 -0.89521661 0.07868099
C  0.93993427 0.15051434 -0.59794952
C  -0.52958904 -0.97776182 0.57401675
C  -1.66145011 1.17334919 -0.11621560
C  1.63550625 0.25889999 -0.28617488
H  -0.48273209 -0.91387169 0.14351346
H  -0.13335638 -0.25706424 -0.19201520
H  -0.63664686 -0.35350857 0.27888221
H  0.71511929 1.61507584 -0.15975713
H  0.74096958 -1.42713261 0.02554166
H  -1.41835525 -0.18542592 -0.00097035
12
MD Step 925.5 Units = [eV / Ang.]
C  1.63889639 1.47715096 0.19038041
C  -0.80838076 -0.56637814 0.14510261
C  0.98572038 -0.22998783 -0.72070990
C  -0.42776602 -0.83316080 0.63397754
C  -1.66237256 0.83837656 -0.22299853
C  1.83530732 0.46846102 -0.20880273
H  -0.39399667 -0.66809413 0.16820348
H  -0.03918376 -0.18300034 -0.21235153
H  -0.79334640 -0.40494064 0.34867598
H  0.58302397 1.46821677 -0.16647716
H  0.61678938 -1.17748434 0.06013527
H  -1.53469128 -0.18915908 -0.01513545
12
MD Step 926.0 Units = [eV / Ang.]
C  1.32301753 1.06762518 0.12433014
C  -0.52511964 -0.26125643 0.20957333
C  0.97560549 -0.59351442 -0.83675671
C  -0.24796510 -0.57312655 0.69182760
C  -1.59192631 0.41938102 -0.32615510
C  1.86716283 0.67722166 -0.12994042
H  -0.27216541 -0.35202887 0.19716083
H  0.04690836 -0.09404936 -0.23306303
H  -0.88986525 -0.44841572 0.41543996
H  0.36877347 1.18714051 -0.17318848
H  0.43190365 -0.82793535 0.09049175
H  -1.48632963 -0.20104168 -0.02971987
12
MD Step 926.5 Units = [eV / Ang.]
C  0.97593902 0.62166152 0.06233691
C  -0.22930983 0.01473737 0.27170361
C  0.90613744 -0.93170588 -0.94219797
C  -0.01832629 -0.24188434 0.74936910
C  -1.45245957 -0.07104317 -0.42291451
C  1.73678289 0.88180118 -0.04890300
H  -0.13613707 -0.00208356 0.22259141
H  0.12578892 0.00684213 -0.25395600
H  -0.92019612 -0.48303556 0.47544458
H  0.09973077 0.81652058 -0.18213410
H  0.19233722 -0.39094976 0.11457743
H  -1.28028738 -0.22086051 -0.04591745
12
MD Step 927.0 Units = [eV / Ang.]
C  0.61789608 0.17638661 0.01047586
C  0.07130574 0.25948041 0.33077133
C  0.77663389 -1.23800353 -1.03350803
C  0.22829686 0.11197582 0.80685404
C  -1.25342727 -0.60971590 -0.51103481
C  1.47316288 1.07708424 0.03441638
H  -0.00336872 0.34625364 0.23869761
H  0.19907597 0.11517808 -0.27453291
H  -0.88203639 -0.50832422 0.52527819
H  -0.19192805 0.40636017 -0.19392191
H  -0.08873888 0.10952205 0.13092511
H  -0.94687211 -0.24619737 -0.06442086
12
MD Step 927.5 Units = [eV / Ang.]
C  0.26618961 -0.23666132 -0.02764209
C  0.36869426 0.47362384 0.38574285
C  0.58900845 -1.50757590 -1.10773868
C  0.46120183 0.44527939 0.86325319
C  -1.01394629 -1.15908589 -0.58941930
C  1.12058024 1.25675732 0.11932276
H  0.11221157 0.66313579 0.24219513
H  0.26875855 0.22537699 -0.29403478
H  -0.77648167 -0.52417589 0.56208423
H  -0.47609650 0.00193614 -0.20782524
H  -0.38854343 0.63449375 0.13923822
H  -0.53157661 -0.27310421 -0.08517628
12
MD Step 928.0 Units = [eV / Ang.]
C  -0.06551367 -0.59349157 -0.05068080
C  0.65485738 0.65985382 0.43535696
C  0.34805067 -1.73709787 -1.16272808
C  0.65617680 0.72561244 0.91680120
C  -0.76338601 -1.66688351 -0.65873534
C  0.72809141 1.41428467 0.20440143
H  0.20083839 0.92635877 0.23212421
H  0.33682136 0.33136534 -0.31153353
H  -0.60814688 -0.53082718 0.58380524
H  -0.72903114 -0.36188393 -0.22237713
H  -0.67428469 1.12989239 0.14099816
H  -0.08447363 -0.29718336 -0.10743231
12
MD Step 928.5 Units = [eV / Ang.]
C  -0.36686513 -0.87751131 -0.05904015
C  0.92215695 0.82207873 0.47824568
C  0.06211714 -1.92443854 -1.19735828
C  0.79684290 0.93212832 0.96550082
C  -0.53816015 -2.07179376 -0.72165197
C  0.34048667 1.54382716 0.28781727
H  0.25650495 1.12116125 0.20929656
H  0.40493365 0.42718797 -0.32605040
H  -0.38568928 -0.52886393 0.58947983
H  -0.93460021 -0.66178628 -0.23592523
H  -0.90659835 1.53260195 0.13968823
H  0.34887085 -0.31459156 -0.13000237
12
MD Step 929.0 Units = [eV / Ang.]
C  -0.63006058 -1.07824775 -0.05426463
C  1.16360399 0.96464404 0.51306755
C  -0.25602743 -2.06830285 -1.21186497
C  0.87387542 1.05339151 1.00743823
C  -0.37411764 -2.31572827 -0.78229053
C  -0.00700124 1.64074433 0.36766499
H  0.27609512 1.23883980 0.17568687
H  0.47423432 0.50754672 -0.33667833
H  -0.12250112 -0.51924254 0.57958525
H  -1.08333700 -0.88414896 -0.24698237
H  -1.04740179 1.78314703 0.14022225
H  0.73263796 -0.32264307 -0.15158432
12
MD Step 929.5 Units = [eV / Ang.]
C  -0.84906153 -1.18988195 -0.03857880
C  1.37309038 1.09164131 0.53863417
C  -0.58861368 -2.16791359 -1.20812721
C  0.88328740 1.08417067 1.04091399
C  -0.29644822 -2.35936575 -0.84480919
C  -0.29006863 1.70165416 0.44223559
H  0.25851921 1.27513980 0.13394981
H  0.54521214 0.56822231 -0.34268969
H  0.16283105 -0.50328278 0.55634616
H  -1.17054371 -1.02203925 -0.25437062
H  -1.07020024 1.84161525 0.14750453
H  1.04199583 -0.31996019 -0.17100874
12
MD Step 930.0 Units = [eV / Ang.]
C  -1.01909891 -1.21022331 -0.01459013
C  1.54555190 1.20634490 0.55401759
C  -0.91303177 -2.22279392 -1.18979716
C  0.82468716 1.02256366 1.06447447
C  -0.31139702 -2.19430702 -0.91164632
C  -0.49402562 1.72424449 0.51014935
H  0.20413958 1.22909476 0.08710971
H  0.61766723 0.60635789 -0.34361759
H  0.44682430 -0.48258134 0.52385879
H  -1.19443667 -1.07243912 -0.25723777
H  -0.96851195 1.70005145 0.16464776
H  1.26163179 -0.30631245 -0.18736870
12
MD Step 930.5 Units = [eV / Ang.]
C  -1.13658622 -1.14042652 0.01487510
C  1.67706277 1.31075870 0.55863340
C  -1.20323131 -2.23273007 -1.16207801
C  0.70001760 0.86822729 1.07691876
C  -0.40410313 -1.84559826 -0.98233714
C  -0.61135343 1.70709330 0.57038215
H  0.11460175 1.10264233 0.03838244
H  0.69072596 0.62063062 -0.33930810
H  0.70266174 -0.45880591 0.48784485
H  -1.15491023 -1.03444029 -0.25503161
H  -0.75809421 1.38498877 0.19176963
H  1.38320870 -0.28233997 -0.20005147
12
MD Step 931.0 Units = [eV / Ang.]
C  -1.19950040 -0.98553146 0.04688603
C  1.76489934 1.40529130 0.55230263
C  -1.43258763 -2.19791146 -1.13102704
C  0.51299207 0.62196734 1.07733587
C  -0.54376842 -1.36327909 -1.05355735
C  -0.63934755 1.64965337 0.62223825
H  -0.00691460 0.90111398 -0.00895433
H  0.76289017 0.61132610 -0.32994286
H  0.90323288 -0.43338132 0.45490643
H  -1.05315216 -0.90869462 -0.24749319
H  -0.47175595 0.94875148 0.22602625
H  1.40301225 -0.24930562 -0.20872071
12
MD Step 931.5 Units = [eV / Ang.]
C  -1.20814403 -0.75567091 0.07856245
C  1.80755471 1.48854522 0.53529204
C  -1.57790146 -2.11917266 -1.10241382
C  0.26929818 0.28673804 1.06519310
C  -0.69333938 -0.80751460 -1.12028517
C  -0.57859409 1.55239769 0.66532385
H  -0.15510659 0.63445294 -0.05174123
H  0.83210666 0.58034319 -0.31603453
H  1.02531008 -0.40714948 0.43132386
H  -0.89215122 -0.69819233 -0.23469813
H  -0.14957236 0.45416208 0.26277242
H  1.32053950 -0.20893915 -0.21329483
12
MD Step 932.0 Units = [eV / Ang.]
C  -1.16615639 -0.46755903 0.10735547
C  1.80474900 1.55726845 0.50832645
C  -1.62360796 -1.99820251 -1.08040474
C  -0.02243051 -0.13009069 1.04045972
C  -0.81902033 -0.23438104 -1.17734120
C  -0.43259930 1.41701878 0.69954543
H  -0.32179269 0.31877393 -0.08725023
H  0.89585515 0.53112323 -0.29839398
H  1.05387557 -0.38013411 0.42167563
H  -0.67799321 -0.41028880 -0.21713947
H  0.17078975 -0.04016296 0.29711442
H  1.13833092 -0.16336524 -0.21394750
12
MD Step 932.5 Units = [eV / Ang.]
C  -1.08142801 -0.14556011 0.13148066
C  1.75741404 1.60649547 0.47257129
C  -1.56488217 -1.83759605 -1.06651262
C  -0.34912614 -0.61356860 1.00373168
C  -0.89615007 0.31272406 -1.22057036
C  -0.20865204 1.24654557 0.72514846
H  -0.49530661 -0.02245242 -0.11366049
H  0.95126195 0.46848951 -0.27806843
H  0.98526250 -0.35153506 0.42772704
H  -0.42162931 -0.05964181 -0.19581306
H  0.46015712 -0.48884334 0.32510399
H  0.86307874 -0.11505720 -0.21113816
12
MD Step 933.0 Units = [eV / Ang.]
C  -0.96647488 0.17861376 0.15044415
C  1.66769170 1.62994387 0.42956944
C  -1.40856999 -1.64071268 -1.05921520
C  -0.69186500 -1.13799566 0.95626950
C  -0.91067147 0.80509324 -1.24734029
C  0.08030416 1.04526207 0.74277076
H  -0.66047787 -0.35856383 -0.13062683
H  0.99524571 0.39836363 -0.25624926
H  0.82798691 -0.31998736 0.44800634
H  -0.14046663 0.32878589 -0.17222406
H  0.69954364 -0.86207878 0.34424613
H  0.50775375 -0.06672418 -0.20565068
12
MD Step 933.5 Units = [eV / Ang.]
C  -0.83775897 0.46848250 0.16547153
C  1.53890975 1.62065975 0.38113067
C  -1.17160218 -1.41142446 -1.05439941
C  -1.02550372 -1.66524742 0.89985643
C  -0.85749099 1.22615834 -1.25647965
C  0.41335513 0.81836113 0.75346801
H  -0.79964882 -0.65415488 -0.13974020
H  1.02470393 0.32733714 -0.23415228
H  0.60096069 -0.28399880 0.47822731
H  0.14123430 0.71817044 -0.14821851
H  0.87870405 -1.14330782 0.35343355
H  0.09413684 -0.02103592 -0.19859747
12
MD Step 934.0 Units = [eV / Ang.]
C  -0.71365834 0.68795749 0.17955637
C  1.37554645 1.57190318 0.32917682
C  -0.87754152 -1.15390364 -1.04644017
C  -1.32049439 -2.14653814 0.83641066
C  -0.73755681 1.56711202 -1.24794883
C  0.75993577 0.57135280 0.75864345
H  -0.89496053 -0.87415201 -0.14458707
H  1.03673410 0.26209440 -0.21288121
H  0.32974499 -0.24240180 0.51237121
H  0.39426562 1.06165403 -0.12558006
H  0.99336305 -1.32494523 0.35260160
H  -0.34537840 0.01986691 -0.19132278
12
MD Step 934.5 Units = [eV / Ang.]
C  -0.61129784 0.80818561 0.19690817
C  1.18313010 1.47817724 0.27555492
C  -0.55246162 -0.87258521 -1.02949567
C  -1.54742248 -2.52897360 0.76741626
C  -0.55507507 1.82275852 -1.22249654
C  1.08026295 0.30936237 0.75981928
H  -0.93161040 -0.99064705 -0.15017407
H  1.02887904 0.20872397 -0.19329123
H  0.04211751 -0.19466222 0.54400853
H  0.58919480 1.30893703 -0.10546107
H  1.04251758 -1.40428743 0.34236198
H  -0.76823459 0.05501077 -0.18515056
12
MD Step 935.0 Units = [eV / Ang.]
C  -0.54309414 0.81398626 0.22181688
C  0.96806232 1.33625155 0.22184960
C  -0.22138971 -0.57230531 -0.99860044
C  -1.68342589 -2.76632014 0.69340482
C  -0.31557360 1.98863429 -1.18142957
C  1.32927646 0.03658080 0.75824385
H  -0.90119078 -0.98939294 -0.16173510
H  0.99936892 0.17200743 -0.17587706
H  -0.23577483 -0.14097463 0.56743631
H  0.70302777 1.41704512 -0.08788290
H  1.02653161 -1.38065363 0.32375384
H  -1.12581815 0.08514121 -0.18098023
12
MD Step 935.5 Units = [eV / Ang.]
C  -0.51418584 0.70735733 0.25729233
C  0.73732405 1.14602305 0.16922688
C  0.09397191 -0.25853846 -0.95031242
C  -1.71817781 -2.83066798 0.61379872
C  -0.02499638 2.05976618 -1.12653046
C  1.46435445 -0.24376976 0.75444867
H  -0.80389277 -0.87342785 -0.18328556
H  0.94733323 0.15479838 -0.16071000
H  -0.48192260 -0.08217128 0.57838243
H  0.72541189 1.36193074 -0.07161374
H  0.94626662 -1.25413196 0.29814935
H  -1.37148675 0.11283160 -0.17884619
12
MD Step 936.0 Units = [eV / Ang.]
C  -0.52175581 0.50652577 0.30403305
C  0.49810875 0.91104209 0.11833998
C  0.37614488 0.06243438 -0.88289565
C  -1.65663273 -2.72006557 0.52728328
C  0.31017795 2.03114816 -1.06008870
C  1.45513561 -0.52873332 0.74796241
H  -0.64865912 -0.66225000 -0.21649278
H  0.87295313 0.15761437 -0.14743940
H  -0.67950475 -0.01953103 0.57425225
H  0.66152727 1.14594327 -0.05458427
H  0.80327932 -1.02600101 0.26728625
H  -1.47077449 0.14187288 -0.17765643
12
MD Step 936.5 Units = [eV / Ang.]
C  -0.55639453 0.24095404 0.36014379
C  0.25742153 0.63860001 0.06931873
C  0.61177103 0.38351584 -0.79616910
C  -1.51712612 -2.45844355 0.43256064
C  0.68186615 1.89993912 -0.98498807
C  1.29192970 -0.81430681 0.73740302
H  -0.45121651 -0.38691139 -0.26030479
H  0.77753032 0.17853584 -0.13536352
H  -0.81684616 0.04542303 0.55404291
H  0.53019375 0.79749310 -0.03468234
H  0.60105237 -0.70081079 0.23335862
H  -1.41018153 0.17601154 -0.17531989
12
MD Step 937.0 Units = [eV / Ang.]
C  -0.60484257 -0.05558669 0.42164873
C  0.02172549 0.33934288 0.02183681
C  0.79104794 0.69699589 -0.69120121
C  -1.32577499 -2.08794881 0.32909222
C  1.07848838 1.66923682 -0.90473422
C  0.98903345 -1.09410229 0.72098467
H  -0.23079588 -0.08308883 -0.31139961
H  0.66346306 0.21343512 -0.12355434
H  -0.88682386 0.11107915 0.51809814
H  0.35815091 0.36304853 -0.01052709
H  0.34711079 -0.28994165 0.19905226
H  -1.20078275 0.21752988 -0.16929637
12
MD Step 937.5 Units = [eV / Ang.]
C  -0.65298338 -0.35133096 0.48347758
C  -0.20330201 0.02648146 -0.02476105
C  0.90719117 0.99489984 -0.56998926
C  -1.10984673 -1.65749064 0.21747573
C  1.48262746 1.35278733 -0.82327503
C  0.58132522 -1.35870068 0.69724989
H  -0.00675679 0.21533312 -0.36514383
H  0.53412583 0.25649806 -0.11101303
H  -0.88621662 0.17583286 0.46783936
H  0.17322621 -0.10466276 0.01813666
H  0.05559194 0.18401902 0.16737008
H  -0.87498233 0.26633334 -0.15736709
12
MD Step 938.0 Units = [eV / Ang.]
C  -0.68816358 -0.62053357 0.54048006
C  -0.41288553 -0.28527720 -0.07130219
C  0.95626889 1.26939419 -0.43520694
C  -0.89266109 -1.21237250 0.09937120
C  1.86912205 0.97908649 -0.74445580
C  0.11569136 -1.59611937 0.66569144
H  0.20391085 0.48045786 -0.41661464
H  0.39366959 0.30093065 -0.09682390
H  -0.81534579 0.23814220 0.40554563
H  -0.00094373 -0.55730297 0.05050979
H  -0.25070053 0.68365028 0.14109275
H  -0.47796248 0.31994394 -0.13828741
12
MD Step 938.5 Units = [eV / Ang.]
C  -0.70041549 -0.84481394 0.58814731
C  -0.60314688 -0.58091120 -0.11862908
C  0.93751989 1.51314877 -0.29003396
C  -0.69118509 -0.78816728 -0.02286004
C  2.20504092 0.59231711 -0.67106736
C  -0.35904238 -1.79325156 0.62701600
H  0.38781266 0.69194586 -0.46135600
H  0.24676064 0.33973184 -0.08028193
H  -0.67815829 0.29657724 0.33418930
H  -0.14738937 -0.95722421 0.08510913
H  -0.54026514 1.15635660 0.12184056
H  -0.05753146 0.37429077 -0.11207392
12
MD Step 939.0 Units = [eV / Ang.]
C  -0.68271698 -1.01252094 0.62294633
C  -0.77101933 -0.84621376 -0.16746594
C  0.85411551 1.71959737 -0.13803013
C  -0.51598312 -0.40925381 -0.14656147
C  2.45302025 0.24745734 -0.60373461
C  -0.80010746 -1.93773643 0.58300982
H  0.53527274 0.83659022 -0.49576428
H  0.09829400 0.36640419 -0.06097503
H  -0.48272158 0.34989853 0.25728537
H  -0.25577154 -1.27899329 0.12018953
H  -0.77638881 1.53994858 0.10899346
H  0.34400631 0.42482199 -0.07989305
12
MD Step 939.5 Units = [eV / Ang.]
C  -0.63064396 -1.11714499 0.64235073
C  -0.91414516 -1.06876047 -0.21831831
C  0.71411928 1.88306019 0.01701573
C  -0.37247736 -0.09056211 -0.26907822
C  2.57832224 -0.00129914 -0.54022763
C  -1.17493198 -2.01965126 0.53615923
H  0.63980045 0.90689973 -0.51717426
H  -0.04689350 0.37552834 -0.03881706
H  -0.24190697 0.39718381 0.17868525
H  -0.32090464 -1.50760906 0.15405216
H  -0.92447127 1.77490568 0.09906109
H  0.69413289 0.46744928 -0.04370871
12
MD Step 940.0 Units = [eV / Ang.]
C  -0.54187094 -1.15568408 0.64471917
C  -1.03076978 -1.23865275 -0.27140540
C  0.53123186 1.99877788 0.17132750
C  -0.26254172 0.15939619 -0.38790357
C  2.55778885 -0.11580369 -0.47585024
C  -1.46166885 -2.03268094 0.48921939
H  0.69737925 0.89958645 -0.52379269
H  -0.18428588 0.36315979 -0.01403675
H  0.02614102 0.43798594 0.10225253
H  -0.34091584 -1.63539163 0.18519750
H  -0.96124204 1.82023019 0.08616034
H  0.97075405 0.49907666 -0.00588778
12
MD Step 940.5 Units = [eV / Ang.]
C  -0.41580195 -1.12757408 0.62917239
C  -1.11969321 -1.34901666 -0.32662534
C  0.32479041 2.06290907 0.32151027
C  -0.18588056 0.33571217 -0.50072197
C  2.38691133 -0.08638866 -0.40508141
C  -1.64748448 -1.97464441 0.44487813
H  0.70594834 0.81454892 -0.51462208
H  -0.30991349 0.32704900 0.01286800
H  0.29828346 0.47246980 0.03139875
H  -0.31572899 -1.65907112 0.21236298
H  -0.88197303 1.66627878 0.06376185
H  1.16054215 0.51772719 0.03109842
12
MD Step 941.0 Units = [eV / Ang.]
C  -0.25357957 -1.03442762 0.59556346
C  -1.18025487 -1.39628513 -0.38354687
C  0.11849550 2.07260544 0.46500171
C  -0.14098511 0.43531450 -0.60541864
C  2.08143089 0.06497279 -0.32380128
C  -1.72611229 -1.84749340 0.40556610
H  0.66530409 0.65462810 -0.48947202
H  -0.42054091 0.26671471 0.04119693
H  0.54792901 0.50144145 -0.03146188
H  -0.24618012 -1.57794668 0.23451649
H  -0.70201012 1.33805003 0.02701630
H  1.25650350 0.52242581 0.06483970
12
MD Step 941.5 Units = [eV / Ang.]
C  -0.05853483 -0.88064131 0.54458555
C  -1.21235223 -1.38028957 -0.44142641
C  -0.06235239 2.02624810 0.60046774
C  -0.12562248 0.45662281 -0.70011746
C  1.67265493 0.29256155 -0.23093984
C  -1.69578892 -1.65693296 0.37339262
H  0.57751384 0.42617869 -0.44909766
H  -0.51381851 0.18340157 0.07012524
H  0.74804391 0.52618836 -0.08538489
H  -0.13383812 -1.39348236 0.25087116
H  -0.45179077 0.88713407 -0.02553001
H  1.25588558 0.51301104 0.09305394
12
MD Step 942.0 Units = [eV / Ang.]
C  0.16294093 -0.67466968 0.47799911
C  -1.21646630 -1.30417339 -0.49925496
C  -0.19481168 1.92387368 0.72795885
C  -0.13679534 0.40068347 -0.78329536
C  1.19903730 0.54159665 -0.12874856
C  -1.55814391 -1.41185480 0.35014551
H  0.44779392 0.14028188 -0.39544391
H  -0.58839664 0.07994642 0.09878398
H  0.87529624 0.54810900 -0.13109139
H  0.01849988 -1.11040929 0.26096755
H  -0.16799056 0.37662346 -0.09164688
H  1.15903615 0.48999261 0.11362607
12
MD Step 942.5 Units = [eV / Ang.]
C  0.40032356 -0.43053842 0.39888032
C  -1.19364592 -1.17416037 -0.55582653
C  -0.26250328 1.76771511 0.84867936
C  -0.17010689 0.27363673 -0.85398755
C  0.69802644 0.76261798 -0.02180159
C  -1.31826901 -1.12371087 0.33727235
H  0.28560942 -0.18582880 -0.33189901
H  -0.64400642 -0.03941771 0.12633576
H  0.91434194 0.56821241 -0.17073525
H  0.20572397 -0.73917663 0.26484327
H  0.11505120 -0.13385626 -0.16645878
H  0.96945501 0.45450683 0.12469765
12
MD Step 943.0 Units = [eV / Ang.]
C  0.63814618 -0.16888261 0.31173370
C  -1.14544481 -0.99914776 -0.60983339
C  -0.25876008 1.56264653 0.96438346
C  -0.21860785 0.08998555 -0.91205911
C  0.20101978 0.92026886 0.08450176
C  -0.98587605 -0.80586041 0.33575827
H  0.10551631 -0.52784772 -0.26338828
H  -0.68148795 -0.16932369 0.15204111
H  0.86092062 0.58666448 -0.20724820
H  0.41894345 -0.29920704 0.26325971
H  0.37063536 -0.59764483 -0.24402641
H  0.69499503 0.40834864 0.12487739
12
MD Step 943.5 Units = [eV / Ang.]
C  0.85611999 0.08340500 0.22225695
C  -1.07379068 -0.79014087 -0.65997119
C  -0.18765315 1.31631287 1.07659178
C  -0.27144520 -0.12445258 -0.95845014
C  -0.26806105 0.99527561 0.18515779
C  -0.57725401 -0.47287573 0.34583902
H  -0.07293611 -0.85490596 -0.19610325
H  -0.70275050 -0.30358909 0.17531035
H  0.72267143 0.60257415 -0.24346583
H  0.64406080 0.17818782 0.25789224
H  0.58111803 -0.98380351 -0.31867448
H  0.34992043 0.35401228 0.11361675
12
MD Step 944.0 Units = [eV / Ang.]
C  1.03087138 0.29570495 0.13661848
C  -0.98081524 -0.55951892 -0.70504449
C  -0.06258142 1.03877443 1.18592645
C  -0.31305766 -0.33170646 -0.99521982
C  -0.69172437 0.98154769 0.27615491
C  -0.11735378 -0.13971646 0.36654338
H  -0.22690911 -1.13232570 -0.13671993
H  -0.71064316 -0.43559103 0.19573592
H  0.51737738 0.61411817 -0.28134630
H  0.86112637 0.64907341 0.25131300
H  0.73657634 -1.27498427 -0.38569272
H  -0.04286673 0.29462418 0.09173113
12
MD Step 944.5 Units = [eV / Ang.]
C  1.13951381 0.43854077 0.06028510
C  -0.86869287 -0.32019590 -0.74405115
C  0.09695540 0.74172558 1.29179840
C  -0.32385810 -0.48492368 -1.02520521
C  -1.05696226 0.88123220 0.35450868
C  0.35908987 0.17929920 0.39517646
H  -0.33380261 -1.32677113 -0.09115610
H  -0.70872201 -0.55868201 0.21310094
H  0.26931248 0.61895315 -0.32153626
H  1.04538867 1.06036131 0.24658784
H  0.83233782 -1.46318606 -0.44145376
H  -0.45056020 0.23364657 0.06194507
12
MD Step 945.0 Units = [eV / Ang.]
C  1.16445334 0.48980197 -0.00327105
C  -0.73956509 -0.08471609 -0.77623653
C  0.26920456 0.43743183 1.39250774
C  -0.28312441 -0.53669962 -1.05122354
C  -1.35353088 0.69997271 0.41799379
C  0.80878274 0.47170701 0.42699016
H  -0.37596741 -1.41279847 -0.06319977
H  -0.70091075 -0.66662885 0.22736343
H  0.00495630 0.61474782 -0.36336606
H  1.17067888 1.35844943 0.24643515
H  0.86660822 -1.54557040 -0.48319777
H  -0.83158549 0.17430267 0.02920447
12
MD Step 945.5 Units = [eV / Ang.]
C  1.09789239 0.44030044 -0.05347814
C  -0.59559237 0.13559300 -0.80110508
C  0.43347851 0.13766969 1.48563934
C  -0.17389163 -0.45094267 -1.07503378
C  -1.57295844 0.44355504 0.46482665
C  1.18454700 0.72811633 0.45537666
H  -0.34508140 -1.37872532 -0.05353417
H  -0.69108461 -0.75403471 0.23861705
H  -0.25070224 0.59964600 -0.40517397
H  1.21481785 1.50147603 0.25217714
H  0.83883567 -1.52148456 -0.50873884
H  -1.14026074 0.11883074 0.00042714
12
MD Step 946.0 Units = [eV / Ang.]
C  0.94423962 0.29642586 -0.09274883
C  -0.43914594 0.33132589 -0.81838949
C  0.57227769 -0.14715071 1.56855074
C  0.01166808 -0.21397179 -1.09653670
C  -1.70836390 0.11641457 0.49347584
C  1.44333629 0.94305551 0.47283745
H  -0.24441569 -1.22951563 -0.05960912
H  -0.68262412 -0.81670513 0.24703545
H  -0.47655652 0.57254713 -0.44477003
H  1.16541994 1.47083495 0.26297889
H  0.74903862 -1.39112660 -0.51628243
H  -1.33487405 0.06786595 -0.01654178
12
MD Step 946.5 Units = [eV / Ang.]
C  0.71937788 0.07873942 -0.12566776
C  -0.27309869 0.49549206 -0.82799466
C  0.67214370 -0.40855891 1.63879415
C  0.26871791 0.16029671 -1.11370192
C  -1.75504889 -0.27788541 0.50272443
C  1.55561135 1.11504068 0.47264889
H  -0.08798492 -0.98545145 -0.07644271
H  -0.67800381 -0.85192288 0.25281105
H  -0.65638558 0.53318900 -0.47987324
H  1.02367516 1.27670968 0.27586031
H  0.59814744 -1.15596853 -0.50448662
H  -1.38715156 0.02031964 -0.01467193
12
MD Step 947.0 Units = [eV / Ang.]
C  0.44711103 -0.18289188 -0.15764406
C  -0.10111031 0.62373308 -0.82992342
C  0.72360377 -0.64029119 1.69438063
C  0.57985983 0.63383313 -1.12332438
C  -1.71181052 -0.73426399 0.49205057
C  1.51263778 1.24571678 0.45071343
H  0.10304124 -0.67716588 -0.09800194
H  -0.67849227 -0.85859117 0.25609958
H  -0.77883306 0.48209012 -0.50843169
H  0.80428777 0.95481724 0.28657451
H  0.38933314 -0.82092582 -0.47284359
H  -1.28962839 -0.02606043 0.01035036
12
MD Step 947.5 Units = [eV / Ang.]
C  0.15429229 -0.45559658 -0.19358406
C  0.07220553 0.71428314 -0.82420897
C  0.72071766 -0.83830972 1.73390203
C  0.91891943 1.15498362 -1.12221935
C  -1.58292803 -1.24205764 0.46234993
C  1.32852744 1.33834589 0.40682773
H  0.30511879 -0.33909281 -0.11859668
H  -0.68401226 -0.83724054 0.25698107
H  -0.83689234 0.42042929 -0.52881876
H  0.53157947 0.55598398 0.29093632
H  0.13018287 -0.39808859 -0.42240173
H  -1.05771084 -0.07364003 0.05883249
12
MD Step 948.0 Units = [eV / Ang.]
C  -0.13359269 -0.70903731 -0.23702280
C  0.24129937 0.76769967 -0.81086572
C  0.66066352 -1.00064258 1.75655308
C  1.25664448 1.67103550 -1.10824543
C  -1.38047858 -1.78009231 0.41686972
C  1.03606824 1.39629680 0.34480326
H  0.49655812 -0.00362422 -0.13383500
H  -0.69318866 -0.78989769 0.25544534
H  -0.82736807 0.34991958 -0.53994077
H  0.23360582 0.13347864 0.28596750
H  -0.16474613 0.08872178 -0.35669586
H  -0.72546541 -0.12385785 0.12696668
12
MD Step 948.5 Units = [eV / Ang.]
C  -0.39529339 -0.91876218 -0.28985032
C  0.39993864 0.78645580 -0.78986921
C  0.54365809 -1.12713687 1.76212341
C  1.56596258 2.13794951 -1.08075798
C  -1.12606398 -2.31256287 0.36201354
C  0.67824768 1.42202906 0.27142569
H  0.66009643 0.30255152 -0.14098533
H  -0.70356471 -0.71984733 0.25140151
H  -0.75063770 0.27269536 -0.54130672
H  -0.06327970 -0.26695316 0.27043646
H  -0.47199856 0.60024936 -0.28252643
H  -0.33706539 -0.17666821 0.20789536
12
MD Step 949.0 Units = [eV / Ang.]
C  -0.61488330 -1.06725598 -0.35249208
C  0.54162945 0.77444361 -0.76116496
C  0.37329800 -1.21910677 1.75099856
C  1.82524309 2.52484919 -1.04049294
C  -0.85046608 -2.78843798 0.30740495
C  0.29898373 1.41683460 0.19478069
H  0.78367779 0.55970956 -0.13886444
H  -0.71194488 -0.63131976 0.24470850
H  -0.61083862 0.19119514 -0.53309000
H  -0.33778322 -0.61193451 0.24477640
H  -0.75946308 1.08165067 -0.20997273
H  0.06254713 -0.23062778 0.29340805
12
MD Step 949.5 Units = [eV / Ang.]
C  -0.78155182 -1.14330320 -0.42430497
C  0.66014547 0.73646858 -0.72470167
C  0.15724237 -1.27889972 1.72417949
C  2.01927969 2.81373727 -0.98914501
C  -0.58976616 -3.14708528 0.26459440
C  -0.06386328 1.38108366 0.12264064
H  0.85994837 0.75456716 -0.12748030
H  -0.71479838 -0.52914641 0.23521735
H  -0.41642215 0.10799853 -0.51618277
H  -0.57464697 -0.88059767 0.21064460
H  -0.99023966 1.46860781 -0.15102189
H  0.43467253 -0.28343073 0.37556013
12
MD Step 950.0 Units = [eV / Ang.]
C  -0.88876068 -1.14060442 -0.50397858
C  0.75004732 0.67777502 -0.68047849
C  -0.09202872 -1.30935432 1.68329299
C  2.13866428 2.99642682 -0.92893648
C  -0.37777161 -3.33077867 0.24428657
C  -0.38187043 1.31465183 0.06139310
H  0.88518906 0.87892082 -0.10763622
H  -0.70865873 -0.41842157 0.22281575
H  -0.18081943 0.02557631 -0.49220839
H  -0.76391564 -1.06195865 0.17042611
H  -1.13028153 1.70032078 -0.11670890
H  0.75020611 -0.33255395 0.44773255
12
MD Step 950.5 Units = [eV / Ang.]
C  -0.93335122 -1.05643482 -0.58982363
C  0.80713159 0.60363741 -0.62859683
C  -0.35681514 -1.31317294 1.63052507
C  2.17847228 3.07072892 -0.86233705
C  -0.23690477 -3.30075856 0.25292811
C  -0.63624507 1.21729002 0.01562081
H  0.85828220 0.92825646 -0.08061694
H  -0.69047174 -0.30419454 0.20746661
H  0.07722032 -0.05405608 -0.46342761
H  -0.89943604 -1.15150659 0.12686715
H  -1.15765308 1.73595995 -0.11363518
H  0.98977066 -0.37574924 0.50502949
12
MD Step 951.0 Units = [eV / Ang.]
C  -0.91494557 -0.89082923 -0.67992763
C  0.82873003 0.51901588 -0.56930812
C  -0.61465985 -1.29228832 1.56841179
C  2.13693780 3.03730265 -0.79196528
C  -0.17155261 -3.04996478 0.29028916
C  -0.81609530 1.08889957 -0.01181366
H  0.78006857 0.90086355 -0.04799160
H  -0.65785939 -0.19120977 0.18923487
H  0.33415863 -0.12973079 -0.43247560
H  -0.97737042 -1.14833551 0.08288741
H  -1.06936985 1.56756919 -0.14152578
H  1.14195797 -0.41129244 0.54418443
12
MD Step 951.5 Units = [eV / Ang.]
C  -0.83580624 -0.64656074 -0.77220152
C  0.81386357 0.42829255 -0.50304933
C  -0.84014433 -1.24738560 1.49945136
C  2.01454205 2.89781411 -0.72060584
C  -0.16738623 -2.60589686 0.34943168
C  -0.91612916 0.92978217 -0.01944104
H  0.65324070 0.79773673 -0.01151835
H  -0.60929461 -0.08369520 0.16829988
H  0.56353818 -0.20143357 -0.40190620
H  -0.99519800 -1.05343087 0.04152482
H  -0.88228742 1.22280910 -0.19323159
H  1.20106150 -0.43803182 0.56324613
12
MD Step 952.0 Units = [eV / Ang.]
C  -0.70113837 -0.32994791 -0.86438013
C  0.76323300 0.33508196 -0.43046374
C  -1.00810781 -1.17777609 1.42559884
C  1.81368080 2.65460605 -0.65124342
C  -0.19705814 -2.02210436 0.41912328
C  -0.93472413 0.74094379 -0.00683730
H  0.48275167 0.62332809 0.02689637
H  -0.54418857 0.01480194 0.14495385
H  0.73929576 -0.27034730 -0.37361369
H  -0.95145513 -0.86928843 0.00591790
H  -0.62755464 0.75603905 -0.25722735
H  1.16526556 -0.45533679 0.56127538
12
MD Step 952.5 Units = [eV / Ang.]
C  -0.51971043 0.04766628 -0.95403635
C  0.67908557 0.24213273 -0.35240093
C  -1.09781817 -1.08177144 1.34779887
C  1.53906692 2.31182783 -0.58699558
C  -0.22933607 -1.36293416 0.48735322
C  -0.87290814 0.52443289 0.02558738
H  0.27657378 0.38701028 0.06523811
H  -0.46290038 0.10153092 0.11958746
H  0.84003037 -0.33849760 -0.34830288
H  -0.84633555 -0.60084344 -0.02079325
H  -0.34155906 0.23248168 -0.32123674
H  1.03581115 -0.46303598 0.53820069
12
MD Step 953.0 Units = [eV / Ang.]
C  -0.30447798 0.46817934 -1.03866565
C  0.56499297 0.15131284 -0.26990026
C  -1.09701681 -0.95753093 1.26577561
C  1.19892393 1.87780703 -0.53082605
C  -0.23743205 -0.68885456 0.54424206
C  -0.73447967 0.28365221 0.07658521
H  0.04648141 0.10482647 0.10147605
H  -0.36669047 0.17461974 0.09266617
H  0.85311100 -0.40801493 -0.32522957
H  -0.68316097 -0.25754880 -0.03577606
H  -0.05756175 -0.28704785 -0.37524346
H  0.81731038 -0.46140054 0.49489595
12
MD Step 953.5 Units = [eV / Ang.]
C  -0.07276615 0.90550927 -1.11587015
C  0.42558703 0.06369518 -0.18415367
C  -1.00452922 -0.80416032 1.17821696
C  0.80682567 1.36819851 -0.48493062
C  -0.20375962 -0.04754218 0.58340148
C  -0.52721483 0.02356046 0.14384661
H  -0.19162387 -0.19924505 0.13373655
H  -0.25762129 0.23311177 0.06470059
H  0.77728759 -0.48023187 -0.30236433
H  -0.47051318 0.14381344 -0.03713311
H  0.19920613 -0.75553091 -0.41291950
H  0.51912173 -0.45117831 0.43346918
12
MD Step 954.0 Units = [eV / Ang.]
C  0.15453668 1.32593986 -1.18362425
C  0.26628722 -0.02025733 -0.09645342
C  -0.83050813 -0.62269130 1.08334046
C  0.38361136 0.80896703 -0.44978692
C  -0.12071491 0.52827323 0.60184645
C  -0.26483522 -0.24929845 0.22363134
H  -0.41840774 -0.49358882 0.16054504
H  -0.13841437 0.27695508 0.03621342
H  0.62285929 -0.55495974 -0.27696448
H  -0.22442384 0.57647404 -0.02486393
H  0.41259136 -1.14217294 -0.43155300
H  0.15741829 -0.43364065 0.35766928
12
MD Step 954.5 Units = [eV / Ang.]
C  0.35513612 1.69099160 -1.24054181
C  0.09306057 -0.10043463 -0.00813033
C  -0.59426003 -0.41661148 0.97963343
C  -0.04171876 0.23769596 -0.42305350
C  0.01122838 1.01827600 0.59912681
C  0.03098572 -0.52697215 0.31043580
H  -0.61318691 -0.74179542 0.18106569
H  -0.01227647 0.30694192 0.00770741
H  0.40935433 -0.63023785 -0.24635261
H  0.03050820 1.00264848 -0.00196454
H  0.57396971 -1.42994326 -0.43114828
H  -0.24280086 -0.41055916 0.27322191
12
MD Step 955.0 Units = [eV / Ang.]
C  0.50872564 1.96306874 -1.28602883
C  -0.08778879 -0.17677465 0.07951124
C  -0.32047089 -0.19184924 0.86648753
C  -0.43355513 -0.29853428 -0.39879705
C  0.18647833 1.41023150 0.57634521
C  0.32972434 -0.80052574 0.39697102
H  -0.75727812 -0.90832234 0.19522949
H  0.11730166 0.32459025 -0.02036199
H  0.16158948 -0.70263183 -0.20862280
H  0.26250387 1.37589551 0.02482709
H  0.67970533 -1.61112979 -0.41337695
H  -0.64693571 -0.38401811 0.18781606
12
MD Step 955.5 Units = [eV / Ang.]
C  0.60077745 2.11278974 -1.32022114
C  -0.26979447 -0.24896333 0.16525422
C  -0.03512405 0.04368575 0.74451960
C  -0.75463587 -0.74976711 -0.36772859
C  0.39713762 1.69597389 0.53543502
C  0.59358526 -1.06069360 0.47473837
H  -0.83776638 -0.96587770 0.20365896
H  0.24675561 0.33196999 -0.04760711
H  -0.09455805 -0.76791839 -0.16306074
H  0.43745790 1.64791278 0.04532995
H  0.72877765 -1.68309957 -0.38077593
H  -1.01261267 -0.35601244 0.11045739
12
MD Step 956.0 Units = [eV / Ang.]
C  0.62545316 2.12562457 -1.34370885
C  -0.44651049 -0.31619332 0.24801681
C  0.23778483 0.28076618 0.61553054
C  -0.97384782 -1.07340695 -0.31894858
C  0.63508225 1.86881451 0.47879893
C  0.78243548 -1.29868399 0.53533376
H  -0.85036734 -0.90213271 0.20739071
H  0.37264838 0.33149135 -0.07371805
H  -0.33552303 -0.82186739 -0.11021747
H  0.52669600 1.77887989 0.04776240
H  0.72114580 -1.64539366 -0.33631141
H  -1.29499722 -0.32789848 0.05007121
12
MD Step 956.5 Units = [eV / Ang.]
C  0.58644793 2.00516646 -1.35716540
C  -0.61169961 -0.37702650 0.32688521
C  0.47820899 0.50952977 0.48220195
C  -1.07426410 -1.24472060 -0.24297854
C  0.89308562 1.92269965 0.40924957
C  0.86168003 -1.50688744 0.57225556
H  -0.80020514 -0.72305908 0.20751000
H  0.49184196 0.32567299 -0.09846273
H  -0.54203101 -0.86087124 -0.05171730
H  0.51501961 1.74796189 0.02188518
H  0.65703674 -1.49855120 -0.28326007
H  -1.45512102 -0.29991473 0.01359658
12
MD Step 957.0 Units = [eV / Ang.]
C  0.49546686 1.77163728 -1.36105526
C  -0.75956929 -0.42939689 0.40112776
C  0.67072377 0.72011989 0.34769394
C  -1.05781267 -1.26311023 -0.13494250
C  1.16494256 1.85317106 0.33012499
C  0.81085439 -1.67925922 0.58260657
H  -0.70018411 -0.45143092 0.20486045
H  0.60162421 0.31692041 -0.12167727
H  -0.69973653 -0.88230579 0.01006282
H  0.40541933 1.55944141 -0.03772210
H  0.53719622 -1.24473479 -0.22528353
H  -1.46892476 -0.27105220 0.00420412
12
MD Step 957.5 Units = [eV / Ang.]
C  0.36901417 1.45632015 -1.35553347
C  -0.88500670 -0.47076282 0.47019449
C  0.80434618 0.90330823 0.21528172
C  -0.94420493 -1.15118702 0.00360488
C  1.44456747 1.66003026 0.24542646
C  0.62957404 -1.81119703 0.56793240
H  -0.56768025 -0.12117511 0.19993659
H  0.69977983 0.30734425 -0.14325060
H  -0.79897338 -0.88464470 0.07232163
H  0.21805760 1.24148751 -0.12978888
H  0.36409922 -0.89009267 -0.16653378
H  -1.33357325 -0.23943105 0.02040856
12
MD Step 958.0 Units = [eV / Ang.]
C  0.22480138 1.09432133 -1.34053690
C  -0.98379999 -0.49837623 0.53369973
C  0.87200951 1.05110819 0.08809838
C  -0.76465901 -0.94720966 0.16507408
C  1.72409027 1.35140377 0.15978079
C  0.33814949 -1.89903969 0.53375819
H  -0.42087363 0.23003946 0.19295328
H  0.78460846 0.29863572 -0.16310464
H  -0.83414523 -0.86742027 0.13211112
H  -0.01594460 0.83816893 -0.24677123
H  0.14403557 -0.44856599 -0.11158697
H  -1.06827221 -0.20306557 0.05652417
12
MD Step 958.5 Units = [eV / Ang.]
C  0.07890876 0.71829313 -1.31597027
C  -1.05279110 -0.50963032 0.59139511
C  0.87014987 1.15736700 -0.03102373
C  -0.55350911 -0.69460206 0.33809265
C  1.99126509 0.94834570 0.07801745
C  -0.02748210 -1.93952493 0.48799474
H  -0.27589948 0.56730740 0.18400321
H  0.85489662 0.29201077 -0.18117741
H  -0.80320564 -0.83113689 0.18655992
H  -0.26282900 0.39850323 -0.37718481
H  -0.11029931 0.05373180 -0.06498657
H  -0.70920460 -0.16066482 0.10427971
12
MD Step 959.0 Units = [eV / Ang.]
C  -0.05575931 0.35469555 -1.28189002
C  -1.08994212 -0.50240772 0.64313361
C  0.79865100 1.21827078 -0.13966633
C  -0.34114964 -0.43289065 0.51036651
C  2.22706511 0.48815643 0.00420721
C  -0.42425653 -1.92955093 0.43891398
H  -0.14535641 0.86246437 0.17320790
H  0.90985963 0.28821577 -0.19740803
H  -0.70749153 -0.77720221 0.23308285
H  -0.49314946 -0.03304353 -0.50858602
H  -0.37762266 0.57540274 -0.03024921
H  -0.30084807 -0.11211057 0.15488756
12
MD Step 959.5 Units = [eV / Ang.]
C  -0.16981701 0.02278237 -1.23862362
C  -1.09431148 -0.47538057 0.68882727
C  0.66122445 1.23269730 -0.23596205
C  -0.15022404 -0.19265026 0.67094100
C  2.40495455 0.02376523 -0.05973386
C  -0.81049233 -1.86639523 0.39346492
H  -0.03807032 1.09531619 0.16081062
H  0.94906900 0.28758101 -0.21172749
H  -0.55199732 -0.70788986 0.26962451
H  -0.68540461 -0.42195673 -0.62995080
H  -0.62778419 1.06059709 -0.00845062
H  0.11285329 -0.05846653 0.20078014
12
MD Step 960.0 Units = [eV / Ang.]
C  -0.25696763 -0.26452620 -1.18681671
C  -1.06596372 -0.42820302 0.72840573
C  0.46610158 1.20232713 -0.31880478
C  0.00499745 0.00540552 0.81130417
C  2.49349773 -0.38323575 -0.11533722
C  -1.15175431 -1.74826932 0.35638037
H  0.04035540 1.25292047 0.14721071
H  0.97237952 0.29010166 -0.22405485
H  -0.34598533 -0.62629174 0.29496755
H  -0.82641978 -0.74480281 -0.73286634
H  -0.82497020 1.44620197 0.00305308
H  0.49472930 -0.00162790 0.23655829
12
MD Step 960.5 Units = [eV / Ang.]
C  -0.31328772 -0.49895665 -1.12743015
C  -1.00583641 -0.36158858 0.76177908
C  0.22674538 1.13145819 -0.38813969
C  0.11724501 0.14859766 0.92546752
C  2.46290050 -0.67588394 -0.16788964
C  -1.42319246 -1.57498333 0.33008486
H  0.08670587 1.32800160 0.13296073
H  0.97986732 0.29552323 -0.23429772
H  -0.10365262 -0.53618075 0.30909740
H  -0.90971568 -0.98749224 -0.81164659
H  -0.93485945 1.67534953 0.01087049
H  0.81708026 0.05615528 0.25914371
12
MD Step 961.0 Units = [eV / Ang.]
C  -0.33656106 -0.67531046 -1.06170765
C  -0.91561024 -0.27726901 0.78881133
C  -0.03788446 1.02645774 -0.44526041
C  0.18417079 0.22946146 1.00948339
C  2.29383769 -0.81741000 -0.22506449
C  -1.60904323 -1.34849948 0.31512351
H  0.09941861 1.31742165 0.11874797
H  0.97178423 0.30342021 -0.24235577
H  0.15562176 -0.44169573 0.31354269
H  -0.93324913 -1.14242248 -0.86283116
H  -0.93392972 1.71316596 0.02409816
H  1.06144476 0.11268013 0.26741243
12
MD Step 961.5 Units = [eV / Ang.]
C  -0.32587974 -0.79055796 -0.99112945
C  -0.79760963 -0.17787948 0.80931026
C  -0.30403116 0.89489907 -0.49297172
C  0.20641944 0.24323135 1.06085830
C  1.98480290 -0.80211172 -0.29411294
C  -1.70065752 -1.07323887 0.31078314
H  0.07815963 1.22127170 0.10536774
H  0.94853110 0.31325363 -0.24812528
H  0.40799005 -0.34681214 0.31154506
H  -0.89748243 -1.20582266 -0.88454059
H  -0.81701677 1.55774071 0.05137532
H  1.21677413 0.16602637 0.26164018
12
MD Step 962.0 Units = [eV / Ang.]
C  -0.28162090 -0.84386751 -0.91734296
C  -0.65474696 -0.06678104 0.82303659
C  -0.54522884 0.74449938 -0.53542575
C  0.18623221 0.18632270 1.07815454
C  1.55416343 -0.65587144 -0.37891745
C  -1.69428954 -0.75606155 0.31565376
H  0.02381449 1.04284507 0.09367696
H  0.91065149 0.32440017 -0.25150452
H  0.62725283 -0.25466400 0.30787063
H  -0.80422388 -1.17603119 -0.87600914
H  -0.59927933 1.24057680 0.09780931
H  1.27727499 0.21463261 0.24299803
12
MD Step 962.5 Units = [eV / Ang.]
C  -0.20581747 -0.83752605 -0.84205701
C  -0.49051867 0.05212511 0.82973028
C  -0.73578554 0.58213140 -0.57750406
C  0.12676235 0.05610614 1.06093124
C  1.03579668 -0.42608111 -0.47845497
C  -1.58950246 -0.40597697 0.32800826
H  -0.06110213 0.78947362 0.08450639
H  0.85884135 0.33615870 -0.25239791
H  0.78838955 -0.16691580 0.30814050
H  -0.65636038 -1.05304119 -0.83746869
H  -0.31150421 0.81627115 0.16335249
H  1.24080093 0.25727500 0.21321349
12
MD Step 963.0 Units = [eV / Ang.]
C  -0.10289750 -0.77852516 -0.76687287
C  -0.30902550 0.17459352 0.82915280
C  -0.85506516 0.41322102 -0.62377311
C  0.03214304 -0.14795870 1.01005698
C  0.47068650 -0.16640743 -0.58729656
C  -1.38858235 -0.03364976 0.34596876
H  -0.17168522 0.47398856 0.07850435
H  0.79397284 0.34773179 -0.25072058
H  0.87189456 -0.08345809 0.31771740
H  -0.45841434 -0.83941962 -0.77043101
H  0.00872752 0.34686380 0.24328248
H  1.10824560 0.29302008 0.17441136
12
MD Step 963.5 Units = [eV / Ang.]
C  0.01938802 -0.68022661 -0.69303788
C  -0.11498708 0.29621408 0.82113147
C  -0.89137528 0.24176179 -0.67727834
C  -0.09171001 -0.42192233 0.92834176
C  -0.10146630 0.07658443 -0.69752679
C  -1.09708321 0.34915208 0.36751020
H  -0.29973492 0.11623904 0.07589780
H  0.71712554 0.35820176 -0.24640256
H  0.86769923 -0.00263387 0.34042478
H  -0.21775134 -0.54254104 -0.67831210
H  0.32581061 -0.11204131 0.33016085
H  0.88408474 0.32121198 0.12909081
12
MD Step 964.0 Units = [eV / Ang.]
C  0.14922530 -0.56326536 -0.62113608
C  0.08627858 0.41260572 0.80560350
C  -0.84417644 0.07092303 -0.73859378
C  -0.23578426 -0.75404251 0.82130544
C  -0.64760682 0.27060762 -0.80087367
C  -0.72539809 0.73007761 0.39037367
H  -0.43308472 -0.25619408 0.07619319
H  0.62962175 0.36649916 -0.23939481
H  0.77735788 0.07801267 0.37752253
H  0.05390365 -0.17777570 -0.56719895
H  0.61168697 -0.51898068 0.41604032
H  0.57797621 0.34153251 0.08015866
12
MD Step 964.5 Units = [eV / Ang.]
C  0.27072828 -0.45463539 -0.55079751
C  0.28895329 0.51961470 0.78264504
C  -0.72379568 -0.09605865 -0.80550456
C  -0.38671035 -1.12149073 0.69770844
C  -1.14295942 0.39838976 -0.89016472
C  -0.29095109 1.09661332 0.41200923
H  -0.55570467 -0.60913428 0.07790495
H  0.53305281 0.37139341 -0.22967685
H  0.61366566 0.16072835 0.42732741
H  0.33924411 0.22830428 -0.44636422
H  0.84746888 -0.84786226 0.49399553
H  0.20700817 0.35413749 0.03091726
12
MD Step 965.0 Units = [eV / Ang.]
C  0.36522952 -0.38423985 -0.48056423
C  0.48689585 0.61352454 0.75248342
C  -0.54880153 -0.25513955 -0.87344822
C  -0.52642190 -1.48869392 0.56930302
C  -1.57001891 0.45431594 -0.95988144
C  0.17976761 1.43643600 0.42965424
H  -0.64910102 -0.90554234 0.07846096
H  0.42929274 0.37150503 -0.21726703
H  0.39786998 0.24667678 0.48560786
H  0.61530889 0.63636698 -0.32797313
H  1.02220183 -1.08503446 0.55872378
H  -0.20222305 0.35982483 -0.01509922
12
MD Step 965.5 Units = [eV / Ang.]
C  0.41411731 -0.37904023 -0.40807825
C  0.67387186 0.69126111 0.71548993
C  -0.34204507 -0.40122520 -0.93652481
C  -0.63366593 -1.80936678 0.44930823
C  -1.91647572 0.43971394 -1.00606374
C  0.65057126 1.73776299 0.44063928
H  -0.69519485 -1.11168944 0.07445052
H  0.32048730 0.36535569 -0.20223366
H  0.15550259 0.33550051 0.54656498
H  0.85542047 0.99650659 -0.22548618
H  1.13040195 -1.22491507 0.60645214
H  -0.61299118 0.36013589 -0.05451844
12
MD Step 966.0 Units = [eV / Ang.]
C  0.40273807 -0.45632542 -0.33065784
C  0.84381787 0.75056728 0.67215743
C  -0.12668398 -0.52849297 -0.98868638
C  -0.68773143 -2.03362410 0.34957842
C  -2.17328945 0.35866822 -1.02593779
C  1.07773792 1.98984079 0.44290840
H  -0.68016332 -1.20425275 0.06227823
H  0.20901244 0.35145485 -0.18470656
H  -0.08781159 0.42539200 0.60401565
H  1.03342309 1.25557937 -0.15074901
H  1.16965199 -1.26606819 0.63453469
H  -0.98070160 0.35726094 -0.08473523
12
MD Step 966.5 Units = [eV / Ang.]
C  0.32419264 -0.61854560 -0.24614127
C  0.99107051 0.79010634 0.62306862
C  0.07677323 -0.63109604 -1.02472905
C  -0.67362142 -2.11937838 0.27727828
C  -2.33351917 0.21527454 -1.01756654
C  1.41577736 2.18363362 0.43560313
H  -0.59802460 -1.17584746 0.03908911
H  0.09739943 0.32841947 -0.16488639
H  -0.30949532 0.51352613 0.65240066
H  1.12936537 1.36887746 -0.11060901
H  1.13895955 -1.20862877 0.64105933
H  -1.25887758 0.35365870 -0.10456687
12
MD Step 967.0 Units = [eV / Ang.]
C  0.18153080 -0.85195326 -0.15368798
C  1.11054977 0.80947886 0.56886087
C  0.25201513 -0.70394477 -1.04087947
C  -0.58672454 -2.04429319 0.23255574
C  -2.39211772 0.01258802 -0.97970103
C  1.62614358 2.31265013 0.41944164
H  -0.45252797 -1.03669497 0.00363321
H  -0.01176960 0.29511160 -0.14304918
H  -0.49169829 0.59661618 0.68741404
H  1.13459763 1.31235056 -0.10458267
H  1.03816178 -1.05334349 0.62466643
H  -1.40816057 0.35143434 -0.11467161
12
MD Step 967.5 Units = [eV / Ang.]
C  -0.01257570 -1.12971843 -0.05419158
C  1.19789828 0.80913027 0.51019287
C  0.38724275 -0.74330971 -1.03497023
C  -0.43478228 -1.81301588 0.20853543
C  -2.34670443 -0.24668427 -0.91192729
C  1.68631388 2.37366993 0.39662907
H  -0.25650297 -0.81169962 -0.04329236
H  -0.11599022 0.25078209 -0.11954449
H  -0.62168406 0.67140095 0.70624254
H  1.05401647 1.09002435 -0.12490862
H  0.86846004 -0.80227224 0.58469373
H  -1.40569174 0.35169255 -0.11745905
12
MD Step 968.0 Units = [eV / Ang.]
C  -0.23849259 -1.41817936 0.04985785
C  1.24958974 0.79017339 0.44771749
C  0.47473992 -0.74712578 -1.00632722
C  -0.23612236 -1.45604819 0.19377823
C  -2.19925210 -0.55780126 -0.81515352
C  1.59564517 2.36707135 0.37024110
H  -0.02895260 -0.53423489 -0.09899766
H  -0.21297009 0.19519568 -0.09478552
H  -0.69141859 0.73497482 0.70753055
H  0.90436473 0.73291563 -0.15912615
H  0.63406356 -0.46111016 0.52169500
H  -1.25119478 0.35416877 -0.11643015
12
MD Step 968.5 Units = [eV / Ang.]
C  -0.47351436 -1.68370411 0.15495395
C  1.26308375 0.75415613 0.38206011
C  0.51024882 -0.71505115 -0.95553793
C  -0.01501128 -1.02082418 0.17598365
C  -1.95849397 -0.91013347 -0.69240096
C  1.37538121 2.29655285 0.34331045
H  0.20888704 -0.23914475 -0.15953756
H  -0.30076266 0.12873082 -0.06923130
H  -0.69691725 0.78497450 0.69122347
H  0.70943746 0.29000932 -0.19392508
H  0.34472319 -0.04290353 0.43828438
H  -0.96706197 0.35733758 -0.11518319
12
MD Step 969.0 Units = [eV / Ang.]
C  -0.69553696 -1.89791688 0.25730809
C  1.23699881 0.70281698 0.31380389
C  0.49254100 -0.64838215 -0.88422601
C  0.20376340 -0.55936024 0.14520579
C  -1.64246793 -1.28263244 -0.54969018
C  1.06277180 2.16834754 0.31800719
H  0.43708972 0.04274035 -0.22052863
H  -0.37787962 0.05243866 -0.04336131
H  -0.63775849 0.81968313 0.65840345
H  0.49437926 -0.18430928 -0.21850083
H  0.01849891 0.42762638 0.34007607
H  -0.59239989 0.35894795 -0.11649751
12
MD Step 969.5 Units = [eV / Ang.]
C  -0.88558074 -2.04027648 0.35345411
C  1.17132916 0.63787528 0.24348469
C  0.42342188 -0.54996067 -0.79490866
C  0.39903170 -0.11765780 0.09548539
C  -1.27995421 -1.64030371 -0.39656861
C  0.70191648 1.99019576 0.29523090
H  0.63926662 0.28748479 -0.27784360
H  -0.44337780 -0.03194117 -0.01764519
H  -0.51701482 0.83811955 0.61117656
H  0.28121029 -0.64112636 -0.22627451
H  -0.31654726 0.91087047 0.23623856
H  -0.17370130 0.35672032 -0.12182966
12
MD Step 970.0 Units = [eV / Ang.]
C  -1.02892924 -2.09822166 0.44058149
C  1.06764445 0.56089453 0.17159195
C  0.30817175 -0.42413112 -0.69092400
C  0.55519929 0.27007506 0.02485331
C  -0.90907982 -1.93433433 -0.24561939
C  0.33495593 1.77038835 0.27468024
H  0.80331893 0.47850212 -0.32802458
H  -0.49690738 -0.12201516 0.00749046
H  -0.34162720 0.84014831 0.55259826
H  0.08660200 -1.04306653 -0.21491924
H  -0.62353804 1.35285939 0.13899270
H  0.24418934 0.34890104 -0.13130119
12
MD Step 970.5 Units = [eV / Ang.]
C  -1.11517521 -2.06584610 0.51660611
C  0.92921463 0.47322617 0.09857888
C  0.15627354 -0.27674162 -0.57636579
C  0.66227741 0.58225767 -0.06562496
C  -0.57171777 -2.10832927 -0.11045510
C  -0.00379270 1.51706792 0.25524037
H  0.92111027 0.60548307 -0.36841666
H  -0.53871934 -0.21481774 0.03169465
H  -0.12307752 0.82659952 0.48657401
H  -0.07827983 -1.36539074 -0.18536181
H  -0.86225223 1.69197839 0.06155720
H  0.62413876 0.33451273 -0.14402691
12
MD Step 971.0 Units = [eV / Ang.]
C  -1.13773368 -1.94208706 0.58008159
C  0.76101676 0.37603664 0.02487808
C  -0.01793648 -0.11508109 -0.45591909
C  0.71482942 0.80753877 -0.17301241
C  -0.30416654 -2.11094626 -0.00241108
C  -0.29000418 1.23781037 0.23545853
H  0.98765094 0.66279672 -0.39712349
H  -0.56962567 -0.30694597 0.05472058
H  0.12200403 0.79933037 0.41763672
H  -0.20667995 -1.59383201 -0.14053044
H  -0.99842608 1.87206224 0.01477254
H  0.93907143 0.31331728 -0.15855152
12
MD Step 971.5 Units = [eV / Ang.]
C  -1.09328248 -1.72918521 0.63007111
C  0.56957898 0.27038761 -0.04907528
C  -0.19518515 0.05235693 -0.33449190
C  0.71064715 0.94127335 -0.29340736
C  -0.12729472 -1.91123482 0.07283135
C  -0.50860471 0.93944592 0.21392908
H  1.00031363 0.64812024 -0.41290877
H  -0.59091360 -0.39474007 0.07644524
H  0.37181826 0.76112787 0.35050966
H  -0.29476424 -1.72124714 -0.08434333
H  -1.01371413 1.85807486 0.00366066
H  1.17140102 0.28562046 -0.17322048
12
MD Step 972.0 Units = [eV / Ang.]
C  -0.98146174 -1.43183629 0.66608004
C  0.36265013 0.15735185 -0.12281541
C  -0.35230891 0.21640965 -0.21660513
C  0.64965478 0.98238483 -0.42245284
C  -0.04083755 -1.50991317 0.11696028
C  -0.65152571 0.62807765 0.18951484
H  0.95842425 0.56172599 -0.41514512
H  -0.60421333 -0.47450959 0.09687548
H  0.60054335 0.71535715 0.28942837
H  -0.34031567 -1.74459931 -0.02110115
H  -0.91159754 1.64749674 0.02567594
H  1.31098794 0.25205451 -0.18641529
12
MD Step 972.5 Units = [eV / Ang.]
C  -0.80501521 -1.05720246 0.68810853
C  0.14872111 0.03812495 -0.19581828
C  -0.46478169 0.36808285 -0.10562573
C  0.53319602 0.93143827 -0.55553082
C  -0.02499582 -0.94068725 0.13806106
C  -0.71520375 0.30925282 0.16141843
H  0.86340165 0.40660696 -0.40387273
H  -0.61133049 -0.54278370 0.11613768
H  0.78102294 0.66534238 0.23732154
H  -0.34191402 -1.66308312 0.04477559
H  -0.71600511 1.27148350 0.07169369
H  1.35290438 0.21342480 -0.19666895
12
MD Step 973.0 Units = [eV / Ang.]
C  -0.57039524 -0.61576761 0.69684050
C  -0.06355829 -0.08587165 -0.26747800
C  -0.51059862 0.49955934 -0.00307489
C  0.36379610 0.79023225 -0.68779556
C  -0.04852751 -0.26087074 0.14748034
C  -0.69871440 -0.01180232 0.12915168
H  0.71945604 0.18942185 -0.37998150
H  -0.61405343 -0.59657276 0.13444838
H  0.88885600 0.61360986 0.19509284
H  -0.29873563 -1.47771814 0.10881623
H  -0.46337801 0.78513125 0.12921269
H  1.29585299 0.17064867 -0.20271270
12
MD Step 973.5 Units = [eV / Ang.]
C  -0.28868580 -0.12279984 0.69392606
C  -0.26599454 -0.21291514 -0.33709496
C  -0.47470395 0.60509346 0.09168050
C  0.14544470 0.56293416 -0.81422726
C  -0.07911430 0.46370927 0.15621271
C  -0.60300851 -0.32998338 0.09247040
H  0.53468179 -0.07796426 -0.34547297
H  -0.61395821 -0.63360438 0.15206932
H  0.90703362 0.56125650 0.16131563
H  -0.21103231 -1.19245958 0.16656051
H  -0.19231312 0.25196423 0.18607132
H  1.14165061 0.12476895 -0.20351128
12
MD Step 974.0 Units = [eV / Ang.]
C  0.02351893 0.40008229 0.68224457
C  -0.45139805 -0.34093011 -0.40387777
C  -0.35260789 0.68147433 0.18113055
C  -0.11551776 0.25858676 -0.92986827
C  -0.09144640 1.17253317 0.17239760
C  -0.43143304 -0.64021498 0.05133500
H  0.32214378 -0.37685632 -0.30368722
H  -0.61223454 -0.65250688 0.16925234
H  0.82972013 0.50773417 0.13256069
H  -0.08130280 -0.81667710 0.21378824
H  0.06467049 -0.27022407 0.23305726
H  0.89588715 0.07699874 -0.19833298
12
MD Step 974.5 Units = [eV / Ang.]
C  0.34391529 0.92407887 0.66595939
C  -0.61399010 -0.46745539 -0.46696275
C  -0.15187578 0.72788773 0.26874658
C  -0.40894450 -0.10553892 -1.03038522
C  -0.07077406 1.81838190 0.20051870
C  -0.19142551 -0.93746133 0.00593620
H  0.10030860 -0.68087473 -0.25930731
H  -0.60955778 -0.65291335 0.18618263
H  0.66381082 0.45119072 0.10432472
H  0.08396001 -0.36849983 0.24706394
H  0.28496804 -0.73753393 0.26479969
H  0.56960497 0.02873825 -0.18687656
12
MD Step 975.0 Units = [eV / Ang.]
C  0.64570278 1.41416271 0.65016191
C  -0.74961277 -0.58964245 -0.52544743
C  0.10913572 0.74526943 0.35781428
C  -0.71920064 -0.50085519 -1.11298370
C  -0.01236045 2.36894586 0.24191664
C  0.10307877 -1.21676227 -0.04319934
H  -0.10793960 -0.95693277 -0.21794228
H  -0.60602570 -0.63547194 0.20293140
H  0.42762278 0.38925515 0.07225570
H  0.27236300 0.12209087 0.26463295
H  0.45570783 -1.12155867 0.27930988
H  0.18152827 -0.01850073 -0.16945000
12
MD Step 975.5 Units = [eV / Ang.]
C  0.90071104 1.83261180 0.63999079
C  -0.85572305 -0.70427305 -0.57843085
C  0.40483112 0.73543138 0.45040427
C  -1.02406930 -0.88641463 -1.17749755
C  0.08133648 2.80422082 0.29586356
C  0.42940502 -1.47316770 -0.09506014
H  -0.27820456 -1.16888189 -0.18518675
H  -0.60116611 -0.60177040 0.21942527
H  0.14719854 0.31994288 0.03323865
H  0.46439470 0.61224039 0.26748361
H  0.57132606 -1.40662819 0.27692328
H  -0.24003993 -0.06331142 -0.14715415
12
MD Step 976.0 Units = [eV / Ang.]
C  1.08417831 2.14506805 0.63936654
C  -0.93120832 -0.80783124 -0.62505546
C  0.70693551 0.70031860 0.54680585
C  -1.29540623 -1.21196111 -1.22717325
C  0.20397038 3.11236082 0.36059592
C  0.75542878 -1.70152671 -0.14804452
H  -0.38915349 -1.28374973 -0.16530803
H  -0.59401679 -0.55418172 0.23543845
H  -0.14845945 0.24233700 -0.01399152
H  0.63408299 1.04934506 0.26008983
H  0.63062245 -1.58543508 0.25925275
H  -0.65697413 -0.10474395 -0.12197659
12
MD Step 976.5 Units = [eV / Ang.]
C  1.17990914 2.32765182 0.64977087
C  -0.97607782 -0.89661040 -0.66454307
C  0.98863055 0.64157790 0.64551334
C  -1.50255789 -1.42612801 -1.26849503
C  0.34805300 3.28592591 0.43401945
C  1.04179302 -1.89619927 -0.20001602
H  -0.42749364 -1.27909428 -0.16000185
H  -0.58326229 -0.49566067 0.25060842
H  -0.43173992 0.15685275 -0.06879756
H  0.75250139 1.37939938 0.25017079
H  0.63434492 -1.65502364 0.22845116
H  -1.02410046 -0.14269149 -0.09668051
12
MD Step 977.0 Units = [eV / Ang.]
C  1.18389499 2.37261538 0.66962746
C  -0.99113789 -0.96687787 -0.69621823
C  1.22731812 0.56046475 0.74362465
C  -1.61843145 -1.48836833 -1.30961845
C  0.50673969 3.31948373 0.51403980
C  1.24776834 -2.05092503 -0.24860076
H  -0.39143596 -1.14887883 -0.16778164
H  -0.56740428 -0.42951690 0.26447028
H  -0.67936180 0.06510892 -0.12900759
H  0.79397519 1.55914209 0.24703750
H  0.58370606 -1.61413432 0.18683638
H  -1.29563101 -0.17811357 -0.07440940
12
MD Step 977.5 Units = [eV / Ang.]
C  1.10484335 2.29011711 0.69464141
C  -0.97771227 -1.01508675 -0.71952128
C  1.40577961 0.45796297 0.83741580
C  -1.62644138 -1.38039017 -1.35771376
C  0.67464668 3.20891410 0.59859714
C  1.33984667 -2.15910019 -0.29171034
H  -0.29109966 -0.90539315 -0.18435107
H  -0.54494660 -0.35918124 0.27650529
H  -0.87365100 -0.03043150 -0.19146393
H  0.74313419 1.56773082 0.25883397
H  0.47988023 -1.46225604 0.13681039
H  -1.43427983 -0.21288596 -0.05804364
12
MD Step 978.0 Units = [eV / Ang.]
C  0.96138320 2.10529108 0.71898471
C  -0.93745814 -1.03813050 -0.73401158
C  1.51209303 0.33499333 0.92288451
C  -1.52536860 -1.11187186 -1.41633942
C  0.84775131 2.95252075 0.68550815
C  1.30032245 -2.21458716 -0.32811269
H  -0.14565067 -0.57632641 -0.20383864
H  -0.51457061 -0.28798626 0.28619513
H  -1.00250433 -0.12686635 -0.25254941
H  0.59979816 1.41266809 0.28981249
H  0.32443952 -1.20049741 0.08096722
H  -1.42023532 -0.24920731 -0.04950048
12
MD Step 978.5 Units = [eV / Ang.]
C  0.77721974 1.85189732 0.73680736
C  -0.87228094 -1.03361835 -0.73936674
C  1.53890048 0.19262735 0.99615337
C  -1.32973462 -0.71756410 -1.48415995
C  1.02238278 2.55393684 0.77223182
C  1.13234097 -2.21285879 -0.35780057
H  0.02154463 -0.19827004 -0.22035650
H  -0.47528605 -0.21896932 0.29307557
H  -1.05865315 -0.22118092 -0.30858813
H  0.37928550 1.12702780 0.33898358
H  0.12067913 -0.83428148 0.02227321
H  -1.25639846 -0.28874632 -0.04925301
12
MD Step 979.0 Units = [eV / Ang.]
C  0.57617293 1.56515640 0.74347437
C  -0.78429741 -1.00013849 -0.73538107
C  1.48260746 0.03227001 1.05372411
C  -1.06552528 -0.24726290 -1.55558858
C  1.19332582 2.02655312 0.85569797
C  0.85908805 -2.15202936 -0.38196762
H  0.18779286 0.19070790 -0.22927328
H  -0.42654607 -0.15470542 0.29678205
H  -1.03881876 -0.31046109 -0.35611700
H  0.10801239 0.75944979 0.40074192
H  -0.12428299 -0.37762806 -0.03581755
H  -0.96752899 -0.33191190 -0.05627533
12
MD Step 979.5 Units = [eV / Ang.]
C  0.37863597 1.27618733 0.73618797
C  -0.67581907 -0.93747391 -0.72197004
C  1.34292730 -0.14419196 1.09263257
C  -0.76340520 0.24655679 -1.62281095
C  1.35131717 1.39852412 0.93235158
C  0.51752304 -2.03335619 -0.40260051
H  0.33445486 0.55693706 -0.22785014
H  -0.36832022 -0.09717281 0.29708581
H  -0.94318550 -0.39202204 -0.39208315
H  -0.18340237 0.36170039 0.46694267
H  -0.39702941 0.14189824 -0.08946649
H  -0.59369656 -0.37758701 -0.06841934
12
MD Step 980.0 Units = [eV / Ang.]
C  0.19998745 1.00918064 0.71400438
C  -0.54931769 -0.84672970 -0.69917815
C  1.12296911 -0.33425816 1.11058897
C  -0.45236160 0.71854020 -1.67803492
C  1.48078135 0.71628707 0.99855552
C  0.14948643 -1.86104627 -0.42188439
H  0.44832690 0.87424476 -0.21525158
H  -0.30112508 -0.04765658 0.29391560
H  -0.77540658 -0.46351601 -0.41404624
H  -0.46651842 -0.02126412 0.52926467
H  -0.67589785 0.67962660 -0.13490490
H  -0.18092401 -0.42340843 -0.08302896
12
MD Step 980.5 Units = [eV / Ang.]
C  0.05062564 0.78110946 0.67747570
C  -0.40737201 -0.73035465 -0.66718680
C  0.82988194 -0.53468551 1.10618125
C  -0.15571823 1.13526588 -1.71502787
C  1.55924619 0.04355363 1.05135495
C  -0.20635081 -1.64156891 -0.44166908
H  0.52140166 1.12443188 -0.19216978
H  -0.22601264 -0.00669318 0.28736446
H  -0.54316396 -0.52308028 -0.42045093
H  -0.71894265 -0.35627293 0.58089606
H  -0.93100427 1.17468203 -0.16923550
H  0.22740913 -0.46638739 -0.09753246
12
MD Step 981.0 Units = [eV / Ang.]
C  -0.06311041 0.60298531 0.62818661
C  -0.25261312 -0.59206114 -0.62632225
C  0.47585286 -0.74132443 1.07917824
C  0.11010872 1.47540964 -1.72964813
C  1.56000682 -0.54695510 1.08936338
C  -0.51940435 -1.38282489 -0.46316556
H  0.54977781 1.29609476 -0.16033749
H  -0.14451805 0.02593798 0.27768160
H  -0.25909099 -0.56955891 -0.41099250
H  -0.92534721 -0.62227685 0.61721446
H  -1.12766911 1.55812988 -0.19132823
H  0.59600703 -0.50355626 -0.10983014
12
MD Step 981.5 Units = [eV / Ang.]
C  -0.13778778 0.48159859 0.56835749
C  -0.08769200 -0.43664874 -0.57705329
C  0.07905287 -0.94893737 1.03090022
C  0.33492557 1.72713759 -1.71962371
C  1.45844797 -0.98891833 1.11328932
C  -0.76859924 -1.09348778 -0.48689506
H  0.53241555 1.38287856 -0.12211117
H  -0.05857398 0.05117009 0.26524881
H  0.05834173 -0.60278102 -0.38703163
H  -1.07648842 -0.80790748 0.63568065
H  -1.23351877 1.76830222 -0.20232640
H  0.89947650 -0.53240633 -0.11843523
12
MD Step 982.0 Units = [eV / Ang.]
C  -0.17194932 0.42092057 0.50058029
C  0.08470405 -0.26978162 -0.51998175
C  -0.33606229 -1.15105238 0.96453265
C  0.51316282 1.88469146 -1.68401997
C  1.24031329 -1.24019291 1.12567764
C  -0.94126560 -0.78259632 -0.51281741
H  0.47019223 1.38200471 -0.08019108
H  0.02960395 0.07055002 0.25054443
H  0.38459370 -0.62380591 -0.35192427
H  -1.16740029 -0.90820598 0.63536046
H  -1.22734628 1.76852953 -0.20533288
H  1.12145374 -0.55106116 -0.12242811
12
MD Step 982.5 Units = [eV / Ang.]
C  -0.16560685 0.42270567 0.42766768
C  0.26178538 -0.09771754 -0.45582551
C  -0.73976161 -1.34000339 0.88518014
C  0.64216916 1.94549934 -1.62275214
C  0.90824986 -1.29488187 1.12986521
C  -1.03093754 -0.45934307 -0.54053101
H  0.36545294 1.29356132 -0.03745656
H  0.11765344 0.08607729 0.23409714
H  0.69015370 -0.63499115 -0.31106026
H  -1.19568165 -0.92182525 0.61642457
H  -1.10594628 1.55917058 -0.20428703
H  1.25246946 -0.55825193 -0.12132220
12
MD Step 983.0 Units = [eV / Ang.]
C  -0.12020441 0.48613409 0.35254435
C  0.44053508 0.07295486 -0.38539553
C  -1.09983267 -1.50727467 0.79944242
C  0.72086228 1.90845398 -1.53633022
C  0.48316182 -1.18333741 1.12869464
C  -1.03520414 -0.13289568 -0.56946229
H  0.22207728 1.12075149 0.00315669
H  0.20321040 0.09999488 0.21643483
H  0.94345609 -0.63972692 -0.27139523
H  -1.16040736 -0.84933355 0.57982332
H  -0.88542234 1.17749854 -0.20258948
H  1.28776798 -0.55321961 -0.11492351
12
MD Step 983.5 Units = [eV / Ang.]
C  -0.03900351 0.60651971 0.27809933
C  0.61757166 0.23558295 -0.30957593
C  -1.38603724 -1.64424494 0.71442306
C  0.74902147 1.77358479 -1.42587323
C  -0.00043714 -0.96018943 1.12367223
C  -0.95432904 0.18787764 -0.59899591
H  0.04596882 0.87106784 0.03882649
H  0.28404988 0.11454390 0.19803500
H  1.11548721 -0.64177542 -0.24038950
H  -1.06189050 -0.69281355 0.52719891
H  -0.59625298 0.68549335 -0.20218628
H  1.22585137 -0.53564686 -0.10323416
12
MD Step 984.0 Units = [eV / Ang.]
C  0.07226356 0.77340583 0.20691172
C  0.78902410 0.38371674 -0.22930508
C  -1.57531995 -1.74319897 0.63631921
C  0.72745942 1.54309557 -1.29333425
C  -0.50262325 -0.68687462 1.11488554
C  -0.79095556 0.49480365 -0.62852363
H  -0.15423359 0.55809343 0.06714701
H  0.35821547 0.13169985 0.17928198
H  1.18513076 -0.64433284 -0.22451442
H  -0.90235275 -0.45675711 0.46100530
H  -0.27473258 0.15203343 -0.20345017
H  1.06812437 -0.50568496 -0.08642318
12
MD Step 984.5 Units = [eV / Ang.]
C  0.20474716 0.96868538 0.14081465
C  0.95048061 0.51136980 -0.14556701
C  -1.65620027 -1.79831903 0.56901509
C  0.65916060 1.22361340 -1.14181638
C  -0.98596613 -0.41674282 1.10148526
C  -0.55096456 0.78087910 -0.65741504
H  -0.36654104 0.20329302 0.08660100
H  0.42411817 0.15293461 0.16044035
H  1.14363318 -0.64912242 -0.22775730
H  -0.68741318 -0.15011714 0.38473335
H  0.04521216 -0.36238701 -0.20566623
H  0.81973330 -0.46408690 -0.06486774
12
MD Step 985.0 Units = [eV / Ang.]
C  0.34624427 1.16574695 0.08034167
C  1.09704763 0.61329963 -0.05938479
C  -1.63079421 -1.80629484 0.51319821
C  0.55118273 0.82921053 -0.97579497
C  -1.42040201 -0.18737874 1.08230194
C  -0.24533775 1.04072957 -0.68491548
H  -0.57552719 -0.16322215 0.09714665
H  0.48060686 0.17901841 0.14164475
H  0.99658013 -0.65588765 -0.25066135
H  -0.42807605 0.21087726 0.30306423
H  0.33702505 -0.81369219 -0.20768496
H  0.49145055 -0.41240675 -0.03925591
12
MD Step 985.5 Units = [eV / Ang.]
C  0.48181709 1.33084870 0.02423897
C  1.22353541 0.68527714 0.02818356
C  -1.51370922 -1.76634546 0.46635392
C  0.41664813 0.38430682 -0.80101039
C  -1.78457196 -0.02010808 1.05629512
C  0.10746036 1.27090995 -0.71000312
H  -0.76321235 -0.50414885 0.10072532
H  0.52700065 0.20990430 0.12291007
H  0.76262156 -0.66250540 -0.29026457
H  -0.14251793 0.60002115 0.22170866
H  0.58280899 -1.17499666 -0.20841455
H  0.10211927 -0.35316361 -0.01072299
12
MD Step 986.0 Units = [eV / Ang.]
C  0.59554688 1.42750026 -0.03065887
C  1.32475941 0.72434751 0.11605351
C  -1.32831071 -1.67973467 0.42361132
C  0.27563319 -0.07505819 -0.62380525
C  -2.06467296 0.07615769 1.02275274
C  0.47947820 1.46990195 -0.73124976
H  -0.91115336 -0.77947165 0.10138249
H  0.56309179 0.24469835 0.10415875
H  0.46945642 -0.66565462 -0.34092311
H  0.14344931 0.98005459 0.14670657
H  0.77201305 -1.43292535 -0.20705687
H  -0.31929122 -0.28981586 0.01902847
12
MD Step 986.5 Units = [eV / Ang.]
C  0.67323711 1.42353761 -0.08891032
C  1.39592565 0.72902301 0.20312876
C  -1.10176897 -1.54907616 0.37907392
C  0.15362586 -0.50335029 -0.44986409
C  -2.25230982 0.09980109 0.98131942
C  0.83305268 1.63767370 -0.74676302
H  -1.00350766 -0.95364057 0.10471454
H  0.58911360 0.28173305 0.08526064
H  0.14855689 -0.66174091 -0.39565293
H  0.39846631 1.30499466 0.08314554
H  0.89905057 -1.58256700 -0.20315343
H  -0.73344222 -0.22638819 0.04770097
12
MD Step 987.0 Units = [eV / Ang.]
C  0.70535964 1.29899004 -0.15526267
C  1.43300853 0.69940868 0.28832712
C  -0.86052575 -1.37776611 0.32713615
C  0.07686388 -0.85221902 -0.28268382
C  -2.34243768 0.05214853 0.93195034
C  1.12379287 1.77477615 -0.75428743
H  -1.03025969 -1.00354298 0.11659768
H  0.60568661 0.31871751 0.06607575
H  -0.16968046 -0.64771628 -0.44748775
H  0.59084258 1.52701448 0.03363361
H  0.96101553 -1.62311494 -0.19654614
H  -1.09366606 -0.16669606 0.07254716
12
MD Step 987.5 Units = [eV / Ang.]
C  0.68915680 1.05181206 -0.23310302
C  1.43306734 0.63719527 0.37060829
C  -0.62723913 -1.16970769 0.26340907
C  0.06546318 -1.08084271 -0.12247546
C  -2.33198855 -0.06525047 0.87486267
C  1.30742744 1.88118834 -0.75151841
H  -0.98946828 -0.92432171 0.14155269
H  0.61373729 0.35296104 0.04649614
H  -0.45923842 -0.62156772 -0.49047416
H  0.69591365 1.60696870 -0.00276033
H  0.95612139 -1.55510021 -0.18733144
H  -1.35295272 -0.11333488 0.09073396
12
MD Step 988.0 Units = [eV / Ang.]
C  0.62906806 0.69901110 -0.32318882
C  1.39442881 0.54553494 0.44900552
C  -0.41948259 -0.92930828 0.18513049
C  0.12696365 -1.16656218 0.03377450
C  -2.21941569 -0.25148479 0.81051816
C  1.34937000 1.95535476 -0.73659381
H  -0.88763467 -0.73055729 0.18138537
H  0.61439940 0.38163392 0.02647690
H  -0.69995511 -0.58243978 -0.52016958
H  0.70285914 1.52512430 -0.03037371
H  0.88312926 -1.37946290 -0.17584652
H  -1.47373026 -0.06684381 0.09988150
12
MD Step 988.5 Units = [eV / Ang.]
C  0.53530712 0.27265662 -0.42321260
C  1.31674316 0.42878354 0.52265087
C  -0.24982778 -0.66156300 0.09113994
C  0.25342151 -1.11117312 0.19090871
C  -2.00526961 -0.50530815 0.73963610
C  1.23390548 1.99393662 -0.70861966
H  -0.73804510 -0.45229293 0.23467747
H  0.60889931 0.40204486 0.00605619
H  -0.87754929 -0.53050207 -0.53371890
H  0.61782574 1.28740601 -0.05545483
H  0.74188397 -1.09847375 -0.16268705
H  -1.43729450 -0.02551464 0.09862376
12
MD Step 989.0 Units = [eV / Ang.]
C  0.42123811 -0.18745772 -0.52833312
C  1.20093553 0.29215749 0.59079797
C  -0.12665998 -0.37207990 -0.01839042
C  0.42362612 -0.93978041 0.35349199
C  -1.69385153 -0.82241994 0.66323000
C  0.96914914 1.99252871 -0.66802934
H  -0.55778640 -0.12768120 0.29727499
H  0.59844050 0.41190242 -0.01464173
H  -0.98286030 -0.46671406 -0.52968820
H  0.46175314 0.92404086 -0.08395611
H  0.53500828 -0.71843902 -0.14873316
H  -1.24899261 0.01394279 0.08697714
12
MD Step 989.5 Units = [eV / Ang.]
C  0.30059703 -0.64157703 -0.63234158
C  1.04912606 0.14133252 0.65283505
C  -0.05508736 -0.06695976 -0.14228080
C  0.60934121 -0.69283183 0.52404343
C  -1.29584969 -1.19126161 0.58260585
C  0.58540727 1.94708676 -0.61661486
H  -0.36456341 0.20479229 0.36344849
H  0.58408989 0.40954861 -0.03541544
H  -1.01095707 -0.39260721 -0.50783291
H  0.26402120 0.48123994 -0.11968333
H  0.27063960 -0.25390306 -0.13512243
H  -0.93676473 0.05514038 0.06635852
12
MD Step 990.0 Units = [eV / Ang.]
C  0.18542234 -1.05572926 -0.72891680
C  0.86455474 -0.01794635 0.70829998
C  -0.03749150 0.24745609 -0.27859586
C  0.78254588 -0.41521709 0.70233578
C  -0.83139018 -1.58824286 0.49924993
C  0.12765666 1.85543522 -0.55721756
H  -0.17426881 0.51205003 0.42717189
H  0.56668400 0.39413615 -0.05600825
H  -0.96057424 -0.31014277 -0.46892005
H  0.05494935 0.00985777 -0.16355538
H  -0.03436264 0.26759684 -0.12308963
H  -0.54372558 0.10074621 0.03924596
12
MD Step 990.5 Units = [eV / Ang.]
C  0.08506510 -1.40448187 -0.81254509
C  0.65154705 -0.18021244 0.75689472
C  -0.07349442 0.56489122 -0.42476600
C  0.92082405 -0.14695892 0.88577969
C  -0.33220236 -1.97434322 0.41451741
C  -0.35459060 1.71823555 -0.49321156
H  0.00027819 0.76914289 0.48308506
H  0.54675564 0.36574846 -0.07613761
H  -0.83411220 -0.22163884 -0.41465340
H  -0.13992438 -0.44436947 -0.21398957
H  -0.35207110 0.80223956 -0.11360308
H  -0.11807497 0.15174710 0.00862943
12
MD Step 991.0 Units = [eV / Ang.]
C  0.00616893 -1.67111177 -0.87895484
C  0.41549951 -0.34052604 0.79850127
C  -0.15931073 0.87937556 -0.57758560
C  1.00964922 0.08184788 1.07037623
C  0.15910271 -2.29599952 0.32913248
C  -0.81620891 1.53916427 -0.42798155
H  0.14953009 0.95935250 0.52697651
H  0.52448982 0.32544734 -0.09552787
H  -0.63824109 -0.12971687 -0.34769161
H  -0.30245824 -0.84628072 -0.26788996
H  -0.64403745 1.29104342 -0.10682141
H  0.29581613 0.20740396 -0.02253364
12
MD Step 991.5 Units = [eV / Ang.]
C  -0.04679438 -1.84625668 -0.92515507
C  0.16285573 -0.49462473 0.83319687
C  -0.28668121 1.18534420 -0.73315755
C  1.04200434 0.25175503 1.25166571
C  0.59443377 -2.49281968 0.24268712
C  -1.22177030 1.32442306 -0.36454766
H  0.26674730 1.07278260 0.55586419
H  0.49970962 0.27524516 -0.11394224
H  -0.38490112 -0.03719589 -0.27169064
H  -0.42178236 -1.17229738 -0.32164868
H  -0.86656322 1.66794558 -0.10157601
H  0.66274182 0.26569872 -0.05169602
12
MD Step 992.0 Units = [eV / Ang.]
C  -0.07083444 -1.92612143 -0.94926690
C  -0.09896563 -0.63895754 0.86126216
C  -0.44182323 1.47750371 -0.88689227
C  1.01658978 0.35188800 1.42535659
C  0.93023797 -2.51194513 0.15349803
C  -1.54697083 1.08192222 -0.30538884
H  0.34730555 1.10454519 0.56785951
H  0.47189599 0.21799322 -0.13120882
H  -0.09226320 0.05313577 -0.19126430
H  -0.49264051 -1.40848836 -0.37182679
H  -0.98066104 1.87459314 -0.09524804
H  0.95812960 0.32393122 -0.07688033
12
MD Step 992.5 Units = [eV / Ang.]
C  -0.06392176 -1.91101291 -0.95033318
C  -0.36173019 -0.77062957 0.88317265
C  -0.60502850 1.75048467 -1.03368024
C  0.93574115 0.37691679 1.58759288
C  1.13896753 -2.32443504 0.05913545
C  -1.77729828 0.82047391 -0.25243193
H  0.38812128 1.05333036 0.56199779
H  0.44023862 0.15718955 -0.14723581
H  0.21502016 0.13889115 -0.11174721
H  -0.51336696 -1.54752534 -0.41546544
H  -0.96353199 1.87710811 -0.08434400
H  1.16678893 0.37920831 -0.09666096
12
MD Step 993.0 Units = [eV / Ang.]
C  -0.02486574 -1.80457920 -0.92822565
C  -0.61665936 -0.88726243 0.89956987
C  -0.75163070 1.99838177 -1.16832705
C  0.80375005 0.32443310 1.73498974
C  1.21667619 -1.93606961 -0.04245283
C  -1.90545125 0.54916788 -0.20713785
H  0.38741948 0.92076927 0.53815960
H  0.40372799 0.09669592 -0.16201273
H  0.50700829 0.21853740 -0.03868036
H  -0.48424556 -1.58591659 -0.45014937
H  -0.81621795 1.67711304 -0.06568234
H  1.28048856 0.42872945 -0.11005102
12
MD Step 993.5 Units = [eV / Ang.]
C  0.04632345 -1.61391510 -0.88370681
C  -0.85482343 -0.98682260 0.91120782
C  -0.85483539 2.21438806 -1.28622703
C  0.62579930 0.19347246 1.86458599
C  1.18267335 -1.38673720 -0.15176389
C  -1.92879380 0.27699215 -0.17061325
H  0.34497023 0.71171774 0.49714278
H  0.36127901 0.04039241 -0.17559694
H  0.75161813 0.29176800 0.02295602
H  -0.40656774 -1.52228996 -0.47397809
H  -0.56327272 1.31112905 -0.03763044
H  1.29562960 0.46990499 -0.11637615
12
MD Step 994.0 Units = [eV / Ang.]
C  0.14755084 -1.35042423 -0.81863232
C  -1.06763320 -1.06744702 0.91887666
C  -0.89024890 2.39079224 -1.38412324
C  0.40757005 -0.01555777 1.97385777
C  1.07146070 -0.73869548 -0.26717235
C  -1.84761041 0.01259324 -0.14369391
H  0.26282130 0.43534756 0.44087023
H  0.31188696 -0.00820947 -0.18808383
H  0.91952835 0.35958248 0.06959451
H  -0.28245864 -1.35706262 -0.48558406
H  -0.24462352 0.83867905 -0.00071901
H  1.21175648 0.50040204 -0.11519046
12
MD Step 994.5 Units = [eV / Ang.]
C  0.27334211 -1.03111222 -0.73621364
C  -1.24739298 -1.12730478 0.92331730
C  -0.84107433 2.51950298 -1.46068598
C  0.15551175 -0.29948368 2.06087417
C  0.92135525 -0.05991660 -0.38523118
C  -1.66455489 -0.23598641 -0.12696037
H  0.14642632 0.10669625 0.37265055
H  0.25480247 -0.04634760 -0.19956818
H  0.98976828 0.42392947 0.09974257
H  -0.11542660 -1.09360680 -0.48428273
H  0.09599697 0.32540878 0.04262941
H  1.03124564 0.51822062 -0.10627191
12
MD Step 995.0 Units = [eV / Ang.]
C  0.41346426 -0.67970252 -0.64117871
C  -1.38784085 -1.16453231 0.92513358
C  -0.70224057 2.59306268 -1.51665339
C  -0.12226370 -0.64965168 2.12463329
C  0.76506694 0.59002315 -0.50155739
C  -1.38540998 -0.46172544 -0.12066226
H  0.00585438 -0.25198150 0.29732855
H  0.18970601 -0.07232823 -0.21010116
H  0.95420155 0.48696106 0.11418576
H  0.08847802 -0.74081903 -0.47038501
H  0.42076421 -0.17118412 0.08896963
H  0.76021973 0.52187795 -0.08971290
12
MD Step 995.5 Units = [eV / Ang.]
C  0.55205562 -0.32663822 -0.53962165
C  -1.48459036 -1.17725802 0.92472188
C  -0.48190250 2.60585891 -1.55444952
C  -0.41463533 -1.04839346 2.16552086
C  0.62512256 1.16724794 -0.61177429
C  -1.02100151 -0.65923989 -0.12454189
H  -0.14349834 -0.61101569 0.22110951
H  0.11685640 -0.08572757 -0.21965319
H  0.81926606 0.55016175 0.11563563
H  0.31915420 -0.31662342 -0.44560956
H  0.70265957 -0.60910935 0.13476747
H  0.41051362 0.51073703 -0.06610525
12
MD Step 996.0 Units = [eV / Ang.]
C  0.66805942 -0.00705232 -0.43835874
C  -1.53540416 -1.16370888 0.92222739
C  -0.19964009 2.55509201 -1.57740913
C  -0.70613627 -1.46573544 2.18570736
C  0.51392100 1.64421295 -0.71213633
C  -0.58977327 -0.82548398 -0.13758422
H  -0.28144225 -0.93526186 0.15087705
H  0.03718883 -0.08744007 -0.22809036
H  0.60426870 0.61370999 0.10794968
H  0.56108940 0.14869326 -0.41340864
H  0.92569677 -0.96246520 0.17701485
H  0.00217193 0.48543953 -0.03678892
12
MD Step 996.5 Units = [eV / Ang.]
C  0.73760222 0.24377733 -0.34377865
C  -1.54025252 -1.12236951 0.91753738
C  0.11788338 2.44118120 -1.58891227
C  -0.97642861 -1.85823505 2.18916632
C  0.43644615 2.00627652 -0.79975595
C  -0.12002186 -0.96029641 -0.15776647
H  -0.38537708 -1.18868826 0.09299494
H  -0.04766017 -0.07956199 -0.23517059
H  0.33697127 0.67631048 0.09522402
H  0.79295529 0.61123036 -0.37889234
H  1.08238023 -1.21792449 0.21344135
H  -0.43449831 0.44829983 -0.00408774
12
MD Step 997.0 Units = [eV / Ang.]
C  0.73832880 0.39685709 -0.26046108
C  -1.50116506 -1.05216190 0.91030697
C  0.44218598 2.26752275 -1.59170837
C  -1.20152467 -2.17209446 2.18097771
C  0.39360103 2.24701807 -0.87254597
C  0.34964826 -1.06644952 -0.18193956
H  -0.43447967 -1.34101132 0.05187490
H  -0.13540967 -0.06513323 -0.24056066
H  0.04811706 0.73549899 0.08105171
H  0.98907043 1.01654102 -0.34803445
H  1.17039806 -1.37000209 0.24243909
H  -0.85877055 0.40341459 0.02859973
12
MD Step 997.5 Units = [eV / Ang.]
C  0.65463475 0.43590297 -0.19008780
C  -1.42192129 -0.95261358 0.90001229
C  0.74743723 2.03979895 -1.58759057
C  -1.35731592 -2.35182484 2.16584406
C  0.38489149 2.36416017 -0.92904416
C  0.77318141 -1.14893325 -0.20599892
H  -0.41464550 -1.37445705 0.02884532
H  -0.22327088 -0.04777748 -0.24387122
H  -0.23334651 0.78821266 0.06811407
H  1.12323844 1.30830615 -0.32610151
H  1.18984089 -1.41699657 0.26286988
H  -1.22272412 0.35622186 0.05700857
12
MD Step 998.0 Units = [eV / Ang.]
C  0.48197417 0.36125739 -0.13116257
C  -1.30767458 -0.82397907 0.88601578
C  1.01314315 1.76512942 -1.57740107
C  -1.42489635 -2.35311433 2.14625689
C  0.40996890 2.35692274 -0.96824288
C  1.10390592 -1.21342520 -0.22545332
H  -0.32237491 -1.28808891 0.02184935
H  -0.30814268 -0.03130767 -0.24470266
H  -0.48330467 0.83136877 0.05810192
H  1.17439534 1.44126745 -0.31576553
H  1.14148641 -1.35843691 0.27389118
H  -1.47848070 0.31240633 0.07661291
12
MD Step 998.5 Units = [eV / Ang.]
C  0.22845300 0.18957817 -0.07971593
C  -1.16456663 -0.66731811 0.86763597
C  1.22492618 1.45134537 -1.56126008
C  -1.39589397 -2.15546234 2.12122885
C  0.46899689 2.22508056 -0.98950488
C  1.30421724 -1.26434682 -0.23633461
H  -0.16593006 -1.09785118 0.02615813
H  -0.38684235 -0.01934268 -0.24269454
H  -0.68361810 0.86227678 0.05185979
H  1.13221317 1.39391793 -0.31581773
H  1.02627429 -1.19427369 0.27488343
H  -1.58822965 0.27639602 0.08356159
12
MD Step 999.0 Units = [eV / Ang.]
C  -0.08690561 -0.05062685 -0.03068643
C  -0.99936683 -0.48452885 0.84421039
C  1.37391271 1.10652703 -1.53888197
C  -1.27544945 -1.76888280 2.08642579
C  0.56194659 1.96981637 -0.99261781
C  1.35490764 -1.30322355 -0.23617876
H  0.03675024 -0.83232230 0.03579411
H  -0.45634605 -0.01497915 -0.23756974
H  -0.82186464 0.87884167 0.04962318
H  1.00024211 1.17519142 -0.32131341
H  0.84595171 -0.92585950 0.26553152
H  -1.53377842 0.25004650 0.07566314
12
MD Step 999.5 Units = [eV / Ang.]
C  -0.43836291 -0.32570609 0.02062751
C  -0.81914401 -0.27832941 0.81514836
C  1.45547239 0.73879087 -1.50987455
C  -1.08131764 -1.23128697 2.03579007
C  0.68690866 1.59639810 -0.97801424
C  1.26026375 -1.32810793 -0.22468343
H  0.26240875 -0.52601765 0.04505517
H  -0.51401115 -0.02054380 -0.22916881
H  -0.89040905 0.87961563 0.05124697
H  0.79504515 0.82173365 -0.32522692
H  0.60482219 -0.55870762 0.24607713
H  -1.32167613 0.23216122 0.05302274
12
MD Step 1000.0 Units = [eV / Ang.]
C  -0.79838346 -0.60326916 0.07757082
C  -0.63092086 -0.05221926 0.77997272
C  1.46799363 0.35622385 -1.47395836
C  -0.83945163 -0.59788873 1.96383631
C  0.83758381 1.11847383 -0.94714289
C  1.04655903 -1.33433481 -0.20374777
H  0.48728316 -0.21279744 0.04959989
H  -0.55777449 -0.03741967 -0.21747082
H  -0.88545551 0.86379084 0.05637431
H  0.54171976 0.38713304 -0.32079378
H  0.31237700 -0.10680168 0.21771870
H  -0.98153045 0.21910918 0.01804087
