 Entering Gaussian System, Link 0=g16
 Initial command:
 /software/gaussian/g16-c01/avx2/g16/l1.exe "/local_scratch/28554377/Gau-14351.inp" -scrdir="/local_scratch/28554377/"
 Entering Link 1 = /software/gaussian/g16-c01/avx2/g16/l1.exe PID=     14361.
  
 Copyright (c) 1988-2019, Gaussian, Inc.  All Rights Reserved.
  
 This is part of the Gaussian(R) 16 program.  It is based on
 the Gaussian(R) 09 system (copyright 2009, Gaussian, Inc.),
 the Gaussian(R) 03 system (copyright 2003, Gaussian, Inc.),
 the Gaussian(R) 98 system (copyright 1998, Gaussian, Inc.),
 the Gaussian(R) 94 system (copyright 1995, Gaussian, Inc.),
 the Gaussian 92(TM) system (copyright 1992, Gaussian, Inc.),
 the Gaussian 90(TM) system (copyright 1990, Gaussian, Inc.),
 the Gaussian 88(TM) system (copyright 1988, Gaussian, Inc.),
 the Gaussian 86(TM) system (copyright 1986, Carnegie Mellon
 University), and the Gaussian 82(TM) system (copyright 1983,
 Carnegie Mellon University). Gaussian is a federally registered
 trademark of Gaussian, Inc.
  
 This software contains proprietary and confidential information,
 including trade secrets, belonging to Gaussian, Inc.
  
 This software is provided under written license and may be
 used, copied, transmitted, or stored only in accord with that
 written license.
  
 The following legend is applicable only to US Government
 contracts under FAR:
  
                    RESTRICTED RIGHTS LEGEND
  
 Use, reproduction and disclosure by the US Government is
 subject to restrictions as set forth in subparagraphs (a)
 and (c) of the Commercial Computer Software - Restricted
 Rights clause in FAR 52.227-19.
  
 Gaussian, Inc.
 340 Quinnipiac St., Bldg. 40, Wallingford CT 06492
  
  
 ---------------------------------------------------------------
 Warning -- This program may not be used in any manner that
 competes with the business of Gaussian, Inc. or will provide
 assistance to any competitor of Gaussian, Inc.  The licensee
 of this program is prohibited from giving any competitor of
 Gaussian, Inc. access to this program.  By using this program,
 the user acknowledges that Gaussian, Inc. is engaged in the
 business of creating and licensing software in the field of
 computational chemistry and represents and warrants to the
 licensee that it is not a competitor of Gaussian, Inc. and that
 it will not use this program in any manner prohibited above.
 ---------------------------------------------------------------
  

 Cite this work as:
 Gaussian 16, Revision C.01,
 M. J. Frisch, G. W. Trucks, H. B. Schlegel, G. E. Scuseria, 
 M. A. Robb, J. R. Cheeseman, G. Scalmani, V. Barone, 
 G. A. Petersson, H. Nakatsuji, X. Li, M. Caricato, A. V. Marenich, 
 J. Bloino, B. G. Janesko, R. Gomperts, B. Mennucci, H. P. Hratchian, 
 J. V. Ortiz, A. F. Izmaylov, J. L. Sonnenberg, D. Williams-Young, 
 F. Ding, F. Lipparini, F. Egidi, J. Goings, B. Peng, A. Petrone, 
 T. Henderson, D. Ranasinghe, V. G. Zakrzewski, J. Gao, N. Rega, 
 G. Zheng, W. Liang, M. Hada, M. Ehara, K. Toyota, R. Fukuda, 
 J. Hasegawa, M. Ishida, T. Nakajima, Y. Honda, O. Kitao, H. Nakai, 
 T. Vreven, K. Throssell, J. A. Montgomery, Jr., J. E. Peralta, 
 F. Ogliaro, M. J. Bearpark, J. J. Heyd, E. N. Brothers, K. N. Kudin, 
 V. N. Staroverov, T. A. Keith, R. Kobayashi, J. Normand, 
 K. Raghavachari, A. P. Rendell, J. C. Burant, S. S. Iyengar, 
 J. Tomasi, M. Cossi, J. M. Millam, M. Klene, C. Adamo, R. Cammi, 
 J. W. Ochterski, R. L. Martin, K. Morokuma, O. Farkas, 
 J. B. Foresman, and D. J. Fox, Gaussian, Inc., Wallingford CT, 2019.
 
 ******************************************
 Gaussian 16:  ES64L-G16RevC.01  3-Jul-2019
                21-Mar-2025 
 ******************************************
 %oldchk=../TD_OLD_S1/geometry.chk
 %chk=geometry.chk
 %nprocshared=1
 Will use up to    1 processors via shared memory.
 %mem=2GB
 Copying data from "../TD_OLD_S1/geometry.chk" to current chk file "geometry.chk"
 IOpt=  2 FromEx=T IUOpen= 4 IOptOp= 5 NList=   0 IFRang= 0 IUIn= 4 IUOut= 2.
 ----------------------------------------------------------------------
 # AM1/STO-5G SCF=XQC TD=(read,singlets,nstates=5,root=1) nosym IOp(9/4
 0=3) guess=read
 ----------------------------------------------------------------------
 1/38=1,172=1/1;
 2/12=2,15=1,17=6,18=5,40=1/2;
 3/5=2,6=5,25=1,41=700000,116=-2/1,2,3,8;
 4/5=1,35=1/1;
 5/5=2,8=3,13=1,35=1,38=6/2,8;
 8/6=1,10=90,107=1,108=5/1;
 9/8=1,40=3,41=5,42=1,48=1,49=13,70=2/14;
 6/7=2,8=2,9=2,10=2/1;
 99/5=1,9=1/99;
 ----------
 MD Step 19
 ----------
 Symbolic Z-matrix:
 Charge =  0 Multiplicity = 1
 C                    -0.72339  -1.2145   -0.01484 
 C                     0.68126  -1.21444   0.01001 
 C                     1.42646   0.00058   0.00629 
 C                     0.67178   1.20124   0.0056 
 C                    -0.7153    1.24249  -0.02488 
 C                    -1.35513   0.00144  -0.00823 
 H                    -1.27045  -2.17446   0.00253 
 H                     1.23463  -2.18841   0.04453 
 H                     2.50895   0.0357   -0.00504 
 H                     1.25471   2.20933  -0.07362 
 H                    -1.28927   2.18107  -0.01449 
 H                    -2.47277  -0.06605   0.04818 
 
                          Input orientation:                          
 ---------------------------------------------------------------------
 Center     Atomic      Atomic             Coordinates (Angstroms)
 Number     Number       Type             X           Y           Z
 ---------------------------------------------------------------------
      1          6           0       -0.723393   -1.214497   -0.014845
      2          6           0        0.681259   -1.214439    0.010006
      3          6           0        1.426456    0.000579    0.006292
      4          6           0        0.671776    1.201244    0.005605
      5          6           0       -0.715305    1.242493   -0.024879
      6          6           0       -1.355131    0.001439   -0.008229
      7          1           0       -1.270449   -2.174464    0.002531
      8          1           0        1.234628   -2.188414    0.044530
      9          1           0        2.508950    0.035698   -0.005038
     10          1           0        1.254711    2.209335   -0.073617
     11          1           0       -1.289268    2.181072   -0.014493
     12          1           0       -2.472766   -0.066052    0.048179
 ---------------------------------------------------------------------
                    Distance matrix (angstroms):
                    1          2          3          4          5
     1  C    0.000000
     2  C    1.404872   0.000000
     3  C    2.469556   1.425342   0.000000
     4  C    2.789753   2.415705   1.418146   0.000000
     5  C    2.457024   2.826327   2.475977   1.388029   0.000000
     6  C    1.370269   2.371830   2.781625   2.355435   1.396377
     7  H    1.105038   2.175057   3.464697   3.894567   3.461869
     8  H    2.187667   1.120731   2.197715   3.436292   3.946921
     9  H    3.465707   2.214390   1.083123   2.175734   3.442756
    10  H    3.954614   3.472472   2.216864   1.167191   2.195021
    11  H    3.442398   3.925948   3.482835   2.192296   1.100214
    12  H    2.093610   3.356803   3.900016   3.390575   2.192327
                    6          7          8          9         10
     6  C    0.000000
     7  H    2.177577   0.000000
     8  H    3.391916   2.505468   0.000000
     9  H    3.864234   4.378211   2.563792   0.000000
    10  H    3.419115   5.059637   4.399382   2.510481   0.000000
    11  H    2.180636   4.355610   5.046379   4.362245   2.544823
    12  H    1.121091   2.427560   4.271909   4.983039   4.368787
                   11         12
    11  H    0.000000
    12  H    2.540504   0.000000
 Symmetry turned off by external request.
 Stoichiometry    C6H6
 Framework group  C1[X(C6H6)]
 Deg. of freedom    30
 Full point group                 C1      NOp   1
 Rotational constants (GHZ):           5.6911370           5.5796575           2.8179028
 Standard basis: VSTO-5G (5D, 7F)
    30 basis functions,   180 primitive gaussians,    30 cartesian basis functions
    15 alpha electrons       15 beta electrons
       nuclear repulsion energy       119.2117589540 Hartrees.
 Integral buffers will be    131072 words long.
 Regular integral format.
 Two-electron integral symmetry is turned off.
 Do NDO integrals.
 One-electron integrals computed using PRISM.
 NBasis=    30 RedAO= F EigKep=  0.00D+00  NBF=    30
 NBsUse=    30 1.00D-04 EigRej=  0.00D+00 NBFU=    30
 Initial guess from the checkpoint file:  "geometry.chk"
 B after Tr=     0.000353   -0.002096    0.000867
         Rot=    1.000000   -0.000111    0.000458   -0.000203 Ang=  -0.06 deg.
 Keep J ints in memory in canonical form, NReq=861816.
 Overlap will be assumed to be unity.
 Requested convergence on RMS density matrix=1.00D-08 within  32 cycles.
 Requested convergence on MAX density matrix=1.00D-06.
 Requested convergence on             energy=1.00D-06.
 No special actions if energy rises.
 SCF Done:  E(RAM1) =  0.452822483353E-01 A.U. after   13 cycles
            NFock= 12  Conv=0.22D-08     -V/T= 1.0009
 QCSCF skips out because SCF is already converged.
 Range of M.O.s used for correlation:     1    30
 NBasis=    30 NAE=    15 NBE=    15 NFC=     0 NFV=     0
 NROrb=     30 NOA=    15 NOB=    15 NVA=    15 NVB=    15
 Keep J ints in memory in canonical form, NReq=862156.
 Generating guess from checkpoint file densities.
 Convergence on wavefunction:    0.001000000000000
 Iteration     1 Dimension    10 NMult     0 NNew     10
 CISAX will form    10 AO SS matrices at one time.
 Iteration     2 Dimension    20 NMult    10 NNew     10
 Iteration     3 Dimension    30 NMult    20 NNew     10
 Iteration     4 Dimension    40 NMult    30 NNew     10
 Iteration     5 Dimension    46 NMult    40 NNew      6
 Iteration     6 Dimension    52 NMult    46 NNew      6
 Iteration     7 Dimension    54 NMult    52 NNew      2
 Iteration     8 Dimension    56 NMult    54 NNew      2
 Iteration     9 Dimension    58 NMult    56 NNew      2
 Iteration    10 Dimension    60 NMult    58 NNew      2
 Iteration    11 Dimension    62 NMult    60 NNew      2
 Iteration    12 Dimension    64 NMult    62 NNew      2
 Iteration    13 Dimension    66 NMult    64 NNew      2
 Iteration    14 Dimension    68 NMult    66 NNew      2
 Iteration    15 Dimension    70 NMult    68 NNew      2
 ***********************************************************************
 Excited states from <AA,BB:AA,BB> singles matrix:
 ***********************************************************************
 
 Ground to excited state transition densities written to RWF  633
 Ground to excited state transition electric dipole moments (Au):
       state          X           Y           Z        Dip. S.      Osc.
         1         0.0027     -0.0181      0.0002      0.0003      0.0000
         2         0.0534      0.1152     -0.0442      0.0181      0.0018
         3        -1.2497     -1.0550     -0.0391      2.6763      0.3551
         4        -1.0822      1.2834     -0.0175      2.8186      0.3758
         5         0.1600      0.0663     -0.0554      0.0331      0.0048
 Ground to excited state transition velocity dipole moments (Au):
       state          X           Y           Z        Dip. S.      Osc.
         1        -0.0008      0.0031     -0.0001      0.0000      0.0000
         2        -0.0134     -0.0291      0.0167      0.0013      0.0057
         3         0.3906      0.3280     -0.0169      0.2604      0.8725
         4         0.3352     -0.4014      0.0008      0.2735      0.9117
         5        -0.0510     -0.0217     -0.0728      0.0084      0.0257
 Ground to excited state transition magnetic dipole moments (Au):
       state          X           Y           Z
         1        -0.0027      0.0038      0.0425
         2         0.0144      0.0013     -0.0687
         3        -0.0051      0.0010     -0.0268
         4         0.0003     -0.0036      0.0194
         5         0.1722      0.0965      0.0065
 Ground to excited state transition velocity quadrupole moments (Au):
       state          XX          YY          ZZ          XY          XZ          YZ
         1         0.0008     -0.0006     -0.0001      0.0080     -0.0008     -0.0015
         2        -0.1164      0.0194      0.0027     -0.0087     -0.0040      0.0036
         3         0.0846     -0.0693      0.0018      0.0377      0.0006      0.0019
         4         0.0502     -0.0389     -0.0026     -0.0316      0.0028      0.0061
         5        -0.0774      0.0831     -0.0003     -0.0136      0.0263     -0.0331
 <0|del|b> * <b|rxdel|0> + <0|del|b> * <b|delr+rdel|0>
 Rotatory Strengths (R) in cgs (10**-40 erg-esu-cm/Gauss)
       state          XX          YY          ZZ    R(velocity)    E-M Angle
         1         0.0192     -0.0025      0.0257      0.0141       90.00
         2        -3.3511     -2.8839     -0.1560     -2.1303      122.88
         3        -0.0792     -0.3021     -3.9732     -1.4515       95.04
         4         4.5587      3.8463     -2.8411      1.8546       81.24
         5        -1.6388    -13.8900    -21.3447    -12.2912      128.89
 1/2[<0|r|b>*<b|rxdel|0> + (<0|rxdel|b>*<b|r|0>)*]
 Rotatory Strengths (R) in cgs (10**-40 erg-esu-cm/Gauss)
       state          XX          YY          ZZ     R(length)
         1         0.0052      0.0486     -0.0063      0.0159
         2        -0.5452     -0.1059     -2.1455     -0.9322
         3        -4.5251      0.7322     -0.7412     -1.5114
         4         0.2352      3.2882      0.2408      1.2547
         5       -19.4855     -4.5261      0.2530     -7.9196
  1/2[<0|del|b>*<b|r|0> + (<0|r|b>*<b|del|0>)*] (Au)
       state          X           Y           Z        Dip. S.   Osc.(frdel)
         1        -0.0000     -0.0001     -0.0000      0.0001      0.0000
         2        -0.0007     -0.0034     -0.0007      0.0048      0.0032
         3        -0.4881     -0.3461      0.0007      0.8335      0.5557
         4        -0.3628     -0.5152     -0.0000      0.8779      0.5853
         5        -0.0082     -0.0014      0.0040      0.0056      0.0037

 Excitation energies and oscillator strengths:
 
 Excited state symmetry could not be determined.
 Excited State   1:      Singlet-?Sym    3.8069 eV  325.68 nm  f=0.0000  <S**2>=0.000
       2 -> 23         0.00145
       2 -> 24        -0.00303
       2 -> 26         0.00182
       3 -> 23        -0.00275
       3 -> 24        -0.00128
       3 -> 25         0.00211
       4 -> 27         0.00267
       5 -> 28        -0.00265
       7 -> 29        -0.00235
       8 -> 18        -0.00152
       8 -> 20        -0.00117
       8 -> 22        -0.00163
       9 -> 18        -0.00263
       9 -> 24        -0.00288
       9 -> 25         0.00235
       9 -> 26         0.00148
      10 -> 23         0.00271
      10 -> 24        -0.00113
      10 -> 25        -0.00133
      10 -> 26         0.00220
      11 -> 16         0.00342
      11 -> 17        -0.00549
      11 -> 23         0.00113
      11 -> 26         0.00156
      11 -> 28         0.00114
      11 -> 29         0.00167
      12 -> 18         0.00142
      13 -> 28         0.00109
      14 -> 16        -0.49691
      14 -> 17        -0.06288
      14 -> 18         0.00865
      14 -> 20         0.00118
      14 -> 28         0.00189
      15 -> 16        -0.07315
      15 -> 17         0.50303
      15 -> 18        -0.00428
      15 -> 19         0.00370
      15 -> 21         0.00124
      15 -> 30         0.00111
       2 <- 24        -0.00108
       4 <- 27         0.00210
       5 <- 28        -0.00209
       7 <- 29        -0.00172
      11 <- 16         0.00133
      11 <- 17        -0.00189
      12 <- 16        -0.00114
      12 <- 17         0.00213
      13 <- 17         0.00142
      14 <- 16        -0.06892
      14 <- 17        -0.00996
      14 <- 18         0.00133
      15 <- 16        -0.00808
      15 <- 17         0.06776
      15 <- 19         0.00105
      15 <- 21         0.00102
 This state for optimization and/or second-order correction.
 Total Energy, E(TD-HF/TD-DFT) =  0.185184465960    
 Copying the excited state density for this state as the 1-particle RhoCI density.
 
 Excited state symmetry could not be determined.
 Excited State   2:      Singlet-?Sym    4.1447 eV  299.14 nm  f=0.0018  <S**2>=0.000
       1 -> 19         0.00185
       1 -> 20        -0.00100
       1 -> 21         0.00159
       2 -> 23        -0.00291
       2 -> 24        -0.00144
       2 -> 25        -0.00207
       3 -> 23        -0.00188
       3 -> 24         0.00295
       3 -> 26         0.00190
       4 -> 23        -0.00205
       4 -> 25         0.00129
       4 -> 26        -0.00132
       4 -> 28         0.00464
       5 -> 17        -0.00174
       5 -> 22         0.00104
       5 -> 23         0.00184
       5 -> 24         0.00103
       5 -> 25        -0.00114
       5 -> 27         0.00551
       6 -> 19        -0.00175
       6 -> 20         0.00130
       6 -> 22         0.00184
       7 -> 18        -0.00186
       7 -> 22        -0.00153
       7 -> 25         0.00126
       8 -> 19        -0.00113
       8 -> 20        -0.00136
       8 -> 21         0.00102
       8 -> 23         0.00193
       8 -> 24        -0.00323
       8 -> 26         0.00211
       8 -> 27         0.00251
       8 -> 28        -0.00219
       8 -> 29        -0.00273
       9 -> 19         0.00184
       9 -> 20         0.00248
       9 -> 22        -0.00232
       9 -> 23        -0.00382
       9 -> 24         0.00181
       9 -> 25        -0.00476
       9 -> 26         0.00417
       9 -> 28         0.00176
      10 -> 18        -0.00788
      10 -> 21        -0.00293
      10 -> 24        -0.00433
      10 -> 25        -0.00610
      10 -> 26        -0.00319
      10 -> 27         0.00104
      10 -> 28         0.00111
      10 -> 29        -0.00160
      10 -> 30         0.00154
      11 -> 16         0.00282
      11 -> 18         0.11213
      11 -> 19         0.00396
      11 -> 20         0.00158
      11 -> 21        -0.00282
      11 -> 22         0.00168
      11 -> 23         0.00124
      11 -> 24         0.00201
      11 -> 25        -0.00128
      12 -> 16        -0.00411
      12 -> 17        -0.00105
      12 -> 18        -0.00133
      12 -> 19         0.00108
      12 -> 20         0.01152
      12 -> 21         0.00163
      12 -> 22        -0.00712
      12 -> 23         0.00450
      12 -> 25        -0.00284
      12 -> 26         0.00368
      12 -> 27         0.00230
      12 -> 28        -0.00213
      12 -> 29        -0.00134
      13 -> 16        -0.00201
      13 -> 18         0.01163
      13 -> 19        -0.00451
      13 -> 20         0.00178
      13 -> 21         0.00805
      13 -> 22        -0.00275
      13 -> 23        -0.00131
      13 -> 25         0.00343
      13 -> 27        -0.00765
      13 -> 29         0.00102
      13 -> 30        -0.00165
      14 -> 16        -0.06123
      14 -> 17         0.45659
      14 -> 18         0.00194
      14 -> 19         0.00426
      14 -> 21         0.00203
      14 -> 22         0.00106
      14 -> 27         0.00229
      15 -> 16         0.51970
      15 -> 17         0.07236
      15 -> 18         0.00549
      15 -> 19         0.00107
      15 -> 20        -0.00172
      15 -> 28         0.00108
       1 <- 19         0.00365
       1 <- 20        -0.00235
       1 <- 21         0.00344
       1 <- 22        -0.00144
       1 <- 30        -0.00237
       2 <- 23        -0.00575
       2 <- 24        -0.00269
       2 <- 25         0.00109
       3 <- 21         0.00164
       3 <- 23        -0.00349
       3 <- 24         0.00633
       4 <- 23        -0.00137
       4 <- 26        -0.00113
       4 <- 28         0.00517
       4 <- 29        -0.00133
       5 <- 23         0.00168
       5 <- 25        -0.00103
       5 <- 27         0.00593
       6 <- 19        -0.00118
       6 <- 22         0.00111
       6 <- 30         0.00175
       8 <- 23         0.00122
       8 <- 24        -0.00189
       8 <- 26         0.00116
       8 <- 27         0.00196
       8 <- 28        -0.00225
       8 <- 29        -0.00499
       9 <- 20         0.00137
       9 <- 22        -0.00134
       9 <- 23        -0.00444
       9 <- 24         0.00195
      10 <- 18         0.00135
      10 <- 21        -0.00218
      10 <- 24        -0.00486
      10 <- 27         0.00131
      11 <- 16        -0.00267
      11 <- 17        -0.00161
      11 <- 18        -0.01409
      12 <- 20         0.00345
      12 <- 22        -0.00207
      12 <- 23         0.00235
      12 <- 25        -0.00141
      12 <- 26         0.00221
      12 <- 27         0.00124
      12 <- 28        -0.00341
      13 <- 18        -0.00108
      13 <- 21         0.00234
      13 <- 22        -0.00125
      13 <- 23        -0.00124
      13 <- 25         0.00191
      13 <- 27        -0.00588
      14 <- 16        -0.00340
      14 <- 17         0.02175
      14 <- 18        -0.00159
      14 <- 21         0.00106
      15 <- 16         0.00854
      15 <- 17         0.00134
      15 <- 18        -0.00346
 
 Excited state symmetry could not be determined.
 Excited State   3:      Singlet-?Sym    5.4151 eV  228.96 nm  f=0.3551  <S**2>=0.000
       1 -> 27         0.00261
       2 -> 19        -0.00156
       2 -> 20        -0.00276
       2 -> 21        -0.00215
       2 -> 22        -0.00615
       2 -> 23        -0.00136
       2 -> 25         0.00209
       2 -> 29        -0.00108
       3 -> 20         0.00204
       3 -> 22         0.00387
       3 -> 24        -0.00270
       3 -> 26         0.00215
       3 -> 29        -0.00180
       4 -> 16        -0.00188
       4 -> 20         0.00268
       4 -> 21         0.00577
       4 -> 22        -0.00446
       4 -> 28        -0.00161
       4 -> 30        -0.00185
       5 -> 16        -0.00134
       5 -> 19         0.01520
       5 -> 20        -0.00179
       5 -> 21         0.00592
       5 -> 22        -0.00529
       5 -> 25        -0.00133
       5 -> 27         0.00129
       5 -> 28        -0.00128
       5 -> 30        -0.00839
       6 -> 17        -0.00226
       6 -> 19         0.01168
       6 -> 21        -0.01095
       6 -> 23        -0.00291
       6 -> 24        -0.00253
       6 -> 27        -0.00663
       7 -> 17        -0.00119
       7 -> 18         0.01164
       7 -> 19         0.00343
       7 -> 20        -0.00223
       7 -> 21         0.00370
       7 -> 22         0.00605
       7 -> 23         0.01824
       7 -> 24         0.02206
       7 -> 25        -0.01485
       7 -> 27        -0.00516
       7 -> 29        -0.00110
       7 -> 30         0.00103
       8 -> 19         0.00379
       8 -> 20         0.00463
       8 -> 21         0.00479
       8 -> 22        -0.00447
       8 -> 23        -0.02693
       8 -> 24         0.02477
       8 -> 25         0.00589
       8 -> 26        -0.02787
       8 -> 28        -0.00516
       8 -> 29         0.00176
       9 -> 18        -0.00227
       9 -> 19         0.00338
       9 -> 21        -0.00776
       9 -> 23        -0.00376
       9 -> 24        -0.01318
       9 -> 25         0.02062
       9 -> 26         0.01243
       9 -> 27         0.00523
       9 -> 28        -0.01065
       9 -> 29        -0.02280
      10 -> 17         0.00286
      10 -> 18        -0.00846
      10 -> 19         0.00496
      10 -> 22        -0.01515
      10 -> 23        -0.01169
      10 -> 24         0.01135
      10 -> 25         0.01329
      10 -> 26        -0.02125
      10 -> 27        -0.00312
      10 -> 28         0.00110
      10 -> 29         0.00728
      10 -> 30        -0.00602
      11 -> 16        -0.01003
      11 -> 17         0.00102
      11 -> 18         0.00973
      11 -> 22        -0.00419
      11 -> 23        -0.00579
      11 -> 25         0.00431
      11 -> 26        -0.00322
      11 -> 30        -0.00242
      12 -> 16         0.05797
      12 -> 17         0.00509
      12 -> 18        -0.00577
      12 -> 19         0.02328
      12 -> 20        -0.02131
      12 -> 21        -0.03240
      12 -> 22         0.01498
      12 -> 23        -0.00475
      12 -> 24         0.00167
      12 -> 25        -0.00546
      12 -> 26        -0.00357
      12 -> 27        -0.03630
      12 -> 28        -0.02438
      12 -> 29         0.00724
      13 -> 16         0.03040
      13 -> 17         0.02947
      13 -> 18        -0.00145
      13 -> 19        -0.04814
      13 -> 20        -0.02137
      13 -> 21        -0.00721
      13 -> 22         0.02783
      13 -> 23         0.00688
      13 -> 24         0.00180
      13 -> 26         0.00358
      13 -> 27         0.03095
      13 -> 28        -0.03034
      13 -> 29         0.01508
      13 -> 30         0.03253
      14 -> 16        -0.21640
      14 -> 17         0.47688
      14 -> 18         0.00569
      14 -> 19        -0.00294
      14 -> 20         0.00197
      14 -> 21        -0.00281
      14 -> 22         0.00118
      14 -> 23         0.00121
      14 -> 24         0.00339
      14 -> 25        -0.00198
      14 -> 30         0.00379
      15 -> 16        -0.41604
      15 -> 17        -0.21474
      15 -> 18        -0.01374
      15 -> 19         0.00115
      15 -> 20         0.00524
      15 -> 21         0.00465
      15 -> 22        -0.00468
      15 -> 24        -0.00138
      15 -> 26         0.00128
      15 -> 27         0.00149
      15 -> 28         0.00688
      15 -> 29        -0.00313
      15 -> 30        -0.00257
       1 <- 21         0.00131
       1 <- 27         0.00382
       2 <- 20        -0.00132
       2 <- 21        -0.00203
       2 <- 22        -0.00393
       2 <- 23        -0.00371
       2 <- 24        -0.00188
       2 <- 25         0.00323
       2 <- 27         0.00103
       2 <- 28        -0.00148
       2 <- 29        -0.00125
       3 <- 20         0.00111
       3 <- 22         0.00252
       3 <- 23         0.00191
       3 <- 24        -0.00408
       3 <- 26         0.00250
       3 <- 29        -0.00245
       4 <- 20         0.00133
       4 <- 21         0.00374
       4 <- 22        -0.00257
       4 <- 30        -0.00124
       5 <- 19         0.00929
       5 <- 20        -0.00175
       5 <- 21         0.00468
       5 <- 22        -0.00335
       5 <- 30        -0.00536
       6 <- 19         0.00488
       6 <- 21        -0.00481
       6 <- 23        -0.00109
       6 <- 24        -0.00108
       6 <- 27        -0.00127
       7 <- 19         0.00135
       7 <- 21         0.00133
       7 <- 22         0.00245
       7 <- 23         0.00758
       7 <- 24         0.00893
       7 <- 25        -0.00531
       7 <- 27        -0.00171
       8 <- 19         0.00115
       8 <- 20         0.00183
       8 <- 21         0.00157
       8 <- 22        -0.00160
       8 <- 23        -0.01224
       8 <- 24         0.01063
       8 <- 25         0.00225
       8 <- 26        -0.01052
       8 <- 28        -0.00267
       9 <- 19         0.00128
       9 <- 21        -0.00342
       9 <- 23        -0.00208
       9 <- 24        -0.00565
       9 <- 25         0.00889
       9 <- 26         0.00487
       9 <- 27         0.00158
       9 <- 28        -0.00378
       9 <- 29        -0.00696
      10 <- 19         0.00205
      10 <- 22        -0.00536
      10 <- 23        -0.00549
      10 <- 24         0.00410
      10 <- 25         0.00570
      10 <- 26        -0.00866
      10 <- 29         0.00243
      10 <- 30        -0.00238
      11 <- 16         0.00110
      11 <- 18        -0.00157
      11 <- 19         0.00110
      11 <- 26        -0.00101
      12 <- 16         0.00228
      12 <- 19         0.00621
      12 <- 20        -0.00590
      12 <- 21        -0.00881
      12 <- 22         0.00428
      12 <- 23        -0.00156
      12 <- 25        -0.00174
      12 <- 26        -0.00133
      12 <- 27        -0.01159
      12 <- 28        -0.00849
      12 <- 29         0.00182
      13 <- 16         0.00144
      13 <- 19        -0.01441
      13 <- 20        -0.00434
      13 <- 21        -0.00367
      13 <- 22         0.00830
      13 <- 23         0.00153
      13 <- 27         0.00950
      13 <- 28        -0.00996
      13 <- 29         0.00476
      13 <- 30         0.01152
      14 <- 16         0.03843
      14 <- 17        -0.07681
      14 <- 21        -0.00166
      15 <- 16         0.08066
      15 <- 17         0.03810
      15 <- 18         0.00165
      15 <- 20        -0.00115
 
 Excited state symmetry could not be determined.
 Excited State   4:      Singlet-?Sym    5.4422 eV  227.82 nm  f=0.3758  <S**2>=0.000
       1 -> 28         0.00251
       2 -> 19         0.00121
       2 -> 20         0.00217
       2 -> 21         0.00167
       2 -> 22         0.00350
       2 -> 23        -0.00166
       2 -> 24         0.00167
       2 -> 26        -0.00200
       2 -> 28        -0.00144
       2 -> 29        -0.00165
       3 -> 19         0.00147
       3 -> 20         0.00371
       3 -> 21         0.00144
       3 -> 22         0.00529
       3 -> 23        -0.00295
       3 -> 24        -0.00202
       3 -> 25         0.00192
       3 -> 29         0.00139
       4 -> 17        -0.00564
       4 -> 19         0.00429
       4 -> 20        -0.00933
       4 -> 21         0.01291
       4 -> 23        -0.00156
       4 -> 27        -0.00173
       4 -> 29        -0.00138
       4 -> 30        -0.00779
       5 -> 16         0.00313
       5 -> 19        -0.00511
       5 -> 20         0.00626
       5 -> 21         0.00171
       5 -> 22        -0.00307
       5 -> 26         0.00117
       5 -> 27        -0.00107
       5 -> 28        -0.00136
       5 -> 29         0.00128
       5 -> 30         0.00234
       6 -> 16        -0.00196
       6 -> 19        -0.00428
       6 -> 20        -0.01376
       6 -> 21        -0.00193
       6 -> 22         0.00823
       6 -> 23         0.00307
       6 -> 24        -0.00145
       6 -> 25        -0.00130
       6 -> 28        -0.00557
       6 -> 29         0.00196
       7 -> 16        -0.00101
       7 -> 21         0.00185
       7 -> 22        -0.00135
       7 -> 23        -0.02274
       7 -> 24         0.01931
       7 -> 26        -0.00992
       7 -> 28        -0.00337
       7 -> 29         0.00129
       8 -> 18         0.01304
       8 -> 20         0.00391
       8 -> 21        -0.01061
       8 -> 22        -0.00462
       8 -> 23        -0.02008
       8 -> 24        -0.02674
       8 -> 25         0.02958
       8 -> 26         0.00628
       8 -> 27         0.00400
       8 -> 28        -0.00127
       8 -> 29         0.00187
       9 -> 17        -0.00316
       9 -> 18         0.00931
       9 -> 19         0.00341
       9 -> 20         0.01351
       9 -> 21         0.00250
       9 -> 22         0.00401
       9 -> 23        -0.01664
       9 -> 24         0.00566
       9 -> 25         0.01634
       9 -> 26        -0.02256
       9 -> 27         0.00226
       9 -> 28        -0.00325
       9 -> 29        -0.00663
       9 -> 30         0.00471
      10 -> 17         0.00199
      10 -> 19        -0.00517
      10 -> 20        -0.00188
      10 -> 21         0.01172
      10 -> 22        -0.00274
      10 -> 23         0.00416
      10 -> 24         0.01281
      10 -> 25        -0.02160
      10 -> 26        -0.01279
      10 -> 27         0.00707
      10 -> 28        -0.00836
      10 -> 29        -0.02528
      10 -> 30        -0.00108
      11 -> 16         0.00216
      11 -> 17        -0.01004
      11 -> 18        -0.00158
      11 -> 20        -0.00127
      11 -> 21         0.00263
      11 -> 23         0.00270
      11 -> 24         0.00298
      11 -> 25        -0.00362
      11 -> 29        -0.00228
      12 -> 16        -0.00505
      12 -> 17         0.04584
      12 -> 18        -0.00785
      12 -> 19         0.00764
      12 -> 20         0.04370
      12 -> 21        -0.03378
      12 -> 22        -0.01359
      12 -> 23         0.00162
      12 -> 24        -0.00471
      12 -> 25         0.00231
      12 -> 26         0.00140
      12 -> 27        -0.02696
      12 -> 28         0.03373
      12 -> 29        -0.00993
      12 -> 30         0.03408
      13 -> 16        -0.01190
      13 -> 17         0.03277
      13 -> 18        -0.00575
      13 -> 19         0.02418
      13 -> 20        -0.02630
      13 -> 21        -0.03084
      13 -> 22         0.01486
      13 -> 23        -0.00162
      13 -> 24         0.00263
      13 -> 25        -0.01114
      13 -> 26        -0.00376
      13 -> 27        -0.03615
      13 -> 28        -0.02999
      13 -> 29        -0.00302
      13 -> 30         0.00147
      14 -> 16        -0.45203
      14 -> 17        -0.22512
      14 -> 18        -0.01597
      14 -> 20        -0.00167
      14 -> 21         0.00634
      14 -> 22        -0.00118
      14 -> 23        -0.00186
      14 -> 24         0.00378
      14 -> 26        -0.00380
      14 -> 27         0.00282
      14 -> 29        -0.00177
      14 -> 30        -0.00339
      15 -> 16         0.20686
      15 -> 17        -0.44420
      15 -> 18         0.00373
      15 -> 19        -0.00166
      15 -> 20        -0.00292
      15 -> 21         0.00382
      15 -> 22         0.00197
      15 -> 23        -0.00112
      15 -> 24         0.00384
      15 -> 26        -0.00217
      15 -> 27         0.00128
      15 -> 28        -0.00213
      15 -> 30        -0.00215
       1 <- 20         0.00135
       1 <- 28         0.00368
       1 <- 29        -0.00142
       2 <- 20         0.00158
       2 <- 21         0.00170
       2 <- 22         0.00188
       2 <- 23        -0.00248
       2 <- 24         0.00372
       2 <- 26        -0.00261
       2 <- 28        -0.00147
       2 <- 29        -0.00265
       3 <- 20         0.00235
       3 <- 22         0.00259
       3 <- 23        -0.00423
       3 <- 24        -0.00277
       3 <- 25         0.00289
       3 <- 29         0.00209
       4 <- 19         0.00361
       4 <- 20        -0.00596
       4 <- 21         0.00814
       4 <- 23        -0.00108
       4 <- 30        -0.00515
       5 <- 19        -0.00301
       5 <- 20         0.00360
       5 <- 22        -0.00136
       5 <- 30         0.00133
       6 <- 19        -0.00182
       6 <- 20        -0.00569
       6 <- 22         0.00350
       6 <- 23         0.00115
       7 <- 23        -0.00912
       7 <- 24         0.00761
       7 <- 26        -0.00324
       8 <- 20         0.00124
       8 <- 21        -0.00392
       8 <- 22        -0.00207
       8 <- 23        -0.00873
       8 <- 24        -0.01230
       8 <- 25         0.01121
       8 <- 26         0.00229
       8 <- 27         0.00194
       8 <- 29         0.00114
       9 <- 20         0.00495
       9 <- 23        -0.00703
       9 <- 24         0.00238
       9 <- 25         0.00640
       9 <- 26        -0.00912
       9 <- 28        -0.00115
       9 <- 29        -0.00194
       9 <- 30         0.00205
      10 <- 19        -0.00162
      10 <- 21         0.00428
      10 <- 22        -0.00104
      10 <- 23         0.00179
      10 <- 24         0.00620
      10 <- 25        -0.00903
      10 <- 26        -0.00514
      10 <- 27         0.00221
      10 <- 28        -0.00225
      10 <- 29        -0.00820
      11 <- 17        -0.00161
      12 <- 17         0.00267
      12 <- 20         0.01303
      12 <- 21        -0.01107
      12 <- 22        -0.00303
      12 <- 27        -0.00865
      12 <- 28         0.01111
      12 <- 29        -0.00354
      12 <- 30         0.01197
      13 <- 16        -0.00111
      13 <- 17         0.00128
      13 <- 19         0.00625
      13 <- 20        -0.00687
      13 <- 21        -0.00828
      13 <- 22         0.00410
      13 <- 24         0.00108
      13 <- 25        -0.00330
      13 <- 26        -0.00122
      13 <- 27        -0.01142
      13 <- 28        -0.00909
      14 <- 16         0.07861
      14 <- 17         0.03736
      14 <- 18        -0.00170
      15 <- 16        -0.03879
      15 <- 17         0.08016
      15 <- 19         0.00156
 
 Excited state symmetry could not be determined.
 Excited State   5:      Singlet-?Sym    5.9220 eV  209.36 nm  f=0.0048  <S**2>=0.000
       1 -> 16         0.00449
       1 -> 18        -0.00121
       2 -> 16         0.00211
       2 -> 17         0.00154
       2 -> 18         0.00270
       3 -> 17        -0.00254
       3 -> 18         0.01056
       4 -> 16         0.00282
       4 -> 17         0.00309
       4 -> 18         0.00244
       5 -> 16        -0.03427
       5 -> 17        -0.00492
       5 -> 18        -0.00136
       5 -> 19        -0.00144
       6 -> 16        -0.03253
       6 -> 17        -0.00405
       6 -> 18         0.00237
       6 -> 19        -0.00120
       7 -> 16        -0.01775
       7 -> 17         0.00126
       7 -> 18         0.06432
       7 -> 19         0.00117
       7 -> 20         0.00202
       7 -> 24        -0.00199
       7 -> 25         0.00136
       8 -> 16        -0.01683
       8 -> 17        -0.01692
       8 -> 18        -0.04542
       8 -> 19        -0.00367
       8 -> 20        -0.00200
       8 -> 21         0.00157
       8 -> 23         0.00216
       8 -> 24        -0.00205
       8 -> 25        -0.00162
       8 -> 26         0.00187
       9 -> 16         0.01189
       9 -> 17        -0.00686
       9 -> 18         0.08569
       9 -> 19         0.00171
       9 -> 24         0.00249
       9 -> 25        -0.00180
       9 -> 27        -0.00134
       9 -> 29         0.00156
      10 -> 16        -0.00691
      10 -> 17         0.01851
      10 -> 18        -0.05683
      10 -> 19        -0.00342
      10 -> 20        -0.00109
      10 -> 23        -0.00170
      10 -> 26         0.00151
      11 -> 18        -0.00581
      11 -> 19         0.00218
      11 -> 20         0.00539
      11 -> 21         0.00294
      11 -> 22         0.01193
      11 -> 23         0.01308
      11 -> 24        -0.01664
      11 -> 26         0.00174
      11 -> 27         0.00112
      11 -> 28        -0.00286
      11 -> 29        -0.00328
      12 -> 16         0.04990
      12 -> 17         0.08375
      12 -> 18        -0.07650
      12 -> 19        -0.00519
      12 -> 20        -0.00118
      12 -> 21         0.00456
      12 -> 22        -0.00228
      12 -> 27         0.00566
      12 -> 29        -0.00149
      13 -> 16         0.55578
      13 -> 17         0.38033
      13 -> 18        -0.02172
      13 -> 19         0.00395
      13 -> 20         0.00235
      13 -> 21         0.00264
      13 -> 22        -0.00395
      13 -> 24        -0.00141
      13 -> 27        -0.00232
      13 -> 28         0.00351
      13 -> 30        -0.00261
      14 -> 16         0.02258
      14 -> 17        -0.02448
      14 -> 18         0.01202
      14 -> 19         0.02446
      14 -> 20        -0.00668
      14 -> 21        -0.01832
      14 -> 22         0.00484
      14 -> 23        -0.00106
      14 -> 24         0.00545
      14 -> 25        -0.00197
      14 -> 26        -0.00139
      14 -> 27         0.00179
      14 -> 28         0.00107
      14 -> 29        -0.00404
      14 -> 30        -0.00142
      15 -> 16         0.02428
      15 -> 17         0.02345
      15 -> 18         0.03437
      15 -> 19        -0.03389
      15 -> 21        -0.04627
      15 -> 22         0.02907
      15 -> 23         0.00983
      15 -> 24         0.00506
      15 -> 25        -0.00365
      15 -> 26         0.00254
      15 -> 27         0.01655
      15 -> 28        -0.00186
      15 -> 29         0.00271
      15 -> 30         0.02047
       4 <- 17        -0.00117
       6 <- 16         0.00119
       8 <- 23         0.00140
       9 <- 18        -0.00114
      11 <- 16        -0.00236
      11 <- 17        -0.00136
      11 <- 19         0.00110
      11 <- 20         0.00337
      11 <- 21         0.00255
      11 <- 22         0.00390
      11 <- 24        -0.00179
      11 <- 26        -0.00186
      11 <- 28        -0.00114
      11 <- 29        -0.00192
      12 <- 17        -0.00104
      12 <- 27         0.00137
      13 <- 16        -0.00205
      13 <- 17        -0.00118
      13 <- 19         0.00103
      13 <- 28         0.00103
      14 <- 16        -0.00550
      14 <- 17         0.00549
      14 <- 18        -0.00170
      14 <- 19         0.00780
      14 <- 20        -0.00396
      14 <- 21        -0.00823
      14 <- 22         0.00265
      14 <- 25        -0.00210
      14 <- 27        -0.00584
      14 <- 28        -0.00273
      14 <- 29        -0.00135
      15 <- 16        -0.00542
      15 <- 17        -0.00403
      15 <- 18        -0.00310
      15 <- 19        -0.00556
      15 <- 20        -0.00612
      15 <- 21        -0.00792
      15 <- 22         0.00603
      15 <- 24         0.00132
      15 <- 27         0.00272
      15 <- 28        -0.00507
      15 <- 29         0.00180
      15 <- 30         0.00391
 SavETr:  write IOETrn=   770 NScale= 10 NData=  16 NLR=1 NState=    5 LETran=     100.

 **********************************************************************

            Population analysis using the SCF Density.

 **********************************************************************

 Alpha  occ. eigenvalues --   -1.42978  -1.14905  -1.14367  -0.84838  -0.83640
 Alpha  occ. eigenvalues --   -0.65316  -0.58758  -0.56289  -0.52025  -0.51791
 Alpha  occ. eigenvalues --   -0.48882  -0.43557  -0.43038  -0.35493  -0.35059
 Alpha virt. eigenvalues --    0.01861   0.02219   0.10889   0.14060   0.14575
 Alpha virt. eigenvalues --    0.14735   0.15108   0.16532   0.16707   0.18708
 Alpha virt. eigenvalues --    0.18848   0.20342   0.20737   0.21152   0.22472
          Condensed to atoms (all electrons):
               1          2          3          4          5          6
     1  C    4.133920   0.000000   0.000000   0.000000   0.000000   0.000000
     2  C    0.000000   4.131193   0.000000   0.000000   0.000000   0.000000
     3  C    0.000000   0.000000   4.132144   0.000000   0.000000   0.000000
     4  C    0.000000   0.000000   0.000000   4.135151   0.000000   0.000000
     5  C    0.000000   0.000000   0.000000   0.000000   4.124072   0.000000
     6  C    0.000000   0.000000   0.000000   0.000000   0.000000   4.130653
     7  H    0.000000   0.000000   0.000000   0.000000   0.000000   0.000000
     8  H    0.000000   0.000000   0.000000   0.000000   0.000000   0.000000
     9  H    0.000000   0.000000   0.000000   0.000000   0.000000   0.000000
    10  H    0.000000   0.000000   0.000000   0.000000   0.000000   0.000000
    11  H    0.000000   0.000000   0.000000   0.000000   0.000000   0.000000
    12  H    0.000000   0.000000   0.000000   0.000000   0.000000   0.000000
               7          8          9         10         11         12
     1  C    0.000000   0.000000   0.000000   0.000000   0.000000   0.000000
     2  C    0.000000   0.000000   0.000000   0.000000   0.000000   0.000000
     3  C    0.000000   0.000000   0.000000   0.000000   0.000000   0.000000
     4  C    0.000000   0.000000   0.000000   0.000000   0.000000   0.000000
     5  C    0.000000   0.000000   0.000000   0.000000   0.000000   0.000000
     6  C    0.000000   0.000000   0.000000   0.000000   0.000000   0.000000
     7  H    0.861985   0.000000   0.000000   0.000000   0.000000   0.000000
     8  H    0.000000   0.873902   0.000000   0.000000   0.000000   0.000000
     9  H    0.000000   0.000000   0.860246   0.000000   0.000000   0.000000
    10  H    0.000000   0.000000   0.000000   0.876449   0.000000   0.000000
    11  H    0.000000   0.000000   0.000000   0.000000   0.858036   0.000000
    12  H    0.000000   0.000000   0.000000   0.000000   0.000000   0.882249
 Mulliken charges:
               1
     1  C   -0.133920
     2  C   -0.131193
     3  C   -0.132144
     4  C   -0.135151
     5  C   -0.124072
     6  C   -0.130653
     7  H    0.138015
     8  H    0.126098
     9  H    0.139754
    10  H    0.123551
    11  H    0.141964
    12  H    0.117751
 Sum of Mulliken charges =  -0.00000
 Mulliken charges with hydrogens summed into heavy atoms:
               1
     1  C    0.004095
     2  C   -0.005095
     3  C    0.007610
     4  C   -0.011600
     5  C    0.017892
     6  C   -0.012902
 Charge=             -0.0000 electrons
 Dipole moment (field-independent basis, Debye):
    X=              0.0280    Y=              0.0039    Z=              0.0200  Tot=              0.0346
 N-N= 1.192117589540D+02 E-N=-1.699099446189D+02  KE=-4.780427193654D+01

 Test job not archived.
 1\1\GINC-BHC0189\SP\RAM1 TD-Full\STO-5G\C6H6\BWEIGHT\21-Mar-2025\0\\# 
 AM1/STO-5G SCF=XQC TD=(read,singlets,nstates=5,root=1) nosym IOp(9/40=
 3) guess=read\\MD Step 19\\0,1\C,0,-0.72339317,-1.21449684,-0.01484488
 \C,0,0.68125939,-1.21443851,0.01000561\C,0,1.42645575,0.00057887,0.006
 2923\C,0,0.67177644,1.20124401,0.00560494\C,0,-0.71530475,1.24249347,-
 0.02487877\C,0,-1.35513072,0.00143934,-0.00822871\H,0,-1.27044924,-2.1
 7446417,0.00253134\H,0,1.23462813,-2.18841447,0.04453031\H,0,2.5089504
 2,0.03569793,-0.00503812\H,0,1.25471083,2.20933471,-0.07361677\H,0,-1.
 28926807,2.18107178,-0.01449257\H,0,-2.47276587,-0.06605237,0.0481788\
 \Version=ES64L-G16RevC.01\HF=0.0452822\RMSD=2.161e-09\PG=C01 [X(C6H6)]
 \\@


 TWO ROADS DIVERGED IN A WOOD, AND I--
 I TOOK THE ONE LESS TRAVELED BY,
 AND THAT HAS MADE ALL THE DIFFERENCE.

                       -- ROBERT FROST
 Job cpu time:       0 days  0 hours  0 minutes  1.1 seconds.
 Elapsed time:       0 days  0 hours  0 minutes  0.9 seconds.
 File lengths (MBytes):  RWF=     34 Int=      0 D2E=      0 Chk=      2 Scr=      1
 Normal termination of Gaussian 16 at Fri Mar 21 15:22:03 2025.
