%chk=geometry.chk
%rwf=geometry.rwf
%mem=4GB
%nprocshared=1

# FORCE TD=(singlets,root=2,nstates=4) BLYP/STO-3G nosymm pop=full 

TitleMe

0 1
c           -0.7097297   0.0000400  -0.0005100
c           -0.0093800  -1.2191995  -0.0022400
c            1.3745795  -1.2203795  -0.0079000
c            2.1021692  -0.0000100  -0.0040000
c            1.3745895   1.2203395  -0.0078700
c           -0.0094000   1.2192395  -0.0021600
h           -0.5642098  -2.1741091  -0.0010400
h            1.9101792  -2.1817891  -0.0073400
h            1.9101092   2.1818291  -0.0073800
h           -0.5641498   2.1741691  -0.0008200
n            3.4790586  -0.0000300   0.0601800
h            3.9534384  -0.8448097  -0.1473199
h            3.9534284   0.8449097  -0.1467399
n           -2.1876291   0.0000000   0.0014600
o           -2.7734789   1.0513096   0.0016000
o           -2.7734889  -1.0513496   0.0018000




