 Entering Gaussian System, Link 0=g16
 Initial command:
 /software/gaussian/g16-c01/avx2/g16/l1.exe "/local_scratch/28554128/Gau-13240.inp" -scrdir="/local_scratch/28554128/"
 Entering Link 1 = /software/gaussian/g16-c01/avx2/g16/l1.exe PID=     13249.
  
 Copyright (c) 1988-2019, Gaussian, Inc.  All Rights Reserved.
  
 This is part of the Gaussian(R) 16 program.  It is based on
 the Gaussian(R) 09 system (copyright 2009, Gaussian, Inc.),
 the Gaussian(R) 03 system (copyright 2003, Gaussian, Inc.),
 the Gaussian(R) 98 system (copyright 1998, Gaussian, Inc.),
 the Gaussian(R) 94 system (copyright 1995, Gaussian, Inc.),
 the Gaussian 92(TM) system (copyright 1992, Gaussian, Inc.),
 the Gaussian 90(TM) system (copyright 1990, Gaussian, Inc.),
 the Gaussian 88(TM) system (copyright 1988, Gaussian, Inc.),
 the Gaussian 86(TM) system (copyright 1986, Carnegie Mellon
 University), and the Gaussian 82(TM) system (copyright 1983,
 Carnegie Mellon University). Gaussian is a federally registered
 trademark of Gaussian, Inc.
  
 This software contains proprietary and confidential information,
 including trade secrets, belonging to Gaussian, Inc.
  
 This software is provided under written license and may be
 used, copied, transmitted, or stored only in accord with that
 written license.
  
 The following legend is applicable only to US Government
 contracts under FAR:
  
                    RESTRICTED RIGHTS LEGEND
  
 Use, reproduction and disclosure by the US Government is
 subject to restrictions as set forth in subparagraphs (a)
 and (c) of the Commercial Computer Software - Restricted
 Rights clause in FAR 52.227-19.
  
 Gaussian, Inc.
 340 Quinnipiac St., Bldg. 40, Wallingford CT 06492
  
  
 ---------------------------------------------------------------
 Warning -- This program may not be used in any manner that
 competes with the business of Gaussian, Inc. or will provide
 assistance to any competitor of Gaussian, Inc.  The licensee
 of this program is prohibited from giving any competitor of
 Gaussian, Inc. access to this program.  By using this program,
 the user acknowledges that Gaussian, Inc. is engaged in the
 business of creating and licensing software in the field of
 computational chemistry and represents and warrants to the
 licensee that it is not a competitor of Gaussian, Inc. and that
 it will not use this program in any manner prohibited above.
 ---------------------------------------------------------------
  

 Cite this work as:
 Gaussian 16, Revision C.01,
 M. J. Frisch, G. W. Trucks, H. B. Schlegel, G. E. Scuseria, 
 M. A. Robb, J. R. Cheeseman, G. Scalmani, V. Barone, 
 G. A. Petersson, H. Nakatsuji, X. Li, M. Caricato, A. V. Marenich, 
 J. Bloino, B. G. Janesko, R. Gomperts, B. Mennucci, H. P. Hratchian, 
 J. V. Ortiz, A. F. Izmaylov, J. L. Sonnenberg, D. Williams-Young, 
 F. Ding, F. Lipparini, F. Egidi, J. Goings, B. Peng, A. Petrone, 
 T. Henderson, D. Ranasinghe, V. G. Zakrzewski, J. Gao, N. Rega, 
 G. Zheng, W. Liang, M. Hada, M. Ehara, K. Toyota, R. Fukuda, 
 J. Hasegawa, M. Ishida, T. Nakajima, Y. Honda, O. Kitao, H. Nakai, 
 T. Vreven, K. Throssell, J. A. Montgomery, Jr., J. E. Peralta, 
 F. Ogliaro, M. J. Bearpark, J. J. Heyd, E. N. Brothers, K. N. Kudin, 
 V. N. Staroverov, T. A. Keith, R. Kobayashi, J. Normand, 
 K. Raghavachari, A. P. Rendell, J. C. Burant, S. S. Iyengar, 
 J. Tomasi, M. Cossi, J. M. Millam, M. Klene, C. Adamo, R. Cammi, 
 J. W. Ochterski, R. L. Martin, K. Morokuma, O. Farkas, 
 J. B. Foresman, and D. J. Fox, Gaussian, Inc., Wallingford CT, 2019.
 
 ******************************************
 Gaussian 16:  ES64L-G16RevC.01  3-Jul-2019
                21-Mar-2025 
 ******************************************
 %oldchk=../GS_OLD/geometry.chk
 %chk=geometry.chk
 %nprocshared=1
 Will use up to    1 processors via shared memory.
 %mem=2GB
 Copying data from "../GS_OLD/geometry.chk" to current chk file "geometry.chk"
 IOpt=  2 FromEx=T IUOpen= 4 IOptOp= 5 NList=   0 IFRang= 0 IUIn= 4 IUOut= 2.
 -------------------------------------------
 # AM1/STO-5G SCF=XQC FORCE nosym guess=read
 -------------------------------------------
 1/10=7,30=1,38=1/1,3;
 2/12=2,15=1,17=6,18=5,40=1/2;
 3/5=2,6=5,25=1,41=700000,71=1,116=-2/1,2,3;
 4/5=1,35=1/1;
 5/5=2,8=3,13=1,35=1,38=6/2,8;
 6/7=2,8=2,9=2,10=2,28=1/1;
 7/29=1,30=1/1,2,3,16;
 1/10=7,30=1/3;
 99//99;
 ----------
 MD Step 24
 ----------
 Symbolic Z-matrix:
 Charge =  0 Multiplicity = 1
 C                    -0.64695  -1.13104  -0.02801 
 C                     0.71433  -1.20629  -0.01333 
 C                     1.42944  -0.01736   0.02433 
 C                     0.68075   1.1773   -0.0138 
 C                    -0.71656   1.18201  -0.00293 
 C                    -1.44711   0.01897   0.02398 
 H                    -1.18041  -2.09631  -0.09734 
 H                     1.23127  -2.21992   0.11158 
 H                     2.47779  -0.07391   0.10557 
 H                     1.29397   2.07001  -0.1065 
 H                    -1.30483   2.14671   0.03833 
 H                    -2.53612  -0.04773   0.07037 
 

 GradGradGradGradGradGradGradGradGradGradGradGradGradGradGradGradGradGrad
 Berny optimization.
 Initialization pass.
 Trust Radius=3.00D-01 FncErr=1.00D-07 GrdErr=1.00D-07 EigMax=2.50D+02 EigMin=1.00D-04
 Number of steps in this run=      2 maximum allowed number of steps=      2.
 GradGradGradGradGradGradGradGradGradGradGradGradGradGradGradGradGradGrad

                          Input orientation:                          
 ---------------------------------------------------------------------
 Center     Atomic      Atomic             Coordinates (Angstroms)
 Number     Number       Type             X           Y           Z
 ---------------------------------------------------------------------
      1          6           0       -0.646952   -1.131038   -0.028011
      2          6           0        0.714328   -1.206287   -0.013325
      3          6           0        1.429439   -0.017361    0.024332
      4          6           0        0.680752    1.177296   -0.013797
      5          6           0       -0.716562    1.182014   -0.002934
      6          6           0       -1.447115    0.018972    0.023977
      7          1           0       -1.180415   -2.096314   -0.097338
      8          1           0        1.231272   -2.219917    0.111582
      9          1           0        2.477786   -0.073909    0.105567
     10          1           0        1.293966    2.070012   -0.106498
     11          1           0       -1.304831    2.146712    0.038329
     12          1           0       -2.536123   -0.047731    0.070371
 ---------------------------------------------------------------------
                    Distance matrix (angstroms):
                    1          2          3          4          5
     1  C    0.000000
     2  C    1.363438   0.000000
     3  C    2.356781   1.387929   0.000000
     4  C    2.662970   2.383820   1.410388   0.000000
     5  C    2.314235   2.784158   2.458570   1.397364   0.000000
     6  C    1.401957   2.484851   2.876783   2.423006   1.373717
     7  H    1.105055   2.095055   3.338889   3.766622   3.312326
     8  H    2.175516   1.144673   2.213172   3.443813   3.921773
     9  H    3.301417   2.099095   1.053009   2.192965   3.434091
    10  H    3.744335   3.328483   2.095853   1.086999   2.200339
    11  H    3.343778   3.914368   3.487068   2.210209   1.130666
    12  H    2.179954   3.451766   3.965946   3.443263   2.197373
                    6          7          8          9         10
     6  C    0.000000
     7  H    2.135481   0.000000
     8  H    3.491998   2.423872   0.000000
     9  H    3.926848   4.184940   2.481770   0.000000
    10  H    3.425976   4.845711   4.295926   2.458211   0.000000
    11  H    2.132541   4.247017   5.050211   4.386784   2.603959
    12  H    1.092035   2.462268   4.348948   5.014101   4.380148
                   11         12
    11  H    0.000000
    12  H    2.516483   0.000000
 Symmetry turned off by external request.
 Stoichiometry    C6H6
 Framework group  C1[X(C6H6)]
 Deg. of freedom    30
 Full point group                 C1      NOp   1
 Rotational constants (GHZ):           6.0577633           5.4436363           2.8697115
 Standard basis: VSTO-5G (5D, 7F)
    30 basis functions,   180 primitive gaussians,    30 cartesian basis functions
    15 alpha electrons       15 beta electrons
       nuclear repulsion energy       119.8907155386 Hartrees.
 Integral buffers will be    131072 words long.
 Regular integral format.
 Two-electron integral symmetry is turned off.
 Do NDO integrals.
 One-electron integrals computed using PRISM.
 NBasis=    30 RedAO= F EigKep=  0.00D+00  NBF=    30
 NBsUse=    30 1.00D-04 EigRej=  0.00D+00 NBFU=    30
 Initial guess from the checkpoint file:  "geometry.chk"
 B after Tr=     0.000422    0.000471    0.001148
         Rot=    1.000000    0.000416   -0.000112    0.000277 Ang=   0.06 deg.
 Keep J ints in memory in canonical form, NReq=861816.
 Overlap will be assumed to be unity.
 Requested convergence on RMS density matrix=1.00D-08 within  32 cycles.
 Requested convergence on MAX density matrix=1.00D-06.
 Requested convergence on             energy=1.00D-06.
 No special actions if energy rises.
 SCF Done:  E(RAM1) =  0.503930235492E-01 A.U. after   12 cycles
            NFock= 11  Conv=0.29D-08     -V/T= 1.0011
 QCSCF skips out because SCF is already converged.

 **********************************************************************

            Population analysis using the SCF Density.

 **********************************************************************

 Alpha  occ. eigenvalues --   -1.44852  -1.16924  -1.14253  -0.85493  -0.84075
 Alpha  occ. eigenvalues --   -0.65728  -0.59238  -0.56810  -0.52729  -0.50926
 Alpha  occ. eigenvalues --   -0.49539  -0.44669  -0.42312  -0.35964  -0.35184
 Alpha virt. eigenvalues --    0.01746   0.02400   0.10904   0.13890   0.14724
 Alpha virt. eigenvalues --    0.15218   0.15288   0.16908   0.17236   0.18627
 Alpha virt. eigenvalues --    0.19047   0.20426   0.20843   0.21308   0.22515
          Condensed to atoms (all electrons):
               1          2          3          4          5          6
     1  C    4.139067   0.000000   0.000000   0.000000   0.000000   0.000000
     2  C    0.000000   4.137023   0.000000   0.000000   0.000000   0.000000
     3  C    0.000000   0.000000   4.127263   0.000000   0.000000   0.000000
     4  C    0.000000   0.000000   0.000000   4.129313   0.000000   0.000000
     5  C    0.000000   0.000000   0.000000   0.000000   4.122920   0.000000
     6  C    0.000000   0.000000   0.000000   0.000000   0.000000   4.124188
     7  H    0.000000   0.000000   0.000000   0.000000   0.000000   0.000000
     8  H    0.000000   0.000000   0.000000   0.000000   0.000000   0.000000
     9  H    0.000000   0.000000   0.000000   0.000000   0.000000   0.000000
    10  H    0.000000   0.000000   0.000000   0.000000   0.000000   0.000000
    11  H    0.000000   0.000000   0.000000   0.000000   0.000000   0.000000
    12  H    0.000000   0.000000   0.000000   0.000000   0.000000   0.000000
               7          8          9         10         11         12
     1  C    0.000000   0.000000   0.000000   0.000000   0.000000   0.000000
     2  C    0.000000   0.000000   0.000000   0.000000   0.000000   0.000000
     3  C    0.000000   0.000000   0.000000   0.000000   0.000000   0.000000
     4  C    0.000000   0.000000   0.000000   0.000000   0.000000   0.000000
     5  C    0.000000   0.000000   0.000000   0.000000   0.000000   0.000000
     6  C    0.000000   0.000000   0.000000   0.000000   0.000000   0.000000
     7  H    0.889784   0.000000   0.000000   0.000000   0.000000   0.000000
     8  H    0.000000   0.862322   0.000000   0.000000   0.000000   0.000000
     9  H    0.000000   0.000000   0.868173   0.000000   0.000000   0.000000
    10  H    0.000000   0.000000   0.000000   0.872344   0.000000   0.000000
    11  H    0.000000   0.000000   0.000000   0.000000   0.873348   0.000000
    12  H    0.000000   0.000000   0.000000   0.000000   0.000000   0.854255
 Mulliken charges:
               1
     1  C   -0.139067
     2  C   -0.137023
     3  C   -0.127263
     4  C   -0.129313
     5  C   -0.122920
     6  C   -0.124188
     7  H    0.110216
     8  H    0.137678
     9  H    0.131827
    10  H    0.127656
    11  H    0.126652
    12  H    0.145745
 Sum of Mulliken charges =   0.00000
 Mulliken charges with hydrogens summed into heavy atoms:
               1
     1  C   -0.028851
     2  C    0.000655
     3  C    0.004564
     4  C   -0.001657
     5  C    0.003732
     6  C    0.021557
 Charge=              0.0000 electrons
 Dipole moment (field-independent basis, Debye):
    X=             -0.0401    Y=             -0.0550    Z=              0.1064  Tot=              0.1263
 N-N= 1.198907155386D+02 E-N=-1.710462030964D+02  KE=-4.786051169886D+01
 Calling FoFJK, ICntrl=      2127 FMM=F ISym2X=0 I1Cent= 0 IOpClX= 0 NMat=1 NMatS=1 NMatT=0.
 -------------------------------------------------------------------
 Center     Atomic                   Forces (Hartrees/Bohr)
 Number     Number              X              Y              Z
 -------------------------------------------------------------------
      1        6          -0.052879017   -0.038934595   -0.002865320
      2        6           0.027404493   -0.022171058    0.014669702
      3        6          -0.039370211    0.013277633   -0.002280547
      4        6           0.016212221   -0.013565370   -0.004091707
      5        6          -0.006025765    0.047686352    0.005835922
      6        6           0.024799399   -0.021604427   -0.004148016
      7        1          -0.003268574   -0.002209370    0.002000752
      8        1          -0.011053557    0.024389121   -0.008767848
      9        1           0.033832144    0.007293673    0.000102006
     10        1          -0.003474558    0.014523523    0.002858554
     11        1           0.015219290   -0.010896417   -0.002637735
     12        1          -0.001395866    0.002210935   -0.000675764
 -------------------------------------------------------------------
 Cartesian Forces:  Max     0.052879017 RMS     0.019736851

 GradGradGradGradGradGradGradGradGradGradGradGradGradGradGradGradGradGrad
 Berny optimization.
 Search for a local minimum.
 Step number   1 out of a maximum of    2
 All quantities printed in internal units (Hartrees-Bohrs-Radians)
 Second derivative matrix not updated -- first step.
 ITU=  0
     Eigenvalues ---    0.01545   0.01743   0.03384   0.04337   0.06367
     Eigenvalues ---    0.06666   0.06775   0.07136   0.07255   0.09375
     Eigenvalues ---    0.09775   0.11211   0.12192   0.16222   0.18214
     Eigenvalues ---    0.27642   0.30362   0.31047   0.39104   0.42832
     Eigenvalues ---    0.45463   0.63094   0.68594   0.99441   1.05460
     Eigenvalues ---    1.18114   1.27148   1.49423   1.56238   1.66196
 Quadratic step=5.208D-01 exceeds max=3.000D-01 adjusted using Lamda=-5.592D-02.
 Angle between NR and scaled steps=  19.67 degrees.
 Angle between quadratic step and forces=  50.09 degrees.
 Linear search not attempted -- first point.
 B after Tr=    -0.002124   -0.006988    0.002827
         Rot=    1.000000    0.000564    0.000357    0.000297 Ang=   0.08 deg.
 Variable       Old X    -DE/DX   Delta X   Delta X   Delta X     New X
                                 (Linear)    (Quad)   (Total)
    X1       -1.22256  -0.05288   0.00000  -0.07915  -0.08258  -1.30515
    Y1       -2.13735  -0.03893   0.00000  -0.12606  -0.13233  -2.26968
    Z1       -0.05293  -0.00287   0.00000   0.00630   0.01075  -0.04218
    X2        1.34988   0.02740   0.00000  -0.02325  -0.02676   1.32313
    Y2       -2.27955  -0.02217   0.00000  -0.02657  -0.03433  -2.31388
    Z2       -0.02518   0.01467   0.00000   0.04021   0.04658   0.02140
    X3        2.70125  -0.03937   0.00000  -0.03554  -0.03771   2.66354
    Y3       -0.03281   0.01328   0.00000   0.02228   0.01376  -0.01905
    Z3        0.04598  -0.00228   0.00000  -0.00053   0.00421   0.05019
    X4        1.28643   0.01621   0.00000   0.02600   0.02524   1.31168
    Y4        2.22477  -0.01357   0.00000   0.03395   0.02615   2.25091
    Z4       -0.02607  -0.00409   0.00000  -0.00584  -0.00462  -0.03069
    X5       -1.35411  -0.00603   0.00000   0.03165   0.03087  -1.32323
    Y5        2.23368   0.04769   0.00000   0.04524   0.03904   2.27273
    Z5       -0.00554   0.00584   0.00000   0.01220   0.01151   0.00597
    X6       -2.73465   0.02480   0.00000   0.05451   0.05237  -2.68228
    Y6        0.03585  -0.02160   0.00000  -0.03251  -0.03787  -0.00202
    Z6        0.04531  -0.00415   0.00000  -0.01807  -0.01716   0.02815
    X7       -2.23066  -0.00327   0.00000  -0.09221  -0.09663  -2.32729
    Y7       -3.96146  -0.00221   0.00000  -0.10415  -0.10994  -4.07140
    Z7       -0.18394   0.00200   0.00000   0.01345   0.01920  -0.16474
    X8        2.32677  -0.01105   0.00000  -0.00335  -0.00805   2.31872
    Y8       -4.19503   0.02439   0.00000   0.06618   0.05801  -4.13703
    Z8        0.21086  -0.00877   0.00000  -0.04694  -0.03780   0.17306
    X9        4.68234   0.03383   0.00000   0.04862   0.04634   4.72868
    Y9       -0.13967   0.00729   0.00000   0.07482   0.06521  -0.07445
    Z9        0.19949   0.00010   0.00000  -0.03179  -0.02551   0.17398
   X10        2.44524  -0.00347   0.00000  -0.02101  -0.02063   2.42461
   Y10        3.91176   0.01452   0.00000   0.09234   0.08371   3.99547
   Z10       -0.20125   0.00286   0.00000   0.02756   0.02760  -0.17365
   X11       -2.46577   0.01522   0.00000   0.07889   0.07914  -2.38663
   Y11        4.05670  -0.01090   0.00000   0.01517   0.00967   4.06637
   Z11        0.07243  -0.00264   0.00000  -0.00738  -0.01085   0.06159
   X12       -4.79258  -0.00140   0.00000   0.04063   0.03839  -4.75419
   Y12       -0.09020   0.00221   0.00000   0.02296   0.01892  -0.07128
   Z12        0.13298  -0.00068   0.00000  -0.02343  -0.02392   0.10906
         Item               Value     Threshold  Converged?
 Maximum Force            0.052879     0.000450     NO 
 RMS     Force            0.019737     0.000300     NO 
 Maximum Displacement     0.132329     0.001800     NO 
 RMS     Displacement     0.049816     0.001200     NO 
 Predicted change in Energy=-1.394008D-02
 GradGradGradGradGradGradGradGradGradGradGradGradGradGradGradGradGradGrad

 Unable to Open any file for archive entry.
 1\1\GINC-BHC0165\Force\RAM1\ZDO\C6H6\BWEIGHT\21-Mar-2025\0\\# AM1/STO-
 5G SCF=XQC FORCE nosym guess=read\\MD Step 24\\0,1\C,-0.64695241,-1.13
 103788,-0.02801098\C,0.71432837,-1.20628712,-0.01332542\C,1.42943909,-
 0.01736136,0.02433193\C,0.68075152,1.17729646,-0.01379692\C,-0.7165624
 5,1.18201365,-0.00293385\C,-1.4471147,0.01897178,0.02397662\H,-1.18041
 469,-2.09631364,-0.09733755\H,1.23127166,-2.21991657,0.11158238\H,2.47
 778626,-0.07390932,0.10556667\H,1.2939655,2.07001239,-0.10649832\H,-1.
 30483101,2.14671249,0.03832941\H,-2.53612302,-0.0477309,0.07037104\\Ve
 rsion=ES64L-G16RevC.01\HF=0.050393\RMSD=2.908e-09\RMSF=1.974e-02\Dipol
 e=-0.0157957,-0.0216201,0.0418421\PG=C01 [X(C6H6)]\\@
 The archive entry for this job was punched.


 THOSE WITH THE GOLD MAKE THE RULES.

             -- PETER'S GOLDEN RULE
 Job cpu time:       0 days  0 hours  0 minutes  1.2 seconds.
 Elapsed time:       0 days  0 hours  0 minutes  0.9 seconds.
 File lengths (MBytes):  RWF=      6 Int=      0 D2E=      0 Chk=      2 Scr=      1
 Normal termination of Gaussian 16 at Fri Mar 21 15:03:12 2025.
