 Entering Gaussian System, Link 0=g16
 Initial command:
 /software/gaussian/g16-c01/avx2/g16/l1.exe "/local_scratch/28554152/Gau-25321.inp" -scrdir="/local_scratch/28554152/"
 Entering Link 1 = /software/gaussian/g16-c01/avx2/g16/l1.exe PID=     25329.
  
 Copyright (c) 1988-2019, Gaussian, Inc.  All Rights Reserved.
  
 This is part of the Gaussian(R) 16 program.  It is based on
 the Gaussian(R) 09 system (copyright 2009, Gaussian, Inc.),
 the Gaussian(R) 03 system (copyright 2003, Gaussian, Inc.),
 the Gaussian(R) 98 system (copyright 1998, Gaussian, Inc.),
 the Gaussian(R) 94 system (copyright 1995, Gaussian, Inc.),
 the Gaussian 92(TM) system (copyright 1992, Gaussian, Inc.),
 the Gaussian 90(TM) system (copyright 1990, Gaussian, Inc.),
 the Gaussian 88(TM) system (copyright 1988, Gaussian, Inc.),
 the Gaussian 86(TM) system (copyright 1986, Carnegie Mellon
 University), and the Gaussian 82(TM) system (copyright 1983,
 Carnegie Mellon University). Gaussian is a federally registered
 trademark of Gaussian, Inc.
  
 This software contains proprietary and confidential information,
 including trade secrets, belonging to Gaussian, Inc.
  
 This software is provided under written license and may be
 used, copied, transmitted, or stored only in accord with that
 written license.
  
 The following legend is applicable only to US Government
 contracts under FAR:
  
                    RESTRICTED RIGHTS LEGEND
  
 Use, reproduction and disclosure by the US Government is
 subject to restrictions as set forth in subparagraphs (a)
 and (c) of the Commercial Computer Software - Restricted
 Rights clause in FAR 52.227-19.
  
 Gaussian, Inc.
 340 Quinnipiac St., Bldg. 40, Wallingford CT 06492
  
  
 ---------------------------------------------------------------
 Warning -- This program may not be used in any manner that
 competes with the business of Gaussian, Inc. or will provide
 assistance to any competitor of Gaussian, Inc.  The licensee
 of this program is prohibited from giving any competitor of
 Gaussian, Inc. access to this program.  By using this program,
 the user acknowledges that Gaussian, Inc. is engaged in the
 business of creating and licensing software in the field of
 computational chemistry and represents and warrants to the
 licensee that it is not a competitor of Gaussian, Inc. and that
 it will not use this program in any manner prohibited above.
 ---------------------------------------------------------------
  

 Cite this work as:
 Gaussian 16, Revision C.01,
 M. J. Frisch, G. W. Trucks, H. B. Schlegel, G. E. Scuseria, 
 M. A. Robb, J. R. Cheeseman, G. Scalmani, V. Barone, 
 G. A. Petersson, H. Nakatsuji, X. Li, M. Caricato, A. V. Marenich, 
 J. Bloino, B. G. Janesko, R. Gomperts, B. Mennucci, H. P. Hratchian, 
 J. V. Ortiz, A. F. Izmaylov, J. L. Sonnenberg, D. Williams-Young, 
 F. Ding, F. Lipparini, F. Egidi, J. Goings, B. Peng, A. Petrone, 
 T. Henderson, D. Ranasinghe, V. G. Zakrzewski, J. Gao, N. Rega, 
 G. Zheng, W. Liang, M. Hada, M. Ehara, K. Toyota, R. Fukuda, 
 J. Hasegawa, M. Ishida, T. Nakajima, Y. Honda, O. Kitao, H. Nakai, 
 T. Vreven, K. Throssell, J. A. Montgomery, Jr., J. E. Peralta, 
 F. Ogliaro, M. J. Bearpark, J. J. Heyd, E. N. Brothers, K. N. Kudin, 
 V. N. Staroverov, T. A. Keith, R. Kobayashi, J. Normand, 
 K. Raghavachari, A. P. Rendell, J. C. Burant, S. S. Iyengar, 
 J. Tomasi, M. Cossi, J. M. Millam, M. Klene, C. Adamo, R. Cammi, 
 J. W. Ochterski, R. L. Martin, K. Morokuma, O. Farkas, 
 J. B. Foresman, and D. J. Fox, Gaussian, Inc., Wallingford CT, 2019.
 
 ******************************************
 Gaussian 16:  ES64L-G16RevC.01  3-Jul-2019
                21-Mar-2025 
 ******************************************
 %oldchk=../GS_OLD/geometry.chk
 %chk=geometry.chk
 %nprocshared=1
 Will use up to    1 processors via shared memory.
 %mem=2GB
 Copying data from "../GS_OLD/geometry.chk" to current chk file "geometry.chk"
 IOpt=  2 FromEx=T IUOpen= 4 IOptOp= 5 NList=   0 IFRang= 0 IUIn= 4 IUOut= 2.
 -------------------------------------------
 # AM1/STO-5G SCF=XQC FORCE nosym guess=read
 -------------------------------------------
 1/10=7,30=1,38=1/1,3;
 2/12=2,15=1,17=6,18=5,40=1/2;
 3/5=2,6=5,25=1,41=700000,71=1,116=-2/1,2,3;
 4/5=1,35=1/1;
 5/5=2,8=3,13=1,35=1,38=6/2,8;
 6/7=2,8=2,9=2,10=2,28=1/1;
 7/29=1,30=1/1,2,3,16;
 1/10=7,30=1/3;
 99//99;
 ----------
 MD Step 24
 ----------
 Symbolic Z-matrix:
 Charge =  0 Multiplicity = 1
 C                    -0.68137  -1.17738  -0.01261 
 C                     0.69953  -1.22576  -0.04105 
 C                     1.34561   0.00404   0.05749 
 C                     0.72366   1.20434  -0.03692 
 C                    -0.68353   1.21145  -0.06532 
 C                    -1.41374   0.00688   0.04407 
 H                    -1.12566  -2.20215   0.03748 
 H                     1.31363  -2.13695   0.01825 
 H                     2.53478  -0.07018   0.09139 
 H                     1.152     2.17696   0.1942 
 H                    -1.26728   2.14745  -0.04201 
 H                    -2.43838  -0.10731   0.16774 
 

 GradGradGradGradGradGradGradGradGradGradGradGradGradGradGradGradGradGrad
 Berny optimization.
 Initialization pass.
 Trust Radius=3.00D-01 FncErr=1.00D-07 GrdErr=1.00D-07 EigMax=2.50D+02 EigMin=1.00D-04
 Number of steps in this run=      2 maximum allowed number of steps=      2.
 GradGradGradGradGradGradGradGradGradGradGradGradGradGradGradGradGradGrad

                          Input orientation:                          
 ---------------------------------------------------------------------
 Center     Atomic      Atomic             Coordinates (Angstroms)
 Number     Number       Type             X           Y           Z
 ---------------------------------------------------------------------
      1          6           0       -0.681372   -1.177382   -0.012611
      2          6           0        0.699528   -1.225756   -0.041047
      3          6           0        1.345614    0.004036    0.057493
      4          6           0        0.723663    1.204344   -0.036918
      5          6           0       -0.683531    1.211454   -0.065324
      6          6           0       -1.413738    0.006884    0.044070
      7          1           0       -1.125657   -2.202153    0.037479
      8          1           0        1.313630   -2.136952    0.018255
      9          1           0        2.534782   -0.070184    0.091392
     10          1           0        1.151996    2.176958    0.194198
     11          1           0       -1.267284    2.147452   -0.042005
     12          1           0       -2.438379   -0.107313    0.167737
 ---------------------------------------------------------------------
                    Distance matrix (angstroms):
                    1          2          3          4          5
     1  C    0.000000
     2  C    1.382040   0.000000
     3  C    2.347198   1.392669   0.000000
     4  C    2.765381   2.430223   1.355166   0.000000
     5  C    2.389418   2.802398   2.364397   1.407499   0.000000
     6  C    1.393578   2.447966   2.759386   2.451316   1.412854
     7  H    1.118058   2.071429   3.312831   3.876821   3.443654
     8  H    2.213993   1.100417   2.141587   3.393430   3.899675
     9  H    3.402991   2.172796   1.191963   2.218340   3.467664
    10  H    3.828264   3.440717   2.185811   1.087595   2.090146
    11  H    3.376193   3.904726   3.381031   2.203033   1.103361
    12  H    2.065101   3.337808   3.787236   3.429408   2.207477
                    6          7          8          9         10
     6  C    0.000000
     7  H    2.227752   0.000000
     8  H    3.469184   2.440234   0.000000
     9  H    3.949555   4.236391   2.401685   0.000000
    10  H    3.363740   4.938510   4.320522   2.640514   0.000000
    11  H    2.147298   4.352637   5.002087   4.403568   2.430962
    12  H    1.038376   2.475593   4.268413   4.973885   4.255512
                   11         12
    11  H    0.000000
    12  H    2.549397   0.000000
 Symmetry turned off by external request.
 Stoichiometry    C6H6
 Framework group  C1[X(C6H6)]
 Deg. of freedom    30
 Full point group                 C1      NOp   1
 Rotational constants (GHZ):           5.7815226           5.6693228           2.8698168
 Standard basis: VSTO-5G (5D, 7F)
    30 basis functions,   180 primitive gaussians,    30 cartesian basis functions
    15 alpha electrons       15 beta electrons
       nuclear repulsion energy       119.8150629361 Hartrees.
 Integral buffers will be    131072 words long.
 Regular integral format.
 Two-electron integral symmetry is turned off.
 Do NDO integrals.
 One-electron integrals computed using PRISM.
 NBasis=    30 RedAO= F EigKep=  0.00D+00  NBF=    30
 NBsUse=    30 1.00D-04 EigRej=  0.00D+00 NBFU=    30
 Initial guess from the checkpoint file:  "geometry.chk"
 B after Tr=     0.000519   -0.000836    0.000276
         Rot=    1.000000    0.000031    0.000433   -0.000335 Ang=   0.06 deg.
 Keep J ints in memory in canonical form, NReq=861816.
 Overlap will be assumed to be unity.
 Requested convergence on RMS density matrix=1.00D-08 within  32 cycles.
 Requested convergence on MAX density matrix=1.00D-06.
 Requested convergence on             energy=1.00D-06.
 No special actions if energy rises.
 SCF Done:  E(RAM1) =  0.583391135921E-01 A.U. after   12 cycles
            NFock= 11  Conv=0.70D-08     -V/T= 1.0012
 QCSCF skips out because SCF is already converged.

 **********************************************************************

            Population analysis using the SCF Density.

 **********************************************************************

 Alpha  occ. eigenvalues --   -1.44642  -1.15864  -1.15167  -0.84944  -0.84401
 Alpha  occ. eigenvalues --   -0.65840  -0.58959  -0.56390  -0.52102  -0.51999
 Alpha  occ. eigenvalues --   -0.49363  -0.44012  -0.42563  -0.35858  -0.35214
 Alpha virt. eigenvalues --    0.01665   0.02310   0.10754   0.13529   0.14669
 Alpha virt. eigenvalues --    0.14812   0.15613   0.16672   0.16998   0.18748
 Alpha virt. eigenvalues --    0.18995   0.20485   0.20861   0.21190   0.22493
          Condensed to atoms (all electrons):
               1          2          3          4          5          6
     1  C    4.135370   0.000000   0.000000   0.000000   0.000000   0.000000
     2  C    0.000000   4.138375   0.000000   0.000000   0.000000   0.000000
     3  C    0.000000   0.000000   4.131413   0.000000   0.000000   0.000000
     4  C    0.000000   0.000000   0.000000   4.123384   0.000000   0.000000
     5  C    0.000000   0.000000   0.000000   0.000000   4.127865   0.000000
     6  C    0.000000   0.000000   0.000000   0.000000   0.000000   4.126132
     7  H    0.000000   0.000000   0.000000   0.000000   0.000000   0.000000
     8  H    0.000000   0.000000   0.000000   0.000000   0.000000   0.000000
     9  H    0.000000   0.000000   0.000000   0.000000   0.000000   0.000000
    10  H    0.000000   0.000000   0.000000   0.000000   0.000000   0.000000
    11  H    0.000000   0.000000   0.000000   0.000000   0.000000   0.000000
    12  H    0.000000   0.000000   0.000000   0.000000   0.000000   0.000000
               7          8          9         10         11         12
     1  C    0.000000   0.000000   0.000000   0.000000   0.000000   0.000000
     2  C    0.000000   0.000000   0.000000   0.000000   0.000000   0.000000
     3  C    0.000000   0.000000   0.000000   0.000000   0.000000   0.000000
     4  C    0.000000   0.000000   0.000000   0.000000   0.000000   0.000000
     5  C    0.000000   0.000000   0.000000   0.000000   0.000000   0.000000
     6  C    0.000000   0.000000   0.000000   0.000000   0.000000   0.000000
     7  H    0.878548   0.000000   0.000000   0.000000   0.000000   0.000000
     8  H    0.000000   0.860079   0.000000   0.000000   0.000000   0.000000
     9  H    0.000000   0.000000   0.877788   0.000000   0.000000   0.000000
    10  H    0.000000   0.000000   0.000000   0.863493   0.000000   0.000000
    11  H    0.000000   0.000000   0.000000   0.000000   0.872226   0.000000
    12  H    0.000000   0.000000   0.000000   0.000000   0.000000   0.865326
 Mulliken charges:
               1
     1  C   -0.135370
     2  C   -0.138375
     3  C   -0.131413
     4  C   -0.123384
     5  C   -0.127865
     6  C   -0.126132
     7  H    0.121452
     8  H    0.139921
     9  H    0.122212
    10  H    0.136507
    11  H    0.127774
    12  H    0.134674
 Sum of Mulliken charges =  -0.00000
 Mulliken charges with hydrogens summed into heavy atoms:
               1
     1  C   -0.013918
     2  C    0.001546
     3  C   -0.009202
     4  C    0.013124
     5  C   -0.000092
     6  C    0.008541
 Charge=             -0.0000 electrons
 Dipole moment (field-independent basis, Debye):
    X=              0.0532    Y=             -0.0595    Z=              0.3703  Tot=              0.3788
 N-N= 1.198150629361D+02 E-N=-1.709186736389D+02  KE=-4.784841037328D+01
 Calling FoFJK, ICntrl=      2127 FMM=F ISym2X=0 I1Cent= 0 IOpClX= 0 NMat=1 NMatS=1 NMatT=0.
 -------------------------------------------------------------------
 Center     Atomic                   Forces (Hartrees/Bohr)
 Number     Number              X              Y              Z
 -------------------------------------------------------------------
      1        6          -0.005542207   -0.042776374    0.003786535
      2        6           0.005398143    0.017363208    0.012008962
      3        6           0.095552550   -0.027733687   -0.015529991
      4        6          -0.044755973    0.021909622    0.018553821
      5        6          -0.026852218   -0.012019417    0.010518210
      6        6           0.064234984    0.009788463   -0.015846025
      7        1          -0.009752530    0.012870572   -0.001784014
      8        1          -0.007079295   -0.001944304   -0.004299799
      9        1          -0.046123828    0.008566975    0.002030972
     10        1           0.015742942    0.005581825   -0.009116213
     11        1           0.005570546    0.000439537   -0.002941193
     12        1          -0.046393114    0.007953580    0.002618732
 -------------------------------------------------------------------
 Cartesian Forces:  Max     0.095552550 RMS     0.026839319

 GradGradGradGradGradGradGradGradGradGradGradGradGradGradGradGradGradGrad
 Berny optimization.
 Search for a local minimum.
 Step number   1 out of a maximum of    2
 All quantities printed in internal units (Hartrees-Bohrs-Radians)
 Second derivative matrix not updated -- first step.
 ITU=  0
     Eigenvalues ---    0.01517   0.01720   0.03234   0.04323   0.06046
     Eigenvalues ---    0.06594   0.06810   0.07004   0.07272   0.09447
     Eigenvalues ---    0.09539   0.11330   0.12054   0.15500   0.18322
     Eigenvalues ---    0.27713   0.28962   0.31124   0.38448   0.41861
     Eigenvalues ---    0.45007   0.65186   0.66400   0.94098   1.08887
     Eigenvalues ---    1.19619   1.22145   1.47834   1.57588   1.65954
 Quadratic step=5.627D-01 exceeds max=3.000D-01 adjusted using Lamda=-4.937D-02.
 Angle between NR and scaled steps=  26.31 degrees.
 Angle between quadratic step and forces=  46.68 degrees.
 Linear search not attempted -- first point.
 B after Tr=     0.008849   -0.006541    0.010358
         Rot=    0.999999   -0.000798    0.000124   -0.001270 Ang=  -0.17 deg.
 Variable       Old X    -DE/DX   Delta X   Delta X   Delta X     New X
                                 (Linear)    (Quad)   (Total)
    X1       -1.28761  -0.00554   0.00000   0.00495   0.01961  -1.26800
    Y1       -2.22493  -0.04278   0.00000  -0.06136  -0.07115  -2.29608
    Z1       -0.02383   0.00379   0.00000   0.02407   0.03046   0.00663
    X2        1.32192   0.00540   0.00000   0.03279   0.04750   1.36942
    Y2       -2.31634   0.01736   0.00000   0.01028   0.00724  -2.30910
    Z2       -0.07757   0.01201   0.00000   0.04686   0.05388  -0.02369
    X3        2.54284   0.09555   0.00000   0.10526   0.11406   2.65690
    Y3        0.00763  -0.02773   0.00000   0.00147   0.00155   0.00918
    Z3        0.10865  -0.01553   0.00000  -0.04392  -0.03288   0.07577
    X4        1.36753  -0.04476   0.00000  -0.03608  -0.03305   1.33448
    Y4        2.27588   0.02191   0.00000   0.01178   0.00861   2.28449
    Z4       -0.06977   0.01855   0.00000   0.07171   0.08605   0.01628
    X5       -1.29169  -0.02685   0.00000  -0.03495  -0.03185  -1.32353
    Y5        2.28932  -0.01202   0.00000  -0.01940  -0.02923   2.26009
    Z5       -0.12344   0.01052   0.00000   0.06189   0.07554  -0.04791
    X6       -2.67158   0.06423   0.00000   0.03466   0.04353  -2.62805
    Y6        0.01301   0.00979   0.00000  -0.02182  -0.03513  -0.02212
    Z6        0.08328  -0.01585   0.00000  -0.03664  -0.02696   0.05632
    X7       -2.12718  -0.00975   0.00000  -0.10373  -0.08435  -2.21154
    Y7       -4.16147   0.01287   0.00000   0.01626   0.00397  -4.15749
    Z7        0.07082  -0.00178   0.00000  -0.01204  -0.00885   0.06197
    X8        2.48240  -0.00708   0.00000  -0.02910  -0.00994   2.47246
    Y8       -4.03825  -0.00194   0.00000  -0.02470  -0.02501  -4.06327
    Z8        0.03450  -0.00430   0.00000  -0.02029  -0.01580   0.01870
    X9        4.79004  -0.04612   0.00000  -0.06273  -0.05376   4.73628
    Y9       -0.13263   0.00857   0.00000   0.06926   0.07453  -0.05810
    Z9        0.17271   0.00203   0.00000  -0.04642  -0.03498   0.13772
   X10        2.17696   0.01574   0.00000   0.06788   0.06613   2.24309
   Y10        4.11386   0.00558   0.00000   0.02669   0.02537   4.13923
   Z10        0.36698  -0.00912   0.00000  -0.08237  -0.06484   0.30214
   X11       -2.39482   0.00557   0.00000  -0.00197  -0.00339  -2.39821
   Y11        4.05810   0.00044   0.00000  -0.00467  -0.01717   4.04093
   Z11       -0.07938  -0.00294   0.00000  -0.01256   0.00366  -0.07572
   X12       -4.60787  -0.04639   0.00000  -0.08362  -0.07449  -4.68236
   Y12       -0.20279   0.00795   0.00000   0.07525   0.05641  -0.14639
   Z12        0.31698   0.00262   0.00000  -0.07425  -0.06527   0.25171
         Item               Value     Threshold  Converged?
 Maximum Force            0.095553     0.000450     NO 
 RMS     Force            0.026839     0.000300     NO 
 Maximum Displacement     0.114062     0.001800     NO 
 RMS     Displacement     0.048895     0.001200     NO 
 Predicted change in Energy=-1.881520D-02
 GradGradGradGradGradGradGradGradGradGradGradGradGradGradGradGradGradGrad

 Unable to Open any file for archive entry.
 1\1\GINC-BHC0189\Force\RAM1\ZDO\C6H6\BWEIGHT\21-Mar-2025\0\\# AM1/STO-
 5G SCF=XQC FORCE nosym guess=read\\MD Step 24\\0,1\C,-0.68137227,-1.17
 738207,-0.01261051\C,0.69952804,-1.22575579,-0.04104682\C,1.34561441,0
 .00403615,0.0574927\C,0.72366336,1.20434364,-0.03691841\C,-0.68353116,
 1.21145379,-0.06532396\C,-1.41373768,0.0068842,0.04406967\H,-1.1256565
 2,-2.20215319,0.03747858\H,1.31363034,-2.13695241,0.01825486\H,2.53478
 157,-0.07018375,0.09139163\H,1.15199553,2.17695838,0.19419846\H,-1.267
 28436,2.14745244,-0.04200526\H,-2.43837872,-0.10731335,0.16773726\\Ver
 sion=ES64L-G16RevC.01\HF=0.0583391\RMSD=7.021e-09\RMSF=2.684e-02\Dipol
 e=0.0209491,-0.0234266,0.1456906\PG=C01 [X(C6H6)]\\@
 The archive entry for this job was punched.


 I SUPPOSE A BABY LLAMA HAS A MMAMA AND A PPOPA.
     -- RICHARD AMOUR
 Job cpu time:       0 days  0 hours  0 minutes  1.2 seconds.
 Elapsed time:       0 days  0 hours  0 minutes  0.9 seconds.
 File lengths (MBytes):  RWF=      6 Int=      0 D2E=      0 Chk=      2 Scr=      1
 Normal termination of Gaussian 16 at Fri Mar 21 15:03:16 2025.
