 Entering Gaussian System, Link 0=g16
 Initial command:
 /software/gaussian/g16-c01/avx2/g16/l1.exe "/local_scratch/28554187/Gau-28267.inp" -scrdir="/local_scratch/28554187/"
 Entering Link 1 = /software/gaussian/g16-c01/avx2/g16/l1.exe PID=     28289.
  
 Copyright (c) 1988-2019, Gaussian, Inc.  All Rights Reserved.
  
 This is part of the Gaussian(R) 16 program.  It is based on
 the Gaussian(R) 09 system (copyright 2009, Gaussian, Inc.),
 the Gaussian(R) 03 system (copyright 2003, Gaussian, Inc.),
 the Gaussian(R) 98 system (copyright 1998, Gaussian, Inc.),
 the Gaussian(R) 94 system (copyright 1995, Gaussian, Inc.),
 the Gaussian 92(TM) system (copyright 1992, Gaussian, Inc.),
 the Gaussian 90(TM) system (copyright 1990, Gaussian, Inc.),
 the Gaussian 88(TM) system (copyright 1988, Gaussian, Inc.),
 the Gaussian 86(TM) system (copyright 1986, Carnegie Mellon
 University), and the Gaussian 82(TM) system (copyright 1983,
 Carnegie Mellon University). Gaussian is a federally registered
 trademark of Gaussian, Inc.
  
 This software contains proprietary and confidential information,
 including trade secrets, belonging to Gaussian, Inc.
  
 This software is provided under written license and may be
 used, copied, transmitted, or stored only in accord with that
 written license.
  
 The following legend is applicable only to US Government
 contracts under FAR:
  
                    RESTRICTED RIGHTS LEGEND
  
 Use, reproduction and disclosure by the US Government is
 subject to restrictions as set forth in subparagraphs (a)
 and (c) of the Commercial Computer Software - Restricted
 Rights clause in FAR 52.227-19.
  
 Gaussian, Inc.
 340 Quinnipiac St., Bldg. 40, Wallingford CT 06492
  
  
 ---------------------------------------------------------------
 Warning -- This program may not be used in any manner that
 competes with the business of Gaussian, Inc. or will provide
 assistance to any competitor of Gaussian, Inc.  The licensee
 of this program is prohibited from giving any competitor of
 Gaussian, Inc. access to this program.  By using this program,
 the user acknowledges that Gaussian, Inc. is engaged in the
 business of creating and licensing software in the field of
 computational chemistry and represents and warrants to the
 licensee that it is not a competitor of Gaussian, Inc. and that
 it will not use this program in any manner prohibited above.
 ---------------------------------------------------------------
  

 Cite this work as:
 Gaussian 16, Revision C.01,
 M. J. Frisch, G. W. Trucks, H. B. Schlegel, G. E. Scuseria, 
 M. A. Robb, J. R. Cheeseman, G. Scalmani, V. Barone, 
 G. A. Petersson, H. Nakatsuji, X. Li, M. Caricato, A. V. Marenich, 
 J. Bloino, B. G. Janesko, R. Gomperts, B. Mennucci, H. P. Hratchian, 
 J. V. Ortiz, A. F. Izmaylov, J. L. Sonnenberg, D. Williams-Young, 
 F. Ding, F. Lipparini, F. Egidi, J. Goings, B. Peng, A. Petrone, 
 T. Henderson, D. Ranasinghe, V. G. Zakrzewski, J. Gao, N. Rega, 
 G. Zheng, W. Liang, M. Hada, M. Ehara, K. Toyota, R. Fukuda, 
 J. Hasegawa, M. Ishida, T. Nakajima, Y. Honda, O. Kitao, H. Nakai, 
 T. Vreven, K. Throssell, J. A. Montgomery, Jr., J. E. Peralta, 
 F. Ogliaro, M. J. Bearpark, J. J. Heyd, E. N. Brothers, K. N. Kudin, 
 V. N. Staroverov, T. A. Keith, R. Kobayashi, J. Normand, 
 K. Raghavachari, A. P. Rendell, J. C. Burant, S. S. Iyengar, 
 J. Tomasi, M. Cossi, J. M. Millam, M. Klene, C. Adamo, R. Cammi, 
 J. W. Ochterski, R. L. Martin, K. Morokuma, O. Farkas, 
 J. B. Foresman, and D. J. Fox, Gaussian, Inc., Wallingford CT, 2019.
 
 ******************************************
 Gaussian 16:  ES64L-G16RevC.01  3-Jul-2019
                21-Mar-2025 
 ******************************************
 %oldchk=../GS_OLD/geometry.chk
 %chk=geometry.chk
 %nprocshared=1
 Will use up to    1 processors via shared memory.
 %mem=2GB
 Copying data from "../GS_OLD/geometry.chk" to current chk file "geometry.chk"
 IOpt=  2 FromEx=T IUOpen= 4 IOptOp= 5 NList=   0 IFRang= 0 IUIn= 4 IUOut= 2.
 -------------------------------------------
 # AM1/STO-5G SCF=XQC FORCE nosym guess=read
 -------------------------------------------
 1/10=7,30=1,38=1/1,3;
 2/12=2,15=1,17=6,18=5,40=1/2;
 3/5=2,6=5,25=1,41=700000,71=1,116=-2/1,2,3;
 4/5=1,35=1/1;
 5/5=2,8=3,13=1,35=1,38=6/2,8;
 6/7=2,8=2,9=2,10=2,28=1/1;
 7/29=1,30=1/1,2,3,16;
 1/10=7,30=1/3;
 99//99;
 ----------
 MD Step 22
 ----------
 Symbolic Z-matrix:
 Charge =  0 Multiplicity = 1
 C                    -0.71475  -1.26514   0.00582 
 C                     0.65309  -1.17587   0.0324 
 C                     1.40055   0.01066  -0.01215 
 C                     0.70517   1.21791  -0.02286 
 C                    -0.68211   1.22697   0.09428 
 C                    -1.35991  -0.00925  -0.05793 
 H                    -1.20537  -2.19282   0.01014 
 H                     1.22471  -2.18128   0.18416 
 H                     2.49738  -0.0911   -0.10201 
 H                     1.17437   2.24781  -0.12744 
 H                    -1.24556   2.16726  -0.05479 
 H                    -2.40078   0.08482  -0.09633 
 

 GradGradGradGradGradGradGradGradGradGradGradGradGradGradGradGradGradGrad
 Berny optimization.
 Initialization pass.
 Trust Radius=3.00D-01 FncErr=1.00D-07 GrdErr=1.00D-07 EigMax=2.50D+02 EigMin=1.00D-04
 Number of steps in this run=      2 maximum allowed number of steps=      2.
 GradGradGradGradGradGradGradGradGradGradGradGradGradGradGradGradGradGrad

                          Input orientation:                          
 ---------------------------------------------------------------------
 Center     Atomic      Atomic             Coordinates (Angstroms)
 Number     Number       Type             X           Y           Z
 ---------------------------------------------------------------------
      1          6           0       -0.714753   -1.265136    0.005823
      2          6           0        0.653089   -1.175866    0.032402
      3          6           0        1.400551    0.010657   -0.012153
      4          6           0        0.705166    1.217910   -0.022865
      5          6           0       -0.682114    1.226973    0.094282
      6          6           0       -1.359913   -0.009254   -0.057926
      7          1           0       -1.205369   -2.192818    0.010143
      8          1           0        1.224707   -2.181284    0.184163
      9          1           0        2.497383   -0.091098   -0.102013
     10          1           0        1.174370    2.247812   -0.127440
     11          1           0       -1.245564    2.167261   -0.054795
     12          1           0       -2.400775    0.084819   -0.096335
 ---------------------------------------------------------------------
                    Distance matrix (angstroms):
                    1          2          3          4          5
     1  C    0.000000
     2  C    1.371010   0.000000
     3  C    2.470320   1.403040   0.000000
     4  C    2.860508   2.394980   1.393246   0.000000
     5  C    2.493892   2.749588   2.414176   1.392247   0.000000
     6  C    1.413342   2.328373   2.760915   2.402438   1.418040
     7  H    1.049436   2.118621   3.412714   3.909513   3.460614
     8  H    2.152356   1.166466   2.207729   3.444895   3.906439
     9  H    3.421668   2.143877   1.105201   2.220767   3.447469
    10  H    3.990908   3.466822   2.251513   1.136568   2.130213
    11  H    3.473727   3.845645   3.413895   2.169708   1.106273
    12  H    2.162287   3.306356   3.802981   3.306987   2.072353
                    6          7          8          9         10
     6  C    0.000000
     7  H    2.190084   0.000000
     8  H    3.384757   2.436326   0.000000
     9  H    3.858416   4.259128   2.463834   0.000000
    10  H    3.394373   5.039968   4.440329   2.687286   0.000000
    11  H    2.179519   4.360748   5.006913   4.371734   2.422363
    12  H    1.045810   2.574483   4.284626   4.901319   4.178656
                   11         12
    11  H    0.000000
    12  H    2.381765   0.000000
 Symmetry turned off by external request.
 Stoichiometry    C6H6
 Framework group  C1[X(C6H6)]
 Deg. of freedom    30
 Full point group                 C1      NOp   1
 Rotational constants (GHZ):           5.8608330           5.4960639           2.8439311
 Standard basis: VSTO-5G (5D, 7F)
    30 basis functions,   180 primitive gaussians,    30 cartesian basis functions
    15 alpha electrons       15 beta electrons
       nuclear repulsion energy       119.5570788735 Hartrees.
 Integral buffers will be    131072 words long.
 Regular integral format.
 Two-electron integral symmetry is turned off.
 Do NDO integrals.
 One-electron integrals computed using PRISM.
 NBasis=    30 RedAO= F EigKep=  0.00D+00  NBF=    30
 NBsUse=    30 1.00D-04 EigRej=  0.00D+00 NBFU=    30
 Initial guess from the checkpoint file:  "geometry.chk"
 B after Tr=    -0.000682    0.001315    0.000423
         Rot=    1.000000    0.000064   -0.000240   -0.000108 Ang=   0.03 deg.
 Keep J ints in memory in canonical form, NReq=861816.
 Overlap will be assumed to be unity.
 Requested convergence on RMS density matrix=1.00D-08 within  32 cycles.
 Requested convergence on MAX density matrix=1.00D-06.
 Requested convergence on             energy=1.00D-06.
 No special actions if energy rises.
 SCF Done:  E(RAM1) =  0.562222778713E-01 A.U. after   12 cycles
            NFock= 11  Conv=0.68D-08     -V/T= 1.0012
 QCSCF skips out because SCF is already converged.

 **********************************************************************

            Population analysis using the SCF Density.

 **********************************************************************

 Alpha  occ. eigenvalues --   -1.43737  -1.16190  -1.14171  -0.85705  -0.83462
 Alpha  occ. eigenvalues --   -0.65654  -0.59183  -0.56484  -0.52789  -0.51303
 Alpha  occ. eigenvalues --   -0.48908  -0.43689  -0.43216  -0.35783  -0.34957
 Alpha virt. eigenvalues --    0.01683   0.02072   0.10653   0.13938   0.14453
 Alpha virt. eigenvalues --    0.15007   0.15415   0.16882   0.17121   0.18489
 Alpha virt. eigenvalues --    0.19160   0.20212   0.20927   0.21076   0.22446
          Condensed to atoms (all electrons):
               1          2          3          4          5          6
     1  C    4.121263   0.000000   0.000000   0.000000   0.000000   0.000000
     2  C    0.000000   4.138644   0.000000   0.000000   0.000000   0.000000
     3  C    0.000000   0.000000   4.125230   0.000000   0.000000   0.000000
     4  C    0.000000   0.000000   0.000000   4.122970   0.000000   0.000000
     5  C    0.000000   0.000000   0.000000   0.000000   4.144769   0.000000
     6  C    0.000000   0.000000   0.000000   0.000000   0.000000   4.126784
     7  H    0.000000   0.000000   0.000000   0.000000   0.000000   0.000000
     8  H    0.000000   0.000000   0.000000   0.000000   0.000000   0.000000
     9  H    0.000000   0.000000   0.000000   0.000000   0.000000   0.000000
    10  H    0.000000   0.000000   0.000000   0.000000   0.000000   0.000000
    11  H    0.000000   0.000000   0.000000   0.000000   0.000000   0.000000
    12  H    0.000000   0.000000   0.000000   0.000000   0.000000   0.000000
               7          8          9         10         11         12
     1  C    0.000000   0.000000   0.000000   0.000000   0.000000   0.000000
     2  C    0.000000   0.000000   0.000000   0.000000   0.000000   0.000000
     3  C    0.000000   0.000000   0.000000   0.000000   0.000000   0.000000
     4  C    0.000000   0.000000   0.000000   0.000000   0.000000   0.000000
     5  C    0.000000   0.000000   0.000000   0.000000   0.000000   0.000000
     6  C    0.000000   0.000000   0.000000   0.000000   0.000000   0.000000
     7  H    0.859079   0.000000   0.000000   0.000000   0.000000   0.000000
     8  H    0.000000   0.880659   0.000000   0.000000   0.000000   0.000000
     9  H    0.000000   0.000000   0.862204   0.000000   0.000000   0.000000
    10  H    0.000000   0.000000   0.000000   0.869345   0.000000   0.000000
    11  H    0.000000   0.000000   0.000000   0.000000   0.865117   0.000000
    12  H    0.000000   0.000000   0.000000   0.000000   0.000000   0.883936
 Mulliken charges:
               1
     1  C   -0.121263
     2  C   -0.138644
     3  C   -0.125230
     4  C   -0.122970
     5  C   -0.144769
     6  C   -0.126784
     7  H    0.140921
     8  H    0.119341
     9  H    0.137796
    10  H    0.130655
    11  H    0.134883
    12  H    0.116064
 Sum of Mulliken charges =  -0.00000
 Mulliken charges with hydrogens summed into heavy atoms:
               1
     1  C    0.019658
     2  C   -0.019303
     3  C    0.012566
     4  C    0.007685
     5  C   -0.009885
     6  C   -0.010720
 Charge=             -0.0000 electrons
 Dipole moment (field-independent basis, Debye):
    X=              0.0740    Y=              0.0118    Z=             -0.1849  Tot=              0.1995
 N-N= 1.195570788735D+02 E-N=-1.704667393591D+02  KE=-4.783034109596D+01
 Calling FoFJK, ICntrl=      2127 FMM=F ISym2X=0 I1Cent= 0 IOpClX= 0 NMat=1 NMatS=1 NMatT=0.
 -------------------------------------------------------------------
 Center     Atomic                   Forces (Hartrees/Bohr)
 Number     Number              X              Y              Z
 -------------------------------------------------------------------
      1        6           0.001818365    0.068482470   -0.005713476
      2        6           0.055344125   -0.046510467    0.014825446
      3        6          -0.009845177   -0.005318999   -0.005451454
      4        6           0.015308954    0.026027260    0.006303167
      5        6          -0.008580692   -0.030956646   -0.038498316
      6        6           0.025323417    0.010664481    0.024601835
      7        1          -0.020646891   -0.027918130   -0.000736173
      8        1          -0.013039619    0.031249223   -0.009003207
      9        1          -0.004696543    0.007379492    0.002653186
     10        1           0.000732771   -0.024536633    0.004336975
     11        1           0.001671347   -0.003593971    0.010597950
     12        1          -0.043390058   -0.004968082   -0.003915932
 -------------------------------------------------------------------
 Cartesian Forces:  Max     0.068482470 RMS     0.023770959
