 Entering Gaussian System, Link 0=g16
 Initial command:
 /software/gaussian/g16-c01/avx2/g16/l1.exe "/local_scratch/28554377/Gau-14042.inp" -scrdir="/local_scratch/28554377/"
 Entering Link 1 = /software/gaussian/g16-c01/avx2/g16/l1.exe PID=     14050.
  
 Copyright (c) 1988-2019, Gaussian, Inc.  All Rights Reserved.
  
 This is part of the Gaussian(R) 16 program.  It is based on
 the Gaussian(R) 09 system (copyright 2009, Gaussian, Inc.),
 the Gaussian(R) 03 system (copyright 2003, Gaussian, Inc.),
 the Gaussian(R) 98 system (copyright 1998, Gaussian, Inc.),
 the Gaussian(R) 94 system (copyright 1995, Gaussian, Inc.),
 the Gaussian 92(TM) system (copyright 1992, Gaussian, Inc.),
 the Gaussian 90(TM) system (copyright 1990, Gaussian, Inc.),
 the Gaussian 88(TM) system (copyright 1988, Gaussian, Inc.),
 the Gaussian 86(TM) system (copyright 1986, Carnegie Mellon
 University), and the Gaussian 82(TM) system (copyright 1983,
 Carnegie Mellon University). Gaussian is a federally registered
 trademark of Gaussian, Inc.
  
 This software contains proprietary and confidential information,
 including trade secrets, belonging to Gaussian, Inc.
  
 This software is provided under written license and may be
 used, copied, transmitted, or stored only in accord with that
 written license.
  
 The following legend is applicable only to US Government
 contracts under FAR:
  
                    RESTRICTED RIGHTS LEGEND
  
 Use, reproduction and disclosure by the US Government is
 subject to restrictions as set forth in subparagraphs (a)
 and (c) of the Commercial Computer Software - Restricted
 Rights clause in FAR 52.227-19.
  
 Gaussian, Inc.
 340 Quinnipiac St., Bldg. 40, Wallingford CT 06492
  
  
 ---------------------------------------------------------------
 Warning -- This program may not be used in any manner that
 competes with the business of Gaussian, Inc. or will provide
 assistance to any competitor of Gaussian, Inc.  The licensee
 of this program is prohibited from giving any competitor of
 Gaussian, Inc. access to this program.  By using this program,
 the user acknowledges that Gaussian, Inc. is engaged in the
 business of creating and licensing software in the field of
 computational chemistry and represents and warrants to the
 licensee that it is not a competitor of Gaussian, Inc. and that
 it will not use this program in any manner prohibited above.
 ---------------------------------------------------------------
  

 Cite this work as:
 Gaussian 16, Revision C.01,
 M. J. Frisch, G. W. Trucks, H. B. Schlegel, G. E. Scuseria, 
 M. A. Robb, J. R. Cheeseman, G. Scalmani, V. Barone, 
 G. A. Petersson, H. Nakatsuji, X. Li, M. Caricato, A. V. Marenich, 
 J. Bloino, B. G. Janesko, R. Gomperts, B. Mennucci, H. P. Hratchian, 
 J. V. Ortiz, A. F. Izmaylov, J. L. Sonnenberg, D. Williams-Young, 
 F. Ding, F. Lipparini, F. Egidi, J. Goings, B. Peng, A. Petrone, 
 T. Henderson, D. Ranasinghe, V. G. Zakrzewski, J. Gao, N. Rega, 
 G. Zheng, W. Liang, M. Hada, M. Ehara, K. Toyota, R. Fukuda, 
 J. Hasegawa, M. Ishida, T. Nakajima, Y. Honda, O. Kitao, H. Nakai, 
 T. Vreven, K. Throssell, J. A. Montgomery, Jr., J. E. Peralta, 
 F. Ogliaro, M. J. Bearpark, J. J. Heyd, E. N. Brothers, K. N. Kudin, 
 V. N. Staroverov, T. A. Keith, R. Kobayashi, J. Normand, 
 K. Raghavachari, A. P. Rendell, J. C. Burant, S. S. Iyengar, 
 J. Tomasi, M. Cossi, J. M. Millam, M. Klene, C. Adamo, R. Cammi, 
 J. W. Ochterski, R. L. Martin, K. Morokuma, O. Farkas, 
 J. B. Foresman, and D. J. Fox, Gaussian, Inc., Wallingford CT, 2019.
 
 ******************************************
 Gaussian 16:  ES64L-G16RevC.01  3-Jul-2019
                21-Mar-2025 
 ******************************************
 %oldchk=../GS_OLD/geometry.chk
 %chk=geometry.chk
 %nprocshared=1
 Will use up to    1 processors via shared memory.
 %mem=2GB
 Copying data from "../GS_OLD/geometry.chk" to current chk file "geometry.chk"
 IOpt=  2 FromEx=T IUOpen= 4 IOptOp= 5 NList=   0 IFRang= 0 IUIn= 4 IUOut= 2.
 -------------------------------------------
 # AM1/STO-5G SCF=XQC FORCE nosym guess=read
 -------------------------------------------
 1/10=7,30=1,38=1/1,3;
 2/12=2,15=1,17=6,18=5,40=1/2;
 3/5=2,6=5,25=1,41=700000,71=1,116=-2/1,2,3;
 4/5=1,35=1/1;
 5/5=2,8=3,13=1,35=1,38=6/2,8;
 6/7=2,8=2,9=2,10=2,28=1/1;
 7/29=1,30=1/1,2,3,16;
 1/10=7,30=1/3;
 99//99;
 ----------
 MD Step 19
 ----------
 Symbolic Z-matrix:
 Charge =  0 Multiplicity = 1
 C                    -0.72339  -1.2145   -0.01484 
 C                     0.68126  -1.21444   0.01001 
 C                     1.42646   0.00058   0.00629 
 C                     0.67178   1.20124   0.0056 
 C                    -0.7153    1.24249  -0.02488 
 C                    -1.35513   0.00144  -0.00823 
 H                    -1.27045  -2.17446   0.00253 
 H                     1.23463  -2.18841   0.04453 
 H                     2.50895   0.0357   -0.00504 
 H                     1.25471   2.20933  -0.07362 
 H                    -1.28927   2.18107  -0.01449 
 H                    -2.47277  -0.06605   0.04818 
 

 GradGradGradGradGradGradGradGradGradGradGradGradGradGradGradGradGradGrad
 Berny optimization.
 Initialization pass.
 Trust Radius=3.00D-01 FncErr=1.00D-07 GrdErr=1.00D-07 EigMax=2.50D+02 EigMin=1.00D-04
 Number of steps in this run=      2 maximum allowed number of steps=      2.
 GradGradGradGradGradGradGradGradGradGradGradGradGradGradGradGradGradGrad

                          Input orientation:                          
 ---------------------------------------------------------------------
 Center     Atomic      Atomic             Coordinates (Angstroms)
 Number     Number       Type             X           Y           Z
 ---------------------------------------------------------------------
      1          6           0       -0.723393   -1.214497   -0.014845
      2          6           0        0.681259   -1.214439    0.010006
      3          6           0        1.426456    0.000579    0.006292
      4          6           0        0.671776    1.201244    0.005605
      5          6           0       -0.715305    1.242493   -0.024879
      6          6           0       -1.355131    0.001439   -0.008229
      7          1           0       -1.270449   -2.174464    0.002531
      8          1           0        1.234628   -2.188414    0.044530
      9          1           0        2.508950    0.035698   -0.005038
     10          1           0        1.254711    2.209335   -0.073617
     11          1           0       -1.289268    2.181072   -0.014493
     12          1           0       -2.472766   -0.066052    0.048179
 ---------------------------------------------------------------------
                    Distance matrix (angstroms):
                    1          2          3          4          5
     1  C    0.000000
     2  C    1.404872   0.000000
     3  C    2.469556   1.425342   0.000000
     4  C    2.789753   2.415705   1.418146   0.000000
     5  C    2.457024   2.826327   2.475977   1.388029   0.000000
     6  C    1.370269   2.371830   2.781625   2.355435   1.396377
     7  H    1.105038   2.175057   3.464697   3.894567   3.461869
     8  H    2.187667   1.120731   2.197715   3.436292   3.946921
     9  H    3.465707   2.214390   1.083123   2.175734   3.442756
    10  H    3.954614   3.472472   2.216864   1.167191   2.195021
    11  H    3.442398   3.925948   3.482835   2.192296   1.100214
    12  H    2.093610   3.356803   3.900016   3.390575   2.192327
                    6          7          8          9         10
     6  C    0.000000
     7  H    2.177577   0.000000
     8  H    3.391916   2.505468   0.000000
     9  H    3.864234   4.378211   2.563792   0.000000
    10  H    3.419115   5.059637   4.399382   2.510481   0.000000
    11  H    2.180636   4.355610   5.046379   4.362245   2.544823
    12  H    1.121091   2.427560   4.271909   4.983039   4.368787
                   11         12
    11  H    0.000000
    12  H    2.540504   0.000000
 Symmetry turned off by external request.
 Stoichiometry    C6H6
 Framework group  C1[X(C6H6)]
 Deg. of freedom    30
 Full point group                 C1      NOp   1
 Rotational constants (GHZ):           5.6911370           5.5796575           2.8179028
 Standard basis: VSTO-5G (5D, 7F)
    30 basis functions,   180 primitive gaussians,    30 cartesian basis functions
    15 alpha electrons       15 beta electrons
       nuclear repulsion energy       119.2117589540 Hartrees.
 Integral buffers will be    131072 words long.
 Regular integral format.
 Two-electron integral symmetry is turned off.
 Do NDO integrals.
 One-electron integrals computed using PRISM.
 NBasis=    30 RedAO= F EigKep=  0.00D+00  NBF=    30
 NBsUse=    30 1.00D-04 EigRej=  0.00D+00 NBFU=    30
 Initial guess from the checkpoint file:  "geometry.chk"
 B after Tr=     0.000353   -0.002096    0.000867
         Rot=    1.000000   -0.000111    0.000458   -0.000203 Ang=  -0.06 deg.
 Keep J ints in memory in canonical form, NReq=861816.
 Overlap will be assumed to be unity.
 Requested convergence on RMS density matrix=1.00D-08 within  32 cycles.
 Requested convergence on MAX density matrix=1.00D-06.
 Requested convergence on             energy=1.00D-06.
 No special actions if energy rises.
 SCF Done:  E(RAM1) =  0.452822483352E-01 A.U. after   13 cycles
            NFock= 12  Conv=0.22D-08     -V/T= 1.0009
 QCSCF skips out because SCF is already converged.

 **********************************************************************

            Population analysis using the SCF Density.

 **********************************************************************

 Alpha  occ. eigenvalues --   -1.42978  -1.14905  -1.14367  -0.84838  -0.83640
 Alpha  occ. eigenvalues --   -0.65316  -0.58758  -0.56289  -0.52025  -0.51791
 Alpha  occ. eigenvalues --   -0.48882  -0.43557  -0.43038  -0.35493  -0.35059
 Alpha virt. eigenvalues --    0.01861   0.02219   0.10889   0.14060   0.14575
 Alpha virt. eigenvalues --    0.14735   0.15108   0.16532   0.16707   0.18708
 Alpha virt. eigenvalues --    0.18848   0.20342   0.20737   0.21152   0.22472
          Condensed to atoms (all electrons):
               1          2          3          4          5          6
     1  C    4.133920   0.000000   0.000000   0.000000   0.000000   0.000000
     2  C    0.000000   4.131193   0.000000   0.000000   0.000000   0.000000
     3  C    0.000000   0.000000   4.132144   0.000000   0.000000   0.000000
     4  C    0.000000   0.000000   0.000000   4.135151   0.000000   0.000000
     5  C    0.000000   0.000000   0.000000   0.000000   4.124072   0.000000
     6  C    0.000000   0.000000   0.000000   0.000000   0.000000   4.130653
     7  H    0.000000   0.000000   0.000000   0.000000   0.000000   0.000000
     8  H    0.000000   0.000000   0.000000   0.000000   0.000000   0.000000
     9  H    0.000000   0.000000   0.000000   0.000000   0.000000   0.000000
    10  H    0.000000   0.000000   0.000000   0.000000   0.000000   0.000000
    11  H    0.000000   0.000000   0.000000   0.000000   0.000000   0.000000
    12  H    0.000000   0.000000   0.000000   0.000000   0.000000   0.000000
               7          8          9         10         11         12
     1  C    0.000000   0.000000   0.000000   0.000000   0.000000   0.000000
     2  C    0.000000   0.000000   0.000000   0.000000   0.000000   0.000000
     3  C    0.000000   0.000000   0.000000   0.000000   0.000000   0.000000
     4  C    0.000000   0.000000   0.000000   0.000000   0.000000   0.000000
     5  C    0.000000   0.000000   0.000000   0.000000   0.000000   0.000000
     6  C    0.000000   0.000000   0.000000   0.000000   0.000000   0.000000
     7  H    0.861985   0.000000   0.000000   0.000000   0.000000   0.000000
     8  H    0.000000   0.873902   0.000000   0.000000   0.000000   0.000000
     9  H    0.000000   0.000000   0.860246   0.000000   0.000000   0.000000
    10  H    0.000000   0.000000   0.000000   0.876449   0.000000   0.000000
    11  H    0.000000   0.000000   0.000000   0.000000   0.858036   0.000000
    12  H    0.000000   0.000000   0.000000   0.000000   0.000000   0.882249
 Mulliken charges:
               1
     1  C   -0.133920
     2  C   -0.131193
     3  C   -0.132144
     4  C   -0.135151
     5  C   -0.124072
     6  C   -0.130653
     7  H    0.138015
     8  H    0.126098
     9  H    0.139754
    10  H    0.123551
    11  H    0.141964
    12  H    0.117751
 Sum of Mulliken charges =  -0.00000
 Mulliken charges with hydrogens summed into heavy atoms:
               1
     1  C    0.004095
     2  C   -0.005095
     3  C    0.007610
     4  C   -0.011600
     5  C    0.017892
     6  C   -0.012902
 Charge=             -0.0000 electrons
 Dipole moment (field-independent basis, Debye):
    X=              0.0280    Y=              0.0039    Z=              0.0200  Tot=              0.0346
 N-N= 1.192117589540D+02 E-N=-1.699099446189D+02  KE=-4.780427193654D+01
 Calling FoFJK, ICntrl=      2127 FMM=F ISym2X=0 I1Cent= 0 IOpClX= 0 NMat=1 NMatS=1 NMatT=0.
 -------------------------------------------------------------------
 Center     Atomic                   Forces (Hartrees/Bohr)
 Number     Number              X              Y              Z
 -------------------------------------------------------------------
      1        6           0.036232052   -0.010527543    0.004026113
      2        6           0.027651110    0.007415410   -0.000178725
      3        6          -0.058071212   -0.007436793    0.000721594
      4        6           0.042253886    0.029507616   -0.012625320
      5        6           0.008577868   -0.018499841    0.006025843
      6        6          -0.051124822    0.011325607    0.001721829
      7        1           0.000975808    0.005180934   -0.001012157
      8        1          -0.006649879    0.012360524   -0.001486129
      9        1           0.006895289   -0.002784443    0.000939623
     10        1          -0.017904087   -0.032707567    0.006028263
     11        1           0.002870829   -0.002209885   -0.001154426
     12        1           0.008293158    0.008375981   -0.003006509
 -------------------------------------------------------------------
 Cartesian Forces:  Max     0.058071212 RMS     0.019417508

 GradGradGradGradGradGradGradGradGradGradGradGradGradGradGradGradGradGrad
 Berny optimization.
 Search for a local minimum.
 Step number   1 out of a maximum of    2
 All quantities printed in internal units (Hartrees-Bohrs-Radians)
 Second derivative matrix not updated -- first step.
 ITU=  0
     Eigenvalues ---    0.01419   0.01553   0.03067   0.04125   0.06251
     Eigenvalues ---    0.06565   0.06694   0.06796   0.06946   0.09217
     Eigenvalues ---    0.09429   0.10798   0.11025   0.15334   0.17790
     Eigenvalues ---    0.27216   0.28446   0.28876   0.38701   0.39914
     Eigenvalues ---    0.42880   0.61674   0.65351   0.92158   1.05203
     Eigenvalues ---    1.16155   1.17755   1.41133   1.54367   1.60007
 Quadratic step=3.160D-01 exceeds max=3.000D-01 adjusted using Lamda=-4.446D-03.
 Angle between NR and scaled steps=   2.42 degrees.
 Angle between quadratic step and forces=  54.36 degrees.
 Linear search not attempted -- first point.
 B after Tr=    -0.002265   -0.000094    0.001153
         Rot=    0.999999    0.000721   -0.001017   -0.000490 Ang=   0.15 deg.
 Variable       Old X    -DE/DX   Delta X   Delta X   Delta X     New X
                                 (Linear)    (Quad)   (Total)
    X1       -1.36701   0.03623   0.00000   0.05117   0.05116  -1.31586
    Y1       -2.29507  -0.01053   0.00000   0.01760   0.01623  -2.27884
    Z1       -0.02805   0.00403   0.00000   0.03381   0.04092   0.01287
    X2        1.28739   0.02765   0.00000   0.03527   0.03526   1.32265
    Y2       -2.29496   0.00742   0.00000   0.03664   0.03787  -2.25708
    Z2        0.01891  -0.00018   0.00000   0.00065   0.00236   0.02127
    X3        2.69561  -0.05807   0.00000  -0.07316  -0.07543   2.62018
    Y3        0.00109  -0.00744   0.00000  -0.00015   0.00232   0.00341
    Z3        0.01189   0.00072   0.00000  -0.01192  -0.01611  -0.00422
    X4        1.26947   0.04225   0.00000   0.02238   0.01783   1.28731
    Y4        2.27002   0.02951   0.00000  -0.01028  -0.00915   2.26087
    Z4        0.01059  -0.01263   0.00000  -0.03820  -0.04294  -0.03234
    X5       -1.35173   0.00858   0.00000   0.01731   0.01273  -1.33900
    Y5        2.34797  -0.01850   0.00000  -0.04816  -0.04961   2.29837
    Z5       -0.04701   0.00603   0.00000   0.01727   0.01782  -0.02919
    X6       -2.56083  -0.05112   0.00000  -0.08030  -0.08257  -2.64340
    Y6        0.00272   0.01133   0.00000   0.00308   0.00040   0.00312
    Z6       -0.01555   0.00172   0.00000   0.01233   0.01885   0.00330
    X7       -2.40080   0.00098   0.00000   0.08401   0.08579  -2.31501
    Y7       -4.10914   0.00518   0.00000   0.01495   0.01261  -4.09653
    Z7        0.00478  -0.00101   0.00000   0.00718   0.01895   0.02373
    X8        2.33311  -0.00665   0.00000   0.04546   0.04726   2.38037
    Y8       -4.13550   0.01236   0.00000   0.09172   0.09404  -4.04147
    Z8        0.08415  -0.00149   0.00000  -0.03246  -0.03032   0.05383
    X9        4.74123   0.00690   0.00000  -0.05189  -0.05419   4.68704
    Y9        0.06746  -0.00278   0.00000  -0.03808  -0.03358   0.03388
    Z9       -0.00952   0.00094   0.00000   0.01457   0.00614  -0.00338
   X10        2.37106  -0.01790   0.00000  -0.02203  -0.02846   2.34260
   Y10        4.17504  -0.03271   0.00000  -0.13562  -0.13356   4.04148
   Z10       -0.13912   0.00603   0.00000   0.04333   0.03388  -0.10523
   X11       -2.43636   0.00287   0.00000   0.05985   0.05352  -2.38284
   Y11        4.12163  -0.00221   0.00000  -0.03286  -0.03533   4.08630
   Z11       -0.02739  -0.00115   0.00000  -0.00043  -0.00033  -0.02772
   X12       -4.67285   0.00829   0.00000  -0.06074  -0.06291  -4.73576
   Y12       -0.12482   0.00838   0.00000   0.10243   0.09775  -0.02707
   Z12        0.09104  -0.00301   0.00000  -0.06004  -0.04922   0.04182
         Item               Value     Threshold  Converged?
 Maximum Force            0.058071     0.000450     NO 
 RMS     Force            0.019418     0.000300     NO 
 Maximum Displacement     0.133561     0.001800     NO 
 RMS     Displacement     0.049825     0.001200     NO 
 Predicted change in Energy=-1.039426D-02
 GradGradGradGradGradGradGradGradGradGradGradGradGradGradGradGradGradGrad

 Unable to Open any file for archive entry.
 1\1\GINC-BHC0189\Force\RAM1\ZDO\C6H6\BWEIGHT\21-Mar-2025\0\\# AM1/STO-
 5G SCF=XQC FORCE nosym guess=read\\MD Step 19\\0,1\C,-0.72339317,-1.21
 449684,-0.01484488\C,0.68125939,-1.21443851,0.01000561\C,1.42645575,0.
 00057887,0.0062923\C,0.67177644,1.20124401,0.00560494\C,-0.71530475,1.
 24249347,-0.02487877\C,-1.35513072,0.00143934,-0.00822871\H,-1.2704492
 4,-2.17446417,0.00253134\H,1.23462813,-2.18841447,0.04453031\H,2.50895
 042,0.03569793,-0.00503812\H,1.25471083,2.20933471,-0.07361677\H,-1.28
 926807,2.18107178,-0.01449257\H,-2.47276587,-0.06605237,0.0481788\\Ver
 sion=ES64L-G16RevC.01\HF=0.0452822\RMSD=2.161e-09\RMSF=1.942e-02\Dipol
 e=0.0110209,0.0015528,0.0078582\PG=C01 [X(C6H6)]\\@
 The archive entry for this job was punched.


 DEMOCRATS BUY MOST OF THE BOOKS THAT HAVE BEEN
 BANNED; REPUBLICANS FORM CENSORSHIP COMMITTEES AND
 READ THEM AS A GROUP.
 Job cpu time:       0 days  0 hours  0 minutes  1.2 seconds.
 Elapsed time:       0 days  0 hours  0 minutes  0.9 seconds.
 File lengths (MBytes):  RWF=      6 Int=      0 D2E=      0 Chk=      2 Scr=      1
 Normal termination of Gaussian 16 at Fri Mar 21 15:21:59 2025.
