12
MD Step 0.0 Units = [eV / Ang.]
C  -0.89588752 -0.12373461 0.65831928
C  1.69797741 -1.52728014 -1.10374394
C  -0.63768814 -0.54403757 0.34084873
C  -0.77127952 -0.23340426 0.18281926
C  0.66213316 -0.85284586 -0.46169567
C  1.00310991 1.81097468 0.13245508
H  -0.14276611 -0.51566942 -0.58541284
H  0.11645850 0.41319712 0.78154942
H  -0.86751492 0.19212178 -0.27796483
H  0.22746262 0.89751472 0.10415166
H  -0.36865759 0.93187683 -0.13915639
H  -0.02334781 -0.44871326 0.36783023
12
MD Step 0.5 Units = [eV / Ang.]
C  -0.86364303 -0.09396969 0.64200170
C  1.63428787 -1.22919029 -1.10439181
C  -0.94505221 -0.81817987 0.29717472
C  -0.60941572 0.04446291 0.21383455
C  0.45733522 -1.20155053 -0.53222906
C  1.61004314 1.82576768 0.29828390
H  -0.15901230 -0.44211945 -0.60508044
H  0.19238335 0.25072827 0.77935052
H  -0.56832048 0.20773345 -0.25697115
H  0.12992341 0.77007276 0.10712760
H  -0.42506030 1.09319145 -0.11898241
H  -0.45346894 -0.40694672 0.27988189
12
MD Step 1.0 Units = [eV / Ang.]
C  -0.81007913 -0.07948678 0.61928026
C  1.51819755 -0.91110538 -1.08067796
C  -1.28996134 -1.06621177 0.24860710
C  -0.41506707 0.36861703 0.24264840
C  0.19908358 -1.42312728 -0.59308065
C  2.18159246 1.80289138 0.46220540
H  -0.16715137 -0.34604165 -0.62692918
H  0.27991307 0.05935435 0.76049891
H  -0.21408967 0.21770702 -0.23369350
H  0.00269308 0.58486310 0.11131783
H  -0.42254440 1.15201954 -0.10726106
H  -0.86258676 -0.35947956 0.19708445
12
MD Step 1.5 Units = [eV / Ang.]
C  -0.73338087 -0.07744288 0.58795442
C  1.35777038 -0.58839656 -1.03485862
C  -1.64601245 -1.28420051 0.19689377
C  -0.20164213 0.71359672 0.27043730
C  -0.11539283 -1.51239742 -0.64454782
C  2.66512174 1.75074899 0.61468291
H  -0.17016669 -0.23397904 -0.64864793
H  0.37273421 -0.14796873 0.72788049
H  0.16810007 0.22236269 -0.20999442
H  -0.14113783 0.36523988 0.11526692
H  -0.35633660 1.10328853 -0.10309124
H  -1.19965701 -0.31085168 0.12802423
12
MD Step 2.0 Units = [eV / Ang.]
C  -0.63247963 -0.08368233 0.54561452
C  1.16390480 -0.27853446 -0.97098827
C  -1.97934661 -1.47016014 0.14379943
C  0.01648090 1.05338333 0.29820738
C  -0.47878846 -1.47943951 -0.68816318
C  3.01025814 1.67692768 0.74771499
H  -0.17120673 -0.11345654 -0.66756819
H  0.46296285 -0.35525188 0.68609309
H  0.54283517 0.22288329 -0.18770075
H  -0.28754524 0.13539972 0.11770246
H  -0.23149931 0.95689296 -0.10426436
H  -1.41557586 -0.26496213 0.07955288
12
MD Step 2.5 Units = [eV / Ang.]
C  -0.50725379 -0.09325326 0.49000104
C  0.94955329 -0.00024722 -0.89464989
C  -2.25133974 -1.62367019 0.09070772
C  0.22567825 1.36443567 0.32663417
C  -0.87432299 -1.34651839 -0.72606446
C  3.17992181 1.58648454 0.85673440
H  -0.17321237 0.00773638 -0.68102255
H  0.54158992 -0.54449263 0.64111886
H  0.86922703 0.22117161 -0.16817970
H  -0.42354061 -0.08279200 0.11771673
H  -0.06184874 0.73504067 -0.10791539
H  -1.47445206 -0.22389518 0.05491908
12
MD Step 3.0 Units = [eV / Ang.]
C  -0.35859798 -0.10095186 0.41932411
C  0.72848682 0.22805660 -0.81228235
C  -2.42418524 -1.74512465 0.03819976
C  0.41409235 1.62738497 0.35601778
C  -1.27864743 -1.14265738 -0.76029629
C  3.15994719 1.48110228 0.94165489
H  -0.17863889 0.12219094 -0.68666151
H  0.59934044 -0.69750342 0.59958898
H  1.10677962 0.21939465 -0.15189352
H  -0.53839767 -0.27160983 0.11482661
H  0.13321789 0.46704343 -0.11126116
H  -1.36339711 -0.18732573 0.05278271
12
MD Step 3.5 Units = [eV / Ang.]
C  -0.18837973 -0.10181322 0.33249654
C  0.51370544 0.39047739 -0.73014703
C  -2.46845463 -1.83473146 -0.01419395
C  0.57197870 1.82747914 0.38632115
C  -1.66582591 -0.89787397 -0.79230201
C  2.96300442 1.35949594 1.00650328
H  -0.18928869 0.22338858 -0.68268840
H  0.62789421 -0.79838252 0.56769552
H  1.22328449 0.21929028 -0.13813447
H  -0.62411469 -0.41799468 0.10894264
H  0.33268911 0.18354662 -0.11216251
H  -1.09649274 -0.15288210 0.06766923
12
MD Step 4.0 Units = [eV / Ang.]
C  0.00064834 -0.09152897 0.22927045
C  0.31579588 0.47597702 -0.65315629
C  -2.37025531 -1.89159266 -0.06788597
C  0.69164568 1.95422344 0.41724480
C  -2.01106084 -0.63882084 -0.82272181
C  2.62487147 1.21884380 1.05778573
H  -0.20623883 0.30607138 -0.66800407
H  0.62124357 -0.83611874 0.54998161
H  1.20230874 0.22148990 -0.12512726
H  -0.67532434 -0.51322263 0.10029165
H  0.51734351 -0.08801692 -0.10938236
H  -0.71097786 -0.11730477 0.09170352
12
MD Step 4.5 Units = [eV / Ang.]
C  0.20497198 -0.06678463 0.11028219
C  0.14160102 0.48026445 -0.58390612
C  -2.13516695 -1.91325646 -0.12473763
C  0.76729794 2.00073981 0.44830119
C  -2.29329692 -0.38659948 -0.85145708
C  2.19482138 1.05653849 1.10237023
H  -0.22983931 0.36648445 -0.64226539
H  0.57684466 -0.80663064 0.54836050
H  1.04737752 0.22517963 -0.11053325
H  -0.68895884 -0.55223915 0.08933212
H  0.67180221 -0.32590227 -0.10256543
H  -0.25745470 -0.07779420 0.11681866
12
MD Step 5.0 Units = [eV / Ang.]
C  0.42044929 -0.02556387 -0.02297438
C  -0.00642480 0.40661062 -0.52223774
C  -1.78719201 -1.89598050 -0.18635527
C  0.79500569 1.96327775 0.47886859
C  -2.49651242 -0.15651291 -0.87787864
C  1.72436201 0.87152411 1.14577709
H  -0.25974805 0.40253502 -0.60587703
H  0.49621219 -0.71359431 0.56169655
H  0.78104917 0.22829064 -0.09217766
H  -0.66393344 -0.53308303 0.07668211
H  0.78516647 -0.51457810 -0.09205381
H  0.21156590 -0.03292540 0.13653020
12
MD Step 5.5 Units = [eV / Ang.]
C  0.64244906 0.03259088 -0.16823150
C  -0.12999656 0.26529891 -0.46548364
C  -1.36312653 -1.83562112 -0.25347628
C  0.77291230 1.84113636 0.50822359
C  -2.61000206 0.04099443 -0.90105702
C  1.25845211 0.66487744 1.19136486
H  -0.29498279 0.41388877 -0.55992894
H  0.38475592 -0.56777311 0.58610053
H  0.43928381 0.22813922 -0.06869649
H  -0.60101927 -0.45666169 0.06306411
H  0.85066919 -0.64399740 -0.07865761
H  0.65060482 0.01712730 0.14677839
12
MD Step 6.0 Units = [eV / Ang.]
C  0.86599606 0.10633939 -0.32257175
C  -0.23400935 0.07190420 -0.40929200
C  -0.90468068 -1.72880505 -0.32568253
C  0.70166500 1.63709175 0.53556024
C  -2.62809073 0.19904416 -0.91993632
C  0.83113633 0.43974417 1.24035808
H  -0.33397508 0.40202184 -0.50609057
H  0.25091129 -0.38507382 0.61582713
H  0.06346526 0.22221715 -0.03985994
H  -0.50296984 -0.32697866 0.04925871
H  0.86491056 -0.70840955 -0.06345848
H  1.02564118 0.07090440 0.14588743
12
MD Step 6.5 Units = [eV / Ang.]
C  1.08590433 0.19238873 -0.48259366
C  -0.32508678 -0.15507653 -0.34872880
C  -0.45120937 -1.57397047 -0.40148843
C  0.58495947 1.35825155 0.56001655
C  -2.54967985 0.31327533 -0.93344038
C  0.46525111 0.20094453 1.29236100
H  -0.37462911 0.37020397 -0.44646412
H  0.10482919 -0.18392971 0.64446445
H  -0.30701410 0.20880878 -0.00651865
H  -0.37485635 -0.15174904 0.03605153
H  0.82714755 -0.70533422 -0.04767042
H  1.31438391 0.12618708 0.13401093
12
MD Step 7.0 Units = [eV / Ang.]
C  1.29690067 0.28548538 -0.64461620
C  -0.41009399 -0.39654747 -0.27931021
C  -0.03499672 -1.37203199 -0.47867977
C  0.43001864 1.01706078 0.58072393
C  -2.37790156 0.38137543 -0.94052835
C  0.17458585 -0.04547089 1.34598083
H  -0.41439539 0.32337758 -0.38339613
H  -0.04299448 0.01724982 0.66605132
H  -0.63962574 0.18726829 0.02970644
H  -0.22445534 0.05683981 0.02416212
H  0.73891891 -0.63507155 -0.03254763
H  1.50403916 0.18046480 0.11245365
12
MD Step 7.5 Units = [eV / Ang.]
C  1.49372624 0.37863154 -0.80492022
C  -0.49494500 -0.63462656 -0.19772221
C  0.32045736 -1.12659110 -0.55471526
C  0.24773913 0.63200236 0.59688842
C  -2.11998052 0.40331420 -0.94023581
C  -0.03322437 -0.29259342 1.39932970
H  -0.45037600 0.26787586 -0.31925337
H  -0.18284164 0.20203089 0.67587098
H  -0.91055640 0.15797778 0.06680479
H  -0.06243113 0.28163808 0.01414718
H  0.60409686 -0.50088997 -0.01930989
H  1.58833547 0.23123034 0.08311569
12
MD Step 8.0 Units = [eV / Ang.]
C  1.67122133 0.46356825 -0.96000883
C  -0.58385736 -0.85372533 -0.10215513
C  0.59986568 -0.84380459 -0.62705533
C  0.05222295 0.22741198 0.60789795
C  -1.78732770 0.38220792 -0.93173853
C  -0.15426551 -0.53293475 1.45032946
H  -0.47947782 0.21094023 -0.25617996
H  -0.30648845 0.35708613 0.67083843
H  -1.10424914 0.12212054 0.10269117
H  0.09800484 0.50086221 0.00629148
H  0.42930342 -0.30985086 -0.00905269
H  1.56504776 0.27611828 0.04814198
12
MD Step 8.5 Units = [eV / Ang.]
C  1.82441353 0.53155461 -1.10686249
C  -0.67906742 -1.04097972 0.00768382
C  0.79442960 -0.53202352 -0.69336351
C  -0.14050901 -0.16812998 0.61342366
C  -1.39569864 0.32557117 -0.91446528
C  -0.18701532 -0.75870921 1.49685057
H  -0.49862559 0.16002285 -0.19586479
H  -0.40751397 0.47258232 0.64954183
H  -1.21177144 0.08141023 0.13540000
H  0.24220979 0.68974052 0.00051559
H  0.22446593 -0.07400561 -0.00261508
H  1.43468256 0.31296634 0.00975568
12
MD Step 9.0 Units = [eV / Ang.]
C  1.94860391 0.57436052 -1.24314170
C  -0.78085145 -1.18628841 0.13074859
C  0.90001742 -0.20130918 -0.75160158
C  -0.31460876 -0.52501485 0.61347039
C  -0.96515861 0.24646261 -0.88825678
C  -0.13235128 -0.96217134 1.53674821
H  -0.50502622 0.12193571 -0.13936436
H  -0.48132547 0.54208890 0.61207044
H  -1.22906097 0.03786120 0.16317916
H  0.35604023 0.82365657 -0.00365340
H  0.00315757 0.18852819 -0.00040437
H  1.20056365 0.33989009 -0.02979459
12
MD Step 9.5 Units = [eV / Ang.]
C  2.03949528 0.58534289 -1.36729763
C  -0.88771488 -1.28220781 0.26489955
C  0.91588173 0.13712697 -0.80006873
C  -0.45689674 -0.81701644 0.60833349
C  -0.51945919 0.16381596 -0.85354142
C  0.00508662 -1.13608260 1.56787860
H  -0.49646704 0.10195481 -0.08702210
H  -0.52505165 0.56229314 0.55975532
H  -1.15570679 -0.00637759 0.18453552
H  0.42826072 0.88235243 -0.00700917
H  -0.21772854 0.45335290 -0.00220721
H  0.87030049 0.35544534 -0.06825620
12
MD Step 10.0 Units = [eV / Ang.]
C  2.09331470 0.56041445 -1.47856113
C  -0.99656737 -1.32393439 0.40713726
C  0.84428046 0.47152999 -0.83744556
C  -0.55909626 -1.02576378 0.59845966
C  -0.08446757 0.10116557 -0.81145625
C  0.21443211 -1.27431394 1.58816607
H  -0.47160006 0.10305631 -0.03851348
H  -0.53744973 0.53276443 0.49490845
H  -0.99461319 -0.04915225 0.19829201
H  0.45276040 0.85409797 -0.01049024
H  -0.41934919 0.69122842 -0.00705921
H  0.45835571 0.35890721 -0.10343757
12
MD Step 10.5 Units = [eV / Ang.]
C  2.10696593 0.49870575 -1.57680680
C  -1.10283188 -1.30947821 0.55379995
C  0.69103515 0.79027786 -0.86288621
C  -0.61901990 -1.14388963 0.58424827
C  0.31440983 0.08328638 -0.76381904
C  0.47568531 -1.37249010 1.59576855
H  -0.43016687 0.12544232 0.00698735
H  -0.51891468 0.45589539 0.42058699
H  -0.75258583 -0.08844163 0.20370220
H  0.42981565 0.73844077 -0.01494299
H  -0.58339770 0.87162551 -0.01326682
H  -0.01099500 0.35062559 -0.13337143
12
MD Step 11.0 Units = [eV / Ang.]
C  2.07817797 0.40276552 -1.66232675
C  -1.20043844 -1.24001271 0.70074915
C  0.46686639 1.08258840 -0.87618184
C  -0.64029392 -1.17573783 0.56587272
C  0.65542531 0.13111043 -0.71289040
C  0.75758252 -1.42852475 1.58934830
H  -0.37311389 0.16647773 0.05055519
H  -0.47161589 0.33703442 0.34036669
H  -0.44166229 -0.12255052 0.20064375
H  0.36591641 0.54648972 -0.02090564
H  -0.69525243 0.96803638 -0.01864806
H  -0.50159174 0.33232319 -0.15658310
12
MD Step 11.5 Units = [eV / Ang.]
C  2.00564094 0.27826043 -1.73556601
C  -1.28176114 -1.12028567 0.84359272
C  0.18903788 1.33925025 -0.87797708
C  -0.63074554 -1.13549078 0.54319502
C  0.92342676 0.25623143 -0.66093937
C  1.01801448 -1.44276713 1.56837620
H  -0.30256897 0.22105177 0.09323435
H  -0.39971233 0.18470930 0.25808069
H  -0.08071947 -0.15037399 0.18986760
H  0.27223248 0.29861702 -0.02848834
H  -0.74685477 0.96367863 -0.02097843
H  -0.96599034 0.30711874 -0.17239733
12
MD Step 12.0 Units = [eV / Ang.]
C  1.88913100 0.13324268 -1.79688398
C  -1.33763135 -0.95888422 0.97798933
C  -0.11742909 1.55327708 -0.86996925
C  -0.60012026 -1.04350167 0.51580003
C  1.11154161 0.45699958 -0.60974034
C  1.20858599 -1.41755682 1.53332858
H  -0.22168240 0.28227652 0.13579798
H  -0.30952484 0.01073661 0.17748419
H  0.30341544 -0.17169656 0.17322755
H  0.16229866 0.02044262 -0.03737932
H  -0.73825425 0.85559317 -0.01851555
H  -1.35033051 0.27907100 -0.18113923
12
MD Step 12.5 Units = [eV / Ang.]
C  1.72962515 -0.02285917 -1.84638925
C  -1.35759291 -0.76806283 1.10005267
C  -0.42002326 1.72034139 -0.85495744
C  -0.55792584 -0.92217722 0.48311964
C  1.22102268 0.71782089 -0.56017764
C  1.28358538 -1.35616320 1.48561284
H  -0.13435959 0.34237112 0.17859120
H  -0.20948426 -0.17005591 0.10183355
H  0.67638237 -0.18741447 0.15375002
H  0.04969362 -0.26151896 -0.04695225
H  -0.67721365 0.65549870 -0.01041616
H  -1.60370967 0.25221966 -0.18406719
12
MD Step 13.0 Units = [eV / Ang.]
C  1.52938095 -0.18029647 -1.88387349
C  -1.33057848 -0.56291104 1.20681585
C  -0.68140222 1.83882627 -0.83659731
C  -0.51201035 -0.79258506 0.44459326
C  1.25942720 1.01202607 -0.51210834
C  1.21126966 -1.26146595 1.42716489
H  -0.04493345 0.39355586 0.22147580
H  -0.10967494 -0.34074281 0.03342756
H  0.99915098 -0.19951907 0.13539192
H  -0.05368528 -0.52333849 -0.05641889
H  -0.57705836 0.38704094 0.00310541
H  -1.68988572 0.22940976 -0.18297666
12
MD Step 13.5 Units = [eV / Ang.]
C  1.29198175 -0.32990205 -1.90884917
C  -1.24612506 -0.35974408 1.29664183
C  -0.86472746 1.90937785 -0.81877759
C  -0.46806596 -0.67237973 0.39980361
C  1.23798047 1.30717467 -0.46450453
C  0.98321422 -1.13500061 1.35985429
H  0.04217033 0.42881728 0.26386923
H  -0.02085307 -0.48397867 -0.02677664
H  1.23358619 -0.21070614 0.12240125
H  -0.13851604 -0.74568204 -0.06496976
H  -0.45365127 0.08059257 0.02090840
H  -1.59699410 0.21143094 -0.17960091
12
MD Step 14.0 Units = [eV / Ang.]
C  1.02230051 -0.46371797 -1.92066572
C  -1.09602800 -0.17388209 1.36943796
C  -0.94071739 1.93400948 -0.80471062
C  -0.42985583 -0.57502139 0.34855924
C  1.16907203 1.57083848 -0.41577948
C  0.61749157 -0.97687932 1.28496861
H  0.12274106 0.44247675 0.30484826
H  0.04699329 -0.58428177 -0.07932561
H  1.34971660 -0.22362002 0.11837204
H  -0.19821557 -0.91440701 -0.07187231
H  -0.32254538 -0.23244504 0.04125270
H  -1.34095289 0.19692991 -0.17508506
12
MD Step 14.5 Units = [eV / Ang.]
C  0.72637610 -0.57531003 -1.91867319
C  -0.87615420 -0.01724551 1.42654877
C  -0.89425158 1.91503429 -0.79602013
C  -0.39981959 -0.50987983 0.29092269
C  1.06458353 1.77517271 -0.36415421
C  0.15404694 -0.78668677 1.20302494
H  0.19304172 0.43054843 0.34328649
H  0.08628214 -0.63048803 -0.12609362
H  1.33249744 -0.23995991 0.12528529
H  -0.22865368 -1.02021600 -0.07652295
H  -0.19704504 -0.52411423 0.06217262
H  -0.96090377 0.18314490 -0.16977672
12
MD Step 15.0 Units = [eV / Ang.]
C  0.41120564 -0.65985426 -1.90239360
C  -0.58794871 0.10357255 1.47030794
C  -0.72798502 1.85424393 -0.79221027
C  -0.37966969 -0.48271150 0.22719996
C  0.93517753 1.89943999 -0.30794416
C  -0.35554570 -0.56487293 1.11393794
H  0.25002405 0.39092583 0.37799960
H  0.09322907 -0.61770449 -0.16975733
H  1.18548807 -0.25981771 0.14292640
H  -0.22772409 -1.05794623 -0.07846642
H  -0.08737689 -0.77232926 0.08177568
H  -0.50887426 0.16705409 -0.16337573
12
MD Step 15.5 Units = [eV / Ang.]
C  0.08447282 -0.71411335 -1.87167032
C  -0.23916875 0.18820684 1.50336912
C  -0.46146274 1.75266976 -0.79076113
C  -0.37075477 -0.49611252 0.15791129
C  0.79033300 1.93063412 -0.24572894
C  -0.85949172 -0.31399714 1.01738690
H  0.29150636 0.32344409 0.40788139
H  0.06856776 -0.54817463 -0.21305362
H  0.92990755 -0.28155982 0.16893867
H  -0.19499864 -1.02596476 -0.07740222
H  -0.00073638 -0.96140829 0.09841657
H  -0.03817450 0.14637569 -0.15528770
12
MD Step 16.0 Units = [eV / Ang.]
C  -0.24575459 -0.73640517 -1.82676927
C  0.15638330 0.24209328 1.52802577
C  -0.12611929 1.61097563 -0.78781334
C  -0.37405295 -0.54965782 0.08376255
C  0.63872215 1.86285574 -0.17641541
C  -1.31430881 -0.03937545 0.91316092
H  0.31633290 0.22986910 0.43201981
H  0.01735851 -0.43076341 -0.25804924
H  0.59947593 -0.30229701 0.19948412
H  -0.13160306 -0.92596670 -0.07319637
H  0.05819306 -1.08139281 0.11075650
H  0.40537285 0.12006461 -0.14496603
12
MD Step 16.5 Units = [eV / Ang.]
C  -0.57135663 -0.72661891 -1.76842395
C  0.58009040 0.27492842 1.54573227
C  0.24174963 1.43021440 -0.77914214
C  -0.38981659 -0.63963776 0.00563040
C  0.48857798 1.69617949 -0.09924989
C  -1.68873431 0.25098113 0.80135484
H  0.32451101 0.11382788 0.44978958
H  -0.05203581 -0.27925079 -0.30564469
H  0.23315533 -0.31870483 0.23021218
H  -0.04034889 -0.76326471 -0.06590710
H  0.08662771 -1.12694537 0.11775941
H  0.78758017 0.08829105 -0.13211089
12
MD Step 17.0 Units = [eV / Ang.]
C  -0.88449729 -0.68626653 -1.69782575
C  1.01034691 0.29851593 1.55693429
C  0.60751743 1.21258872 -0.76103800
C  -0.41696030 -0.75845394 -0.07543975
C  0.34782544 1.43560624 -0.01382243
C  -1.96358952 0.54693117 0.68241165
H  0.31731960 -0.01931354 0.46091650
H  -0.12946383 -0.10998038 -0.35542816
H  -0.13163011 -0.32783336 0.25715794
H  0.07392761 -0.54746468 -0.05582580
H  0.08324496 -1.09644287 0.11867429
H  1.08595911 0.05211325 -0.11671479
12
MD Step 17.5 Units = [eV / Ang.]
C  -1.17795669 -0.61851239 -1.61655166
C  1.42454496 0.32464879 1.56117882
C  0.94254200 0.96190710 -0.73084896
C  -0.45237924 -0.89393371 -0.15822605
C  0.22384369 1.09042187 0.07989984
C  -2.12930396 0.83703918 0.55707021
H  0.29735116 -0.16265821 0.46550597
H  -0.20454395 0.06047829 -0.40585448
H  -0.46352874 -0.32763856 0.27731512
H  0.20396158 -0.29321677 -0.04352168
H  0.04806137 -0.99161699 0.11304752
H  1.28740781 0.01308141 -0.09901466
12
MD Step 18.0 Units = [eV / Ang.]
C  -1.44541828 -0.52811200 -1.52644138
C  1.80085085 0.36350839 1.55739248
C  1.22581375 0.68365254 -0.68713785
C  -0.49043958 -1.02904294 -0.24133066
C  0.12283065 0.67410353 0.18148929
C  -2.18283364 1.10947513 0.42629121
H  0.26844501 -0.30810459 0.46402775
H  -0.26791473 0.21715113 -0.45462411
H  -0.73908720 -0.31715793 0.28882986
H  0.33982462 -0.02053463 -0.02987046
H  -0.01732171 -0.81786019 0.10079235
H  1.38525025 -0.02707845 -0.07941848
12
MD Step 18.5 Units = [eV / Ang.]
C  -1.68168437 -0.42117948 -1.42942622
C  2.11959147 0.42276512 1.54419028
C  1.44355416 0.38473868 -0.62956313
C  -0.52294284 -1.14256499 -0.32321272
C  0.04881119 0.20466251 0.28992701
C  -2.12513589 1.35287538 0.29119762
H  0.23546340 -0.44682571 0.45725145
H  -0.31201487 0.34775723 -0.49911532
H  -0.94246968 -0.29641423 0.29091580
H  0.46914977 0.24591287 -0.01603642
H  -0.10914596 -0.58506978 0.08231830
H  1.37682361 -0.06665759 -0.05844666
12
MD Step 19.0 Units = [eV / Ang.]
C  -1.88277588 -0.30475766 -1.32732591
C  2.36424714 0.50730825 1.52012817
C  1.58775045 0.07310359 -0.55863267
C  -0.53981282 -1.21122829 -0.40227913
C  0.00245611 -0.29484996 0.40344433
C  -1.95980393 1.55709486 0.15304186
H  0.20388007 -0.56990415 0.44613167
H  -0.33142364 0.44314854 -0.53676401
H  -1.06407674 -0.26618857 0.28363856
H  0.57807707 0.47901317 -0.00338331
H  -0.22074481 -0.30867755 0.05870040
H  1.26222698 -0.10406224 -0.03669996
12
MD Step 19.5 Units = [eV / Ang.]
C  -2.04588766 -0.18618959 -1.22164008
C  2.52214090 0.61938056 1.48387514
C  1.65455053 -0.24274723 -0.47546490
C  -0.53058191 -1.21330845 -0.47703394
C  -0.01997962 -0.79623705 0.51939181
C  -1.69307423 1.71383280 0.01318736
H  0.17918963 -0.66909301 0.43165676
H  -0.32290146 0.49731565 -0.56534810
H  -1.09900172 -0.22778260 0.26769423
H  0.65299525 0.65294552 0.00669253
H  -0.34191174 -0.01024986 0.03183070
H  1.04446202 -0.13786675 -0.01484152
12
MD Step 20.0 Units = [eV / Ang.]
C  -2.16923303 -0.07237720 -1.11336755
C  2.58495388 0.75883934 1.43432868
C  1.64312600 -0.55415210 -0.38161619
C  -0.48643929 -1.13304896 -0.54627064
C  -0.02712008 -1.26713016 0.63422139
C  -1.33519626 1.81710447 -0.12692010
H  0.16620705 -0.73760868 0.41468745
H  -0.28530623 0.50723181 -0.58318574
H  -1.04595564 -0.18283383 0.24424637
H  0.68282798 0.74775264 0.01298374
H  -0.45881703 0.28309732 0.00446255
H  0.73095265 -0.16687465 0.00643003
12
MD Step 20.5 Units = [eV / Ang.]
C  -2.25180648 0.03097300 -1.00289348
C  2.54912145 0.92334317 1.37071851
C  1.55533773 -0.85264930 -0.27899201
C  -0.40228898 -0.96460496 -0.60925009
C  -0.03181507 -1.67362821 0.74367530
C  -0.90288944 1.86353359 -0.26581735
H  0.16836695 -0.77084803 0.39582019
H  -0.21951477 0.47274186 -0.58927888
H  -0.90699291 -0.13319400 0.21483637
H  0.66127275 0.75343501 0.01469003
H  -0.55493863 0.54111256 -0.01995202
H  0.33614740 -0.19021470 0.02644342
12
MD Step 21.0 Units = [eV / Ang.]
C  -2.29316878 0.11997020 -0.88997748
C  2.41613174 1.10834651 1.29273510
C  1.39626853 -1.13027673 -0.16981287
C  -0.27810896 -0.71408382 -0.66580557
C  -0.04907216 -1.98465124 0.84323845
C  -0.42220974 1.85242145 -0.40213908
H  0.18717533 -0.76688678 0.37531164
H  -0.12841590 0.39661238 -0.58343224
H  -0.68810034 -0.08084183 0.18133873
H  0.58825356 0.67211958 0.01156591
H  -0.61324852 0.73473430 -0.03769236
H  -0.11550478 -0.20746403 0.04466976
12
MD Step 21.5 Units = [eV / Ang.]
C  -2.29329751 0.19291409 -0.77385026
C  2.19265081 1.30691189 1.20068599
C  1.17547762 -1.37984531 -0.05658013
C  -0.11913648 -0.39886191 -0.71633307
C  -0.09275044 -2.17720133 0.92881563
C  0.06947879 1.78555993 -0.53477848
H  0.22193524 -0.72667165 0.35308287
H  -0.01696004 0.28473351 -0.56635205
H  -0.40048596 -0.02778506 0.14590827
H  0.47004710 0.51746783 0.00394864
H  -0.61941475 0.84151971 -0.04542724
H  -0.58754437 -0.21874169 0.06087983
12
MD Step 22.0 Units = [eV / Ang.]
C  -2.25256152 0.25035791 -0.65340657
C  1.89038645 1.50945036 1.09564858
C  0.90857964 -1.59521461 0.05802313
C  0.06517195 -0.04439096 -0.76166703
C  -0.17190958 -2.24089126 0.99746216
C  0.52421176 1.66675340 -0.66303227
H  0.26981546 -0.65386952 0.32880394
H  0.10781918 0.14635054 -0.53970082
H  -0.06213140 0.02408823 0.11085483
H  0.31803198 0.31154854 -0.00733786
H  -0.56514925 0.85049942 -0.04093272
H  -1.03226468 -0.22468206 0.07528463
12
MD Step 22.5 Units = [eV / Ang.]
C  -2.17178162 0.29484609 -0.52745453
C  1.52553807 1.70363951 0.97954935
C  0.61840154 -1.77156433 0.17135655
C  0.26292964 0.32031453 -0.80288883
C  -0.28802611 -2.18000412 1.04793189
C  0.88841615 1.50107282 -0.78663613
H  0.32624632 -0.55440444 0.30203285
H  0.23695556 -0.00592124 -0.50605143
H  0.30115189 0.07321981 0.07839057
H  0.14653267 0.08036234 -0.02116131
H  -0.45051332 0.76464998 -0.02362884
H  -1.39585080 -0.22621095 0.08855986
12
MD Step 23.0 Units = [eV / Ang.]
C  -2.05233584 0.33041198 -0.39497175
C  1.11773782 1.87477461 0.85509083
C  0.33476523 -1.90561399 0.28117875
C  0.46170039 0.66705856 -0.84112730
C  -0.43415232 -2.01215968 1.08083693
C  1.11235514 1.29398228 -0.90560003
H  0.38554237 -0.43579239 0.27237331
H  0.36001993 -0.15657589 -0.46868001
H  0.65613992 0.11860949 0.05024462
H  -0.02951527 -0.15050698 -0.03627958
H  -0.28422942 0.59996186 0.00527077
H  -1.62802795 -0.22414985 0.10166344
12
MD Step 23.5 Units = [eV / Ang.]
C  -1.89625209 0.36193101 -0.25532235
C  0.68845127 2.00682840 0.72546766
C  0.09197850 -1.99568947 0.38606351
C  0.64990746 0.97161034 -0.87740377
C  -0.59626275 -1.76408619 1.09837524
C  1.16172238 1.05060142 -1.01984770
H  0.44161788 -0.30638663 0.23961140
H  0.46601709 -0.28845210 -0.43115755
H  0.96498679 0.15995890 0.02722501
H  -0.19643505 -0.35900978 -0.05150378
H  -0.08186357 0.38150982 0.04304274
H  -1.69386791 -0.21881573 0.11544958
12
MD Step 24.0 Units = [eV / Ang.]
C  -1.70625047 0.39446700 -0.10840619
C  0.25895783 2.08425487 0.59388658
C  -0.07622395 -2.04151872 0.48571215
C  0.81756097 1.21524895 -0.91254270
C  -0.75617061 -1.46614315 1.10375910
C  1.02700263 0.77540999 -1.12881255
H  0.48865855 -0.17465690 0.20380684
H  0.54467400 -0.38475799 -0.39677430
H  1.19061481 0.19761019 0.00889726
H  -0.34290357 -0.52814524 -0.06580015
H  0.13737933 0.13808953 0.08604397
H  -1.58329951 -0.20985854 0.13023000
12
MD Step 24.5 Units = [eV / Ang.]
C  -1.48574553 0.43270469 0.04527330
C  -0.15179260 2.09433853 0.46299831
C  -0.14337950 -2.04374639 0.58096316
C  0.95638929 1.38495326 -0.94714422
C  -0.89487094 -1.14745395 1.10057063
C  0.72633997 0.47251871 -1.23122391
H  0.52165822 -0.04857374 0.16532756
H  0.58792236 -0.43163523 -0.36791374
H  1.30374507 0.23222426 -0.00641865
H  -0.46029777 -0.64612102 -0.07832876
H  0.35405634 -0.10273231 0.13038009
H  -1.31402490 -0.19647683 0.14551621
12
MD Step 25.0 Units = [eV / Ang.]
C  -1.23881440 0.48052070 0.20461693
C  -0.52902616 2.02955326 0.33441654
C  -0.09656340 -2.00330791 0.67340354
C  1.05968079 1.47280765 -0.98159292
C  -0.99532781 -0.83284251 1.09224568
C  0.30048833 0.14635587 -1.32523386
H  0.53677880 0.06486137 0.12483192
H  0.59122314 -0.42067388 -0.34556176
H  1.28943480 0.26428663 -0.02123160
H  -0.54254667 -0.70573138 -0.08844100
H  0.55108421 -0.31791643 0.17244816
H  -0.92641162 -0.17791337 0.16009837
12
MD Step 25.5 Units = [eV / Ang.]
C  -0.97015174 0.54069489 0.36799880
C  -0.86327841 1.88924175 0.20850670
C  0.06020328 -1.92092173 0.76467202
C  1.12211138 1.47517478 -1.01607777
C  -1.04418325 -0.54178390 1.08178032
C  -0.19774616 -0.19760385 -1.40883813
H  0.53154249 0.15994710 0.08321082
H  0.55434915 -0.35064159 -0.32912828
H  1.15065234 0.29366005 -0.03813977
H  -0.58579154 -0.70351716 -0.09565933
H  0.71509538 -0.49029503 0.20925382
H  -0.47280292 -0.15395531 0.17242080
12
MD Step 26.0 Units = [eV / Ang.]
C  -0.68502202 0.61470532 0.53338038
C  -1.15056631 1.68009942 0.08452493
C  0.30685377 -1.79696895 0.85573430
C  1.13979807 1.39207529 -1.05060018
C  -1.03242183 -0.28880547 1.07164041
C  -0.71497438 -0.55241896 -1.48037627
H  0.50489547 0.23250692 0.04150382
H  0.48138333 -0.22786771 -0.31665724
H  0.90740762 0.31941290 -0.05905026
H  -0.58812701 -0.63914927 -0.09966353
H  0.83668027 -0.60840293 0.23851167
H  -0.00590698 -0.12518656 0.18105197
12
MD Step 26.5 Units = [eV / Ang.]
C  -0.38919275 0.70257620 0.69845242
C  -1.39162026 1.41527717 -0.03894644
C  0.61211257 -1.63184241 0.94642973
C  1.11064722 1.22699844 -1.08495387
C  -0.95531197 -0.08453788 1.06379373
C  -1.20565172 -0.90968178 -1.53889403
H  0.45717920 0.28003245 0.00080087
H  0.37992537 -0.06512545 -0.30535913
H  0.59182123 0.34000910 -0.08466809
H  -0.54958574 -0.51524787 -0.10030048
H  0.90995504 -0.66553287 0.25860591
H  0.42972183 -0.09292509 0.18503936
12
MD Step 27.0 Units = [eV / Ang.]
C  -0.08886323 0.80274183 0.86078893
C  -1.59048116 1.11244133 -0.16343306
C  0.94025714 -1.42659188 1.03543894
C  1.03501412 0.98718863 -1.11867289
C  -0.81201936 0.06327891 1.05977218
C  -1.63586084 -1.25986394 -1.58426598
H  0.39005107 0.30178374 -0.03786108
H  0.25977224 0.12060036 -0.29228232
H  0.24115800 0.35375010 -0.11441336
H  -0.47243608 -0.33769425 -0.09762655
H  0.93192955 -0.65868191 0.26850245
H  0.80147854 -0.05895292 0.18405274
12
MD Step 27.5 Units = [eV / Ang.]
C  0.20943980 0.91193778 1.01800327
C  -1.75290243 0.79138537 -0.29006540
C  1.25740005 -1.18358972 1.12060893
C  0.91653247 0.68428328 -1.15095497
C  -0.60522786 0.14928931 1.06069227
C  -1.98313798 -1.59282072 -1.61711316
H  0.30636306 0.29884588 -0.07360135
H  0.13145117 0.31078246 -0.27491674
H  -0.10871234 0.35925138 -0.14670800
H  -0.36173171 -0.11629642 -0.09198210
H  0.90205712 -0.58786534 0.26769115
H  1.08846867 -0.02520325 0.17834610
12
MD Step 28.0 Units = [eV / Ang.]
C  0.49897744 1.02516480 1.16789368
C  -1.88492474 0.47181238 -0.41926540
C  1.53560908 -0.90695830 1.19943166
C  0.76289345 0.33500284 -1.18057755
C  -0.34095026 0.17066284 1.06719525
C  -2.23409870 -1.89831372 -1.63861627
H  0.20999972 0.27412824 -0.10578998
H  0.00495931 0.48775813 -0.25158795
H  -0.42771161 0.35576732 -0.17943507
H  -0.22592117 0.13449561 -0.08408300
H  0.82215535 -0.45599930 0.25620317
H  1.27901213 0.00647915 0.16863146
12
MD Step 28.5 Units = [eV / Ang.]
C  0.77296503 1.13577654 1.30856681
C  -1.99188714 0.17171405 -0.55065467
C  1.75445674 -0.60265546 1.26948001
C  0.58623260 -0.03860155 -1.20584139
C  -0.02863164 0.12788475 1.07929245
C  -2.38154298 -2.16648333 -1.65031581
H  0.10565511 0.23226164 -0.13412477
H  -0.11108087 0.63641845 -0.22160234
H  -0.69335535 0.34329752 -0.21037293
H  -0.07717688 0.39530706 -0.07509723
H  0.69675189 -0.26939268 0.23472243
H  1.36761350 0.03447300 0.15594744
12
MD Step 29.0 Units = [eV / Ang.]
C  1.02476121 1.23575678 1.43852486
C  -2.07788287 -0.09358143 -0.68313235
C  1.90057942 -0.27826079 1.32868730
C  0.40271200 -0.40989130 -1.22459092
C  0.31852565 0.02596207 1.09614372
C  -2.42213301 -2.38825794 -1.65395972
H  -0.00145983 0.17934922 -0.15867360
H  -0.20982871 0.74508509 -0.18519242
H  -0.89051542 0.32251681 -0.23749105
H  0.06897878 0.64254954 -0.06665281
H  0.53372383 -0.03866426 0.20476849
H  1.35253895 0.05743621 0.14156851
12
MD Step 29.5 Units = [eV / Ang.]
C  1.24811059 1.31623290 1.55669918
C  -2.14558656 -0.31180987 -0.81503936
C  1.96621578 0.05742661 1.37546232
C  0.23097443 -0.74981673 -1.23435787
C  0.68325621 -0.12435089 1.11583146
C  -2.35519936 -2.55573613 -1.65139626
H  -0.10599086 0.12251845 -0.17987069
H  -0.28629406 0.80572827 -0.14334446
H  -1.01009945 0.29461488 -0.25909660
H  0.19510838 0.85055993 -0.06072834
H  0.34492989 0.22029852 0.16888752
H  1.23457500 0.07433405 0.12695309
12
MD Step 30.0 Units = [eV / Ang.]
C  1.43740414 1.36822104 1.66242578
C  -2.19627954 -0.47388755 -0.94434195
C  1.94762858 0.39485893 1.40868833
C  0.08948038 -1.03052531 -1.23265214
C  1.04432203 -0.30592150 1.13524142
C  -2.18284467 -2.66255129 -1.64450541
H  -0.20286823 0.06927341 -0.19844914
H  -0.33722899 0.81382195 -0.09758684
H  -1.04754341 0.26112586 -0.27387591
H  0.28439417 0.99516387 -0.05938849
H  0.14637585 0.48593450 0.13074048
H  1.01715968 0.08448608 0.11370387
12
MD Step 30.5 Units = [eV / Ang.]
C  1.58794466 1.38354849 1.75535689
C  -2.22993675 -0.57397616 -1.06878830
C  1.84401505 0.72422095 1.42767618
C  -0.00678446 -1.22975650 -1.21736844
C  1.37751155 -0.49591040 1.15018787
C  -1.91133350 -2.70424318 -1.63509990
H  -0.28774600 0.02668691 -0.21531457
H  -0.36099572 0.76811200 -0.04978354
H  -1.00172667 0.22378422 -0.28089911
H  0.32381315 1.05800302 -0.06439810
H  -0.04261201 0.73186881 0.09495138
H  0.70785071 0.08766183 0.10347964
12
MD Step 31.0 Units = [eV / Ang.]
C  1.69616103 1.35583023 1.83532973
C  -2.24525644 -0.60964195 -1.18604068
C  1.65720179 1.03588661 1.43213167
C  -0.04925714 -1.33477587 -1.18720698
C  1.65787377 -0.66827553 1.15589016
C  -1.55352032 -2.67861636 -1.62474108
H  -0.35738316 0.00054435 -0.23137132
H  -0.35751600 0.67048755 -0.00194598
H  -0.87462325 0.18440941 -0.27963982
H  0.30700862 1.03036519 -0.07680752
H  -0.20154140 0.92956358 0.06660871
H  0.32085252 0.08422279 0.09779310
12
MD Step 31.5 Units = [eV / Ang.]
C  1.75975293 1.28131746 1.90221925
C  -2.23960443 -0.58215079 -1.29379620
C  1.39219221 1.32087179 1.42217750
C  -0.03736986 -1.34451702 -1.14197601
C  1.86308393 -0.79805188 1.14780281
C  -1.13168476 -2.58601908 -1.61439201
H  -0.40989968 -0.00541065 -0.24733735
H  -0.32835128 0.52602508 0.04394617
H  -0.67176588 0.14479005 -0.27004319
H  0.23582268 0.91517458 -0.09665354
H  -0.31209034 1.05270669 0.05042461
H  -0.12008552 0.07526377 0.09762796
12
MD Step 32.0 Units = [eV / Ang.]
C  1.77772387 1.15945511 1.95581415
C  -2.20888572 -0.49682187 -1.38992354
C  1.05842488 1.57131023 1.39843416
C  0.02183730 -1.26915351 -1.08265953
C  1.97718484 -0.86648138 1.12261744
C  -0.67954357 -2.42943713 -1.60390239
H  -0.44485713 0.01002838 -0.26358686
H  -0.27688839 0.34314242 0.08613110
H  -0.40339229 0.10652785 -0.25264031
H  0.11987657 0.72636678 -0.12288963
H  -0.36181503 1.08240308 0.04973418
H  -0.57966534 0.06266003 0.10287123
12
MD Step 32.5 Units = [eV / Ang.]
C  1.75033814 0.99301884 1.99574961
C  -2.14745245 -0.36323850 -1.47262986
C  0.67134574 1.78094372 1.36212979
C  0.11586364 -1.12731413 -1.01122667
C  1.99349768 -0.86536661 1.07911452
C  -0.24171721 -2.21425613 -1.59142638
H  -0.46315659 0.04539635 -0.28006085
H  -0.20853391 0.13368248 0.12326390
H  -0.08589447 0.07081659 -0.22867376
H  -0.02563307 0.48588803 -0.15357937
H  -0.34697602 1.01153006 0.06566002
H  -1.01168148 0.04889931 0.11167904
12
MD Step 33.0 Units = [eV / Ang.]
C  1.67900692 0.78781462 2.02151003
C  -2.04819171 -0.19507424 -1.54064511
C  0.25364874 1.94559616 1.31516826
C  0.22976507 -0.94203038 -0.93026292
C  1.91558805 -0.79897605 1.01852911
C  0.13094279 -1.94764412 -1.57305105
H  -0.46678190 0.09681416 -0.29626554
H  -0.13075958 -0.08732418 0.15461019
H  0.25708304 0.03816397 -0.20015914
H  -0.18306664 0.21944241 -0.18627419
H  -0.27334968 0.84659124 0.09677375
H  -1.36388511 0.03662640 0.12006659
12
MD Step 33.5 Units = [eV / Ang.]
C  1.56617369 0.55201467 2.03249713
C  -1.90299690 -0.00927880 -1.59338386
C  -0.16471882 2.06352842 1.26005447
C  0.34896904 -0.73675207 -0.84255363
C  1.75593372 -0.68274480 0.94427401
C  0.39039114 -1.63763283 -1.54301488
H  -0.45845109 0.15856726 -0.31135471
H  -0.05280653 -0.30248051 0.18018781
H  0.59479669 0.00813297 -0.16978418
H  -0.33534646 -0.04762782 -0.21844152
H  -0.15468160 0.60630461 0.13940439
H  -1.58726288 0.02796891 0.12211497
12
MD Step 34.0 Units = [eV / Ang.]
C  1.41519622 0.29531595 2.02814328
C  -1.70373272 0.17548858 -1.63101741
C  -0.54865533 2.13553147 1.19959677
C  0.46113931 -0.53243645 -0.75074687
C  1.53287891 -0.53933088 0.86113595
C  0.50266914 -1.29221117 -1.49476969
H  -0.44124587 0.22387543 -0.32427220
H  0.01509517 -0.49356490 0.20079297
H  0.89167337 -0.02075958 -0.14056878
H  -0.46806342 -0.29329710 -0.24781700
H  -0.00942276 0.31749794 0.18846987
H  -1.64753202 0.02389071 0.11105310
12
MD Step 34.5 Units = [eV / Ang.]
C  1.23026082 0.02810639 2.00804086
C  -1.44372805 0.34109869 -1.65439708
C  -0.86246493 2.16460100 1.13638504
C  0.55690724 -0.34604305 -0.65715104
C  1.26704976 -0.39359276 0.77426253
C  0.45718744 -0.91881333 -1.42272864
H  -0.41827943 0.28570350 -0.33391840
H  0.06301481 -0.64371496 0.21785612
H  1.11203903 -0.05082974 -0.11529304
H  -0.57044818 -0.50030176 -0.27261527
H  0.14300257 0.00988285 0.23851202
H  -1.53454109 0.02390316 0.08104689
12
MD Step 35.0 Units = [eV / Ang.]
C  1.01629378 -0.23921327 1.97205957
C  -1.11956358 0.47244632 -1.66480832
C  -1.07619809 2.15516484 1.07218164
C  0.62970482 -0.19021694 -0.56366602
C  0.97837732 -0.26819412 0.68828401
C  0.26982294 -0.52441755 -1.32405020
H  -0.39243529 0.33749152 -0.33930534
H  0.08292376 -0.73986368 0.23311917
H  1.22660673 -0.08463284 -0.09583776
H  -0.63540795 -0.65631092 -0.29160207
H  0.28521227 -0.28857223 0.28459054
H  -1.26533672 0.02631888 0.02903477
12
MD Step 35.5 Units = [eV / Ang.]
C  0.77886407 -0.49670734 1.92043998
C  -0.73274267 0.55961089 -1.66361198
C  -1.17196760 2.11201075 1.00746362
C  0.67517594 -0.07367596 -0.47180021
C  0.68428538 -0.18087686 0.60678294
C  -0.02168057 -0.11612798 -1.19965843
H  -0.36618740 0.37372645 -0.33967866
H  0.07022582 -0.77482212 0.24820217
H  1.21888446 -0.12410970 -0.08268394
H  -0.65904065 -0.75335631 -0.30407260
H  0.40356434 -0.55461075 0.32283349
H  -0.87938112 0.02893892 -0.04421638
12
MD Step 36.0 Units = [eV / Ang.]
C  0.52408059 -0.73522094 1.85384562
C  -0.29076722 0.59908295 -1.65188300
C  -1.14794013 2.03926378 0.94134368
C  0.69056520 -0.00181292 -0.38271740
C  0.39905581 -0.14356041 0.53213409
C  -0.36777594 0.29814029 -1.05405139
H  -0.34148966 0.39033415 -0.33459332
H  0.02475898 -0.74840402 0.26418363
H  1.08917489 -0.16978217 -0.07480585
H  -0.64002742 -0.78706696 -0.30979070
H  0.48856727 -0.77080356 0.35062037
H  -0.42820237 0.02982980 -0.13428572
12
MD Step 36.5 Units = [eV / Ang.]
C  0.25847951 -0.94664712 1.77336942
C  0.19276140 0.59371863 -1.63017244
C  -1.01838969 1.93978735 0.87193901
C  0.67437994 0.02287437 -0.29726796
C  0.13396731 -0.16277510 0.46561317
C  -0.71820975 0.70929003 -0.89410044
H  -0.31971105 0.38491354 -0.32394509
H  -0.04906792 -0.66724291 0.28133068
H  0.85453664 -0.22035318 -0.07002895
H  -0.57918820 -0.75613107 -0.30893607
H  0.53444078 -0.92528566 0.36650138
H  0.03600105 0.02785111 -0.23430269
12
MD Step 37.0 Units = [eV / Ang.]
C  -0.01109591 -1.12419729 1.68049312
C  0.69907857 0.55150295 -1.59846664
C  -0.80982821 1.81520330 0.79703722
C  0.62641473 0.00071878 -0.21598913
C  -0.10223509 -0.24068945 0.40763039
C  -1.03024331 1.10713406 -0.72748899
H  -0.30159840 0.35683978 -0.30796271
H  -0.14304946 -0.54338340 0.29905941
H  0.54472881 -0.27289413 -0.06570153
H  -0.47932828 -0.66220254 -0.30207775
H  0.53834757 -1.01082744 0.36999551
H  0.46880900 0.02279535 -0.33652891
12
MD Step 37.5 Units = [eV / Ang.]
C  -0.27763259 -1.26272653 1.57699853
C  1.20599165 0.48355190 -1.55633184
C  -0.55483722 1.66644464 0.71478163
C  0.54811633 -0.06472833 -0.13906941
C  -0.30290572 -0.37611013 0.35795761
C  -1.27240374 1.48090427 -0.56142060
H  -0.28725150 0.30727305 -0.28716776
H  -0.24661676 -0.39210420 0.31611564
H  0.19579410 -0.32352030 -0.05940084
H  -0.34538397 -0.51031798 -0.29017612
H  0.49970595 -1.02388358 0.36138818
H  0.83742347 0.01521720 -0.43367502
12
MD Step 38.0 Units = [eV / Ang.]
C  -0.53411569 -1.35906734 1.46483994
C  1.68995779 0.40198263 -1.50316076
C  -0.28587265 1.49450440 0.62413202
C  0.44311972 -0.16595203 -0.06630769
C  -0.46330135 -0.56503906 0.31588002
C  -1.42438681 1.81996436 -0.40192030
H  -0.27610904 0.23908547 -0.26230870
H  -0.34848459 -0.22961056 0.33088854
H  -0.15640047 -0.36824862 -0.04942665
H  -0.18474573 -0.30968774 -0.27458547
H  0.41981954 -0.96405661 0.34159788
H  1.12051930 0.00612510 -0.51962884
12
MD Step 38.5 Units = [eV / Ang.]
C  -0.77373920 -1.41230256 1.34598758
C  2.12808716 0.31814014 -1.43842051
C  -0.03082098 1.30105540 0.52501344
C  0.31771904 -0.29065171 0.00289296
C  -0.58070855 -0.80060161 0.28024379
C  -1.47482853 2.11454355 -0.25369258
H  -0.26695948 0.15669565 -0.23427312
H  -0.43810641 -0.07111108 0.34174550
H  -0.48084823 -0.40371533 -0.03498512
H  -0.00754124 -0.07454384 -0.25701472
H  0.30190519 -0.83419122 0.31212905
H  1.30584123 -0.00331739 -0.58962627
12
MD Step 39.0 Units = [eV / Ang.]
C  -0.99016469 -1.42388602 1.22226087
C  2.49975994 0.24144970 -1.36182867
C  0.18908124 1.08876254 0.41820422
C  0.18096027 -0.42133149 0.06943957
C  -0.65486086 -1.07237512 0.24942671
C  -1.41857802 2.35635420 -0.12032408
H  -0.25799310 0.06579798 -0.20398288
H  -0.50668017 0.07043635 0.34730328
H  -0.75365720 -0.42757769 -0.01611350
H  0.17342309 0.17547110 -0.23939357
H  0.15146075 -0.64109129 0.27508901
H  1.38724876 -0.01201027 -0.64008097
12
MD Step 39.5 Units = [eV / Ang.]
C  -1.17780544 -1.39755009 1.09517460
C  2.78780694 0.17890103 -1.27342982
C  0.35928362 0.86126563 0.30509582
C  0.04407779 -0.53591270 0.13434150
C  -0.68852024 -1.36533920 0.22129220
C  -1.25458728 2.53905679 -0.00457419
H  -0.24692009 -0.02703842 -0.17228330
H  -0.54767218 0.18492403 0.34659420
H  -0.95821227 -0.43859635 0.00653024
H  0.34336255 0.41598426 -0.22361092
H  -0.02319500 -0.39664469 0.23320295
H  1.36238160 -0.01905030 -0.66833328
12
MD Step 40.0 Units = [eV / Ang.]
C  -1.33210179 -1.33894146 0.96582124
C  2.97927369 0.13499258 -1.17360054
C  0.47081680 0.62294829 0.18743799
C  -0.08087391 -0.60986188 0.19838558
C  -0.68797808 -1.65892228 0.19321812
C  -0.98492689 2.65853628 0.09145119
H  -0.23117532 -0.11490728 -0.13983792
H  -0.55695786 0.26521224 0.33913829
H  -1.08413094 -0.43650778 0.03190013
H  0.48702497 0.62012436 -0.21113757
H  -0.21051028 -0.11887023 0.18974315
H  1.23153960 -0.02380284 -0.67251966
12
MD Step 40.5 Units = [eV / Ang.]
C  -1.44974060 -1.25500634 0.83481813
C  3.06591639 0.11189397 -1.06301636
C  0.51887797 0.37864209 0.06713860
C  -0.18304251 -0.61989471 0.26178059
C  -0.66308909 -1.92683383 0.16229721
C  -0.61514501 2.71299846 0.16638218
H  -0.20821111 -0.19121538 -0.10705075
H  -0.53275984 0.30702296 0.32494799
H  -1.12589842 -0.42182000 0.05875003
H  0.59088579 0.76232411 -0.20262452
H  -0.39580536 0.16782901 0.14828054
H  0.99801179 -0.02594036 -0.65170363
12
MD Step 41.0 Units = [eV / Ang.]
C  -1.52879479 -1.15319679 0.70233115
C  3.04450251 0.10963559 -0.94261646
C  0.50176108 0.13336385 -0.05386859
C  -0.25492673 -0.54855565 0.32390923
C  -0.62650219 -2.13844443 0.12576084
C  -0.15590841 2.70287183 0.21999838
H  -0.17585065 -0.25036660 -0.07403382
H  -0.47552389 0.30881169 0.30449593
H  -1.08183914 -0.39562807 0.08576257
H  0.64552887 0.82297338 -0.19762582
H  -0.56226755 0.43399351 0.11221585
H  0.66982091 -0.02545832 -0.60632924
12
MD Step 41.5 Units = [eV / Ang.]
C  -1.56873625 -1.04061185 0.56818098
C  2.91697123 0.12618562 -0.81358832
C  0.42046674 -0.10784939 -0.17370779
C  -0.29395823 -0.38836851 0.38333203
C  -0.59184979 -2.26217737 0.08158021
C  0.37434320 2.63052358 0.25394601
H  -0.13265988 -0.28839517 -0.04063428
H  -0.38782815 0.27175883 0.27866494
H  -0.95379108 -0.35949393 0.11163763
H  0.64747860 0.79257946 -0.19459671
H  -0.69300290 0.64850670 0.08414496
H  0.26256651 -0.02265798 -0.53895965
12
MD Step 42.0 Units = [eV / Ang.]
C  -1.57035487 -0.92321772 0.43201770
C  2.69042542 0.15738134 -0.67736068
C  0.27910529 -0.34001932 -0.29063180
C  -0.30287392 -0.14405717 0.43809433
C  -0.57113994 -2.27063113 0.02906935
C  0.94651676 2.49977838 0.27256872
H  -0.07825993 -0.30341884 -0.00652324
H  -0.27432861 0.19989846 0.24867894
H  -0.74757910 -0.31538142 0.13517141
H  0.59981531 0.67394918 -0.19122372
H  -0.77387338 0.78378423 0.06523857
H  -0.19745303 -0.01806599 -0.45509958
12
MD Step 42.5 Units = [eV / Ang.]
C  -1.53556436 -0.80529112 0.29352210
C  2.37686563 0.19679767 -0.53558550
C  0.08597208 -0.55827546 -0.40311650
C  -0.28873746 0.16799803 0.48623961
C  -0.57200916 -2.14616613 -0.03075940
C  1.51917249 2.31529802 0.28344411
H  -0.01351493 -0.29583544 0.02867333
H  -0.14167500 0.10029824 0.21600591
H  -0.47415265 -0.26559957 0.15535926
H  0.51134000 0.48156054 -0.18499350
H  -0.79637135 0.82147576 0.05489396
H  -0.67132529 -0.01226056 -0.36368339
12
MD Step 43.0 Units = [eV / Ang.]
C  -1.46715847 -0.68917538 0.15260068
C  1.99259859 0.23571411 -0.39008110
C  -0.14508584 -0.75795259 -0.50999065
C  -0.26097806 0.52284723 0.52635101
C  -0.59581006 -1.88504943 -0.09530010
C  2.03992431 2.08189520 0.29706313
H  0.05945507 -0.26821634 0.06522524
H  0.00171283 -0.01688908 0.18221694
H  -0.15097084 -0.21268907 0.17153156
H  0.39461040 0.23838263 -0.17380594
H  -0.75952781 0.75674089 0.05085549
H  -1.10877011 -0.00560817 -0.27666626
12
MD Step 43.5 Units = [eV / Ang.]
C  -1.36850836 -0.57537261 0.00952683
C  1.55719818 0.26341146 -0.24271346
C  -0.39367454 -0.93482140 -0.61059433
C  -0.22920620 0.89143011 0.55791634
C  -0.63727643 -1.49851895 -0.16092448
C  2.45151589 1.80396453 0.32518441
H  0.13744473 -0.22493163 0.10316922
H  0.14613261 -0.13874944 0.14879849
H  0.19707206 -0.15918939 0.18350973
H  0.26355151 -0.02864682 -0.15642178
H  -0.67009664 0.59941618 0.04981364
H  -1.45415280 0.00200797 -0.20726462
12
MD Step 44.0 Units = [eV / Ang.]
C  -1.24328047 -0.46292540 -0.13499087
C  1.09205690 0.26801167 -0.09522575
C  -0.63312097 -1.08546517 -0.70490252
C  -0.20149420 1.24494137 0.58143028
C  -0.68591645 -1.01034654 -0.22381785
C  2.70244167 1.48525681 0.37794341
H  0.21648530 -0.17158379 0.14222615
H  0.28141633 -0.25052628 0.11693697
H  0.53809384 -0.10727775 0.19172279
H  0.13136172 -0.29299325 -0.13264231
H  -0.54092841 0.37159725 0.04826609
H  -1.65711525 0.01131109 -0.16694638
12
MD Step 44.5 Units = [eV / Ang.]
C  -1.09516561 -0.34997693 -0.27981753
C  0.61859991 0.23794353 0.05094442
C  -0.83283197 -1.20772089 -0.79353792
C  -0.18352593 1.55801451 0.59826434
C  -0.72855646 -0.45195187 -0.28076580
C  2.75927855 1.12918743 0.46062514
H  0.29225020 -0.11436742 0.18178092
H  0.39803650 -0.33722243 0.08732461
H  0.83587483 -0.05835507 0.19720337
H  0.00916080 -0.53164856 -0.10323752
H  -0.38817463 0.10264362 0.04332262
H  -1.68494618 0.02345407 -0.16210665
12
MD Step 45.0 Units = [eV / Ang.]
C  -0.92771284 -0.23438196 -0.42345830
C  0.15644469 0.16389210 0.19479447
C  -0.96297570 -1.30100649 -0.87758921
C  -0.17856768 1.81035828 0.61040500
C  -0.75214083 0.14303260 -0.32964033
C  2.61591166 0.73963733 0.57155875
H  0.36047945 -0.05944192 0.22092377
H  0.48831802 -0.38572667 0.06004992
H  1.05491650 -0.01274531 0.20138768
H  -0.09455264 -0.72665252 -0.06972340
H  -0.22832700 -0.17650096 0.03320132
H  -1.53179362 0.03953551 -0.19190967
12
MD Step 45.5 Units = [eV / Ang.]
C  -0.74427009 -0.11422745 -0.56416255
C  -0.27816052 0.04080766 0.33577244
C  -1.00066104 -1.36632925 -0.95823982
C  -0.18799711 1.98709705 0.62017529
C  -0.74596748 0.74300497 -0.36951618
C  2.29539525 0.32196644 0.70227746
H  0.41735065 -0.01240932 0.25853904
H  0.54747101 -0.38702983 0.03462890
H  1.16702849 0.03029988 0.20572467
H  -0.17382748 -0.86527890 -0.03409929
H  -0.07594390 -0.43791184 0.01734561
H  -1.22041778 0.06001058 -0.24844558
12
MD Step 46.0 Units = [eV / Ang.]
C  -0.54804249 0.01177206 -0.70004466
C  -0.67331141 -0.13056767 0.47365899
C  -0.93571609 -1.40590013 -1.03631303
C  -0.21201630 2.07835670 0.63000559
C  -0.70297103 1.32063288 -0.40050479
C  1.84357508 -0.11619339 0.83993477
H  0.45977360 0.02209256 0.29342365
H  0.57416231 -0.33794299 0.01018770
H  1.15748378 0.07220823 0.21120553
H  -0.22487102 -0.93945782 0.00138098
H  0.05755000 -0.65930516 -0.00374949
H  -0.79561644 0.08430474 -0.31918523
12
MD Step 46.5 Units = [eV / Ang.]
C  -0.34224932 0.14403163 -0.82920410
C  -1.02164203 -0.34318069 0.60834558
C  -0.77385526 -1.42245319 -1.11191746
C  -0.25024395 2.07866180 0.64226805
C  -0.62007617 1.85328028 -0.42346525
C  1.31757560 -0.56470328 0.97079459
H  0.48559007 0.04066874 0.32441408
H  0.57045721 -0.24178096 -0.01425009
H  1.02847182 0.11441447 0.21800501
H  -0.24562135 -0.94502490 0.03438435
H  0.16408540 -0.82473868 -0.02884453
H  -0.31249202 0.11082477 -0.39053020
12
MD Step 47.0 Units = [eV / Ang.]
C  -0.13030861 0.28193684 -0.94984347
C  -1.31981128 -0.58433985 0.73959505
C  -0.53584300 -1.41857767 -1.18435897
C  -0.30202416 1.98655571 0.65915183
C  -0.49786826 2.32235710 -0.43972260
C  0.77408719 -1.01125861 1.08326978
H  0.49369698 0.04135258 0.35050983
H  0.54117308 -0.10779642 -0.03946182
H  0.79842985 0.15769256 0.22539894
H  -0.23546777 -0.88121916 0.06264080
H  0.23854028 -0.92402515 -0.05626471
H  0.17539571 0.13732207 -0.45091467
12
MD Step 47.5 Units = [eV / Ang.]
C  0.08399980 0.42374504 -1.06037689
C  -1.56751919 -0.83740473 0.86686162
C  -0.25298345 -1.39633689 -1.25234316
C  -0.36637139 1.80467742 0.68252416
C  -0.33990121 2.71244334 -0.45086312
C  0.26129063 -1.44213748 1.16956145
H  0.48410169 0.02371098 0.37098094
H  0.49286188 0.05044482 -0.06580123
H  0.49756980 0.20177699 0.23199126
H  -0.19522487 -0.75066735 0.08409993
H  0.27810458 -0.95164170 -0.08413899
H  0.62407173 0.16138956 -0.49249598
12
MD Step 48.0 Units = [eV / Ang.]
C  0.29641999 0.56649945 -1.15952510
C  -1.76637340 -1.08401504 0.98922663
C  0.03929932 -1.35727758 -1.31436143
C  -0.44159590 1.54031491 0.71373309
C  -0.15190502 3.01080083 -0.45860738
C  -0.18442254 -1.84310244 1.22584855
H  0.45792972 -0.01109999 0.38545321
H  0.43271513 0.21724926 -0.09310914
H  0.16139631 0.24539585 0.23613382
H  -0.12737048 -0.55987970 0.09715027
H  0.28172583 -0.90576185 -0.11056517
H  1.00218105 0.18087628 -0.51137737
12
MD Step 48.5 Units = [eV / Ang.]
C  0.50219702 0.70598065 -1.24639111
C  -1.91890213 -1.30629051 1.10544247
C  0.30751855 -1.30271735 -1.36907622
C  -0.52469777 1.20626002 0.75331582
C  0.05890654 3.20759736 -0.46472351
C  -0.53797435 -2.20029717 1.25155343
H  0.41737830 -0.06034444 0.39396483
H  0.36764593 0.37694830 -0.12075436
H  -0.17549363 0.28662582 0.23635556
H  -0.03648189 -0.32008828 0.10093598
H  0.24982420 -0.78779035 -0.13372991
H  1.29007922 0.19411594 -0.50689298
12
MD Step 49.0 Units = [eV / Ang.]
C  0.69614504 0.83672132 -1.32049994
C  -2.02785916 -1.48858023 1.21404642
C  0.52424024 -1.23409525 -1.41557213
C  -0.61074179 0.82157338 0.80063013
C  0.28428803 3.29687224 -0.47092783
C  -0.78327103 -2.50106103 1.24832116
H  0.36560743 -0.11979391 0.39698311
H  0.30368192 0.51558175 -0.14776601
H  -0.48370188 0.32335991 0.23165752
H  0.07030802 -0.04803057 0.09575573
H  0.18435273 -0.60253833 -0.15203281
H  1.47695044 0.19999071 -0.48059536
12
MD Step 49.5 Units = [eV / Ang.]
C  0.87280758 0.95214498 -1.38179596
C  -2.09584521 -1.61857840 1.31349711
C  0.66979456 -1.15318970 -1.45343176
C  -0.69246954 0.41166125 0.85348080
C  0.51508212 3.27808643 -0.47871776
C  -0.91064763 -2.73465581 1.21914196
H  0.30655029 -0.18393129 0.39537305
H  0.24567359 0.62193058 -0.17300084
H  -0.74092895 0.35370098 0.22162944
H  0.18310394 0.23390297 0.08346551
H  0.08919037 -0.35897919 -0.16425802
H  1.55768888 0.19790720 -0.43538353
12
MD Step 50.0 Units = [eV / Ang.]
C  1.02671435 1.04488961 -1.43058005
C  -2.12516382 -1.68785494 1.40229455
C  0.73204828 -1.06215134 -1.48267882
C  -0.76048777 0.00703074 0.90790835
C  0.74103061 3.15783925 -0.48911555
C  -0.91506863 -2.89288240 1.16779774
H  0.24462278 -0.24631261 0.39030638
H  0.19723752 0.68796475 -0.19530191
H  -0.93192886 0.37618957 0.20642366
H  0.28962126 0.49881222 0.06771499
H  -0.02925617 -0.07128714 -0.16981709
H  1.53063045 0.18776227 -0.37495226
12
MD Step 50.5 Units = [eV / Ang.]
C  1.15273017 1.10732816 -1.46738933
C  -2.11781262 -1.69196703 1.47907084
C  0.70515743 -0.96339132 -1.50365890
C  -0.80426803 -0.35970819 0.95833810
C  0.95040776 2.95118534 -0.50233768
C  -0.79551883 -2.97056652 1.09862331
H  0.18433553 -0.30010186 0.38311101
H  0.16082065 0.70890068 -0.21362749
H  -1.04741753 0.38987714 0.18665840
H  0.37639415 0.71814838 0.05380738
H  -0.16147830 0.24034884 -0.16904263
H  1.39664961 0.16994637 -0.30355300
12
MD Step 51.0 Units = [eV / Ang.]
C  1.24644397 1.13227999 -1.49283358
C  -2.07548304 -1.63036348 1.54265953
C  0.58812030 -0.85941466 -1.51692010
C  -0.81395247 -0.65839971 0.99824707
C  1.12981305 2.68175153 -0.51747811
C  -0.55568102 -2.96586484 1.01647149
H  0.12983884 -0.33875617 0.37507424
H  0.13778222 0.68309688 -0.22714862
H  -1.08276637 0.39430465 0.16330901
H  0.43080619 0.86611407 0.04801994
H  -0.29469176 0.54986225 -0.16345259
H  1.15977009 0.14538949 -0.22594828
12
MD Step 51.5 Units = [eV / Ang.]
C  1.30457959 1.11383285 -1.50742011
C  -1.99952605 -1.50622399 1.59215810
C  0.38374682 -0.75270364 -1.52311998
C  -0.78258082 -0.86646214 1.02132060
C  1.26454887 2.37993631 -0.53235390
C  -0.20581508 -2.88033448 0.92670674
H  0.08445868 -0.35679279 0.36722884
H  0.12842320 0.61194855 -0.23532405
H  -1.03708485 0.38945575 0.13761558
H  0.44353795 0.92462119 0.05641035
H  -0.41348124 0.82710934 -0.15584209
H  0.82919291 0.11561307 -0.14738008
12
MD Step 52.0 Units = [eV / Ang.]
C  1.32533205 1.04814734 -1.51140617
C  -1.89082880 -1.32632047 1.62698895
C  0.09832977 -0.64566574 -1.52296187
C  -0.70800947 -0.97300528 1.02282229
C  1.33993998 2.07891112 -0.54368308
C  0.23453937 -2.71871268 0.83501667
H  0.05030540 -0.35051867 0.36016666
H  0.13193336 0.49985422 -0.23795809
H  -0.91299569 0.37572796 0.11100369
H  0.41068252 0.88723144 0.08339841
H  -0.50153581 1.04164263 -0.15004648
H  0.42230732 0.08270813 -0.07334098
12
MD Step 52.5 Units = [eV / Ang.]
C  1.30859129 0.93408373 -1.50472658
C  -1.74963794 -1.10086562 1.64696344
C  -0.25793123 -0.54065612 -1.51713386
C  -0.59378715 -0.98047070 1.00071750
C  1.34360247 1.80895212 -0.54768501
C  0.73392485 -2.48833652 0.74684580
H  0.02803877 -0.31857957 0.35392438
H  0.14626851 0.35421940 -0.23524302
H  -0.71715876 0.35393527 0.08498829
H  0.33474967 0.76060531 0.13059831
H  -0.54436665 1.16797571 -0.15029550
H  -0.03229382 0.04913699 -0.00895375
12
MD Step 53.0 Units = [eV / Ang.]
C  1.25600050 0.77352227 -1.48701767
C  -1.57540322 -0.84323750 1.65233010
C  -0.66993012 -0.44002434 -1.50621469
C  -0.44862629 -0.90319882 0.95613334
C  1.26815149 1.59162833 -0.54101582
C  1.24795218 -2.19821370 0.66636730
H  0.01684156 -0.26221380 0.34797298
H  0.16802508 0.18535578 -0.22777126
H  -0.46135898 0.32532060 0.06102156
H  0.22415237 0.56287239 0.19634021
H  -0.53235612 1.19090742 -0.16025671
H  -0.49344845 0.01728136 0.04211065
12
MD Step 53.5 Units = [eV / Ang.]
C  1.17084755 0.57130545 -1.45773537
C  -1.36674142 -0.56942596 1.64378163
C  -1.11653461 -0.34610344 -1.49051132
C  -0.28468221 -0.76358310 0.89301445
C  1.11340480 1.43578032 -0.52174528
C  1.72182054 -1.85784466 0.59518639
H  0.01460795 -0.18514998 0.34131743
H  0.19240847 0.00610164 -0.21649872
H  -0.16370837 0.29152913 0.04025247
H  0.09138676 0.31958106 0.27603559
H  -0.46311971 1.10903158 -0.18206181
H  -0.90968975 -0.01122203 0.07896455
12
MD Step 54.0 Units = [eV / Ang.]
C  1.05781902 0.33482754 -1.41633714
C  -1.12166647 -0.29704654 1.62239483
C  -1.57003082 -0.26108633 -1.46981744
C  -0.11533369 -0.58727062 0.81717624
C  0.88717131 1.33677188 -0.49000261
C  2.09768800 -1.47611048 0.53133030
H  0.01830169 -0.09317069 0.33268295
H  0.21342306 -0.16901944 -0.20263891
H  0.15075198 0.25448356 0.02319692
H  -0.04940167 0.05873205 0.36318653
H  -0.34224967 0.93501840 -0.21568415
H  -1.22647273 -0.03612935 0.10451250
12
MD Step 54.5 Units = [eV / Ang.]
C  0.92266377 0.07338640 -1.36247521
C  -0.83818236 -0.04387041 1.58948815
C  -1.99699813 -0.18674157 -1.44314111
C  0.04678258 -0.39895898 0.73515570
C  0.60427730 1.27917794 -0.44803245
C  2.32609248 -1.06067891 0.46926357
H  0.02440355 0.00656435 0.32074260
H  0.22438380 -0.32516767 -0.18748234
H  0.45092154 0.21612422 0.00938448
H  -0.18466708 -0.19354331 0.45062377
H  -0.18213175 0.69255459 -0.25891195
H  -1.39754568 -0.05884666 0.12538478
12
MD Step 55.0 Units = [eV / Ang.]
C  0.77181289 -0.20254163 -1.29615423
C  -0.51526921 0.17399062 1.54641797
C  -2.36126450 -0.12400860 -1.40852901
C  0.19099121 -0.21968645 0.65324580
C  0.28419236 1.24167171 -0.39967399
C  2.37795876 -0.61825707 0.40136456
H  0.02936073 0.10630407 0.30433756
H  0.21877357 -0.44897453 -0.17216721
H  0.70266160 0.17803904 -0.00287701
H  -0.30298175 -0.41571192 0.53156933
H  0.00068263 0.41117310 -0.30789521
H  -1.39691830 -0.08199834 0.15036144
12
MD Step 55.5 Units = [eV / Ang.]
C  0.61198880 -0.48194606 -1.21782009
C  -0.15410378 0.34394337 1.49435598
C  -2.62898605 -0.07259656 -1.36315219
C  0.30899704 -0.06576522 0.57690218
C  -0.05184643 1.20220925 -0.34951900
C  2.25218031 -0.15563140 0.32051091
H  0.02996302 0.19846315 0.28264907
H  0.19133684 -0.53042244 -0.15745288
H  0.87397124 0.14109758 -0.01643931
H  -0.39569182 -0.59184531 0.60030774
H  0.18854377 0.12086130 -0.35800628
H  -1.22635295 -0.10836765 0.18766386
12
MD Step 56.0 Units = [eV / Ang.]
C  0.44983833 -0.75379811 -1.12837062
C  0.24075046 0.45837211 1.43412239
C  -2.77478873 -0.03078859 -1.30377617
C  0.39471237 0.05110544 0.51051905
C  -0.38334178 1.14193915 -0.30207724
C  1.97520454 0.31906321 0.22263630
H  0.02361391 0.27626768 0.25530114
H  0.13917002 -0.56436463 -0.14356787
H  0.94125601 0.10525873 -0.03483068
H  -0.45689383 -0.71135519 0.65245582
H  0.36525176 -0.15201191 -0.40468621
H  -0.91477306 -0.13968789 0.24227410
12
MD Step 56.5 Units = [eV / Ang.]
C  0.29161281 -1.00741637 -1.02910227
C  0.66055219 0.51529692 1.36612655
C  -2.78705481 0.00440987 -1.22757075
C  0.44385499 0.12314818 0.45743659
C  -0.69217822 1.04716201 -0.26119448
C  1.59291344 0.79552768 0.10806657
H  0.00848649 0.33423002 0.22239232
H  0.06249972 -0.55124847 -0.13018547
H  0.89471077 0.06968822 -0.06140323
H  -0.48305750 -0.76811719 0.68496205
H  0.51756027 -0.38679192 -0.44404124
H  -0.50990013 -0.17588896 0.31451337
12
MD Step 57.0 Units = [eV / Ang.]
C  0.14292366 -1.23279314 -0.92160950
C  1.09227690 0.51806851 1.29043729
C  -2.67033433 0.03675837 -1.13301101
C  0.45360433 0.14579229 0.42002075
C  -0.96336134 0.90953681 -0.22978885
C  1.15871397 1.26136356 -0.01883592
H  -0.01640936 0.36846759 0.18446603
H  -0.03509901 -0.49683890 -0.11654112
H  0.74076954 0.03318210 -0.09837382
H  -0.47260160 -0.75956543 0.69600085
H  0.63563010 -0.56886202 -0.47312401
H  -0.06611286 -0.21510975 0.40035932
12
MD Step 57.5 Units = [eV / Ang.]
C  0.00857302 -1.42094296 -0.80766263
C  1.51931954 0.47420380 1.20694939
C  -2.44388920 0.07008405 -1.02051944
C  0.42251881 0.11728804 0.39968383
C  -1.18512142 0.72523291 -0.20984570
C  0.72273961 1.70289799 -0.15122781
H  -0.05122144 0.37688904 0.14243827
H  -0.14712599 -0.41103178 -0.10165342
H  0.50059922 -0.00527168 -0.14612614
H  -0.42563995 -0.68615123 0.68490656
H  0.71276953 -0.68887394 -0.48996480
H  0.36647827 -0.25432424 0.49302190
12
MD Step 58.0 Units = [eV / Ang.]
C  -0.10753733 -1.56433514 -0.68907787
C  1.92284852 0.39373087 1.11558129
C  -2.13695822 0.10765453 -0.89259310
C  0.35077052 0.03880694 0.39677328
C  -1.34872799 0.49378225 -0.20253701
C  0.32529283 2.10635592 -0.28161641
H  -0.09528161 0.35929014 0.09749623
H  -0.26509414 -0.30612507 -0.08457432
H  0.20524901 -0.04603299 -0.20303971
H  -0.34400364 -0.55133906 0.65222997
H  0.74489247 -0.74162032 -0.49347359
H  0.74854958 -0.29016806 0.58483122
12
MD Step 58.5 Units = [eV / Ang.]
C  -0.20244233 -1.65738997 -0.56759322
C  2.28351723 0.28749997 1.01644017
C  -1.78261964 0.15180075 -0.75340020
C  0.24066118 -0.08496164 0.41032547
C  -1.44831637 0.21717298 -0.20835151
C  -0.00506153 2.45897944 -0.40321370
H  -0.14715030 0.31737918 0.05097952
H  -0.37970818 -0.19501809 -0.06460020
H  -0.11064472 -0.08861982 -0.26586517
H  -0.23154182 -0.36213312 0.59993272
H  0.73005626 -0.72511081 -0.48332742
H  1.05325023 -0.31959887 0.66867355
12
MD Step 59.0 Units = [eV / Ang.]
C  -0.27413092 -1.69699008 -0.44475234
C  2.58317622 0.16580267 0.90991449
C  -1.41230238 0.20383730 -0.60806021
C  0.09726648 -0.24491066 0.43775253
C  -1.48092155 -0.10048307 -0.22715120
C  -0.25017978 2.74987965 -0.51056405
H  -0.20467101 0.25474609 0.00425131
H  -0.48199605 -0.08971309 -0.04139626
H  -0.41449594 -0.13180523 -0.33043213
H  -0.09459374 -0.12992748 0.53165193
H  0.66831477 -0.64019029 -0.45991899
H  1.26453389 -0.34024580 0.73870492
12
MD Step 59.5 Units = [eV / Ang.]
C  -0.32155998 -1.68288146 -0.32180989
C  2.80631434 0.03750097 0.79668839
C  -1.05226838 0.26417069 -0.46188856
C  -0.07100728 -0.42668275 0.47459999
C  -1.44681800 -0.45261947 -0.25812574
C  -0.39969911 2.97059460 -0.59957687
H  -0.26505081 0.17673733 -0.04143462
H  -0.56418066 -0.00032491 -0.01502937
H  -0.67940311 -0.17388843 -0.39239502
H  0.05757789 0.12871210 0.45289413
H  0.56198037 -0.49082333 -0.42439167
H  1.37411472 -0.35049535 0.79046922
12
MD Step 60.0 Units = [eV / Ang.]
C  -0.34466515 -1.61787531 -0.19966346
C  2.94110836 -0.09035621 0.67770551
C  -0.72231639 0.33245503 -0.31982840
C  -0.25228922 -0.61047662 0.51458710
C  -1.35014257 -0.82930228 -0.29966750
C  -0.44854627 3.11544107 -0.66727597
H  -0.32498087 0.09020160 -0.08505998
H  -0.62022448 0.06541604 0.01407106
H  -0.88551893 -0.21299838 -0.44779653
H  0.21271520 0.39192516 0.37094646
H  0.41625560 -0.28498535 -0.37873983
H  1.37860472 -0.34944474 0.82072153
12
MD Step 60.5 Units = [eV / Ang.]
C  -0.34435983 -1.50773417 -0.07882619
C  2.98006146 -0.21255895 0.55410524
C  -0.43613879 0.40770391 -0.18612717
C  -0.43185401 -0.77211398 0.55012949
C  -1.19963217 -1.21601768 -0.34924064
C  -0.39539133 3.18171636 -0.71154566
H  -0.38081664 0.00305675 -0.12594739
H  -0.64608411 0.10229499 0.04519409
H  -1.01972559 -0.24733054 -0.49337678
H  0.35619252 0.63371065 0.29429877
H  0.24003297 -0.03587945 -0.32590303
H  1.27771552 -0.33684788 0.82723928
12
MD Step 61.0 Units = [eV / Ang.]
C  -0.32249196 -1.36069000 0.04054727
C  2.92032267 -0.32557627 0.42716170
C  -0.20248960 0.48831975 -0.06422066
C  -0.59365244 -0.88577321 0.57343922
C  -1.00913807 -1.59269209 -0.40336171
C  -0.24239352 3.16979506 -0.73108563
H  -0.42883036 -0.07634862 -0.16382381
H  -0.63978187 0.10756627 0.07744255
H  -1.07449038 -0.27528850 -0.52667456
H  0.47256059 0.82675149 0.23148733
H  0.04647925 0.23706129 -0.26973896
H  1.07390567 -0.31312516 0.80882727
12
MD Step 61.5 Units = [eV / Ang.]
C  -0.28174151 -1.18659478 0.15857437
C  2.76375678 -0.42737901 0.29822954
C  -0.02640652 0.57208974 0.04328004
C  -0.72264549 -0.92821242 0.57804956
C  -0.79740339 -1.93367299 -0.45781885
C  0.00372316 3.08309341 -0.72568438
H  -0.46552653 -0.14005063 -0.19882122
H  -0.60139634 0.08088010 0.10982981
H  -1.04667226 -0.29555531 -0.54602326
H  0.54790361 0.94670702 0.18951783
H  -0.14711601 0.50814630 -0.21475285
H  0.77352451 -0.27945143 0.76561943
12
MD Step 62.0 Units = [eV / Ang.]
C  -0.22544683 -0.99581945 0.27549730
C  2.51684178 -0.51733623 0.16870028
C  0.09002591 0.65620313 0.13459531
C  -0.80739662 -0.88352341 0.56034358
C  -0.58660033 -2.20943957 -0.50821267
C  0.32943574 2.92786130 -0.69681286
H  -0.48799090 -0.18137034 -0.23140236
H  -0.53304003 0.02427400 0.14137128
H  -0.93681172 -0.30714221 -0.55054726
H  0.57248084 0.97698584 0.17230337
H  -0.32073750 0.74717507 -0.16550917
H  0.38923966 -0.23786813 0.69967319
12
MD Step 62.5 Units = [eV / Ang.]
C  -0.15737644 -0.79804359 0.39149754
C  2.19040323 -0.59622448 0.03995176
C  0.14760648 0.73736605 0.20884782
C  -0.84209861 -0.74690396 0.52051871
C  -0.39943432 -2.39040108 -0.55075946
C  0.71158553 2.71269473 -0.64839209
H  -0.49422529 -0.19576308 -0.26221593
H  -0.43882903 -0.05776703 0.17117426
H  -0.74913238 -0.30945677 -0.54022775
H  0.54282147 0.91246746 0.17969295
H  -0.45445598 0.92333586 -0.12578816
H  -0.05686466 -0.19130410 0.61570036
12
MD Step 63.0 Units = [eV / Ang.]
C  -0.08144713 -0.60119024 0.50650560
C  1.79914563 -0.66629321 -0.08670801
C  0.15066126 0.81203280 0.26621973
C  -0.82731286 -0.52605128 0.46258108
C  -0.25523621 -2.45228873 -0.58313550
C  1.11508796 2.44768929 -0.58737968
H  -0.48340301 -0.18143642 -0.29190647
H  -0.32479806 -0.15825158 0.19852268
H  -0.49225425 -0.30241087 -0.51606232
H  0.46250758 0.76077530 0.20750787
H  -0.53220198 1.01077010 -0.09772262
H  -0.53074893 -0.14334517 0.52157762
12
MD Step 63.5 Units = [eV / Ang.]
C  -0.00144944 -0.41068722 0.62005319
C  1.36094022 -0.73124746 -0.21010798
C  0.10817636 0.87673558 0.30816658
C  -0.76916562 -0.23963508 0.39334339
C  -0.16613919 -2.38165032 -0.60501830
C  1.49296845 2.14319985 -0.52365254
H  -0.45599383 -0.13960534 -0.32092263
H  -0.19866623 -0.26777400 0.22295116
H  -0.18036081 -0.28655677 -0.48027889
H  0.34133878 0.54057665 0.24860502
H  -0.54538062 0.99427671 -0.08125633
H  -0.98626806 -0.09763259 0.42811730
12
MD Step 64.0 Units = [eV / Ang.]
C  0.07922514 -0.22920962 0.73120290
C  0.89579119 -0.79600376 -0.32927895
C  0.03495085 0.92844947 0.33759226
C  -0.67737398 0.08651216 0.32082935
C  -0.13473077 -2.17943806 -0.61806043
C  1.79054582 1.80839460 -0.46869594
H  -0.41373131 -0.07432515 -0.34936854
H  -0.06936079 -0.37492608 0.24428965
H  0.16569467 -0.26320051 -0.43649750
H  0.19322067 0.27758742 0.29455371
H  -0.49495639 0.87309592 -0.07419503
H  -1.36927511 -0.05693639 0.34762853
12
MD Step 64.5 Units = [eV / Ang.]
C  0.15780977 -0.05692734 0.83857398
C  0.42449459 -0.86605167 -0.44349295
C  -0.04795605 0.96485024 0.35883080
C  -0.56291596 0.42406497 0.25267144
C  -0.15408752 -1.86119689 -0.62527196
C  1.95445197 1.45002303 -0.43304671
H  -0.35942385 0.00806573 -0.37693430
H  0.05374969 -0.46717002 0.26265944
H  0.51810170 -0.23440987 -0.38968000
H  0.03355741 -0.00024871 0.33732036
H  -0.39112630 0.66122132 -0.07287066
H  -1.62665547 -0.02222080 0.29124056
12
MD Step 65.0 Units = [eV / Ang.]
C  0.23232047 0.10784959 0.94045337
C  -0.03291805 -0.94640173 -0.55225887
C  -0.11432965 0.98437339 0.37726371
C  -0.43612088 0.74627005 0.19496864
C  -0.21012905 -1.45379526 -0.63006991
C  1.94473015 1.07199887 -0.42321156
H  -0.29665350 0.09975678 -0.40291727
H  0.16186604 -0.53219740 0.27840222
H  0.84347628 -0.20283229 -0.34569159
H  -0.12303882 -0.26691092 0.37047774
H  -0.25071929 0.38410442 -0.07315421
H  -1.71848370 0.00778449 0.26573773
12
MD Step 65.5 Units = [eV / Ang.]
C  0.30162723 0.26781155 1.03495689
C  -0.45875730 -1.04022931 -0.65526128
C  -0.13600803 0.98598521 0.39848766
C  -0.30562969 1.03055630 0.15177259
C  -0.28528659 -0.99008276 -0.63538247
C  1.74571400 0.67617089 -0.43941073
H  -0.22941777 0.19237189 -0.42632162
H  0.24785723 -0.55962776 0.29194664
H  1.10646331 -0.17128790 -0.31040082
H  -0.26422352 -0.50089796 0.38975338
H  -0.09339620 0.07311405 -0.07142134
H  -1.62894266 0.03611580 0.27128110
12
MD Step 66.0 Units = [eV / Ang.]
C  0.36540805 0.42578473 1.12020410
C  -0.83899175 -1.14755721 -0.75226275
C  -0.08802426 0.96877604 0.42714240
C  -0.17821519 1.25955871 0.12511147
C  -0.36213028 -0.50351160 -0.64310497
C  1.37084510 0.26410447 -0.47536937
H  -0.16177190 0.27781728 -0.44600596
H  0.30719499 -0.54270002 0.30363993
H  1.27533124 -0.14220521 -0.28844146
H  -0.38050128 -0.68616833 0.39301311
H  0.06196460 -0.24019591 -0.06516917
H  -1.37110934 0.06629703 0.30124268
12
MD Step 66.5 Units = [eV / Ang.]
C  0.42398699 0.58403741 1.19447121
C  -1.16404598 -1.26436213 -0.84299577
C  0.04555560 0.93153949 0.46574169
C  -0.05916127 1.42100345 0.11531393
C  -0.42597830 -0.02431877 -0.65398181
C  0.85906314 -0.16089149 -0.52035887
H  -0.09751748 0.34896174 -0.46084514
H  0.33848375 -0.47953190 0.31359801
H  1.32826734 -0.11708228 -0.28200742
H  -0.46514162 -0.81188205 0.37991747
H  0.19971003 -0.52833619 -0.05319492
H  -0.98322221 0.10086272 0.34434163
12
MD Step 67.0 Units = [eV / Ang.]
C  0.47806216 0.74382917 1.25630825
C  -1.42895061 -1.38246404 -0.92709188
C  0.26709719 0.87261257 0.51397809
C  0.04717806 1.50703439 0.12141930
C  -0.46612762 0.42219340 -0.66780927
C  0.26453574 -0.59240664 -0.56247146
H  -0.03995308 0.40012170 -0.46987662
H  0.34344285 -0.37357826 0.32162328
H  1.25831056 -0.09619336 -0.29016449
H  -0.51376811 -0.87157920 0.35148269
H  0.30840722 -0.76998028 -0.03544063
H  -0.51823436 0.14041053 0.38804274
12
MD Step 67.5 Units = [eV / Ang.]
C  0.52838641 0.90517958 1.30461417
C  -1.63285873 -1.49030462 -1.00407063
C  0.56400125 0.79009835 0.56883344
C  0.13698627 1.51352320 0.14152826
C  -0.47593360 0.81566977 -0.68377268
C  -0.35561530 -1.02069005 -0.59161594
H  0.00830982 0.42735342 -0.47241369
H  0.32635786 -0.23313792 0.32722295
H  1.07502109 -0.07867818 -0.30902062
H  -0.52393804 -0.86236647 0.30969961
H  0.38068661 -0.95017776 -0.01267905
H  -0.03140364 0.18353067 0.42167419
12
MD Step 68.0 Units = [eV / Ang.]
C  0.57542361 1.06679461 1.33867934
C  -1.77814292 -1.57446176 -1.07338288
C  0.91112898 0.68245997 0.62547399
C  0.20694378 1.43971211 0.17304228
C  -0.45219698 1.13986995 -0.70076493
C  -0.95099898 -1.43342483 -0.60119325
H  0.04548442 0.42860482 -0.46811960
H  0.29318589 -0.07006299 0.32971774
H  0.80218979 -0.06297364 -0.33272887
H  -0.49493191 -0.78448752 0.25727024
H  0.41248492 -1.05945933 0.01380809
H  0.42942940 0.22742858 0.43819783
12
MD Step 68.5 Units = [eV / Ang.]
C  0.61904833 1.22607513 1.35820189
C  -1.86931981 -1.62149900 -1.13448643
C  1.27609825 0.54922985 0.67855682
C  0.25459943 1.28835708 0.21280829
C  -0.39431070 1.38178440 -0.71760782
C  -1.48285868 -1.81700002 -0.58831227
H  0.07071055 0.40376215 -0.45704245
H  0.25056106 0.10197218 0.32840332
H  0.47252105 -0.04739048 -0.35492627
H  -0.42786011 -0.64143868 0.19744438
H  0.40218356 -1.09262952 0.04248093
H  0.82862709 0.26877691 0.43447960
12
MD Step 69.0 Units = [eV / Ang.]
C  0.65830999 1.37915469 1.36328209
C  -1.91205230 -1.61971950 -1.18691539
C  1.62547645 0.39159056 0.72343733
C  0.27909887 1.06636753 0.25722753
C  -0.30349986 1.53127506 -0.73316395
C  -1.92458105 -2.15782746 -0.55305826
H  0.08413381 0.35462901 -0.43961231
H  0.20492800 0.26920749 0.32271086
H  0.12129257 -0.03060547 -0.37007495
H  -0.32609259 -0.44061097 0.13389240
H  0.34998874 -1.04786845 0.07170582
H  1.14299738 0.30440749 0.41056883
12
MD Step 69.5 Units = [eV / Ang.]
C  0.69127619 1.52097807 1.35439337
C  -1.91236166 -1.56048127 -1.23032297
C  1.92989042 0.21263158 0.75691499
C  0.28210523 0.78573722 0.30241564
C  -0.18236856 1.58146968 -0.74637401
C  -2.25958329 -2.44343654 -0.49747061
H  0.08695498 0.28483525 -0.41660201
H  0.16193276 0.41920988 0.31232781
H  -0.21899664 -0.01192530 -0.37431588
H  -0.19589121 -0.19422670 0.07052396
H  0.25771498 -0.92647950 0.09986147
H  1.35932680 0.33168764 0.36864821
12
MD Step 70.0 Units = [eV / Ang.]
C  0.71499598 1.64545286 1.33232612
C  -1.87610472 -1.43893593 -1.26449529
C  2.16696544 0.01726162 0.77743790
C  0.26861531 0.46434104 0.34449152
C  -0.03484047 1.52993944 -0.75627059
C  -2.47843083 -2.66330147 -0.42468140
H  0.08142665 0.19965177 -0.38905020
H  0.12609113 0.54180779 0.29725984
H  -0.52185857 0.00868687 -0.36573690
H  -0.04698576 0.07987181 0.01117130
H  0.12900934 -0.73340479 0.12542747
H  1.47111649 0.34862898 0.31212024
12
MD Step 70.5 Units = [eV / Ang.]
C  0.72558408 1.74572783 1.29809933
C  -1.80865558 -1.25420275 -1.28934371
C  2.32203372 -0.18815922 0.78490500
C  0.24728920 0.12596828 0.38003672
C  0.13349104 1.38044146 -0.76201582
C  -2.57641561 -2.80942700 -0.33839635
H  0.07076510 0.10567389 -0.35814623
H  0.10067674 0.62956537 0.27783657
H  -0.76784957 0.03074183 -0.34419316
H  0.10729371 0.35821027 -0.04089794
H  -0.03006303 -0.47839840 0.14709620
H  1.47585020 0.35385844 0.24501939
12
MD Step 71.0 Units = [eV / Ang.]
C  0.71845777 1.81465297 1.25284408
C  -1.71472321 -1.00915027 -1.30489266
C  2.38729633 -0.39635103 0.78029987
C  0.22987004 -0.20105842 0.40666668
C  0.31473492 1.14478885 -0.76299438
C  -2.55222316 -2.87676549 -0.24269416
H  0.05893584 0.01033458 -0.32508340
H  0.08773276 0.67793179 0.25467443
H  -0.94404681 0.05341049 -0.31091014
H  0.25076020 0.61310721 -0.08357709
H  -0.21027537 -0.17748073 0.16393007
H  1.37348070 0.34658005 0.17173669
12
MD Step 71.5 Units = [eV / Ang.]
C  0.68873539 1.84542358 1.19767381
C  -1.59822761 -0.70995956 -1.31126979
C  2.36029679 -0.59971485 0.76533164
C  0.22946034 -0.48703925 0.42355029
C  0.49808922 0.84410825 -0.75895666
C  -2.40788993 -2.86348311 -0.14201042
H  0.05029516 -0.07875066 -0.29089711
H  0.08812026 0.68521983 0.22861110
H  -1.04281792 0.07569652 -0.26806504
H  0.36624605 0.81587919 -0.11644886
H  -0.39868539 0.14601158 0.17555129
H  1.16637765 0.32660847 0.09692976
12
MD Step 72.0 Units = [eV / Ang.]
C  0.63177800 1.83237290 1.13356994
C  -1.46218888 -0.36563385 -1.30869838
C  2.24246790 -0.79091850 0.74217764
C  0.25780884 -0.70553497 0.43163622
C  0.66970734 0.50854336 -0.75016026
C  -2.15006164 -2.77110353 -0.04113210
H  0.04909268 -0.15456963 -0.25631704
H  0.10154348 0.65253791 0.20061865
H  -1.06061982 0.09656444 -0.21845209
H  0.43846887 0.94151638 -0.14099534
H  -0.57874208 0.46172201 0.18230537
H  0.86074532 0.29450346 0.02544738
12
MD Step 72.5 Units = [eV / Ang.]
C  0.54382223 1.77178561 1.06131328
C  -1.30860769 0.01246151 -1.29747811
C  2.03820784 -0.96342185 0.71332873
C  0.32232975 -0.83834010 0.43338871
C  0.81353273 0.17453664 -0.73741105
C  -1.79236210 -2.60449993 0.05499151
H  0.05889494 -0.21151718 -0.22166818
H  0.12653014 0.58372757 0.17169588
H  -0.99728787 0.11502940 -0.16524626
H  0.45718392 0.97366165 -0.16029316
H  -0.73151073 0.73480649 0.18530026
H  0.46926683 0.25177019 -0.03792161
12
MD Step 73.0 Units = [eV / Ang.]
C  0.42262112 1.66259111 0.98148985
C  -1.13837166 0.41102739 -1.27794751
C  1.75471299 -1.11190597 0.68148413
C  0.42386423 -0.87915478 0.43204043
C  0.91338088 -0.12053801 -0.72191560
C  -1.35830304 -2.37168807 0.14179307
H  0.08202449 -0.24608308 -0.18685108
H  0.16038677 0.48528001 0.14273975
H  -0.85602848 0.13022640 -0.11182122
H  0.41957370 0.90823858 -0.17820036
H  -0.83819191 0.93098219 0.18622900
H  0.01433090 0.20102423 -0.08904046
12
MD Step 73.5 Units = [eV / Ang.]
C  0.26797186 1.50675379 0.89457879
C  -0.95123297 0.81530207 -1.25041622
C  1.40255873 -1.23255809 0.64941152
C  0.55609014 -0.83459343 0.43060228
C  0.95600972 -0.34545186 -0.70491392
C  -0.88354425 -2.08331653 0.21604267
H  0.11913736 -0.25727440 -0.15141586
H  0.19918696 0.36612963 0.11439840
H  -0.64411634 0.14147701 -0.06154079
H  0.33094664 0.75434054 -0.19829195
H  -0.88356436 1.02323155 0.18695589
H  -0.46944348 0.14595973 -0.12541082
12
MD Step 74.0 Units = [eV / Ang.]
C  0.08204767 1.30927310 0.80109950
C  -0.74595662 1.20968696 -1.21507861
C  0.99681639 -1.32321192 0.61968977
C  0.70680419 -0.72215626 0.43100753
C  0.93429925 -0.48178491 -0.68720353
C  -0.41569465 -1.75176328 0.27704554
H  0.16903690 -0.24668470 -0.11471595
H  0.23787415 0.23719851 0.08692352
H  -0.37406736 0.14836288 -0.01744141
H  0.20346361 0.53202825 -0.22293776
H  -0.85936478 0.99809434 0.18897818
H  -0.93525876 0.09095703 -0.14736679
12
MD Step 74.5 Units = [eV / Ang.]
C  -0.13052569 1.07775775 0.70178015
C  -0.52072027 1.57863834 -1.17193693
C  0.55822520 -1.38332427 0.59428380
C  0.86053153 -0.56603445 0.43368648
C  0.84936363 -0.52767824 -0.66875033
C  -0.00984301 -1.38986158 0.32757419
H  0.22877532 -0.21819266 -0.07610628
H  0.27056809 0.11057165 0.06005526
H  -0.06480557 0.15079541 0.01824476
H  0.05341365 0.26792357 -0.25283597
H  -0.76636864 0.85912146 0.19297196
H  -1.32861425 0.04028301 -0.15896708
12
MD Step 75.0 Units = [eV / Ang.]
C  -0.36286023 0.82168514 0.59768788
C  -0.27379858 1.90782985 -1.12076897
C  0.11369826 -1.41378027 0.57397013
C  1.00144186 -0.39233786 0.43763485
C  0.71071691 -0.49716496 -0.64857957
C  0.28070921 -1.00950466 0.37384158
H  0.29401895 -0.17736897 -0.03513587
H  0.29112184 -0.00170886 0.03298672
H  0.25790162 0.14905495 0.04469913
H  -0.10193049 -0.00977486 -0.28707817
H  -0.61431002 0.62599480 0.19862106
H  -1.59670934 -0.00292429 -0.16787878
12
MD Step 75.5 Units = [eV / Ang.]
C  -0.60620190 0.55151331 0.49028590
C  -0.00452113 2.18548012 -1.06118775
C  -0.30467243 -1.41654290 0.55776267
C  1.11564349 -0.22517497 0.44082371
C  0.53443357 -0.41546163 -0.62500128
C  0.41651190 -0.62060278 0.42403612
H  0.35959219 -0.13072373 0.00830838
H  0.29391437 -0.08912117 0.00445030
H  0.56258505 0.14376123 0.06310550
H  -0.24690799 -0.27536345 -0.32359144
H  -0.41967092 0.32969176 0.20478882
H  -1.70070621 -0.03745579 -0.18378094
12
MD Step 76.0 Units = [eV / Ang.]
C  -0.85049983 0.27784528 0.38139283
C  0.28567912 2.40357880 -0.99279864
C  -0.66272463 -1.39415197 0.54259823
C  1.19242432 -0.08435768 0.44071568
C  0.34007224 -0.31225133 -0.59605532
C  0.38236443 -0.23085806 0.48568203
H  0.42008628 -0.08493724 0.05393332
H  0.27475421 -0.14413407 -0.02705795
H  0.81538062 0.13574944 0.07694332
H  -0.36899145 -0.50800751 -0.35970985
H  -0.20224035 0.00569797 0.20992306
H  -1.62630497 -0.06417362 -0.21556671
12
MD Step 76.5 Units = [eV / Ang.]
C  -1.08506214 0.01079281 0.27306476
C  0.59234460 2.55870955 -0.91544046
C  -0.92932092 -1.34917369 0.52358538
C  1.22448416 0.01532809 0.43469756
C  0.14750364 -0.21546694 -0.55997499
C  0.19133917 0.15355440 0.56291050
H  0.47042539 -0.04619482 0.10104922
H  0.23169887 -0.16332710 -0.06294511
H  0.98535474 0.12586787 0.09168488
H  -0.45923732 -0.69244106 -0.39267058
H  0.01831095 -0.31228008 0.21249983
H  -1.38784114 -0.08536902 -0.26846099
12
MD Step 77.0 Units = [eV / Ang.]
C  -1.29925412 -0.24042797 0.16742666
C  0.90748135 2.65219496 -0.82943724
C  -1.08226792 -1.28368860 0.49496137
C  1.20755831 0.06378640 0.42036201
C  -0.02549203 -0.14727117 -0.51551192
C  -0.11954070 0.52680324 0.65495860
H  0.50632181 -0.01967948 0.14864382
H  0.16556365 -0.14784956 -0.10415655
H  1.05064423 0.11476105 0.11375329
H  -0.51200115 -0.81852514 -0.41994590
H  0.22488790 -0.59643893 0.21134757
H  -1.02390134 -0.10366481 -0.34240170
12
MD Step 77.5 Units = [eV / Ang.]
C  -1.48319065 -0.46770441 0.06649572
C  1.21965363 2.68949336 -0.73577876
C  -1.11309473 -1.19897646 0.45157939
C  1.13983252 0.05485385 0.39565560
C  -0.16449239 -0.12260564 -0.46206306
C  -0.49980910 0.88233274 0.75653736
H  0.52459101 -0.00923859 0.19549731
H  0.07996536 -0.10308747 -0.15088008
H  1.00341266 0.10273349 0.14893475
H  -0.52434434 -0.88032846 -0.43941745
H  0.40412461 -0.82644803 0.20579158
H  -0.58664858 -0.12102439 -0.43235237
12
MD Step 78.0 Units = [eV / Ang.]
C  -1.62837223 -0.66416540 -0.02797306
C  1.51472528 2.67900185 -0.63616648
C  -1.02882277 -1.09548022 0.39042481
C  1.02149737 -0.01437455 0.35896325
C  -0.25874464 -0.14971705 -0.39963312
C  -0.89747938 1.21242552 0.85964661
H  0.52334073 -0.01718988 0.24031500
H  -0.01912224 -0.03764295 -0.20240188
H  0.85171285 0.08976229 0.20076866
H  -0.49548628 -0.87528863 -0.44945928
H  0.54644038 -0.98905856 0.19565137
H  -0.12968907 -0.13827241 -0.53013587
12
MD Step 78.5 Units = [eV / Ang.]
C  -1.72823406 -0.82432239 -0.11460153
C  1.77711133 2.63055517 -0.53290315
C  -0.84995832 -0.97302533 0.31156434
C  0.85459867 -0.14381329 0.30918996
C  -0.30088262 -0.23163661 -0.32871451
C  -1.26804540 1.50842123 0.95578688
H  0.50205923 -0.04422587 0.28186314
H  -0.12418358 0.03809021 -0.25714825
H  0.61748380 0.07565008 0.26953142
H  -0.42651893 -0.80380544 -0.44899961
H  0.64546970 -1.07672262 0.18115842
H  0.30110018 -0.15516514 -0.62672711
12
MD Step 79.0 Units = [eV / Ang.]
C  -1.77857683 -0.94428749 -0.19245976
C  1.99128572 2.55399395 -0.42866572
C  -0.60554117 -0.83119430 0.21818365
C  0.64322799 -0.33013528 0.24588663
C  -0.28647439 -0.36773182 -0.25015556
C  -1.57868028 1.76139284 1.03763192
H  0.46163516 -0.08937461 0.31909381
H  -0.22713273 0.11339026 -0.31288562
H  0.33151399 0.06024143 0.35217380
H  -0.32045987 -0.66940501 -0.43761595
H  0.69735150 -1.08610998 0.16285893
H  0.67185090 -0.17077998 -0.71404613
12
MD Step 79.5 Units = [eV / Ang.]
C  -1.77785966 -1.02203623 -0.26110141
C  2.14326390 2.45803118 -0.32622325
C  -0.32713811 -0.66970407 0.11579574
C  0.39397697 -0.56601449 0.16943074
C  -0.21369381 -0.55475781 -0.16505988
C  -1.80823319 1.96294790 1.09978961
H  0.40432006 -0.15000306 0.35125573
H  -0.32023581 0.17843347 -0.36701522
H  0.02729912 0.04360029 0.44312757
H  -0.18261393 -0.47944721 -0.41568276
H  0.70023602 -1.01709764 0.14153519
H  0.96067845 -0.18395234 -0.78585206
12
MD Step 80.0 Units = [eV / Ang.]
C  -1.72731008 -1.05767421 -0.32056526
C  2.22182298 2.34956934 -0.22817176
C  -0.04375387 -0.48869744 0.01104035
C  0.11647834 -0.83911656 0.08122777
C  -0.08331031 -0.78715994 -0.07472480
C  -1.94484487 2.10596889 1.13879390
H  0.33362942 -0.22186937 0.37797999
H  -0.39682932 0.22512176 -0.41688550
H  -0.26421662 0.02608983 0.53555636
H  -0.02107835 -0.24611933 -0.38454540
H  0.65421914 -0.87251512 0.11815057
H  1.15519356 -0.19359785 -0.83785623
12
MD Step 80.5 Units = [eV / Ang.]
C  -1.63083741 -1.05361970 -0.37134536
C  2.21935754 2.23341685 -0.13672841
C  0.22122768 -0.28892228 -0.08945197
C  -0.17623065 -1.13126946 -0.01614100
C  0.10090557 -1.05660207 0.01939627
C  -1.98296161 2.18520627 1.15269621
H  0.25415906 -0.29926119 0.39933367
H  -0.45178995 0.24752763 -0.46006988
H  -0.51786486 0.00835362 0.62256181
H  0.15287773 0.01274283 -0.34664477
H  0.56178017 -0.65868386 0.09380387
H  1.24937674 -0.19888863 -0.86741044
12
MD Step 81.0 Units = [eV / Ang.]
C  -1.49472550 -1.01459769 -0.41432093
C  2.13235086 2.11231143 -0.05359619
C  0.45096417 -0.07182792 -0.17983290
C  -0.46788573 -1.41846433 -0.11893552
C  0.33140373 -1.35093283 0.11574566
C  -1.92090874 2.19772504 1.14060978
H  0.17128608 -0.37527364 0.41582326
H  -0.48178098 0.24204686 -0.49458538
H  -0.71532502 -0.00876453 0.69802878
H  0.32493085 0.27366805 -0.30547855
H  0.42864849 -0.38656639 0.06965906
H  1.24104180 -0.19932406 -0.87311706
12
MD Step 81.5 Units = [eV / Ang.]
C  -1.32708704 -0.94737982 -0.45063903
C  1.96150951 1.98711423 0.02011152
C  0.63454873 0.16036394 -0.25538137
C  -0.74000870 -1.67234911 -0.22255717
C  0.59589665 -1.65298403 0.21276441
C  -1.75961177 2.14320167 1.10243842
H  0.09073789 -0.44227074 0.42833587
H  -0.48534832 0.20739989 -0.51905439
H  -0.84465115 -0.02431506 0.75703911
H  0.47866466 0.50906420 -0.26528457
H  0.26484311 -0.07309299 0.04682256
H  1.13050644 -0.19475218 -0.85459536
12
MD Step 82.0 Units = [eV / Ang.]
C  -1.13714351 -0.86020826 -0.48154712
C  1.71166842 1.85705670 0.08390924
C  0.76570085 0.40460462 -0.31253968
C  -0.97388814 -1.86358348 -0.32216870
C  0.87667502 -1.93990189 0.30906029
C  -1.50263986 2.02406786 1.03890571
H  0.01803929 -0.49255367 0.43800889
H  -0.46293669 0.14458996 -0.53282319
H  -0.89908961 -0.03732656 0.79596262
H  0.59753156 0.69058627 -0.23040465
H  0.08539604 0.25804689 0.02615411
H  0.92068662 -0.18537842 -0.81251754
12
MD Step 82.5 Units = [eV / Ang.]
C  -0.93438412 -0.76195009 -0.50818836
C  1.39150994 1.71999363 0.13795421
C  0.84148254 0.65696473 -0.34881402
C  -1.15326392 -1.96667896 -0.41354447
C  1.15084557 -2.18383802 0.40362648
C  -1.15757911 1.84545755 0.95188906
H  -0.04210139 -0.51918753 0.44603738
H  -0.41686132 0.05687005 -0.53604667
H  -0.87591466 -0.04687521 0.81240303
H  0.66756488 0.79397589 -0.20442913
H  -0.08989735 0.57703257 0.00803679
H  0.61859894 -0.17176461 -0.74892429
12
MD Step 83.0 Units = [eV / Ang.]
C  -0.72773885 -0.66107760 -0.53139113
C  1.01315998 1.57263390 0.18303952
C  0.86148047 0.91262064 -0.36270226
C  -1.26700821 -1.96511052 -0.49389734
C  1.39210947 -2.35469765 0.49602565
C  -0.73850079 1.61491077 0.84496172
H  -0.08636831 -0.51688557 0.45344842
H  -0.35123890 -0.05028097 -0.52973659
H  -0.77573373 -0.05215065 0.80516011
H  0.68014288 0.80413224 -0.18937669
H  -0.23831199 0.85069501 -0.00781234
H  0.23800797 -0.15478961 -0.66771907
12
MD Step 83.5 Units = [eV / Ang.]
C  -0.52489066 -0.56464284 -0.55149970
C  0.59164023 1.41080719 0.22054457
C  0.82768084 1.16592694 -0.35375415
C  -1.31092165 -1.85498136 -0.56237770
C  1.57429256 -2.42497633 0.58642581
C  -0.26889338 1.34178433 0.72390205
H  -0.11325929 -0.48279311 0.46089007
H  -0.27182304 -0.16925793 -0.51574773
H  -0.60248127 -0.05253585 0.77431402
H  0.63387759 0.71868249 -0.18522022
H  -0.33774973 1.04750720 -0.02237484
H  -0.19747221 -0.13552073 -0.57510218
12
MD Step 84.0 Units = [eV / Ang.]
C  -0.33181921 -0.47746896 -0.56829439
C  0.14414402 1.22984137 0.25231108
C  0.74503794 1.41059547 -0.32279544
C  -1.28797559 -1.64583411 -0.62004378
C  1.67600498 -2.37567032 0.67539994
C  0.21618328 1.03639288 0.59679353
H  -0.12324876 -0.41699716 0.46848677
H  -0.18568288 -0.29060509 -0.49666753
H  -0.36408334 -0.04771130 0.72146144
H  0.53490649 0.54864760 -0.18996172
H  -0.37134031 1.14376232 -0.03711893
H  -0.65212661 -0.11495270 -0.47957097
12
MD Step 84.5 Units = [eV / Ang.]
C  -0.15262738 -0.40171366 -0.58103036
C  -0.31090154 1.02513871 0.28041561
C  0.62254515 1.63998307 -0.27226621
C  -1.20695227 -1.35831357 -0.66933087
C  1.68498846 -2.20130371 0.76350651
C  0.67057289 0.70898958 0.47328647
H  -0.11865129 -0.32264313 0.47580259
H  -0.10066045 -0.40358963 -0.47557459
H  -0.07357405 -0.03778028 0.65004476
H  0.39547640 0.31592963 -0.20022404
H  -0.33159223 1.12893887 -0.05356103
H  -1.07862368 -0.09363589 -0.39106884
12
MD Step 85.0 Units = [eV / Ang.]
C  0.01037449 -0.33690975 -0.58858807
C  -0.75496586 0.79299765 0.30683441
C  0.47437015 1.84744851 -0.20652875
C  -1.08005826 -1.01965101 -0.71325447
C  1.60048984 -1.91204373 0.85080469
C  1.04181830 0.36884124 0.36282539
H  -0.10321705 -0.20562088 0.48191944
H  -0.02460045 -0.49713016 -0.45565800
H  0.24979970 -0.02339124 0.56562202
H  0.23137325 0.04862041 -0.21211327
H  -0.22243401 1.00816450 -0.07275411
H  -1.42295011 -0.07132554 -0.31910930
12
MD Step 85.5 Units = [eV / Ang.]
C  0.15641953 -0.28043967 -0.58970054
C  -1.17068539 0.53163404 0.33303449
C  0.32038506 2.02669076 -0.13191006
C  -0.92043921 -0.65864132 -0.75465934
C  1.43271301 -1.53194902 0.93652676
C  1.28065490 0.02373261 0.27218255
H  -0.08155559 -0.07389023 0.48561258
H  0.03557674 -0.56104217 -0.43973453
H  0.58018914 -0.00580507 0.47583750
H  0.05911408 -0.22415070 -0.22203000
H  -0.05824537 0.80074341 -0.09492103
H  -1.63412690 -0.04688265 -0.27023837
12
MD Step 86.0 Units = [eV / Ang.]
C  0.28594197 -0.22830965 -0.58319491
C  -1.54308213 0.24223190 0.35958507
C  0.18530880 2.17198795 -0.05623401
C  -0.74033289 -0.30161260 -0.79571879
C  1.19968600 -1.09405801 1.01905691
C  1.35293254 -0.31985651 0.20327402
H  -0.05851669 0.06340813 0.48557318
H  0.07479702 -0.58742028 -0.42975664
H  0.88625809 0.01315355 0.38984436
H  -0.10629225 -0.47630509 -0.22720724
H  0.13969241 0.53540406 -0.11938303
H  -1.67639286 -0.01862345 -0.24583893
12
MD Step 86.5 Units = [eV / Ang.]
C  0.40022348 -0.17602205 -0.56819122
C  -1.86054237 -0.07023569 0.38589241
C  0.09587156 2.27826055 0.01230406
C  -0.55018291 0.02988135 -0.83774440
C  0.92292444 -0.63427430 1.09621106
C  1.24946524 -0.65594337 0.15242234
H  -0.03864065 0.19688732 0.48062920
H  0.09054184 -0.57187700 -0.42643329
H  1.13438078 0.03131356 0.31704798
H  -0.25262023 -0.68709516 -0.22591189
H  0.34784726 0.24419177 -0.14477896
H  -1.53926845 0.01491302 -0.24144727
12
MD Step 87.0 Units = [eV / Ang.]
C  0.50105046 -0.11935322 -0.54422822
C  -2.11536611 -0.39669836 0.41016621
C  0.07609191 2.34098144 0.06678395
C  -0.35859590 0.31970875 -0.88122738
C  0.62350140 -0.18611743 1.16567378
C  0.98923497 -0.97803698 0.11162613
H  -0.02575082 0.31774943 0.46992198
H  0.08315904 -0.51432601 -0.42908050
H  1.29379851 0.04653487 0.26532179
H  -0.37077818 -0.84166595 -0.21738721
H  0.54452384 -0.04288881 -0.16943879
H  -1.24086911 0.05411227 -0.24813175
12
MD Step 87.5 Units = [eV / Ang.]
C  0.59039681 -0.05492811 -0.51130583
C  -2.30380886 -0.72438036 0.42965005
C  0.14175233 2.35602865 0.10325767
C  -0.17277817 0.55670698 -0.92599836
C  0.31953162 0.22247257 1.22541686
C  0.61428361 -1.27850966 0.07129048
H  -0.02270746 0.41843928 0.45301646
H  0.05569050 -0.41909096 -0.43575405
H  1.34260854 0.05715729 0.23919561
H  -0.45454133 -0.93048820 -0.20166093
H  0.71236913 -0.30120873 -0.19174715
H  -0.82279672 0.09780125 -0.25536080
12
MD Step 88.0 Units = [eV / Ang.]
C  0.67012662 0.01943491 -0.46985998
C  -2.42565968 -1.03789437 0.44106955
C  0.29588234 2.31966723 0.12184053
C  0.00096898 0.73379200 -0.97140267
C  0.02525219 0.57016638 1.27397663
C  0.17874905 -1.54868931 0.02310380
H  -0.03130192 0.49309536 0.42994262
H  0.01326868 -0.29430377 -0.44363299
H  1.27270079 0.06236676 0.23869194
H  -0.50005182 -0.94838197 -0.17933171
H  0.83915115 -0.51263903 -0.21038829
H  -0.33908638 0.14338580 -0.25400944
12
MD Step 88.5 Units = [eV / Ang.]
C  0.74172746 0.10454419 -0.42069861
C  -2.48352651 -1.32084239 0.44118351
C  0.52709192 2.22879822 0.12669218
C  0.15696440 0.84715971 -1.01644577
C  -0.24871198 0.84181220 1.31055943
C  -0.26314112 -1.77961123 -0.03811451
H  -0.05224438 0.53783477 0.40117878
H  -0.03774433 -0.15075461 -0.44954611
H  1.09176436 0.06233064 0.25933582
H  -0.50538949 -0.89368430 -0.15139722
H  0.91730954 -0.66507734 -0.22445390
H  0.15590014 0.18749012 -0.23829359
12
MD Step 89.0 Units = [eV / Ang.]
C  0.80607817 0.19973758 -0.36491375
C  -2.48200532 -1.55759478 0.42730187
C  0.81151827 2.08150028 0.12484728
C  0.29026418 0.89591149 -1.05988786
C  -0.49453438 1.02737914 1.33501101
C  -0.66585553 -1.96302339 -0.11399690
H  -0.08520459 0.55091483 0.36758875
H  -0.09066589 -0.00047911 -0.45050395
H  0.82154248 0.05805028 0.29337142
H  -0.47041896 -0.76790567 -0.11914529
H  0.94295845 -0.75122820 -0.23345068
H  0.61632311 0.22673756 -0.20622189
12
MD Step 89.5 Units = [eV / Ang.]
C  0.86327039 0.30281638 -0.30378563
C  -2.42693683 -1.73492664 0.39766364
C  1.11767830 1.87775900 0.12437548
C  0.39719008 0.88224671 -1.10030792
C  -0.70634045 1.12099839 1.34770864
C  -0.99645994 -2.09228248 -0.20325964
H  -0.12886994 0.53282089 0.33032445
H  -0.13925805 0.14459997 -0.44412135
H  0.49304697 0.05100363 0.33169583
H  -0.39699507 -0.57599354 -0.08409135
H  0.91492371 -0.76738392 -0.23726331
H  1.00875081 0.25834161 -0.15893884
12
MD Step 90.0 Units = [eV / Ang.]
C  0.91250050 0.40998856 -0.23868141
C  -2.32481591 -1.84324468 0.35162892
C  1.41240637 1.62012927 0.13257190
C  0.47619380 0.81216800 -1.13616044
C  -0.87970107 1.12048827 1.34943841
C  -1.23433683 -2.16289982 -0.30273649
H  -0.18101180 0.48629240 0.29070203
H  -0.17825857 0.27376573 -0.42887134
H  0.14054664 0.04273075 0.36578577
H  -0.28949075 -0.32710450 -0.04793084
H  0.83416347 -0.71268679 -0.23611728
H  1.31180414 0.28037281 -0.09962923
12
MD Step 90.5 Units = [eV / Ang.]
C  0.95203939 0.51586481 -0.17094076
C  -2.18237106 -1.87728715 0.28969442
C  1.66595535 1.31411648 0.15473157
C  0.52885006 0.69647075 -1.16585639
C  -1.01161351 1.02753659 1.34129263
C  -1.36859426 -2.17274727 -0.40829139
H  -0.23856847 0.41626509 0.25005239
H  -0.20366331 0.37823495 -0.40416818
H  -0.20372037 0.03450458 0.38903919
H  -0.15549145 -0.03559919 -0.01246806
H  0.70371423 -0.58911232 -0.23056220
H  1.51346340 0.29175269 -0.03252322
12
MD Step 91.0 Units = [eV / Ang.]
C  0.97930704 0.61359072 -0.10175461
C  -2.00627853 -1.83633926 0.21338449
C  1.85510103 0.96818311 0.19368958
C  0.56063586 0.55150147 -1.18789518
C  -1.10098923 0.84852654 1.32460050
C  -1.39493527 -2.12201905 -0.51539776
H  -0.29776949 0.32966962 0.20955665
H  -0.21281995 0.45155735 -0.37031945
H  -0.51291533 0.02715731 0.39733067
H  -0.00633045 0.27827221 0.02051246
H  0.52913073 -0.40221239 -0.22146862
H  1.60786359 0.29211238 0.03776129
12
MD Step 91.5 Units = [eV / Ang.]
C  0.99106336 0.69518909 -0.03204196
C  -1.80293425 -1.72401558 0.12506390
C  1.96408184 0.59332149 0.24998560
C  0.58104330 0.39904340 -1.20105430
C  -1.14950715 0.59580007 1.30087109
C  -1.31312384 -2.01304977 -0.61939936
H  -0.35432957 0.23501970 0.17007967
H  -0.20441071 0.48977638 -0.32839267
H  -0.76685590 0.02105449 0.38891584
H  0.14297278 0.58866322 0.04943887
H  0.31922918 -0.16244267 -0.21000833
H  1.59277096 0.28164018 0.10654167
12
MD Step 92.0 Units = [eV / Ang.]
C  0.98371166 0.75218003 0.03765117
C  -1.57823460 -1.54779202 0.02771930
C  1.98394717 0.20232201 0.32235465
C  0.60260484 0.26466366 -1.20460432
C  -1.16249435 0.28895542 1.27169949
C  -1.12563791 -1.85009460 -0.71559337
H  -0.40373422 0.14173499 0.13203016
H  -0.17839938 0.49146884 -0.28004086
H  -0.95170247 0.01616519 0.36397777
H  0.27481694 0.86603708 0.07317742
H  0.08677232 0.11336395 -0.19756591
H  1.46834999 0.26099545 0.16919450
12
MD Step 92.5 Units = [eV / Ang.]
C  0.95371075 0.77648250 0.10719547
C  -1.33734706 -1.31838777 -0.07527403
C  1.91116620 -0.19117366 0.40827724
C  0.63863919 0.17428111 -1.19848572
C  -1.14933722 -0.04454702 1.23858278
C  -0.83769890 -1.63910837 -0.79931083
H  -0.44162108 0.05920210 0.09528382
H  -0.13598693 0.45774301 -0.22730684
H  -1.05888881 0.01217271 0.32409067
H  0.37136026 1.08089904 0.09122035
H  -0.15141656 0.40113073 -0.18553042
H  1.23742015 0.23130562 0.22125750
12
MD Step 93.0 Units = [eV / Ang.]
C  0.89805719 0.76149049 0.17683385
C  -1.08448284 -1.04910387 -0.18039194
C  1.74622583 -0.57367404 0.50442269
C  0.70008499 0.14944148 -1.18335791
C  -1.12286943 -0.37037032 1.20261128
C  -0.45870487 -1.38753281 -0.86616704
H  -0.46422288 -0.00432900 0.05920363
H  -0.07958276 0.39221911 -0.17241388
H  -1.08401585 0.00858809 0.27177057
H  0.41778255 1.20880955 0.10374988
H  -0.37545329 0.67024131 -0.17495054
H  0.90718135 0.19422001 0.25868941
12
MD Step 93.5 Units = [eV / Ang.]
C  0.81477488 0.70315500 0.24703353
C  -0.82271852 -0.75515109 -0.28421210
C  1.49274156 -0.93276954 0.60693873
C  0.79230110 0.20261380 -1.16047924
C  -1.09738096 -0.65064833 1.16409312
C  -0.00480711 -1.10404759 -0.91262273
H  -0.46881283 -0.04283870 0.02277539
H  -0.01276757 0.30095931 -0.11754188
H  -1.02620367 0.00484682 0.21016866
H  0.40557389 1.23531438 0.11152992
H  -0.56480259 0.88662233 -0.16611718
H  0.49210182 0.15194362 0.27843379
12
MD Step 94.0 Units = [eV / Ang.]
C  0.70334381 0.60082528 0.31824997
C  -0.55392596 -0.45292296 -0.38367215
C  1.15731130 -1.25789632 0.71161908
C  0.91305851 0.33416873 -1.13143198
C  -1.08547730 -0.84970303 1.12225118
C  0.49805846 -0.79820856 -0.93689863
H  -0.45407000 -0.05339130 -0.01515526
H  0.05980888 0.19225562 -0.06459102
H  -0.88814141 0.00038726 0.14288106
H  0.33466518 1.15907766 0.11565004
H  -0.70182582 1.01825986 -0.15823646
H  0.01719436 0.10714776 0.27933417
12
MD Step 94.5 Units = [eV / Ang.]
C  0.56499137 0.45764303 0.39065209
C  -0.27888987 -0.15917977 -0.47631313
C  0.75016424 -1.54084938 0.81403153
C  1.05254224 0.53223607 -1.09779283
C  -1.09469003 -0.94095327 1.07520039
C  1.01208672 -0.47988086 -0.94009570
H  -0.42028285 -0.03654488 -0.05559202
H  0.13265040 0.07617938 -0.01495318
H  -0.67685728 -0.00528884 0.07379550
H  0.21353554 0.99200846 0.11721956
H  -0.77548608 1.04197404 -0.14940051
H  -0.47976441 0.06265601 0.26324832
12
MD Step 95.0 Units = [eV / Ang.]
C  0.40282302 0.28037612 0.46388494
C  0.00232913 0.10993779 -0.56047468
C  0.28635822 -1.77600429 0.90970485
C  1.19541767 0.77544543 -1.06085778
C  -1.12515801 -0.91274333 1.02032613
C  1.48839261 -0.15846251 -0.92708807
H  -0.36934588 0.00378236 -0.09911305
H  0.19981246 -0.03619751 0.03067259
H  -0.40498250 -0.01257098 0.00688008
H  0.05724088 0.75635665 0.11712709
H  -0.78383596 0.94919292 -0.13697953
H  -0.94905164 0.02088735 0.23591742
12
MD Step 95.5 Units = [eV / Ang.]
C  0.22174825 0.07872799 0.53693145
C  0.28979795 0.34005640 -0.63538456
C  -0.21294518 -1.96026723 0.99445787
C  1.32413777 1.03745127 -1.02149367
C  -1.16943075 -0.77077596 0.95499382
C  1.87242113 0.15794201 -0.90651985
H  -0.30454409 0.06095494 -0.14567861
H  0.25547793 -0.13390590 0.07236809
H  -0.09201419 -0.02171141 -0.05416968
H  -0.11584888 0.47993268 0.11593364
H  -0.73422382 0.74839108 -0.11835664
H  -1.33457612 -0.01679586 0.20691815
12
MD Step 96.0 Units = [eV / Ang.]
C  0.02826538 -0.13570956 0.60811306
C  0.58291785 0.51977193 -0.70110148
C  -0.71990381 -2.09278680 1.06489723
C  1.42225922 1.29158973 -0.98011766
C  -1.21447091 -0.53609900 0.87732727
C  2.11405433 0.46306991 -0.88934953
H  -0.23017636 0.12660731 -0.19456397
H  0.29465289 -0.20738932 0.11094209
H  0.23519980 -0.03281672 -0.10644831
H  -0.28741365 0.19115858 0.11389422
H  -0.64112023 0.46312080 -0.09172258
H  -1.58426451 -0.05051685 0.18812967
12
MD Step 96.5 Units = [eV / Ang.]
C  -0.16990115 -0.35060253 0.67522116
C  0.87960766 0.64170763 -0.75829327
C  -1.20103239 -2.17449179 1.11900345
C  1.47683595 1.51435233 -0.93676047
C  -1.24500305 -0.23953144 0.78673786
C  2.17982329 0.75242570 -0.88599241
H  -0.15109456 0.19174844 -0.24442058
H  0.31386382 -0.24979370 0.14771703
H  0.54365954 -0.04586250 -0.14843973
H  -0.44169015 -0.08467682 0.11105500
H  -0.52249437 0.12648343 -0.05660873
H  -1.66257459 -0.08175876 0.19078069
12
MD Step 97.0 Units = [eV / Ang.]
C  -0.36424599 -0.55389911 0.73573342
C  1.17562823 0.70316605 -0.80788531
C  -1.62049038 -2.20754131 1.15660674
C  1.47948864 1.68715678 -0.89116282
C  -1.24685119 0.08518436 0.68404298
C  2.06241401 1.02251372 -0.90303346
H  -0.07224213 0.24777676 -0.29343653
H  0.31169610 -0.25794220 0.18418878
H  0.79772724 -0.06072293 -0.18049300
H  -0.56672579 -0.32738053 0.10736306
H  -0.39614312 -0.22569975 -0.01398491
H  -1.56025562 -0.11261186 0.22206105
12
MD Step 97.5 Units = [eV / Ang.]
C  -0.54599753 -0.73458941 0.78705898
C  1.46426172 0.70618655 -0.85066449
C  -1.94550103 -2.19479488 1.17948509
C  1.42634283 1.79662401 -0.84287320
C  -1.20926466 0.40714177 0.57121714
C  1.78302476 1.26974100 -0.94100505
H  0.00174242 0.28726295 -0.33955166
H  0.28903450 -0.23275213 0.22163647
H  0.96480253 -0.07719895 -0.20490393
H  -0.65452741 -0.52221864 0.10275275
H  -0.27707084 -0.56068347 0.03402734
H  -1.29684730 -0.14471879 0.28282056
12
MD Step 98.0 Units = [eV / Ang.]
C  -0.70666163 -0.88318616 0.82675091
C  1.73645039 0.65694586 -0.88693648
C  -2.15264672 -2.13938151 1.19090181
C  1.31728227 1.83396216 -0.79134116
C  -1.12585822 0.70158874 0.45096736
C  1.38540469 1.48957529 -0.99429377
H  0.06682866 0.30446181 -0.38068244
H  0.24893446 -0.17898165 0.26078559
H  1.02186046 -0.09502412 -0.22541748
H  -0.70053859 -0.65928837 0.09719783
H  -0.17632086 -0.85220759 0.08462492
H  -0.91473490 -0.17846447 0.36744292
12
MD Step 98.5 Units = [eV / Ang.]
C  -0.83856554 -0.99200200 0.85266765
C  1.98140470 0.56463679 -0.91633190
C  -2.23293837 -2.04444497 1.19463737
C  1.15500134 1.79410363 -0.73600571
C  -0.99442116 0.95077263 0.32632124
C  0.92446528 1.67637956 -1.05308267
H  0.11980404 0.29557950 -0.41492800
H  0.19615889 -0.10438791 0.30160865
H  0.96071158 -0.11383759 -0.24621012
H  -0.70290981 -0.73255982 0.09073659
H  -0.10101887 -1.08144596 0.13477476
H  -0.46769208 -0.21279386 0.46581213
12
MD Step 99.0 Units = [eV / Ang.]
C  -0.93535169 -1.05535996 0.86307825
C  2.18756340 0.44009181 -0.93779207
C  -2.19366409 -1.91307743 1.19384603
C  0.94419030 1.67507859 -0.67638139
C  -0.81608573 1.14310571 0.20033971
C  0.45441874 1.82392523 -1.10621455
H  0.15841677 0.25888034 -0.44074445
H  0.13649706 -0.01852212 0.34330151
H  0.78994847 -0.13313970 -0.27069421
H  -0.66189733 -0.73910030 0.08348179
H  -0.05510015 -1.23625345 0.18152838
H  -0.00893575 -0.24562872 0.56625099
12
MD Step 99.5 Units = [eV / Ang.]
C  -0.99241226 -1.06980307 0.85673200
C  2.34373777 0.29444948 -0.94971733
C  -2.05623511 -1.74838744 1.19019006
C  0.69104419 1.47788664 -0.61213782
C  -0.59432027 1.27166827 0.07596477
C  0.02044971 1.92624417 -1.14367239
H  0.18147749 0.19469856 -0.45708715
H  0.07602557 0.06855157 0.38441766
H  0.53277564 -0.15226424 -0.30060575
H  -0.57957149 -0.67879054 0.07562086
H  -0.04021713 -1.30969882 0.22218573
H  0.41724589 -0.27455459 0.65810936
12
MD Step 100.0 Units = [eV / Ang.]
C  -1.00722072 -1.03435477 0.83292185
C  2.44021904 0.13808838 -0.95021724
C  -1.85094397 -1.55363935 1.18355354
C  0.40313092 1.20697461 -0.54315917
C  -0.33405135 1.33289575 -0.04404803
C  -0.34472352 1.97843255 -1.15795305
H  0.18894544 0.10542097 -0.46352550
H  0.02045154 0.14736887 0.42310443
H  0.22165078 -0.17039624 -0.33569395
H  -0.45987547 -0.55465592 0.06740827
H  -0.05647932 -1.29871444 0.25436457
H  0.77889665 -0.29742040 0.73324426
12
MD Step 100.5 Units = [eV / Ang.]
C  -0.97955887 -0.95079945 0.79155425
C  2.46970821 -0.02005292 -0.93739223
C  -1.61066789 -1.33240644 1.17234810
C  0.08954557 0.87123078 -0.46957242
C  -0.04108773 1.32590557 -0.15718636
C  -0.62033017 1.97722814 -1.14432710
H  0.18200118 -0.00455158 -0.46033063
H  -0.02537464 0.20987138 0.45737325
H  -0.10820304 -0.18663957 -0.37402567
H  -0.30894982 -0.37375113 0.05914205
H  -0.10286006 -1.20336189 0.27605610
H  1.05577726 -0.31267288 0.78636065
12
MD Step 101.0 Units = [eV / Ang.]
C  -0.91160572 -0.82388185 0.73321817
C  2.42795581 -0.17280824 -0.90959086
C  -1.36558658 -1.08869337 1.15416212
C  -0.23882742 0.48521285 -0.39173256
C  0.27808765 1.25269129 -0.26130048
C  -0.79495036 1.92130641 -1.10041274
H  0.16308435 -0.12889187 -0.44852439
H  -0.05776140 0.24989103 0.48535049
H  -0.42430592 -0.20010799 -0.41265759
H  -0.13553083 -0.14833050 0.05111705
H  -0.17721041 -1.02695309 0.28574557
H  1.23665083 -0.31943468 0.81462522
12
MD Step 101.5 Units = [eV / Ang.]
C  -0.80787320 -0.66133477 0.65922969
C  2.31410063 -0.31484339 -0.86561646
C  -1.14004960 -0.82703486 1.12644372
C  -0.56921371 0.07011333 -0.31015801
C  0.61612445 1.11910513 -0.35484587
C  -0.86354539 1.81141710 -1.02554881
H  0.13585303 -0.25954851 -0.42986856
H  -0.07431778 0.26337050 0.50548033
H  -0.70026928 -0.21000726 -0.44835828
H  0.04886736 0.10319726 0.04354985
H  -0.27590587 -0.77699944 0.28265523
H  1.31622936 -0.31743509 0.81703717
12
MD Step 102.0 Units = [eV / Ang.]
C  -0.67493642 -0.47360438 0.57160755
C  2.13072445 -0.44257599 -0.80487619
C  -0.95169644 -0.55255355 1.08699848
C  -0.88731052 -0.34627877 -0.22542811
C  0.96424951 0.93637335 -0.43726269
C  -0.82518027 1.65042288 -0.92030699
H  0.10500713 -0.38714374 -0.40676456
H  -0.07399161 0.24842765 0.51667516
H  -0.91686998 -0.21568622 -0.47815387
H  0.23032774 0.35625509 0.03648459
H  -0.39321113 -0.46673330 0.26712215
H  1.29288754 -0.30690304 0.79390448
12
MD Step 102.5 Units = [eV / Ang.]
C  -0.52095097 -0.27319548 0.47294605
C  1.88368657 -0.55405524 -0.72747961
C  -0.81211741 -0.27097458 1.03424791
C  -1.17833797 -0.73134107 -0.13807307
C  1.31147275 0.72254421 -0.50943642
C  -0.68193479 1.44329095 -0.78629691
H  0.07592780 -0.50162440 -0.38204302
H  -0.05705416 0.20535371 0.51841945
H  -1.06153795 -0.21665600 -0.49963339
H  0.39372440 0.58175981 0.02970819
H  -0.52055558 -0.11661127 0.24104558
H  1.16767732 -0.28849063 0.74659523
12
MD Step 103.0 Units = [eV / Ang.]
C  -0.35494931 -0.07362724 0.36616654
C  1.58179977 -0.64886109 -0.63429354
C  -0.72818963 0.01142102 0.96729095
C  -1.42876460 -1.05145095 -0.04849977
C  1.64387856 0.50299777 -0.57407896
C  -0.43917185 1.19702515 -0.62628293
H  0.05411458 -0.59317864 -0.35863963
H  -0.02506018 0.13659478 0.51083611
H  -1.12712974 -0.21259383 -0.51105723
H  0.52473008 0.74981093 0.02272141
H  -0.64604925 0.24510644 0.20824008
H  0.94479158 -0.26324434 0.67759696
12
MD Step 103.5 Units = [eV / Ang.]
C  -0.18599998 0.11190994 0.25417531
C  1.23640433 -0.72802820 -0.52694979
C  -0.70332805 0.28791931 0.88587237
C  -1.62831880 -1.27744718 0.04299283
C  1.94444768 0.30899318 -0.63577218
C  -0.10708013 0.92047264 -0.44452077
H  0.04447369 -0.65332569 -0.33919497
H  0.01921191 0.04671834 0.49471511
H  -1.11075612 -0.20334807 -0.51136622
H  0.61225224 0.83497219 0.01481000
H  -0.75468384 0.58375429 0.17443432
H  0.63337708 -0.23259075 0.59080397
12
MD Step 104.0 Units = [eV / Ang.]
C  -0.02232431 0.27199841 0.13949106
C  0.86084650 -0.79396482 -0.40779720
C  -0.73816789 0.55158714 0.79034107
C  -1.77163021 -1.39029316 0.13609866
C  2.19393702 0.17358019 -0.70041119
C  0.29685719 0.62393548 -0.24712487
H  0.05056842 -0.67601457 -0.32564882
H  0.07186149 -0.05768463 0.47149510
H  -1.01314236 -0.18895812 -0.50017740
H  0.65056252 0.82173890 0.00522497
H  -0.82964696 0.86234745 0.14665871
H  0.25027859 -0.19827227 0.49184991
12
MD Step 104.5 Units = [eV / Ang.]
C  0.12945142 0.39827455 0.02393433
C  0.46988397 -0.85027878 -0.27977962
C  -0.83048387 0.79555924 0.68165369
C  -1.85881304 -1.38502908 0.23032805
C  2.37305603 0.12522379 -0.77395861
C  0.74529168 0.31850129 -0.04218190
H  0.07399739 -0.65850208 -0.31892354
H  0.12805098 -0.16825051 0.44317760
H  -0.83872799 -0.16968797 -0.47781866
H  0.64034988 0.70829178 -0.00657625
H  -0.85487447 1.04804791 0.13194475
H  -0.17718199 -0.16215015 0.38820016
12
MD Step 105.0 Units = [eV / Ang.]
C  0.26478505 0.48626641 -0.09152952
C  0.07898648 -0.90142902 -0.14622913
C  -0.97436939 1.01337306 0.56143161
C  -1.89472065 -1.27151077 0.32485415
C  2.46564000 0.18081995 -0.86076847
C  1.19979494 0.01511533 0.16072494
H  0.11406029 -0.60179989 -0.31877969
H  0.18231296 -0.27533243 0.41215909
H  -0.59646428 -0.14605852 -0.44540709
H  0.58828844 0.50704995 -0.02072227
H  -0.81840005 1.11933680 0.13560333
H  -0.60991379 -0.12583087 0.28866305
12
MD Step 105.5 Units = [eV / Ang.]
C  0.38135864 0.53562785 -0.20675410
C  -0.29646270 -0.95214360 -0.01057627
C  -1.15895634 1.19930208 0.43203205
C  -1.88715381 -1.07170875 0.41846299
C  2.46187587 0.34070134 -0.96207286
C  1.61278164 -0.27647985 0.35179833
H  0.16780491 -0.51057861 -0.32388464
H  0.22900292 -0.36878787 0.38097530
H  -0.30102423 -0.11884966 -0.40492849
H  0.50531270 0.24180873 -0.03683971
H  -0.71546686 1.07128371 0.15968729
H  -0.99907274 -0.09017538 0.20210011
12
MD Step 106.0 Units = [eV / Ang.]
C  0.47890703 0.54971939 -0.32219513
C  -0.64205446 -1.00660561 0.12399427
C  -1.36721462 1.34859440 0.29655210
C  -1.84473864 -0.81469666 0.50963551
C  2.36035268 0.58783346 -1.07529833
C  1.93382685 -0.54862261 0.52297967
H  0.23044743 -0.39254713 -0.33207357
H  0.26287495 -0.43903652 0.35198111
H  0.02614176 -0.08903650 -0.35923240
H  0.40426989 -0.05737709 -0.05411708
H  -0.55017600 0.91667335 0.20230246
H  -1.29263687 -0.05489849 0.13547139
12
MD Step 106.5 Units = [eV / Ang.]
C  0.55880381 0.53469558 -0.43858406
C  -0.94524964 -1.06752104 0.25488399
C  -1.57563595 1.45756980 0.15866222
C  -1.77521316 -0.53118985 0.59672119
C  2.16811504 0.89165191 -1.19453714
C  2.11981461 -0.79607136 0.66993339
H  0.29605472 -0.25746422 -0.34073035
H  0.27971235 -0.47826339 0.32701819
H  0.35671126 -0.05763572 -0.31183754
H  0.29773160 -0.35969170 -0.07148046
H  -0.33492946 0.68247459 0.25808744
H  -1.44591519 -0.01855459 0.09186314
12
MD Step 107.0 Units = [eV / Ang.]
C  0.62354517 0.49832291 -0.55658714
C  -1.19616879 -1.13526856 0.38034239
C  -1.75564045 1.52355162 0.02219632
C  -1.68455721 -0.24923430 0.67812902
C  1.89877047 1.21493871 -1.31195344
C  2.14585628 -1.01557768 0.79312085
H  0.35832180 -0.11600368 -0.34719400
H  0.27689255 -0.48153729 0.30714515
H  0.65719574 -0.02547576 -0.26647707
H  0.19650214 -0.63782153 -0.08780211
H  -0.08787586 0.40319373 0.31963160
H  -1.43284184 0.02091182 0.06944843
12
MD Step 107.5 Units = [eV / Ang.]
C  0.67624047 0.44881938 -0.67653419
C  -1.38816932 -1.20737188 0.49958647
C  -1.87720028 1.54471007 -0.10947916
C  -1.57697832 0.00822844 0.75247065
C  1.56955021 1.52106172 -1.41950145
C  2.01243427 -1.20488095 0.89728487
H  0.41128282 0.02131094 -0.34910560
H  0.25376773 -0.44759742 0.29249755
H  0.89292067 0.00703784 -0.22641385
H  0.10896149 -0.87026092 -0.10207131
H  0.17060703 0.11375145 0.37920431
H  -1.25341676 0.06519134 0.06206171
12
MD Step 108.0 Units = [eV / Ang.]
C  0.72016297 0.39390094 -0.79826247
C  -1.51808778 -1.27846950 0.61274281
C  -1.91433622 1.51994260 -0.23414772
C  -1.45547102 0.22404083 0.81862869
C  1.19847793 1.77930962 -1.51032725
C  1.74532360 -1.36163955 0.98947982
H  0.44985163 0.14496025 -0.34464920
H  0.21176409 -0.37910332 0.28231937
H  1.03388229 0.04004486 -0.19370291
H  0.04107754 -1.04180949 -0.11349405
H  0.42113740 -0.15584791 0.43016393
H  -0.93378242 0.11467066 0.06124899
12
MD Step 108.5 Units = [eV / Ang.]
C  0.75839746 0.34014721 -0.92107729
C  -1.58614421 -1.34086320 0.72062637
C  -1.85102650 1.44894227 -0.35120756
C  -1.32256900 0.38636898 0.87576670
C  0.80247324 1.96742122 -1.57951807
C  1.38825977 -1.48289177 1.07657103
H  0.47015396 0.24701396 -0.33267488
H  0.15417378 -0.28227102 0.27515822
H  1.06097893 0.07413937 -0.16868359
H  -0.00321623 -1.14292788 -0.12152729
H  0.64741661 -0.38309536 0.46771515
H  -0.51889780 0.16801623 0.05885122
12
MD Step 109.0 Units = [eV / Ang.]
C  0.79356504 0.29264343 -1.04380293
C  -1.59553325 -1.38552166 0.82442136
C  -1.68546313 1.33249291 -0.46167828
C  -1.18097819 0.48782168 0.92330927
C  0.39661010 2.07166414 -1.62421523
C  0.99175382 -1.56524796 1.16330488
H  0.46968074 0.32147651 -0.31272390
H  0.08569854 -0.16600169 0.26916702
H  0.97049503 0.11005009 -0.14994771
H  -0.02156455 -1.16871096 -0.12587323
H  0.83698869 -0.55311853 0.48903647
H  -0.06125284 0.22245204 0.04900228
12
MD Step 109.5 Units = [eV / Ang.]
C  0.82761163 0.25481722 -1.16487747
C  -1.55181056 -1.40332283 0.92534099
C  -1.43089354 1.17288487 -0.56769974
C  -1.03388860 0.52469393 0.96092201
C  -0.00574127 2.08547074 -1.64331319
C  0.60265277 -1.60560639 1.25153901
H  0.44731908 0.36446624 -0.28498803
H  0.01185087 -0.04070325 0.26243622
H  0.77504202 0.14821148 -0.13483697
H  -0.01286466 -1.11805774 -0.12646200
H  0.98099095 -0.65736200 0.49300616
H  0.38973129 0.27450774 0.02893301
12
MD Step 110.0 Units = [eV / Ang.]
C  0.86164364 0.22835448 -1.28245986
C  -1.46219513 -1.38626824 1.02434011
C  -1.11266558 0.97426403 -0.67171877
C  -0.88490799 0.49668454 0.98851420
C  -0.39234449 2.00763553 -1.63702029
C  0.25760192 -1.60193528 1.34053045
H  0.40332151 0.37430662 -0.25023154
H  -0.06165612 0.08292524 0.25328220
H  0.50057031 0.18841288 -0.12027200
H  0.02281063 -0.99338023 -0.12344353
H  1.07342035 -0.69182498 0.47979388
H  0.79440095 0.32082539 -0.00131486
12
MD Step 110.5 Units = [eV / Ang.]
C  0.89579981 0.21312169 -1.39452797
C  -1.33488740 -1.32844024 1.12192610
C  -0.76266518 0.74272707 -0.77568960
C  -0.73759838 0.40718369 1.00625728
C  -0.75158271 1.84077945 -1.60646658
C  -0.01894300 -1.55378399 1.42776676
H  0.33925528 0.35159120 -0.20969601
H  -0.12943071 0.19493835 0.24044509
H  0.18065617 0.22967830 -0.10357944
H  0.08399791 -0.80093014 -0.11719298
H  1.11040064 -0.65558160 0.45050381
H  1.12499755 0.35871622 -0.03974646
12
MD Step 111.0 Units = [eV / Ang.]
C  0.92916885 0.20708635 -1.49896794
C  -1.17847258 -1.22660861 1.21807334
C  -0.41323566 0.48611165 -0.88056201
C  -0.59471516 0.26405459 1.01461079
C  -1.07232061 1.59041584 -1.55346911
C  -0.21335938 -1.46239702 1.50984251
H  0.25794110 0.29923373 -0.16499368
H  -0.18678589 0.28690503 0.22318614
H  -0.14980248 0.27040001 -0.08303618
H  0.16736642 -0.55160773 -0.10832130
H  1.08979574 -0.54996942 0.40696207
H  1.36441966 0.38637558 -0.08332462
12
MD Step 111.5 Units = [eV / Ang.]
C  0.95976214 0.20626562 -1.59366168
C  -1.00142947 -1.08046474 1.31222593
C  -0.09242965 0.21356396 -0.98614586
C  -0.45729354 0.08054063 1.01432357
C  -1.34436273 1.26476871 -1.48046249
C  -0.31996790 -1.33051046 1.58310302
H  0.16336651 0.22247344 -0.11798828
H  -0.22997946 0.35236454 0.20129700
H  -0.45958888 0.30863047 -0.05803386
H  0.26710091 -0.26187004 -0.09766611
H  1.01137148 -0.37860048 0.35165296
H  1.50345058 0.40283835 -0.12864420
12
MD Step 112.0 Units = [eV / Ang.]
C  0.98457922 0.20480747 -1.67658906
C  -0.81173137 -0.89256837 1.40336003
C  0.17849490 -0.06501612 -1.09127704
C  -0.32383193 -0.12425173 1.00638265
C  -1.55959393 0.87528691 -1.39054672
C  -0.33809863 -1.16198989 1.64401005
H  0.06053167 0.12875390 -0.07065666
H  -0.25634912 0.38704971 0.17505111
H  -0.72392256 0.34239745 -0.02893863
H  0.37438566 0.04586785 -0.08623165
H  0.87756341 -0.14815775 0.28774733
H  1.53797268 0.40782058 -0.17231141
12
MD Step 112.5 Units = [eV / Ang.]
C  0.99979013 0.19531067 -1.74594801
C  -0.61651493 -0.66810371 1.49008100
C  0.38548669 -0.33953097 -1.19412387
C  -0.18992887 -0.32601793 0.99188021
C  -1.71368668 0.43771634 -1.28753946
C  -0.27001002 -0.96146614 1.68931052
H  -0.04481382 0.02737241 -0.02493139
H  -0.26438483 0.38895751 0.14512123
H  -0.92509957 0.36994174 0.00319638
H  0.47733691 0.34404757 -0.07505146
H  0.69474482 0.13020603 0.21911472
H  1.46708018 0.40156648 -0.21110987
12
MD Step 113.0 Units = [eV / Ang.]
C  1.00105429 0.16945769 -1.80028527
C  -0.42178953 -0.41455521 1.57073225
C  0.52076636 -0.60020595 -1.29249932
C  -0.04876683 -0.49763688 0.97180747
C  -1.80801304 -0.02665645 -1.17588922
C  -0.12007034 -0.73405857 1.71613535
H  -0.14657033 -0.07117805 0.01746553
H  -0.25378261 0.35835830 0.11248529
H  -1.05174462 0.38984764 0.03692952
H  0.56176609 0.60256542 -0.06497620
H  0.47464582 0.43929368 0.15017843
H  1.29250473 0.38476840 -0.24208383
12
MD Step 113.5 Units = [eV / Ang.]
C  0.98396878 0.11900725 -1.83862163
C  -0.23217808 -0.14136232 1.64351507
C  0.58139947 -0.83805981 -1.38410655
C  0.10737334 -0.61329160 0.94682161
C  -1.85106621 -0.49025854 -1.06029573
C  0.10468708 -0.48525129 1.72214442
H  -0.23881638 -0.15620364 0.05517619
H  -0.22549665 0.29778174 0.07832692
H  -1.09755470 0.40109297 0.07066538
H  0.61297565 0.79313256 -0.05643594
H  0.23526678 0.75484271 0.08547545
H  1.01944091 0.35856998 -0.26266519
12
MD Step 114.0 Units = [eV / Ang.]
C  0.94459369 0.03702857 -1.86053792
C  -0.05070892 0.14042203 1.70660993
C  0.56808468 -1.04532669 -1.46670294
C  0.28470941 -0.65351096 0.91707723
C  -1.85844953 -0.91988245 -0.94497993
C  0.39274270 -0.22088727 1.70580591
H  -0.31640345 -0.21804833 0.08731702
H  -0.18178081 0.21197668 0.04393381
H  -1.06022740 0.40306412 0.10281382
H  0.61840605 0.89453243 -0.04926980
H  0.00041587 1.04602024 0.02887433
H  0.65861771 0.32461164 -0.27094146
12
MD Step 114.5 Units = [eV / Ang.]
C  0.87997473 -0.08079955 -1.86620010
C  0.12130014 0.41849739 1.75830370
C  0.48454402 -1.21581995 -1.53821294
C  0.48535328 -0.60956251 0.88221330
C  -1.85061890 -1.27957663 -0.83272320
C  0.72545591 0.05277758 1.66683703
H  -0.37551895 -0.24938436 0.11352000
H  -0.12618401 0.10779430 0.01059292
H  -0.94098881 0.39557981 0.13189969
H  0.57045211 0.89715299 -0.04271883
H  -0.20288402 1.27830687 -0.01740839
H  0.22911450 0.28503404 -0.26610320
12
MD Step 115.0 Units = [eV / Ang.]
C  0.78856654 -0.23512798 -1.85630868
C  0.28419776 0.67977718 1.79711967
C  0.33768964 -1.34520801 -1.59682842
C  0.70545775 -0.48555066 0.84152839
C  -1.84829316 -1.53592283 -0.72404016
C  1.07456358 0.32910280 1.60674503
H  -0.41409804 -0.24627761 0.13389033
H  -0.06343938 -0.00609099 -0.02051784
H  -0.74488534 0.37893933 0.15666230
H  0.46848221 0.80510445 -0.03562175
H  -0.34915768 1.41892465 -0.05362139
H  -0.23908388 0.24232966 -0.24900747
12
MD Step 115.5 Units = [eV / Ang.]
C  0.67047774 -0.42236883 -1.83198768
C  0.43973291 0.91100382 1.82193816
C  0.13848365 -1.43114828 -1.64113225
C  0.93490156 -0.29736524 0.79428541
C  -1.86663504 -1.66466789 -0.61695323
C  1.40137123 0.60129359 1.52925902
H  -0.43199234 -0.20877490 0.14889613
H  0.00080879 -0.11970526 -0.04843180
H  -0.48174956 0.35398041 0.17617714
H  0.31926545 0.63505809 -0.02675357
H  -0.42028911 1.44373473 -0.08264924
H  -0.70437527 0.19895977 -0.22264809
12
MD Step 116.0 Units = [eV / Ang.]
C  0.52751871 -0.63478462 -1.79464035
C  0.59051754 1.09959215 1.83209736
C  -0.09682947 -1.47324673 -1.67025768
C  1.15871082 -0.06894785 0.74001730
C  -1.91037283 -1.65650216 -0.50765806
C  1.65937410 0.86285698 1.44033889
H  -0.43086013 -0.14085931 0.15921677
H  0.06048086 -0.22259287 -0.07247763
H  -0.16750696 0.32209992 0.19000784
H  0.13563842 0.41228392 -0.01517848
H  -0.41026586 1.34333541 -0.10926302
H  -1.11640520 0.15676518 -0.19220295
12
MD Step 116.5 Units = [eV / Ang.]
C  0.36306266 -0.86120668 -1.74580908
C  0.73924208 1.23463588 1.82744909
C  -0.34571187 -1.47277417 -1.68405592
C  1.35966361 0.17265142 0.67871766
C  -1.97199708 -1.51958827 -0.39191879
C  1.80129782 1.10812648 1.34744908
H  -0.41381840 -0.04979905 0.16559260
H  0.10972069 -0.30488875 -0.09232521
H  0.17480713 0.28516449 0.19836141
H  -0.06604569 0.16541570 -0.00048768
H  -0.32677584 1.12588438 -0.13863155
H  -1.42344510 0.11637857 -0.16434161
12
MD Step 117.0 Units = [eV / Ang.]
C  0.18177961 -1.08821005 -1.68706644
C  0.88774952 1.30798162 1.80835639
C  -0.57939544 -1.43213976 -1.68320296
C  1.52116638 0.40173652 0.61086549
C  -2.03389728 -1.27762100 -0.26660421
C  1.78951545 1.33254527 1.25806970
H  -0.38494527 0.05494313 0.16870756
H  0.14365439 -0.35851225 -0.10798111
H  0.51517849 0.24525043 0.20217580
H  -0.26874364 -0.07830709 0.01713791
H  -0.18888540 0.81535554 -0.17470717
H  -1.58317681 0.07697763 -0.14575095
12
MD Step 117.5 Units = [eV / Ang.]
C  -0.01066898 -1.30144634 -1.61994963
C  1.03611967 1.31514727 1.77563111
C  -0.76486931 -1.35416652 -1.66914981
C  1.62953929 0.59686625 0.53732285
C  -2.07338836 -0.96420187 -0.13070566
C  1.60644813 1.53243810 1.17785547
H  -0.34875195 0.16296476 0.16912151
H  0.15910396 -0.37826023 -0.11972978
H  0.81875461 0.20421149 0.20304709
H  -0.45698653 -0.29617371 0.03701511
H  -0.02187887 0.44597793 -0.21916373
H  -1.57342164 0.03664286 -0.14129453
12
MD Step 118.0 Units = [eV / Ang.]
C  -0.20796634 -1.48688439 -1.54592383
C  1.18201988 1.25588015 1.73041797
C  -0.86917907 -1.24135137 -1.64384849
C  1.67529073 0.74197747 0.45918498
C  -2.06844714 -0.61582494 0.01448305
C  1.26050975 1.70432016 1.10920403
H  -0.30971318 0.26410067 0.16725266
H  0.15508489 -0.36254833 -0.12803284
H  1.05035447 0.16318254 0.20293028
H  -0.61817141 -0.47125503 0.05812348
H  0.14853809 0.05513896 -0.27121884
H  -1.39832065 -0.00673589 -0.15257245
12
MD Step 118.5 Units = [eV / Ang.]
C  -0.40343998 -1.63179386 -1.46635597
C  1.32045890 1.13419722 1.67405833
C  -0.86547421 -1.09536745 -1.60927353
C  1.65341037 0.82619674 0.37764795
C  -2.00211090 -0.26596071 0.16589144
C  0.78469687 1.84414902 1.05088888
H  -0.27191246 0.34934876 0.16339408
H  0.13296288 -0.31362224 -0.13341305
H  1.18074846 0.12223119 0.20363888
H  -0.74292822 -0.59221342 0.07927475
H  0.30064925 -0.32274051 -0.32819605
H  -1.08706097 -0.05442473 -0.17755570
12
MD Step 119.0 Units = [eV / Ang.]
C  -0.59034903 -1.72544826 -1.38247517
C  1.44407410 0.95790115 1.60795770
C  -0.73910984 -0.91707491 -1.56689247
C  1.56298202 0.84301483 0.29393399
C  -1.86458753 0.05833757 0.31949043
C  0.22843936 1.94701935 0.99886937
H  -0.23880894 0.41148521 0.15774981
H  0.09621997 -0.23717530 -0.13635106
H  1.19296473 0.08037564 0.20629654
H  -0.82488506 -0.65237019 0.09924509
H  0.41884249 -0.65986367 -0.38640612
H  -0.68578228 -0.10620142 -0.21141811
12
MD Step 119.5 Units = [eV / Ang.]
C  -0.76214160 -1.75962105 -1.29531291
C  1.54388096 0.73770694 1.53348617
C  -0.49157738 -0.70711904 -1.51730461
C  1.40650238 0.78945208 0.20926212
C  -1.65325285 0.33722200 0.47103092
C  -0.35365159 2.00753809 0.94778919
H  -0.21310069 0.44540575 0.15047255
H  0.04990214 -0.14148577 -0.13721881
H  1.08635683 0.03604421 0.21096570
H  -0.86022900 -0.64868476 0.11686346
H  0.49367004 -0.93609312 -0.44195155
H  -0.24635924 -0.16036533 -0.24808225
12
MD Step 120.0 Units = [eV / Ang.]
C  -0.91272086 -1.72895834 -1.20563307
C  1.61035011 0.48619017 1.45191800
C  -0.14064445 -0.46691648 -1.46022312
C  1.18925214 0.66558475 0.12483792
C  -1.37136895 0.55707782 0.61651628
C  -0.91173143 2.02069266 0.89243713
H  -0.19664257 0.44827722 0.14169524
H  -0.00011709 -0.03627848 -0.13625611
H  0.87678556 -0.01218215 0.21662908
H  -0.84738248 -0.58107903 0.13107492
H  0.52070110 -1.13813669 -0.49125232
H  0.18351892 -0.21427146 -0.28174394
12
MD Step 120.5 Units = [eV / Ang.]
C  -1.03672928 -1.63131539 -1.11386340
C  1.63459472 0.21677881 1.36440302
C  0.28341775 -0.19965548 -1.39480337
C  0.91892085 0.47462283 0.04182721
C  -1.02634237 0.70885249 0.75240730
C  -1.40668721 1.98284176 0.82867705
H  -0.19038160 0.41958963 0.13154876
H  -0.04788926 0.06844161 -0.13358555
H  0.59280922 -0.06486576 0.22153179
H  -0.78699759 -0.45232642 0.14100531
H  0.49902809 -1.25792263 -0.53128755
H  0.56625669 -0.26504147 -0.30786057
12
MD Step 121.0 Units = [eV / Ang.]
C  -1.12985800 -1.46804835 -1.02005901
C  1.60944693 -0.05707093 1.27195877
C  0.74398124 0.08908655 -1.32015352
C  0.60560532 0.22351180 -0.03871658
C  -0.62815025 0.78657107 0.87567166
C  -1.81177630 1.89245388 0.75374378
H  -0.19428403 0.36116852 0.12016708
H  -0.08802524 0.16338148 -0.12925012
H  0.26943980 -0.12134119 0.22372220
H  -0.68232924 -0.26852337 0.14605542
H  0.43002283 -1.29105579 -0.55965868
H  0.87592695 -0.31013364 -0.32348097
12
MD Step 121.5 Units = [eV / Ang.]
C  -1.18919091 -1.24421941 -0.92390332
C  1.53029103 -0.32246726 1.17546589
C  1.20436849 0.39126737 -1.23579701
C  0.26209145 -0.07611043 -0.11598061
C  -0.18821740 0.78653820 0.98380063
C  -2.11121594 1.75045901 0.66610431
H  -0.20725480 0.27715806 0.10767733
H  -0.11614433 0.24068146 -0.12325907
H  -0.05827251 -0.17977481 0.22156200
H  -0.53989441 -0.03997778 0.14603238
H  0.31661498 -1.23591277 -0.57460381
H  1.09682434 -0.34764164 -0.32709871
12
MD Step 122.0 Units = [eV / Ang.]
C  -1.21352269 -0.96863046 -0.82475565
C  1.39556137 -0.56750819 1.07566229
C  1.63251011 0.69679487 -1.14192920
C  -0.09577892 -0.40696560 -0.18956301
C  0.28113225 0.70750497 1.07489846
C  -2.29748203 1.56023296 0.56514825
H  -0.22707226 0.17393326 0.09418083
H  -0.12913419 0.29435897 -0.11562765
H  -0.35997913 -0.23754135 0.21404574
H  -0.37015839 0.21785303 0.14130848
H  0.16315675 -1.09368110 -0.57507118
H  1.22076712 -0.37635137 -0.31829736
12
MD Step 122.5 Units = [eV / Ang.]
C  -1.20360779 -0.65355997 -0.72173637
C  1.20691820 -0.78159796 0.97313444
C  2.00324984 0.99421904 -1.03943677
C  -0.44906887 -0.74576705 -0.25963157
C  0.76666328 0.55181047 1.14790405
C  -2.36863676 1.32733275 0.45091865
H  -0.25038779 0.05985813 0.07972730
H  -0.12525867 0.32053149 -0.10640740
H  -0.61237301 -0.29170782 0.20089016
H  -0.18781417 0.48395020 0.13295372
H  -0.02420164 -0.86940748 -0.56091265
H  1.24451738 -0.39566181 -0.29740356
12
MD Step 123.0 Units = [eV / Ang.]
C  -1.16223783 -0.31411606 -0.61384024
C  0.96913957 -0.95576548 0.86830937
C  2.29860481 1.27150940 -0.92974818
C  -0.77651716 -1.06409048 -0.32698878
C  1.25378049 0.32733252 1.20293702
C  -2.32650818 1.05912040 0.32397467
H  -0.27285468 -0.05520857 0.06429187
H  -0.10417406 0.31751028 -0.09570262
H  -0.79942668 -0.33944706 0.18245684
H  -0.01113953 0.73252742 0.12276251
H  -0.23679754 -0.57389639 -0.53319229
H  1.16813080 -0.40547597 -0.26526018
12
MD Step 123.5 Units = [eV / Ang.]
C  -1.09409154 0.03285174 -0.50006669
C  0.68980463 -1.08302966 0.76145240
C  2.50682169 1.51680077 -0.81461667
C  -1.05644774 -1.33099297 -0.39295426
C  1.72585520 0.04974160 1.24168026
C  -2.17603636 0.76434528 0.18539693
H  -0.28944178 -0.16071654 0.04776575
H  -0.06689955 0.28583330 -0.08367349
H  -0.91137502 -0.37830525 0.15959961
H  0.13994054 0.93554324 0.11308667
H  -0.46268747 -0.22594615 -0.49452010
H  0.99455740 -0.40612535 -0.22315039
12
MD Step 124.0 Units = [eV / Ang.]
C  -1.00529814 0.37023376 -0.37956017
C  0.37883033 -1.15880661 0.65267454
C  2.62108046 1.71907158 -0.69591999
C  -1.26974853 -1.51735683 -0.45901788
C  2.16373990 -0.25588910 1.26760226
C  -1.92585865 0.45273957 0.03689876
H  -0.29495852 -0.24652554 0.02997114
H  -0.01576595 0.22826790 -0.07052924
H  -0.94332668 -0.40633623 0.13351086
H  0.24702508 1.06690666 0.10643316
H  -0.68624582 0.14604270 -0.44921582
H  0.73052653 -0.39834787 -0.17284761
12
MD Step 124.5 Units = [eV / Ang.]
C  -0.90277520 0.68236498 -0.25174906
C  0.04794011 -1.18131514 0.54195055
C  2.63849338 1.86876587 -0.57551872
C  -1.40321889 -1.60108915 -0.52632361
C  2.54596612 -0.55543697 1.28575806
C  -1.58994557 0.13460738 -0.11903433
H  -0.28474903 -0.30416794 0.01070767
H  0.04565721 0.14977263 -0.05651025
H  -0.89416738 -0.42216571 0.10560075
H  0.29693545 1.10751636 0.10489166
H  -0.88862969 0.50443619 -0.40304408
H  0.38849350 -0.38328852 -0.11672864
12
MD Step 125.0 Units = [eV / Ang.]
C  -0.79340784 0.95666265 -0.11647436
C  -0.28993656 -1.15184771 0.42914726
C  2.55972697 1.95837204 -0.45517117
C  -1.45211193 -1.57162728 -0.59515169
C  2.85010144 -0.80925604 1.30195332
C  -1.18979893 -0.17964952 -0.27906321
H  -0.25544541 -0.32804083 -0.01017271
H  0.11268976 0.05735020 -0.04186350
H  -0.76611884 -0.42504550 0.07740294
H  0.28472464 1.04956677 0.10957022
H  -1.04951108 0.80597102 -0.36231900
H  -0.01091223 -0.36245580 -0.05785810
12
MD Step 125.5 Units = [eV / Ang.]
C  -0.68326563 1.18488726 0.02591002
C  -0.62129964 -1.07480746 0.31406497
C  2.38936326 1.98298625 -0.33648089
C  -1.42079774 -1.43214497 -0.66461552
C  3.05537182 -0.97915012 1.32131941
C  -0.75622813 -0.48013768 -0.43908653
H  -0.20561416 -0.31625319 -0.03267859
H  0.17976162 -0.04028799 -0.02681329
H  -0.56507481 -0.41494350 0.05047930
H  0.21483297 0.89851977 0.12025976
H  -1.15008230 1.00887872 -0.33243164
H  -0.43696726 -0.33754711 0.00007301
12
MD Step 126.0 Units = [eV / Ang.]
C  -0.57699202 1.36373390 0.17448706
C  -0.93277566 -0.95734705 0.19648995
C  2.13686729 1.94076760 -0.22082748
C  -1.32117847 -1.19861863 -0.73270941
C  3.14606272 -1.03730894 1.34671605
C  -0.32928620 -0.75821393 -0.59458295
H  -0.13613003 -0.27090784 -0.05660365
H  0.24077385 -0.13333415 -0.01153636
H  -0.30158745 -0.39266262 0.02628172
H  0.09990013 0.67193216 0.13547149
H  -1.17672270 1.08205075 -0.31623945
H  -0.84893144 -0.31009126 0.05305304
12
MD Step 126.5 Units = [eV / Ang.]
C  -0.47749205 1.49465343 0.32778937
C  -1.21187490 -0.80858917 0.07625711
C  1.81784042 1.83323937 -0.10923762
C  -1.16946858 -0.89620265 -0.79668899
C  3.11463212 -0.97406676 1.37767012
C  0.04505396 -1.00727815 -0.74121750
H  -0.05017180 -0.19774241 -0.08148815
H  0.28961018 -0.21179564 0.00385340
H  0.00784577 -0.35994480 0.00593951
H  -0.04226842 0.39560771 0.15282565
H  -1.12415672 1.01307701 -0.31302586
H  -1.19954998 -0.28095794 0.09732296
12
MD Step 127.0 Units = [eV / Ang.]
C  -0.38593279 1.58296383 0.48387952
C  -1.44777492 -0.63846442 -0.04667370
C  1.45494020 1.66527554 -0.00218213
C  -0.98261089 -0.55432393 -0.85361698
C  2.96336019 -0.80113002 1.41042946
C  0.32199476 -1.22335003 -0.87557876
H  0.04716239 -0.10522636 -0.10663334
H  0.32076984 -0.26664212 0.01929916
H  0.33983884 -0.31946836 -0.01002914
H  -0.19239664 0.09855253 0.16961862
H  -0.99688036 0.81174886 -0.31860708
H  -1.44247062 -0.24993552 0.13009436
12
MD Step 127.5 Units = [eV / Ang.]
C  -0.30198707 1.63651787 0.64048464
C  -1.63207847 -0.45635962 -0.17214314
C  1.07764336 1.44469205 0.10066556
C  -0.77553121 -0.20212995 -0.90087239
C  2.70386181 -0.54869969 1.43916742
C  0.46742647 -1.40512795 -0.99578444
H  0.14951552 -0.00334993 -0.13116491
H  0.33003966 -0.29102218 0.03477419
H  0.66437123 -0.27463550 -0.02202589
H  -0.33288400 -0.19161032 0.18335736
H  -0.80823139 0.50738577 -0.32661262
H  -1.54214591 -0.21566056 0.15015421
12
MD Step 128.0 Units = [eV / Ang.]
C  -0.22421931 1.66425218 0.79515845
C  -1.75942495 -0.26986326 -0.29972137
C  0.72005468 1.18140238 0.20058832
C  -0.55984369 0.13464688 -0.93647750
C  2.35470934 -0.25776181 1.45778296
C  0.46659584 -1.55336440 -1.10168728
H  0.25004634 0.09761793 -0.15413161
H  0.31507715 -0.28129515 0.05023632
H  0.94705379 -0.22909435 -0.03157433
H  -0.44969990 -0.45166986 0.19211000
H  -0.57747112 0.14121328 -0.33036386
H  -1.48287815 -0.17608381 0.15807990
12
MD Step 128.5 Units = [eV / Ang.]
C  -0.15051085 1.67490983 0.94544378
C  -1.82784430 -0.08390385 -0.42866267
C  0.41644916 0.88627426 0.29975236
C  -0.34392533 0.43515017 -0.95922161
C  1.93817259 0.02914155 1.46150235
C  0.32819429 -1.66972073 -1.19457110
H  0.34215810 0.18818067 -0.17461321
H  0.27577485 -0.23763224 0.06557733
H  1.15371251 -0.18605511 -0.04125369
H  -0.53297146 -0.66406306 0.19464342
H  -0.32602364 -0.24291876 -0.32454231
H  -1.27318593 -0.12936273 0.15594536
12
MD Step 129.0 Units = [eV / Ang.]
C  -0.07845175 1.67612004 1.08901416
C  -1.83877800 0.09952249 -0.55789592
C  0.19521316 0.56996436 0.40078495
C  -0.13382340 0.68353986 -0.96862631
C  1.47722032 0.27536432 1.44774274
C  0.08188395 -1.75559594 -1.27647434
H  0.42007368 0.26035656 -0.19181797
H  0.21431443 -0.16402359 0.08058414
H  1.25659491 -0.14760515 -0.05425145
H  -0.57664392 -0.81672172 0.19039275
H  -0.07414355 -0.60614310 -0.30610374
H  -0.94345981 -0.07477813 0.14665097
12
MD Step 129.5 Units = [eV / Ang.]
C  -0.00568620 1.67386619 1.22378366
C  -1.79674366 0.28099607 -0.68605784
C  0.07290001 0.24209421 0.50603337
C  0.06563034 0.86843968 -0.96483572
C  0.99356553 0.45410074 1.41616771
C  -0.22965734 -1.81144674 -1.34944732
H  0.47922031 0.30810607 -0.20515465
H  0.13489463 -0.06768634 0.09492712
H  1.24044266 -0.11430495 -0.07357881
H  -0.57773801 -0.90222239 0.17935208
H  0.16117204 -0.91870974 -0.27436672
H  -0.53800032 -0.01323280 0.13317711
12
MD Step 130.0 Units = [eV / Ang.]
C  0.06979849 1.67226440 1.34798061
C  -1.70871745 0.46285974 -0.81156579
C  0.05057607 -0.08901195 0.61674243
C  0.24996836 0.98224640 -0.94849905
C  0.50688156 0.54895791 1.36821145
C  -0.56070007 -1.83681673 -1.41500916
H  0.51644687 0.32751689 -0.21427695
H  0.04320010 0.04197130 0.10817959
H  1.10621283 -0.08526823 -0.10119176
H  -0.53562552 -0.91685847 0.16195231
H  0.36689346 -1.16072179 -0.23056032
H  -0.10493471 0.05286054 0.11803664
12
MD Step 130.5 Units = [eV / Ang.]
C  0.14941038 1.67351866 1.46019050
C  -1.58333083 0.64819226 -0.93271614
C  0.11394032 -0.41603277 0.73247349
C  0.41477400 1.02070741 -0.92067615
C  0.03487960 0.55237200 1.30643444
C  -0.87078475 -1.83090357 -1.47392031
H  0.53012669 0.31684410 -0.21910190
H  -0.05427015 0.15458579 0.11986498
H  0.87093100 -0.05870519 -0.13736039
H  -0.45158965 -0.86007892 0.13896897
H  0.53363903 -1.32065440 -0.17719536
H  0.31227435 0.12015463 0.10303787
12
MD Step 131.0 Units = [eV / Ang.]
C  0.23370672 1.67793058 1.55937162
C  -1.43003239 0.83985210 -1.04778999
C  0.23718172 -0.73209336 0.85101257
C  0.55592404 0.98300230 -0.88277471
C  -0.40622386 0.46325906 1.23397130
C  -1.12933866 -1.79328405 -1.52622125
H  0.52020594 0.27650011 -0.21980608
H  -0.15087634 0.26001019 0.12951841
H  0.56372671 -0.03268459 -0.18054008
H  -0.32876446 -0.73451011 0.11146542
H  0.65486279 -1.39305765 -0.11752065
H  0.67962781 0.18507543 0.08931345
12
MD Step 131.5 Units = [eV / Ang.]
C  0.32217848 1.68391050 1.64484579
C  -1.25832659 1.03975541 -1.15514852
C  0.38900064 -1.03028736 0.96877670
C  0.67032632 0.87237568 -0.83649419
C  -0.80130815 0.28490411 1.15417445
C  -1.31657554 -1.72445604 -1.57141816
H  0.48822364 0.20903177 -0.21680352
H  -0.24041232 0.34924561 0.13674683
H  0.21964231 -0.00579058 -0.22775983
H  -0.17242548 -0.54658256 0.08075474
H  0.72602604 -1.37648756 -0.05516366
H  0.97365067 0.24438102 0.07748938
12
MD Step 132.0 Units = [eV / Ang.]
C  0.41306749 1.68797775 1.71626468
C  -1.07714572 1.24847164 -1.25330843
C  0.53859925 -1.30353304 1.08151096
C  0.75690334 0.69718358 -0.78374880
C  -1.13629637 0.02362278 1.07043892
C  -1.42191020 -1.62604669 -1.60871427
H  0.43730777 0.11909362 -0.21070066
H  -0.31752890 0.41505577 0.14127715
H  -0.12655622 0.02254011 -0.27531801
H  0.00952240 -0.30757062 0.04834407
H  0.74409436 -1.27224638 0.00606689
H  1.17994280 0.29545146 0.06788751
12
MD Step 132.5 Units = [eV / Ang.]
C  0.50327779 1.68482317 1.77354776
C  -0.89439240 1.46507117 -1.34099524
C  0.65998807 -1.54478545 1.18499431
C  0.81752539 0.47198666 -0.72653622
C  -1.39866169 -0.31160939 0.98611514
C  -1.44142539 -1.50071555 -1.63721987
H  0.37210568 0.01335465 -0.20222688
H  -0.37800681 0.45228937 0.14298647
H  -0.44485895 0.05202393 -0.31949629
H  0.20611753 -0.03462832 0.01582369
H  0.70756920 -1.08415456 0.06231263
H  1.29076157 0.33634433 0.06069452
12
MD Step 133.0 Units = [eV / Ang.]
C  0.58842946 1.66752485 1.81679359
C  -0.71662395 1.68713704 -1.41717216
C  0.73397891 -1.74746108 1.27554034
C  0.85749376 0.21802177 -0.66672756
C  -1.57856740 -0.70860881 0.90438846
C  -1.37551549 -1.35185980 -1.65613079
H  0.29858915 -0.09974195 -0.19213443
H  -0.41891564 0.45799505 0.14191355
H  -0.71214870 0.08176050 -0.35707880
H  0.40333319 0.24884030 -0.01532586
H  0.61715029 -0.81932885 0.10985696
H  1.30279642 0.36572097 0.05607671
12
MD Step 133.5 Units = [eV / Ang.]
C  0.66312768 1.62800281 1.84616524
C  -0.54883982 1.91084328 -1.48105368
C  0.74824144 -1.90592380 1.35024092
C  0.88518135 -0.03768447 -0.60580046
C  -1.67059139 -1.15072967 0.82799633
C  -1.22740520 -1.18326226 -1.66486090
H  0.22366740 -0.21045986 -0.18107258
H  -0.43870895 0.43142521 0.13825405
H  -0.91234961 0.11053188 -0.38561090
H  0.58485051 0.51422897 -0.04399530
H  0.47698874 -0.48972949 0.14550008
H  1.21583787 0.38275740 0.05423721
12
MD Step 134.0 Units = [eV / Ang.]
C  0.72145725 1.55779898 1.86177188
C  -0.39433709 2.13102183 -1.53210232
C  0.69623598 -2.01588577 1.40699892
C  0.91063428 -0.26514889 -0.54457983
C  -1.67579049 -1.61535016 0.75869043
C  -1.00279751 -0.99882043 -1.66312753
H  0.15457603 -0.30855051 -0.16945227
H  -0.43728990 0.37400311 0.13234043
H  -1.03541401 0.13706256 -0.40344548
H  0.73381566 0.73073505 -0.06970724
H  0.29628537 -0.11398507 0.16719809
H  1.03262441 0.38711932 0.05541491
12
MD Step 134.5 Units = [eV / Ang.]
C  0.75769282 1.44912522 1.86356986
C  -0.25461604 2.34119804 -1.57001041
C  0.57587383 -2.07466038 1.44445778
C  0.94326436 -0.43611845 -0.48309632
C  -1.60347924 -2.07290124 0.69646350
C  -0.71070650 -0.80241748 -1.65096761
H  0.09807358 -0.38430672 -0.15732977
H  -0.41606507 0.28928533 0.12460726
H  -1.07601131 0.16019621 -0.40968163
H  0.83542253 0.87019567 -0.09276076
H  0.09065501 0.28136396 0.17492889
H  0.75989603 0.37903985 0.05981922
12
MD Step 135.0 Units = [eV / Ang.]
C  0.76711713 1.29607907 1.85132304
C  -0.12934922 2.53362884 -1.59466477
C  0.38851141 -2.08126774 1.46192650
C  0.98926703 -0.52958215 -0.42066660
C  -1.47180980 -2.48748446 0.63875115
C  -0.36527683 -0.59798532 -1.62865851
H  0.05955530 -0.42976777 -0.14434913
H  -0.37796435 0.18290111 0.11553885
H  -1.03255137 0.17899803 -0.40409074
H  0.87970306 0.91267889 -0.11415164
H  -0.11763336 0.66231634 0.17155285
H  0.41043100 0.35948516 0.06748897
12
MD Step 135.5 Units = [eV / Ang.]
C  0.74677547 1.09577771 1.82464845
C  -0.01645914 2.69940532 -1.60609192
C  0.13862196 -2.03638544 1.45936190
C  1.04965547 -0.53633595 -0.35621158
C  -1.30614562 -2.82001405 0.58003642
C  0.01195031 -0.38970164 -1.59652328
H  0.04226707 -0.43984740 -0.12977428
H  -0.32737668 0.06240337 0.10560096
H  -0.90689626 0.19281072 -0.38709322
H  0.86361221 0.85101563 -0.13524417
H  -0.30148070 0.99053913 0.16322104
H  0.00547590 0.33033259 0.07806968
12
MD Step 136.0 Units = [eV / Ang.]
C  0.69600721 0.84915899 1.78315453
C  0.08762525 2.82871677 -1.60438850
C  -0.16576581 -1.94217855 1.43742924
C  1.11968689 -0.46087914 -0.28870864
C  -1.13476921 -3.03402391 0.51235902
C  0.39032989 -0.18219984 -1.55462988
H  0.04680912 -0.41313157 -0.11262221
H  -0.26993448 -0.06305574 0.09515696
H  -0.70486544 0.20128887 -0.35980296
H  0.79162180 0.69253918 -0.15729868
H  -0.43325512 1.22933500 0.15881823
H  -0.42349011 0.29442994 0.09053289
12
MD Step 136.5 Units = [eV / Ang.]
C  0.61661187 0.56124235 1.72664619
C  0.18747321 2.91135419 -1.58964787
C  -0.51197422 -1.80202712 1.39761305
C  1.18991934 -0.31991386 -0.21759513
C  -0.98266499 -3.10290860 0.42697642
C  0.73041080 0.01938928 -1.50246372
H  0.07106713 -0.35214053 -0.09187488
H  -0.21208640 -0.18330170 0.08438277
H  -0.43740464 0.20442276 -0.32410991
H  0.67458567 0.45731649 -0.18104172
H  -0.49081224 1.35118561 0.16819777
H  -0.83512553 0.25538114 0.10291704
12
MD Step 137.0 Units = [eV / Ang.]
C  0.51263372 0.24076572 1.65534287
C  0.28789760 2.93748401 -1.56189914
C  -0.88132432 -1.62017521 1.34230227
C  1.24842113 -0.13813560 -0.14296841
C  -0.86539779 -3.01612122 0.31684009
C  0.98762362 0.20973434 -1.43873218
H  0.11059241 -0.26298237 -0.06671977
H  -0.16043900 -0.28800056 0.07319706
H  -0.12200658 0.20253769 -0.28272588
H  0.52733626 0.17361125 -0.20644592
H  -0.46322956 1.34430975 0.19957111
H  -1.18210748 0.21697219 0.11223790
12
MD Step 137.5 Units = [eV / Ang.]
C  0.38983505 -0.10067664 1.57004738
C  0.39300172 2.89863998 -1.52108568
C  -1.24821108 -1.40132087 1.27473450
C  1.28331216 0.05700450 -0.06553894
C  -0.78560797 -2.78170777 0.17893953
C  1.11972571 0.38389317 -1.36148507
H  0.15932481 -0.15449476 -0.03675713
H  -0.12092250 -0.36774875 0.06123468
H  0.21633076 0.19624322 -0.23908197
H  0.36588915 -0.12768363 -0.23277230
H  -0.35383553 1.21552294 0.25702715
H  -1.41884228 0.18232861 0.11473785
12
MD Step 138.0 Units = [eV / Ang.]
C  0.25501875 -0.44978870 1.47222445
C  0.50516776 2.78878258 -1.46710144
C  -1.58053093 -1.15018256 1.19869061
C  1.28478051 0.23983252 0.01358071
C  -0.73358687 -2.42402501 0.01547323
C  1.09645677 0.53798326 -1.26866846
H  0.21047717 -0.03708303 -0.00212709
H  -0.09791464 -0.41523709 0.04788219
H  0.54555571 0.18630491 -0.19697318
H  0.20510989 -0.41783579 -0.25880475
H  -0.17914245 0.98813841 0.33926355
H  -1.51139165 0.15311050 0.10656017
12
MD Step 138.5 Units = [eV / Ang.]
C  0.11532933 -0.79272147 1.36396896
C  0.62421785 2.60521674 -1.39989161
C  -1.84232024 -0.87109192 1.11789689
C  1.24618209 0.38926154 0.09312581
C  -0.69149028 -1.97767893 -0.16664775
C  0.90805486 0.66954510 -1.15900410
H  0.25737954 0.07848181 0.03646602
H  -0.09351908 -0.42625929 0.03238475
H  0.82928278 0.17344272 -0.15991779
H  0.05730479 -0.67323089 -0.28314955
H  0.03576706 0.69589825 0.44004243
H  -1.44618867 0.12913634 0.08472594
12
MD Step 139.0 Units = [eV / Ang.]
C  -0.02233729 -1.11602345 1.24788651
C  0.74695600 2.34915538 -1.31960133
C  -1.99885088 -0.56771894 1.03524768
C  1.16420804 0.48978793 0.17186632
C  -0.63912812 -1.48025725 -0.35759864
C  0.56893042 0.77738893 -1.03286394
H  0.29414360 0.18209981 0.07781980
H  -0.10718419 -0.40033077 0.01400748
H  1.03200894 0.15811371 -0.13035147
H  -0.06824288 -0.87638236 -0.30449159
H  0.26331000 0.37550489 0.55001227
H  -1.23381363 0.10866212 0.04806691
12
MD Step 139.5 Units = [eV / Ang.]
C  -0.15179076 -1.40730347 1.12691161
C  0.86725470 2.02580361 -1.22673626
C  -2.02331334 -0.24305391 0.95212020
C  1.03843578 0.53119839 0.24869414
C  -0.55901928 -0.96640842 -0.54683916
C  0.11474559 0.86100003 -0.89272816
H  0.31608555 0.26509793 0.12036448
H  -0.13577630 -0.34076044 -0.00778331
H  1.12591732 0.14038530 -0.10893228
H  -0.16507000 -1.01554042 -0.32175690
H  0.47860973 0.06038959 0.65897869
H  -0.90607898 0.08919179 -0.00229306
12
MD Step 140.0 Units = [eV / Ang.]
C  -0.26785800 -1.65566274 1.00410453
C  0.97670650 1.64397689 -1.12229235
C  -1.90308115 0.10025607 0.86811330
C  0.87063143 0.50771184 0.32263918
C  -0.43932510 -0.46463161 -0.72486647
C  -0.40581435 0.91989130 -0.74299787
H  0.31992888 0.32069891 0.16232261
H  -0.17409157 -0.25415686 -0.03316721
H  1.09720941 0.11999357 -0.09429141
H  -0.22902743 -1.08366198 -0.33418992
H  0.66248786 -0.22283385 0.75775042
H  -0.50776648 0.06841846 -0.06312482
12
MD Step 140.5 Units = [eV / Ang.]
C  -0.36657368 -1.85201334 0.88244353
C  1.06570579 1.21538838 -1.00781756
C  -1.64319354 0.45924930 0.78139925
C  0.66410428 0.41715325 0.39285574
C  -0.27453429 0.00331852 -0.88413658
C  -0.94103844 0.95326949 -0.58926654
H  0.30384965 0.34426769 0.20187595
H  -0.21567363 -0.14949702 -0.06188136
H  0.94957315 0.09659979 -0.08341283
H  -0.25778344 -1.07740213 -0.34137756
H  0.80216932 -0.45522175 0.83914903
H  -0.08660517 0.04488783 -0.12983106
12
MD Step 141.0 Units = [eV / Ang.]
C  -0.44529951 -1.98940357 0.76462955
C  1.12475693 0.75379764 -0.88538807
C  -1.26561276 0.82983461 0.68958108
C  0.42333691 0.26056666 0.45862196
C  -0.06460171 0.42135771 -1.01922552
C  -1.44441181 0.96015927 -0.43738928
H  0.26744346 0.33343341 0.23732655
H  -0.25373303 -0.03697665 -0.09321523
H  0.70332718 0.07013865 -0.07253363
H  -0.25055546 -0.99656938 -0.34325705
H  0.89044202 -0.62454240 0.89823662
H  0.31490777 0.01820405 -0.19738698
12
MD Step 141.5 Units = [eV / Ang.]
C  -0.50279213 -2.06342587 0.65290578
C  1.14575178 0.27419815 -0.75751040
C  -0.80458198 1.20610106 0.59070331
C  0.15397375 0.04241098 0.51937438
C  0.18656298 0.77742425 -1.12655209
C  -1.87916048 0.93987365 -0.29270145
H  0.21167374 0.28817145 0.26725269
H  -0.28197962 0.07312119 -0.12608084
H  0.39059355 0.04109054 -0.05820460
H  -0.20817465 -0.84423668 -0.34012989
H  0.92420521 -0.72358835 0.93207076
H  0.66392786 -0.01114037 -0.26112763
12
MD Step 142.0 Units = [eV / Ang.]
C  -0.53925606 -2.07268505 0.54889220
C  1.12300513 -0.20786770 -0.62696752
C  -0.29996946 1.57996497 0.48400823
C  -0.13682974 -0.22866078 0.57476206
C  0.47254705 1.06209741 -1.20399070
C  -2.21919969 0.89256304 -0.15958310
H  0.13882992 0.21089501 0.29066366
H  -0.29523390 0.17135961 -0.15913330
H  0.04845185 0.01055361 -0.03810432
H  -0.13350280 -0.62750024 -0.33267794
H  0.90312742 -0.74861482 0.93932606
H  0.93803027 -0.04210507 -0.31719535
12
MD Step 142.5 Units = [eV / Ang.]
C  -0.55634894 -2.01926744 0.45344288
C  1.05392922 -0.67686658 -0.49664115
C  0.20902437 1.94124080 0.37021976
C  -0.43979338 -0.53867182 0.62469678
C  0.78542407 1.26794086 -1.25061563
C  -2.44776811 0.81965456 -0.04136051
H  0.05248562 0.10654076 0.30714999
H  -0.28978607 0.24981244 -0.19091347
H  -0.28749336 -0.01989525 -0.01138521
H  -0.03211149 -0.35864722 -0.32195902
H  0.82881251 -0.69841400 0.92002161
H  1.12362557 -0.07342712 -0.36265603
12
MD Step 143.0 Units = [eV / Ang.]
C  -0.55713484 -1.90906292 0.36653833
C  0.93930218 -1.11776520 -0.36933280
C  0.68818041 2.27809229 0.25137935
C  -0.74286660 -0.86730989 0.66933484
C  1.11610859 1.38975116 -1.26668858
C  -2.55518918 0.72405448 0.05957199
H  -0.04258476 -0.01742035 0.31701673
H  -0.26352711 0.30245912 -0.21998724
H  -0.58744733 -0.04846206 0.02142548
H  0.08700888 -0.05623676 -0.30932980
H  0.70461653 -0.57426001 0.87547798
H  1.21353322 -0.10383987 -0.39540629
12
MD Step 143.5 Units = [eV / Ang.]
C  -0.54591753 -1.75177539 0.28724494
C  0.78317507 -1.51654410 -0.24759635
C  1.11015550 2.57772860 0.13041761
C  -1.03092724 -1.18775389 0.70894470
C  1.45407666 1.42572368 -1.25389415
C  -2.53687672 0.61009816 0.14156111
H  -0.14059507 -0.15117014 0.32136588
H  -0.21592989 0.32539356 -0.24507140
H  -0.82920233 -0.07340842 0.05878628
H  0.21109974 0.25465075 -0.29624801
H  0.53608387 -0.38076774 0.80850906
H  1.20485793 -0.13217508 -0.41401967
12
MD Step 144.0 Units = [eV / Ang.]
C  -0.52790489 -1.56048021 0.21377672
C  0.59247646 -1.86078547 -0.13359308
C  1.45449884 2.82722735 0.01067542
C  -1.28628693 -1.46812958 0.74363112
C  1.78659743 1.37933982 -1.21571797
C  -2.39220312 0.48331367 0.20356564
H  -0.23509872 -0.28305858 0.32208478
H  -0.14794473 0.31691707 -0.26514041
H  -0.99789880 -0.09325702 0.09855930
H  0.32412522 0.54380690 -0.28393326
H  0.33182089 -0.12750590 0.72374510
H  1.09781835 -0.15738805 -0.41765335
12
MD Step 144.5 Units = [eV / Ang.]
C  -0.50869934 -1.35060462 0.14370077
C  0.37642897 -2.14036461 -0.02896596
C  1.70673224 3.01439513 -0.10449032
C  -1.49035431 -1.67509048 0.77297420
C  2.09778527 1.26153210 -1.15775042
C  -2.12447527 0.35004355 0.24517177
H  -0.31953476 -0.40054357 0.32169234
H  -0.06187089 0.27759893 -0.27951927
H  -1.08474705 -0.10691193 0.13835519
H  0.40848201 0.77942779 -0.27294422
H  0.10445903 0.16907029 0.62786561
H  0.89579410 -0.17855259 -0.40608970
12
MD Step 145.0 Units = [eV / Ang.]
C  -0.49362471 -1.13839103 0.07429742
C  0.14584058 -2.34819523 0.06526062
C  1.85732386 3.12861865 -0.21196971
C  -1.62640535 -1.77922686 0.79572785
C  2.36801062 1.09230924 -1.08759543
C  -1.74205560 0.21702101 0.26679463
H  -0.38792934 -0.49152974 0.32302371
H  0.03878163 0.21031773 -0.28796364
H  -1.08560262 -0.11371492 0.17576729
H  0.44790454 0.93347781 -0.26282298
H  -0.12883819 0.48418524 0.52942276
H  0.60659458 -0.19487190 -0.37994250
12
MD Step 145.5 Units = [eV / Ang.]
C  -0.48702001 -0.93900335 0.00304206
C  -0.08761603 -2.48092379 0.14874849
C  1.90112025 3.16163980 -0.30905052
C  -1.68285734 -1.76097063 0.80976760
C  2.57437789 0.90070354 -1.01406561
C  -1.26038645 0.09091666 0.27003907
H  -0.43565210 -0.54594557 0.32877803
H  0.14943818 0.12027424 -0.29072132
H  -1.00002678 -0.11347081 0.20852322
H  0.43093528 0.98753844 -0.25200425
H  -0.34698858 0.78496945 0.43793929
H  0.24467568 -0.20572798 -0.34099606
12
MD Step 146.0 Units = [eV / Ang.]
C  -0.49161082 -0.76465507 -0.07187779
C  -0.31214041 -2.53943198 0.22186500
C  1.83749538 3.10824627 -0.39351825
C  -1.65590921 -1.61500314 0.81241423
C  2.69280096 0.72193705 -0.94555217
C  -0.70429585 -0.02206164 0.25810523
H  -0.46006140 -0.55724114 0.34101382
H  0.26464812 0.01489450 -0.28856452
H  -0.83114567 -0.10646779 0.23461373
H  0.35381589 0.93711473 -0.23811837
H  -0.52722533 1.03344196 0.36218477
H  -0.16637168 -0.21077374 -0.29256569
12
MD Step 146.5 Units = [eV / Ang.]
C  -0.50813488 -0.62313684 -0.15113844
C  -0.51648585 -2.52896788 0.28563665
C  1.67120178 2.96679145 -0.46377151
C  -1.55046343 -1.35144415 0.80107650
C  2.70173564 0.59148733 -0.88789307
C  -0.10945523 -0.11654973 0.23602074
H  -0.46087831 -0.52344865 0.36071521
H  0.37834577 -0.09646916 -0.28276843
H  -0.58635633 -0.09349332 0.25246063
H  0.22165392 0.79267293 -0.21863726
H  -0.64891082 1.19259344 0.30797166
H  -0.59225224 -0.21003544 -0.23967267
12
MD Step 147.0 Units = [eV / Ang.]
C  -0.53529738 -0.51710890 -0.23406727
C  -0.69060020 -2.45876702 0.34161742
C  1.41373883 2.73947122 -0.51900156
C  -1.37890596 -0.99337059 0.77398234
C  2.58669794 0.53723057 -0.84255416
C  0.47853862 -0.18835901 0.21042217
H  -0.44017803 -0.44750949 0.38755339
H  0.48421066 -0.20313451 -0.27501694
H  -0.27868379 -0.07582293 0.26116147
H  0.04736148 0.57696873 -0.19162731
H  -0.69800066 1.23437288 0.27630134
H  -0.98888150 -0.20397095 -0.18877091
12
MD Step 147.5 Units = [eV / Ang.]
C  -0.57004831 -0.44427873 -0.31870865
C  -0.82620589 -2.34109232 0.39166588
C  1.08472579 2.43227188 -0.55944309
C  -1.15824032 -0.57174763 0.73070304
C  2.34401879 0.57229922 -0.80605568
C  1.00879535 -0.23478171 0.18867184
H  -0.40200569 -0.33678488 0.41991053
H  0.57612802 -0.29403055 -0.26721898
H  0.07172726 -0.05513736 0.26080380
H  -0.15119486 0.31978007 -0.15631138
H  -0.67057053 1.14692162 0.26281149
H  -1.30712962 -0.19341960 -0.14682880
12
MD Step 148.0 Units = [eV / Ang.]
C  -0.60807714 -0.39836805 -0.40213864
C  -0.91729801 -2.18976211 0.43765020
C  0.71250189 2.05452233 -0.58662917
C  -0.90673184 -0.11973122 0.67230096
C  1.98228075 0.69164899 -0.77111421
C  1.43354417 -0.25483220 0.17736228
H  -0.35171983 -0.20188980 0.45515358
H  0.64870939 -0.35892075 -0.26124764
H  0.43681730 -0.03332354 0.25276787
H  -0.35471208 0.05205271 -0.11325941
H  -0.57388367 0.93802570 0.25899075
H  -1.50143092 -0.17942204 -0.11983656
12
MD Step 148.5 Units = [eV / Ang.]
C  -0.64439927 -0.37054303 -0.48094310
C  -0.96053517 -2.01839932 0.48112586
C  0.33300126 1.61809417 -0.60350957
C  -0.64122414 0.33189461 0.60112081
C  1.52084901 0.87387620 -0.72908516
C  1.71835528 -0.24936765 0.18065434
H  -0.29523148 -0.05516511 0.49007420
H  0.69781040 -0.38974967 -0.25863756
H  0.78153461 -0.01214970 0.23986487
H  -0.54546892 -0.19872938 -0.06421690
H  -0.42448363 0.63320226 0.25473366
H  -1.54020794 -0.16296338 -0.11118144
12
MD Step 149.0 Units = [eV / Ang.]
C  -0.67389361 -0.35094252 -0.55171688
C  -0.95545605 -1.83874232 0.52304884
C  -0.01389657 1.13637873 -0.61424293
C  -0.37573334 0.75727448 0.52038088
C  0.98618535 1.08741312 -0.67262214
C  1.85043014 -0.22098020 0.19914271
H  -0.23830661 0.09084899 0.52137038
H  0.72094398 -0.38183163 -0.26030686
H  1.06730874 0.00712250 0.22612251
H  -0.70915421 -0.41106019 -0.01172444
H  -0.24413282 0.26927563 0.24113305
H  -1.41429499 -0.14475657 -0.12058511
12
MD Step 149.5 Units = [eV / Ang.]
C  -0.69172859 -0.32997877 -0.61148654
C  -0.90448944 -1.65937963 0.56359849
C  -0.29050896 0.62329957 -0.62355469
C  -0.12128549 1.13615460 0.43375152
C  0.40751236 1.29833081 -0.59749377
C  1.84131989 -0.17363202 0.22981287
H  -0.18604113 0.22466272 0.54606852
H  0.71751599 -0.33461189 -0.26637177
H  1.25807491 0.02404503 0.21610870
H  -0.83544981 -0.56994076 0.04129147
H  -0.05525924 -0.11377486 0.21242381
H  -1.13966048 -0.12517479 -0.14414860
12
MD Step 150.0 Units = [eV / Ang.]
C  -0.69366329 -0.29925752 -0.65798597
C  -0.81273857 -1.48518403 0.60215060
C  -0.46868465 0.09263435 -0.63573429
C  0.11347037 1.45332746 0.34503828
C  -0.18674054 1.47685570 -0.50310407
C  1.72280598 -0.11210159 0.26712562
H  -0.14254167 0.33668268 0.56182055
H  0.68882836 -0.25179392 -0.27610975
H  1.32755425 0.03903971 0.21387931
H  -0.91772552 -0.66611173 0.09183754
H  0.12257443 -0.47974014 0.16660684
H  -0.75313916 -0.10435096 -0.17552466
12
MD Step 150.5 Units = [eV / Ang.]
C  -0.67625170 -0.25211701 -0.68978855
C  -0.68753019 -1.31749601 0.63740800
C  -0.53600552 -0.44221771 -0.65358653
C  0.32145759 1.69762667 0.25799006
C  -0.77098842 1.60094643 -0.39194499
C  1.53786193 -0.04138808 0.30470479
H  -0.11078773 0.41966352 0.56706769
H  0.63785611 -0.14079837 -0.28807924
H  1.26541991 0.05312055 0.22188030
H  -0.95235594 -0.69481708 0.13705360
H  0.27445930 -0.80015910 0.10497185
H  -0.30313535 -0.08236381 -0.20767699
12
MD Step 151.0 Units = [eV / Ang.]
C  -0.63697575 -0.18389650 -0.70632400
C  -0.53779976 -1.15491959 0.66764710
C  -0.49842557 -0.96809995 -0.67776366
C  0.49660667 1.86106568 0.17619666
C  -1.32314035 1.65692871 -0.26855507
C  1.33058097 0.03375265 0.33689719
H  -0.09261136 0.46887551 0.56109291
H  0.56885247 -0.01169687 -0.30036491
H  1.07990649 0.06736942 0.24024335
H  -0.93807665 -0.65472286 0.17433004
H  0.39032957 -1.05526315 0.03108622
H  0.16075325 -0.05939305 -0.23448584
12
MD Step 151.5 Units = [eV / Ang.]
C  -0.57434855 -0.09207366 -0.70782695
C  -0.37337516 -0.99444006 0.69101273
C  -0.37826855 -1.47187317 -0.70676815
C  0.63376933 1.93848640 0.10299417
C  -1.82439111 1.63818146 -0.13849953
C  1.13854230 0.10908156 0.35970501
H  -0.08872814 0.48212227 0.54399892
H  0.48686632 0.12411720 -0.31088190
H  0.79575755 0.08239949 0.26677779
H  -0.87564500 -0.54736104 0.20141057
H  0.46417077 -1.23286164 -0.05022641
H  0.59565022 -0.03577882 -0.25169625
12
MD Step 152.0 Units = [eV / Ang.]
C  -0.48799900 0.02360896 -0.69525460
C  -0.20425071 -0.83254798 0.70579451
C  -0.20846011 -1.94040152 -0.73759616
C  0.72917132 1.92788408 0.04129816
C  -2.25874239 1.54311890 -0.00765287
C  0.98915315 0.18096514 0.37100456
H  -0.09876926 0.45972182 0.51664400
H  0.39725919 0.25523350 -0.31766816
H  0.44839369 0.09804439 0.29763531
H  -0.76791772 -0.37724738 0.21655744
H  0.49290968 -1.32638924 -0.13363605
H  0.96925217 -0.01199067 -0.25712615
12
MD Step 152.5 Units = [eV / Ang.]
C  -0.37874348 0.16099920 -0.67018334
C  -0.03993329 -0.66616310 0.71063515
C  -0.02528819 -2.36088229 -0.76670308
C  0.78125877 1.83137235 -0.00668871
C  -2.61264957 1.37338397 0.11818711
C  0.89953042 0.24637096 0.37027046
H  -0.12129465 0.40450023 0.48054612
H  0.30528333 0.37129592 -0.31911440
H  0.07662315 0.11337389 0.32832560
H  -0.62029274 -0.15260547 0.21882973
H  0.47546760 -1.33308756 -0.21374178
H  1.26003865 0.01144189 -0.25036286
12
MD Step 153.0 Units = [eV / Ang.]
C  -0.24865075 0.31538415 -0.63469184
C  0.11108442 -0.49323411 0.70465624
C  0.13786018 -2.72147011 -0.79088838
C  0.79171392 1.65657193 -0.03990842
C  -2.87502893 1.13279670 0.23345802
C  0.87847579 0.30283831 0.35811674
H  -0.15378686 0.32179777 0.43775719
H  0.21576051 0.46372691 -0.31410452
H  -0.28363924 0.12696324 0.35467404
H  -0.44133912 0.11353790 0.20848893
H  0.41223920 -1.25290191 -0.28529737
H  1.45531088 0.03398922 -0.23226062
12
MD Step 153.5 Units = [eV / Ang.]
C  -0.10106300 0.47945221 -0.59119785
C  0.24171131 -0.31304509 0.68750519
C  0.25436091 -3.01201340 -0.80783510
C  0.76624122 1.41793706 -0.05895020
C  -3.03767653 0.82725883 0.33294349
C  0.92902816 0.34846560 0.33587566
H  -0.19267278 0.21939008 0.39068623
H  0.13285427 0.52612691 -0.30207296
H  -0.60320651 0.13725413 0.37344588
H  -0.24326815 0.40236947 0.18746564
H  0.30508374 -1.08834416 -0.34339240
H  1.54860737 0.05514833 -0.20447358
12
MD Step 154.0 Units = [eV / Ang.]
C  0.05946185 0.64348799 -0.54224384
C  0.34650225 -0.12630959 0.65934903
C  0.30565546 -3.22471649 -0.81625657
C  0.71465854 1.13730473 -0.06645799
C  -3.09608263 0.46561033 0.41201094
C  1.05055566 0.38192783 0.30532370
H  -0.23342083 0.10721337 0.34186156
H  0.05991715 0.55442442 -0.28299602
H  -0.86085752 0.14286555 0.38257801
H  -0.04179369 0.68910264 0.15972401
H  0.15781049 -0.84535186 -0.38376005
H  1.53759326 0.07444108 -0.16913278
12
MD Step 154.5 Units = [eV / Ang.]
C  0.22732892 0.79594589 -0.49022430
C  0.42180332 0.06486127 0.62083335
C  0.28072260 -3.35463299 -0.81575999
C  0.64986251 0.84285469 -0.06718909
C  -3.05052376 0.06124017 0.46711989
C  1.23982818 0.40250425 0.26855894
H  -0.27077950 -0.00324296 0.29363237
H  -0.00061855 0.54687992 -0.25734059
H  -1.04272796 0.14279068 0.38111884
H  0.14505712 0.94435018 0.13127017
H  -0.02297433 -0.53495173 -0.40334517
H  1.42302146 0.09140062 -0.12867441
12
MD Step 155.0 Units = [eV / Ang.]
C  0.39624717 0.92447655 -0.43708471
C  0.46582615 0.25701886 0.57302140
C  0.17470906 -3.39993462 -0.80658976
C  0.58554500 0.56596215 -0.06748059
C  -2.90716993 -0.36600701 0.49665137
C  1.49087032 0.41007676 0.22796732
H  -0.29919783 -0.09994637 0.24784330
H  -0.04733718 0.50403608 -0.22598705
H  -1.14087920 0.13648559 0.36903264
H  0.29933688 1.13750973 0.10955753
H  -0.22693280 -0.17524576 -0.40117050
H  1.20898237 0.10556804 -0.08576093
12
MD Step 155.5 Units = [eV / Ang.]
C  0.55973151 1.01736269 -0.38405622
C  0.47868835 0.44544258 0.51731805
C  -0.01243447 -3.36196698 -0.78938956
C  0.53308447 0.33616824 -0.07403785
C  -2.67878333 -0.78847152 0.50192984
C  1.79364028 0.40507619 0.18619579
H  -0.31342284 -0.17169596 0.20554642
H  -0.07993419 0.42865203 -0.19013476
H  -1.15192178 0.12389087 0.34699582
H  0.40640076 1.24187380 0.10220767
H  -0.43942739 0.20715156 -0.37936413
H  0.90437861 0.11651650 -0.04321109
12
MD Step 156.0 Units = [eV / Ang.]
C  0.71172134 1.06515038 -0.33150740
C  0.46241848 0.62421107 0.45537556
C  -0.27679187 -3.24510585 -0.76505517
C  0.49856045 0.17548717 -0.09228616
C  -2.38440986 -1.17101153 0.48806671
C  2.13186481 0.38834074 0.14602607
H  -0.30920049 -0.20965678 0.16683617
H  -0.09930487 0.32562380 -0.15119133
H  -1.07623333 0.10542241 0.31625481
H  0.45801667 1.24020965 0.11528582
H  -0.64189945 0.57741649 -0.34396755
H  0.52525812 0.12391245 -0.00383754
12
MD Step 156.5 Units = [eV / Ang.]
C  0.84719405 1.06216647 -0.27897569
C  0.42090994 0.78632984 0.38897365
C  -0.61056184 -3.05639532 -0.73469927
C  0.48112303 0.09392038 -0.12482747
C  -2.04759603 -1.47409709 0.46405201
C  2.48077433 0.36087838 0.11006456
H  -0.28394845 -0.20874439 0.13087405
H  -0.10759142 0.20183133 -0.11064198
H  -0.91802106 0.08194710 0.27855439
H  0.45418849 1.12889923 0.15168881
H  -0.81367948 0.89565772 -0.30494849
H  0.09720843 0.12760634 0.02988543
12
MD Step 157.0 Units = [eV / Ang.]
C  0.96265447 1.00752015 -0.22540194
C  0.35976795 0.92398464 0.31987788
C  -1.00139144 -2.80501279 -0.69968842
C  0.47341965 0.08787793 -0.17062693
C  -1.69305155 -1.65994117 0.44156319
C  2.80598958 0.32359641 0.08023036
H  -0.23723316 -0.16849615 0.09612465
H  -0.10813750 0.06584179 -0.06990138
H  -0.68618928 0.05473415 0.23610066
H  0.40292124 0.91900304 0.21027891
H  -0.93525760 1.12316887 -0.27489616
H  -0.34349236 0.12772313 0.05633917
12
MD Step 157.5 Units = [eV / Ang.]
C  1.05638358 0.90533768 -0.16951293
C  0.28599175 1.02898325 0.24968658
C  -1.43124894 -2.50156049 -0.66167844
C  0.46396602 0.14202181 -0.22526626
C  -1.34246972 -1.70040709 0.43242902
C  3.06509425 0.27706673 0.05714592
H  -0.17092493 -0.09319011 0.06075200
H  -0.10529212 -0.07260420 -0.03015915
H  -0.39569960 0.02535005 0.19148844
H  0.31801412 0.63378652 0.28611842
H  -0.99228313 1.23051397 -0.26635386
H  -0.75153130 0.12470186 0.07535026
12
MD Step 158.0 Units = [eV / Ang.]
C  1.12840240 0.76416191 -0.11024542
C  0.20744020 1.09343089 0.17968787
C  -1.87539835 -2.15723825 -0.62255006
C  0.44045036 0.23363354 -0.28211836
C  -1.01085296 -1.58405772 0.44544012
C  3.21301485 0.22145509 0.03968574
H  -0.08898191 0.00882765 0.02307159
H  -0.10401137 -0.20336557 0.00775917
H  -0.06880786 -0.00453650 0.14751098
H  0.21579550 0.30372075 0.37167014
H  -0.97892555 1.20473296 -0.28850609
H  -1.07812532 0.11923524 0.08859432
12
MD Step 158.5 Units = [eV / Ang.]
C  1.18019041 0.59569570 -0.04709608
C  0.13208068 1.11057510 0.11076416
C  -2.30232896 -1.78297069 -0.58416764
C  0.39271907 0.33773730 -0.33391590
C  -0.70474997 -1.31941550 0.48377707
C  3.21085404 0.15666640 0.02500782
H  0.00307935 0.12642182 -0.01806089
H  -0.10926904 -0.31687425 0.04348173
H  0.26473289 -0.03344592 0.10679520
H  0.11199019 -0.03917068 0.45843919
H  -0.89920979 1.05268184 -0.34451967
H  -1.28008886 0.11209889 0.09949502
12
MD Step 159.0 Units = [eV / Ang.]
C  1.21424548 0.41323778 0.01968680
C  0.06710129 1.07572695 0.04337237
C  -2.67559180 -1.38859057 -0.54796036
C  0.31455793 0.43129029 -0.37411996
C  -0.42301938 -0.93300944 0.54419308
C  3.03575819 0.08269074 0.00924888
H  0.09888574 0.24721176 -0.06301191
H  -0.12533220 -0.40519890 0.07710171
H  0.56947026 -0.06042553 0.07127985
H  0.01958830 -0.36587744 0.53846209
H  -0.76574857 0.79902022 -0.43069807
H  -1.32991524 0.10392415 0.11244552
12
MD Step 159.5 Units = [eV / Ang.]
C  1.23361654 0.23017740 0.08909387
C  0.01802894 0.98705447 -0.02238773
C  -2.95805336 -0.98228607 -0.51443695
C  0.20404616 0.49562414 -0.39774305
C  -0.15960894 -0.46315557 0.61823524
C  2.68798617 0.00002430 -0.01126927
H  0.19191990 0.35903620 -0.11131222
H  -0.15504392 -0.46298391 0.10909441
H  0.80858730 -0.08530825 0.04167187
H  -0.05203070 -0.65299436 0.60526680
H  -0.59646022 0.47979239 -0.53773981
H  -1.22298785 0.09501925 0.13152686
12
MD Step 160.0 Units = [eV / Ang.]
C  1.24147350 0.05881723 0.15948986
C  -0.01194899 0.84608432 -0.08662594
C  -3.11816212 -0.57046284 -0.48286069
C  0.06283735 0.51715133 -0.40158150
C  0.09297597 0.04781612 0.69478132
C  2.19199814 -0.08999547 -0.03881337
H  0.27611671 0.45109671 -0.16175340
H  -0.19927115 -0.48807391 0.14015091
H  0.95031950 -0.10873916 0.01711780
H  -0.09696879 -0.88338725 0.65423848
H  -0.41065056 0.13436320 -0.65337438
H  -0.97871956 0.08532973 0.15923091
12
MD Step 160.5 Units = [eV / Ang.]
C  1.24077805 -0.09037754 0.22882875
C  -0.02228451 0.65778398 -0.14947649
C  -3.13657146 -0.15813780 -0.45131633
C  -0.10507498 0.48694284 -0.38403873
C  0.34082910 0.56010647 0.76271541
C  1.59099940 -0.18504032 -0.07353836
H  0.34627770 0.51468407 -0.21258086
H  -0.25666727 -0.48166494 0.17096776
H  0.97475518 -0.13187907 -0.00468273
H  -0.11213912 -1.04556581 0.68254882
H  -0.22580554 -0.20140256 -0.76517517
H  -0.63509655 0.07455067 0.19574793
12
MD Step 161.0 Units = [eV / Ang.]
C  1.23406030 -0.20917721 0.29488655
C  -0.01492528 0.43021727 -0.21092966
C  -3.01075967 0.25026091 -0.41723245
C  -0.29458702 0.39988451 -0.34479205
C  0.58715588 1.04022774 0.81281069
C  0.93738512 -0.28183171 -0.11355559
H  0.39831535 0.54353912 -0.26172714
H  -0.32380833 -0.44796673 0.20204657
H  0.87859665 -0.15585042 -0.02686004
H  -0.09648603 -1.13254998 0.68888358
H  -0.05580944 -0.49907148 -0.86259572
H  -0.23913753 0.06231798 0.23906526
12
MD Step 161.5 Units = [eV / Ang.]
C  1.22325805 -0.29174515 0.35547416
C  0.00626576 0.17386638 -0.27072292
C  -2.75575459 0.64996040 -0.37819642
C  -0.50038178 0.25398976 -0.28450106
C  0.83213744 1.46203763 0.83851199
C  0.28294226 -0.37633010 -0.15560181
H  0.42937260 0.53396152 -0.30704401
H  -0.39566819 -0.39346397 0.23355198
H  0.67594672 -0.18115245 -0.05244753
H  -0.05037886 -1.14087808 0.67317169
H  0.08943622 -0.73862564 -0.93789683
H  0.16282436 0.04837969 0.28570076
12
MD Step 162.0 Units = [eV / Ang.]
C  1.20960091 -0.33474524 0.40861680
C  0.03633461 -0.09923418 -0.32831505
C  -2.40062110 1.03516607 -0.33271711
C  -0.71733436 0.05019906 -0.20467391
C  1.07369407 1.80601656 0.83584260
C  -0.32814053 -0.46400585 -0.19589587
H  0.43789322 0.48481765 -0.34651860
H  -0.46630643 -0.32596476 0.26525579
H  0.39477802 -0.20730853 -0.08351008
H  0.02468304 -1.07017429 0.63644022
H  0.20346455 -0.90744999 -0.98616694
H  0.53195398 0.03268351 0.33164214
12
MD Step 162.5 Units = [eV / Ang.]
C  1.19347905 -0.33744910 0.45271001
C  0.07014007 -0.37638330 -0.38293510
C  -1.98217977 1.39882337 -0.28063030
C  -0.94043880 -0.20715615 -0.10772044
C  1.30861312 2.05792513 0.80286731
C  -0.86240149 -0.54018212 -0.23082126
H  0.42368988 0.39753385 -0.37847281
H  -0.52960828 -0.25363629 0.29656749
H  0.07057858 -0.23288321 -0.12065267
H  0.12602666 -0.92346622 0.58083386
H  0.28231850 -0.99850608 -1.00486024
H  0.83978247 0.01538011 0.37311417
12
MD Step 163.0 Units = [eV / Ang.]
C  1.17429152 -0.30190174 0.48666648
C  0.10311979 -0.64502446 -0.43368400
C  -1.53829030 1.73285949 -0.22304985
C  -1.16432997 -0.50926655 0.00285993
C  1.53358409 2.20771762 0.73912273
C  -1.29704651 -0.60041519 -0.25728032
H  0.38804334 0.27612957 -0.40175283
H  -0.57993783 -0.18418419 0.32662882
H  -0.26043602 -0.25581398 -0.16301881
H  0.24946240 -0.70823617 0.50976154
H  0.32369438 -1.00864154 -0.99325759
H  1.06784513 -0.00322287 0.40700391
12
MD Step 163.5 Units = [eV / Ang.]
C  1.15027481 -0.23306909 0.51005881
C  0.13181147 -0.89341603 -0.47964606
C  -1.10271138 2.02872404 -0.16199103
C  -1.38256094 -0.84139392 0.12227540
C  1.74583575 2.24914241 0.64527284
C  -1.61813552 -0.64089377 -0.27276379
H  0.33381302 0.12725344 -0.41590882
H  -0.61261920 -0.12425814 0.35443869
H  -0.56648589 -0.27387211 -0.20865741
H  0.38876423 -0.43791750 0.42805097
H  0.32642057 -0.93758615 -0.95210589
H  1.20559307 -0.02271319 0.43097629
12
MD Step 164.0 Units = [eV / Ang.]
C  1.11838346 -0.13885899 0.52324310
C  0.15409814 -1.11117812 -0.51999380
C  -0.70238510 2.27802774 -0.09988409
C  -1.58687007 -1.18160169 0.24440568
C  1.94320026 2.18018227 0.52309346
C  -1.81837501 -0.65879800 -0.27527162
H  0.26549902 -0.03987921 -0.42134363
H  -0.62423546 -0.07907859 0.37898315
H  -0.82288663 -0.28506767 -0.25502874
H  0.53516973 -0.13325164 0.34193104
H  0.29041864 -0.78788680 -0.88354686
H  1.24798304 -0.04260929 0.44341232
12
MD Step 164.5 Units = [eV / Ang.]
C  1.07429642 -0.02987049 0.52742332
C  0.16922571 -1.28972677 -0.55406518
C  -0.35692663 2.47313858 -0.03917017
C  -1.76674780 -1.50056429 0.36214186
C  2.12351714 2.00425121 0.37576175
C  -1.89539609 -0.65256633 -0.26322374
H  0.18916630 -0.21377921 -0.41939260
H  -0.61277155 -0.05223939 0.39934958
H  -1.01243931 -0.28790105 -0.29945282
H  0.67720260 0.17741230 0.25863266
H  0.21720036 -0.56578124 -0.79131281
H  1.19367286 -0.06237332 0.44330813
12
MD Step 165.0 Units = [eV / Ang.]
C  1.01266028 0.08127919 0.52460678
C  0.17766809 -1.42263313 -0.58141351
C  -0.07944075 2.60767010 0.01794541
C  -1.90964312 -1.76341147 0.46823213
C  2.28338716 1.73187675 0.20830631
C  -1.85096163 -0.62201562 -0.23546585
H  0.11212252 -0.38135351 -0.41227941
H  -0.57765625 -0.04561589 0.41481757
H  -1.12444290 -0.28146342 -0.33941120
H  0.80115423 0.45986885 0.18547598
H  0.11085930 -0.28278953 -0.68105180
H  1.04429307 -0.08141231 0.43023760
12
MD Step 165.5 Units = [eV / Ang.]
C  0.92764669 0.18109220 0.51739920
C  0.18093221 -1.50592939 -0.60183418
C  0.12221994 2.67685512 0.06959174
C  -2.00205187 -1.93417723 0.55656209
C  2.41649190 1.38234536 0.02795236
C  -1.69125510 -0.56827736 -0.19141386
H  0.04228832 -0.52901221 -0.40290157
H  -0.51975067 -0.05931651 0.42492628
H  -1.15326630 -0.26544116 -0.37270598
H  0.89246681 0.67843818 0.12852132
H  -0.02064567 0.04250678 -0.56052695
H  0.80492376 -0.09908378 0.40442955
12
MD Step 166.0 Units = [eV / Ang.]
C  0.81381277 0.25674584 0.50862807
C  0.18136916 -1.53834487 -0.61537439
C  0.24443590 2.67782447 0.11425393
C  -2.03144568 -1.98240498 0.62351680
C  2.51197967 0.98444081 -0.15599841
C  -1.42815829 -0.49356547 -0.13133399
H  -0.01273239 -0.64416153 -0.39443183
H  -0.44130844 -0.09164934 0.42951796
H  -1.09721225 -0.24008731 -0.39754069
H  0.93797144 0.80251938 0.09114866
H  -0.16437532 0.38340728 -0.43934683
H  0.48566342 -0.11472427 0.36696073
12
MD Step 166.5 Units = [eV / Ang.]
C  0.66715601 0.29781416 0.50083999
C  0.18198916 -1.52146065 -0.62232263
C  0.28742145 2.60981016 0.15078938
C  -1.98861922 -1.89013058 0.66887063
C  2.55374319 0.57520999 -0.33307574
C  -1.08116687 -0.40081989 -0.05669363
H  -0.04674243 -0.71684600 -0.38978669
H  -0.34590274 -0.13911061 0.42875466
H  -0.95807137 -0.20619822 -0.41259252
H  0.92850324 0.81353078 0.07313336
H  -0.30218130 0.70591438 -0.32792412
H  0.10387088 -0.12771352 0.32000732
12
MD Step 167.0 Units = [eV / Ang.]
C  0.48613608 0.29780072 0.49578574
C  0.18627741 -1.45969929 -0.62317925
C  0.25554180 2.47426426 0.17849951
C  -1.86968338 -1.65671100 0.69574917
C  2.52149121 0.19590224 -0.49341036
C  -0.67918816 -0.29330853 0.02955357
H  -0.05597122 -0.74119621 -0.39107389
H  -0.23828940 -0.19644774 0.42310326
H  -0.74149516 -0.16509828 -0.41713546
H  0.86107011 0.70968000 0.07069395
H  -0.41214735 0.97238559 -0.23561647
H  -0.31374196 -0.13757177 0.26703023
12
MD Step 167.5 Units = [eV / Ang.]
C  0.27241170 0.25510005 0.49403562
C  0.19795466 -1.36010396 -0.61859924
C  0.15824035 2.27487867 0.19728959
C  -1.67695352 -1.29948692 0.70959523
C  2.39412239 -0.11479709 -0.62995426
C  -0.26101296 -0.17429957 0.12293875
H  -0.03975170 -0.71630793 -0.39916745
H  -0.12416905 -0.25685820 0.41328001
H  -0.45806764 -0.11860146 -0.41123433
H  0.73975479 0.50654047 0.07758222
H  -0.47207675 1.14799974 -0.16848029
H  -0.73045227 -0.14406379 0.21271415
12
MD Step 168.0 Units = [eV / Ang.]
C  0.03108059 0.17314023 0.49484067
C  0.22062614 -1.23182290 -0.60930102
C  0.01123696 2.01744802 0.20788959
C  -1.41842772 -0.84997274 0.71656699
C  2.15490473 -0.32864456 -0.74029229
C  0.12696124 -0.04689124 0.21789354
H  -0.00065846 -0.64631588 -0.41353228
H  -0.00980773 -0.31241253 0.40014980
H  -0.12468884 -0.06889702 -0.39598171
H  0.57497293 0.23314517 0.08679059
H  -0.46445798 1.20848447 -0.12751475
H  -1.10174187 -0.14726103 0.16249086
12
MD Step 168.5 Units = [eV / Ang.]
C  -0.22963278 0.05968013 0.49628549
C  0.25731394 -1.08527691 -0.59594875
C  -0.16265080 1.70952014 0.21205647
C  -1.10613969 -0.34720124 0.72202111
C  1.79683066 -0.43402661 -0.82712311
C  0.43658514 0.08593605 0.30865833
H  0.05593543 -0.53964498 -0.43234766
H  0.09848525 -0.35474103 0.38458702
H  0.23441678 -0.01830949 -0.37368538
H  0.38138080 -0.07474415 0.09220289
H  -0.38128919 1.14631457 -0.10831048
H  -1.38123554 -0.14750647 0.12160407
12
MD Step 169.0 Units = [eV / Ang.]
C  -0.49913959 -0.07451158 0.49567389
C  0.30989016 -0.93106355 -0.57902434
C  -0.33390464 1.35983819 0.21261375
C  -0.75417047 0.16922324 0.72959781
C  1.32602410 -0.43785590 -0.89705787
C  0.62679275 0.22109400 0.39049584
H  0.12274833 -0.40765979 -0.45287934
H  0.19497691 -0.37595964 0.36731789
H  0.58797471 0.03107021 -0.34786117
H  0.17523072 -0.38160513 0.08965030
H  -0.22673445 0.97269468 -0.10244276
H  -1.52968853 -0.14526474 0.09391601
12
MD Step 169.5 Units = [eV / Ang.]
C  -0.76550514 -0.21722152 0.49002596
C  0.37851773 -0.77873358 -0.55871914
C  -0.46874014 0.97766311 0.21317117
C  -0.37704001 0.66427770 0.74104015
C  0.76176336 -0.36234820 -0.95825221
C  0.67285259 0.35510729 0.46076994
H  0.19167724 -0.26307364 -0.47198051
H  0.27513682 -0.36972767 0.34877957
H  0.90006766 0.07780689 -0.32288014
H  -0.02796551 -0.65724530 0.07721049
H  -0.01637360 0.71440493 -0.10005684
H  -1.52439101 -0.14091000 0.08089157
12
MD Step 170.0 Units = [eV / Ang.]
C  -1.01650167 -0.35624930 0.47654753
C  0.46122390 -0.63566724 -0.53487827
C  -0.53387674 0.57218949 0.21745452
C  0.01110271 1.11005057 0.75655432
C  0.13331062 -0.23821909 -1.01796073
C  0.57242879 0.48395639 0.51942336
H  0.25482853 -0.11846117 -0.48658894
H  0.33614315 -0.33224158 0.32903753
H  1.13498617 0.12142695 -0.30321181
H  -0.21492802 -0.87918950 0.05492144
H  0.22659256 0.40696389 -0.09252210
H  -1.36531001 -0.13455941 0.08122314
12
MD Step 170.5 Units = [eV / Ang.]
C  -1.24053885 -0.48048563 0.45297757
C  0.55375010 -0.50629448 -0.50702356
C  -0.50289609 0.15228304 0.22836081
C  0.39656438 1.48598180 0.77538282
C  -0.52492560 -0.09720122 -1.08096067
C  0.34574207 0.60316015 0.56862771
H  0.30530471 0.01487399 -0.49411553
H  0.37715198 -0.26293660 0.30779001
H  1.26374540 0.16242112 -0.29239725
H  -0.37516158 -1.03272919 0.02422433
H  0.47648239 0.08697618 -0.07416648
H  -1.07521891 -0.12604916 0.09130024
12
MD Step 171.0 Units = [eV / Ang.]
C  -1.42739920 -0.58057233 0.41777907
C  0.64974135 -0.39182865 -0.47445312
C  -0.36235639 -0.27334354 0.24705947
C  0.76581760 1.77776747 0.79632301
C  -1.17798708 0.03354745 -1.14916519
C  0.02973368 0.70809516 0.61180488
H  0.33769076 0.12761304 -0.49268668
H  0.39927040 -0.16472199 0.28446491
H  1.27039881 0.20185894 -0.29208677
H  -0.50081816 -1.10962715 -0.01260153
H  0.70964649 -0.21372286 -0.04274756
H  -0.69373826 -0.11506554 0.10630951
12
MD Step 171.5 Units = [eV / Ang.]
C  -1.56877307 -0.64921399 0.37019182
C  0.74128825 -0.29057043 -0.43640075
C  -0.11538334 -0.69563129 0.27252955
C  1.10523718 1.97586736 0.81805860
C  -1.79351362 0.13406404 -1.22213060
C  -0.33115846 0.79442502 0.65248204
H  0.34826908 0.21276204 -0.48124418
H  0.40523995 -0.04367078 0.25838800
H  1.15582141 0.24073121 -0.30154282
H  -0.58623463 -1.10645810 -0.05286823
H  0.90715959 -0.47095612 0.00105861
H  -0.26795234 -0.10134895 0.12147795
12
MD Step 172.0 Units = [eV / Ang.]
C  -1.65863773 -0.68129159 0.31020124
C  0.81972271 -0.19865955 -0.39220911
C  0.21876214 -1.10468045 0.30177252
C  1.40119470 2.07431785 0.83929109
C  -2.34325655 0.19158042 -1.29790727
C  -0.69397274 0.85848740 0.69342841
H  0.33505592 0.26575289 -0.45954474
H  0.39892191 0.09175254 0.22897389
H  0.93742651 0.27931043 -0.31784931
H  -0.62749736 -1.02329273 -0.09375268
H  1.05556509 -0.66841394 0.05459644
H  0.15671541 -0.08486327 0.13299953
12
MD Step 172.5 Units = [eV / Ang.]
C  -1.69350810 -0.67394435 0.23846892
C  0.87651431 -0.11107207 -0.34147832
C  0.60902137 -1.48958959 0.33061890
C  1.64066275 2.07022297 0.85873866
C  -2.80343772 0.19902453 -1.37379173
C  -1.02328747 0.89755158 0.73627127
H  0.29775609 0.28444444 -0.42809996
H  0.38470428 0.23174544 0.19589288
H  0.64493480 0.31682208 -0.33674074
H  -0.62228826 -0.86308550 -0.13246009
H  1.14627706 -0.79625338 0.11413849
H  0.54265089 -0.06586615 0.13844171
12
MD Step 173.0 Units = [eV / Ang.]
C  -1.67259962 -0.62671464 0.15626258
C  0.90413232 -0.02263415 -0.28416167
C  1.01905054 -1.83878103 0.35478911
C  1.81238321 1.96405894 0.87509234
C  -3.15466993 0.15315812 -1.44677978
C  -1.29361164 0.90993941 0.78152671
H  0.23770280 0.26912825 -0.38808768
H  0.36694626 0.36627889 0.15917640
H  0.31392726 0.35154347 -0.35369728
H  -0.57016912 -0.63186139 -0.16635582
H  1.17446066 -0.84923005 0.17553372
H  0.86244724 -0.04488579 0.13670135
12
MD Step 173.5 Units = [eV / Ang.]
C  -1.59790713 -0.54174879 0.06538656
C  0.89671958 0.07114526 -0.22059699
C  1.41362648 -2.14072004 0.37080373
C  1.90851246 1.76071993 0.88702603
C  -3.38197682 0.05311037 -1.51373104
C  -1.48887147 0.89504495 0.82885513
H  0.15781074 0.22257864 -0.34124424
H  0.34954788 0.48606230 0.11924848
H  -0.02051579 0.38122573 -0.36489716
H  -0.47334929 -0.33959542 -0.19314179
H  1.13804828 -0.82517198 0.23458191
H  1.09835508 -0.02265097 0.12770937
12
MD Step 174.0 Units = [eV / Ang.]
C  -1.47416553 -0.42402513 -0.03189886
C  0.85053619 0.17349493 -0.15148674
C  1.76320967 -2.38477663 0.37650196
C  1.92652317 1.47099789 0.89333381
C  -3.47520957 -0.10025554 -1.57138539
C  -1.60043175 0.85332136 0.87735825
H  0.06251666 0.15011591 -0.28973083
H  0.33566377 0.58326571 0.07689111
H  -0.32834738 0.40361228 -0.36777116
H  -0.33782790 -0.00146278 -0.21113119
H  1.03730417 -0.72426674 0.28723732
H  1.24022848 -0.00002126 0.11208172
12
MD Step 174.5 Units = [eV / Ang.]
C  -1.30866500 -0.28144864 -0.13299525
C  0.76414772 0.28607428 -0.07783813
C  2.04606898 -2.56200922 0.37114090
C  1.87096273 1.11294115 0.89321603
C  -3.42995686 -0.30403313 -1.61639645
C  -1.62487361 0.78625544 0.92580859
H  -0.04234678 0.05958252 -0.23595903
H  0.32755625 0.65196789 0.03316034
H  -0.58667226 0.41685795 -0.36113525
H  -0.17458636 0.36109196 -0.21962336
H  0.87509842 -0.54933979 0.32978694
H  1.28326678 0.02205960 0.09083467
12
MD Step 175.0 Units = [eV / Ang.]
C  -1.11087006 -0.12466306 -0.23514442
C  0.63842223 0.40887344 -0.00088778
C  2.24834736 -2.66575275 0.35520981
C  1.75441217 0.71227349 0.88664858
C  -3.24884456 -0.55202526 -1.64554476
C  -1.56237241 0.69633096 0.97278410
H  -0.14982308 -0.03891670 -0.18236358
H  0.32654372 0.68838926 -0.01072321
H  -0.77984681 0.41976254 -0.34502743
H  -0.00023748 0.72025720 -0.21929624
H  0.65785690 -0.30712048 0.35913961
H  1.22641202 0.04259135 0.06520530
12
MD Step 175.5 Units = [eV / Ang.]
C  -0.89178503 0.03358530 -0.33566719
C  0.47636132 0.54025043 0.07798948
C  2.36293782 -2.69200126 0.33012239
C  1.59688966 0.30101571 0.87467646
C  -2.94292848 -0.83281190 -1.65622142
C  -1.41605952 0.58695319 1.01672394
H  -0.25231081 -0.13365542 -0.13113194
H  0.33300488 0.69097914 -0.05349762
H  -0.89844294 0.41183787 -0.32042192
H  0.16361246 1.04353840 -0.21244681
H  0.39690685 -0.01023635 0.37331072
H  1.07181378 0.06054487 0.03656390
12
MD Step 176.0 Units = [eV / Ang.]
C  -0.66311869 0.17960245 -0.43222950
C  0.28287502 0.67703182 0.15737566
C  2.38801018 -2.63962226 0.29791546
C  1.42315898 -0.08617434 0.85940629
C  -2.53264983 -1.12771348 -1.64716044
C  -1.19247637 0.46229657 1.05594641
H  -0.34225803 -0.21238132 -0.08392689
H  0.34640204 0.66042717 -0.09398472
H  -0.93793036 0.39327522 -0.28894730
H  0.29287276 1.29765449 -0.20286015
H  0.10964974 0.32068131 0.37208352
H  0.82546457 0.07492237 0.00638167
12
MD Step 176.5 Units = [eV / Ang.]
C  -0.43627849 0.30035976 -0.52307998
C  0.06450499 0.81465103 0.23591511
C  2.32582620 -2.51046326 0.26100927
C  1.25806147 -0.41753245 0.84354732
C  -2.04753701 -1.40966608 -1.61922441
C  -0.90300587 0.32703043 1.08867690
H  -0.41301169 -0.26381221 -0.04166476
H  0.36531046 0.59962957 -0.13121469
H  -0.89769724 0.36487756 -0.25266637
H  0.36528078 1.45419450 -0.19516746
H  -0.18029657 0.65585734 0.35766241
H  0.49884298 0.08487380 -0.02379334
12
MD Step 177.0 Units = [eV / Ang.]
C  -0.22137941 0.38530221 -0.60718295
C  -0.17084946 0.94732508 0.31241967
C  2.18214624 -2.30932718 0.22203218
C  1.12103426 -0.67014030 0.82954243
C  -1.52384848 -1.64434610 -1.57585846
C  -0.56584156 0.18591083 1.11312719
H  -0.45966565 -0.27928663 -0.00441895
H  0.38745427 0.51359887 -0.16454222
H  -0.78070900 0.32798795 -0.21391478
H  0.36547080 1.49551988 -0.19376878
H  -0.44488941 0.95757218 0.33495929
H  0.11107739 0.08988322 -0.05239461
12
MD Step 177.5 Units = [eV / Ang.]
C  -0.02644005 0.42797304 -0.68420081
C  -0.41421491 1.06831262 0.38596847
C  1.96632359 -2.04377282 0.18366746
C  1.02171347 -0.83421139 0.81860143
C  -0.99983690 -1.79457158 -1.52277489
C  -0.20766954 0.04327023 1.12764873
H  -0.47972122 -0.25420999 0.02850696
H  0.40977179 0.40926518 -0.19374334
H  -0.59386639 0.28440375 -0.17515344
H  0.28899333 1.41879397 -0.20166349
H  -0.65579254 1.18474654 0.31110017
H  -0.30926064 0.09000046 -0.07795724
12
MD Step 178.0 Units = [eV / Ang.]
C  0.14308408 0.42702692 -0.75432212
C  -0.65587069 1.17031611 0.45598021
C  1.69192614 -1.72367549 0.14847014
C  0.95835093 -0.91410136 0.81006452
C  -0.50938999 -1.82782203 -1.46665336
C  0.13620394 -0.09746545 1.13095393
H  -0.47338550 -0.18890447 0.05834205
H  0.42854225 0.29510002 -0.21907326
H  -0.34887748 0.23624130 -0.13877536
H  0.14361870 1.23652096 -0.21965095
H  -0.79016510 1.30071750 0.29396033
H  -0.72403728 0.08604600 -0.09929612
12
MD Step 178.5 Units = [eV / Ang.]
C  0.28435563 0.38635840 -0.81798809
C  -0.88575180 1.24608236 0.52222929
C  1.37750403 -1.36052098 0.11860918
C  0.91961927 -0.92575482 0.80139277
C  -0.07600540 -1.72484482 -1.41314952
C  0.42455750 -0.23406019 1.12234591
H  -0.44343169 -0.08861893 0.08650944
H  0.43961299 0.18049770 -0.24126032
H  -0.06321425 0.18570120 -0.10681636
H  -0.05264646 0.97336828 -0.24622100
H  -0.83618989 1.28211987 0.29004227
H  -1.08840995 0.07967194 -0.11569356
12
MD Step 179.0 Units = [eV / Ang.]
C  0.39685014 0.31432780 -0.87560469
C  -1.09395642 1.28920610 0.58478960
C  1.04690016 -0.96648989 0.09551792
C  0.88885006 -0.89183198 0.78876151
C  0.29053944 -1.48602841 -1.36501816
C  0.61642603 -0.36534860 1.10186618
H  -0.39466812 0.03730195 0.11428051
H  0.43874661 0.07491164 -0.26141605
H  0.23947781 0.13471607 -0.08056003
H  -0.27592514 0.66061988 -0.27811896
H  -0.79599676 1.12545621 0.30251576
H  -1.35724382 0.07315923 -0.12701358
12
MD Step 179.5 Units = [eV / Ang.]
C  0.48184262 0.22230191 -0.92732569
C  -1.27136598 1.29504389 0.64389407
C  0.72837721 -0.55344619 0.07951061
C  0.84885851 -0.83645672 0.76795563
C  0.59345932 -1.13261686 -1.32124648
C  0.67971420 -0.49065304 1.07027519
H  -0.33316898 0.17684927 0.14251346
H  0.42208040 -0.01318431 -0.28085396
H  0.53028138 0.08452568 -0.06010434
H  -0.50144230 0.33032754 -0.31127253
H  -0.68459366 0.84838549 0.33032112
H  -1.49404272 0.06892334 -0.13366709
12
MD Step 180.0 Units = [eV / Ang.]
C  0.54181847 0.12294729 -0.97294852
C  -1.41030779 1.26162433 0.69972775
C  0.45200217 -0.13211077 0.06950340
C  0.78562650 -0.78120588 0.73519351
C  0.84473958 -0.70214451 -1.27758032
C  0.59957339 -0.60893585 1.02884321
H  -0.26545740 0.31700205 0.17152500
H  0.38665320 -0.07735234 -0.30083893
H  0.77776915 0.03531999 -0.04404331
H  -0.70745117 0.01089594 -0.34168879
H  -0.52532715 0.48510612 0.36872395
H  -1.47963894 0.06885364 -0.13641695
12
MD Step 180.5 Units = [eV / Ang.]
C  0.57997443 0.02863200 -1.01193397
C  -1.50519363 1.19028623 0.75220920
C  0.24531048 0.28841423 0.06302746
C  0.69009219 -0.74303010 0.68764237
C  1.05947326 -0.24021125 -1.22807348
C  0.38308048 -0.71797127 0.97903346
H  -0.19780430 0.44523605 0.20109641
H  0.33090076 -0.11403921 -0.32231465
H  0.95258992 -0.01385660 -0.02946948
H  -0.87732193 -0.27518020 -0.36605921
H  -0.34394818 0.07797445 0.41094395
H  -1.31715348 0.07374567 -0.13610206
12
MD Step 181.0 Units = [eV / Ang.]
C  0.59982836 -0.04975474 -1.04350663
C  -1.55298587 1.08593197 0.80080810
C  0.12813339 0.70052224 0.05667698
C  0.55817855 -0.73386987 0.62358879
C  1.25108623 0.20802572 -1.16684662
C  0.05807031 -0.81397978 0.92220486
H  -0.13573059 0.55065479 0.23057898
H  0.25502240 -0.12302877 -0.34567398
H  1.03293002 -0.06478275 -0.01244231
H  -0.99990547 -0.51165651 -0.38201360
H  -0.16358583 -0.33114487 0.45003125
H  -1.03104151 0.08308257 -0.13340583
12
MD Step 181.5 Units = [eV / Ang.]
C  0.60494371 -0.10351563 -1.06679215
C  -1.55340074 0.95674551 0.84446836
C  0.10822826 1.09747520 0.04695671
C  0.38976198 -0.76131184 0.54236245
C  1.42873416 0.60392538 -1.08934359
C  -0.33344698 -0.89186519 0.85943607
H  -0.08371855 0.62468138 0.25904682
H  0.16111571 -0.10736828 -0.37063468
H  1.00917286 -0.11933849 0.01111034
H  -1.06879972 -0.68768496 -0.38811037
H  -0.00194003 -0.70699500 0.48025970
H  -0.66065066 0.09525192 -0.12875965
12
MD Step 182.0 Units = [eV / Ang.]
C  0.59873888 -0.12646308 -1.08095389
C  -1.50880010 0.81343290 0.88165453
C  0.17938957 1.47253121 0.03127747
C  0.18735971 -0.82955668 0.44416534
C  1.59690233 0.91808012 -0.99282827
C  -0.74448072 -0.94596536 0.79148939
H  -0.04508694 0.66137888 0.28545920
H  0.05304146 -0.07279677 -0.39625219
H  0.88602438 -0.17862648 0.04432231
H  -1.08124225 -0.79656580 -0.38370042
H  0.12926802 -1.02351501 0.49774874
H  -0.25111435 0.10806607 -0.12238220
12
MD Step 182.5 Units = [eV / Ang.]
C  0.58430882 -0.11500536 -1.08530298
C  -1.42379107 0.66811838 0.91051570
C  0.32285301 1.81827141 0.00873293
C  -0.04491219 -0.94020459 0.32991023
C  1.75644158 1.13030257 -0.87626691
C  -1.13144769 -0.97101979 0.71886278
H  -0.02194996 0.65754241 0.30880521
H  -0.06395796 -0.02681762 -0.42106370
H  0.68126617 -0.24229815 0.08853536
H  -1.03716238 -0.83470131 -0.36878061
H  0.22335657 -1.26352406 0.50044082
H  0.15499510 0.11933613 -0.11438883
12
MD Step 183.0 Units = [eV / Ang.]
C  0.56424119 -0.06815612 -1.07937722
C  -1.30464342 0.53311210 0.92911674
C  0.51147823 2.12645059 -0.01963022
C  -0.30183157 -1.09254136 0.20113215
C  1.90613889 1.22819960 -0.73991388
C  -1.45949707 -0.96307977 0.64186622
H  -0.01519635 0.61269938 0.32822316
H  -0.18380213 0.02236267 -0.44331900
H  0.42165229 -0.30836622 0.14296510
H  -0.93868668 -0.80111995 -0.34390541
H  0.27717661 -1.41685266 0.48773912
H  0.52296999 0.12729173 -0.10489674
12
MD Step 183.5 Units = [eV / Ang.]
C  0.54039123 0.01243660 -1.06299987
C  -1.15863210 0.41974038 0.93568414
C  0.71515954 2.38843684 -0.05109791
C  -0.57696245 -1.28319080 0.05998152
C  2.04413737 1.20548650 -0.58489576
C  -1.70431623 -0.92014093 0.56069319
H  -0.02444026 0.52910987 0.34309632
H  -0.30017128 0.06682313 -0.46124099
H  0.13751691 -0.37354088 0.20494813
H  -0.79017796 -0.69772674 -0.31017395
H  0.28971861 -1.47820088 0.46009146
H  0.82777663 0.13076692 -0.09408627
12
MD Step 184.0 Units = [eV / Ang.]
C  0.51363362 0.12243215 -1.03631760
C  -0.99344060 0.33739437 0.92881316
C  0.90572347 2.59605176 -0.08194057
C  -0.86209360 -1.50516239 -0.09073605
C  2.16887709 1.06083065 -0.41295066
C  -1.85132087 -0.84247246 0.47548155
H  -0.04793607 0.41178491 0.35312502
H  -0.40705373 0.09969235 -0.47326024
H  -0.14213795 -0.43389356 0.27058502
H  -0.59871556 -0.53025927 -0.26926905
H  0.26119588 -1.44559165 0.41868855
H  1.05326831 0.12919316 -0.08221913
12
MD Step 184.5 Units = [eV / Ang.]
C  0.48361778 0.25478787 -0.99982365
C  -0.81666028 0.29286970 0.90761003
C  1.06015881 2.74246391 -0.10814583
C  -1.14648385 -1.74647871 -0.24753201
C  2.27938542 0.79755186 -0.22637243
C  -1.89356352 -0.73263451 0.38638000
H  -0.08249015 0.26845894 0.35837268
H  -0.49918665 0.11564346 -0.47819000
H  -0.39291030 -0.48556256 0.33548879
H  -0.37477025 -0.30971749 -0.22349054
H  0.19274359 -1.31987100 0.36533526
H  1.19015939 0.12248853 -0.06963230
12
MD Step 185.0 Units = [eV / Ang.]
C  0.44861535 0.39992245 -0.95435197
C  -0.63542857 0.28999669 0.87176439
C  1.16194617 2.82288448 -0.12600191
C  -1.41635063 -1.98888056 -0.40630605
C  2.37490252 0.42428878 -0.02811639
C  -1.82953041 -0.59525204 0.29362120
H  -0.12344046 0.10939526 0.35927208
H  -0.57236615 0.11113981 -0.47533074
H  -0.59636686 -0.52528533 0.39540192
H  -0.13265841 -0.05373888 -0.17569633
H  0.08674744 -1.10540010 0.30246980
H  1.23393001 0.11092945 -0.05672599
12
MD Step 185.5 Units = [eV / Ang.]
C  0.40554089 0.54619423 -0.90102890
C  -0.45614892 0.32953128 0.82156493
C  1.20089788 2.83492473 -0.13243889
C  -1.65508590 -2.20738144 -0.56259408
C  2.45386834 -0.04351880 0.17803369
C  -1.66154386 -0.43657719 0.19759630
H  -0.16479854 -0.05312248 0.35657670
H  -0.62365251 0.08450930 -0.46451200
H  -0.73993720 -0.55068192 0.44658004
H  0.10972802 0.21288794 -0.12907096
H  -0.05226264 -0.81181696 0.23324605
H  1.18339442 0.09505132 -0.04395288
12
MD Step 186.0 Units = [eV / Ang.]
C  0.35023808 0.68082518 -0.84116560
C  -0.28426144 0.40923879 0.75787264
C  1.17221124 2.77864470 -0.12515780
C  -1.84459802 -2.37159804 -0.71202224
C  2.51241199 -0.58175199 0.38737661
C  -1.39512467 -0.26393733 0.09891318
H  -0.19964987 -0.20572489 0.35124515
H  -0.65150061 0.03592055 -0.44608422
H  -0.81604232 -0.56033292 0.48596364
H  0.33236593 0.45951598 -0.08668702
H  -0.21633922 -0.45640087 0.16154973
H  1.04028894 0.07560083 -0.03180406
12
MD Step 186.5 Units = [eV / Ang.]
C  0.27808933 0.79124632 -0.77609951
C  -0.12402065 0.52412709 0.68206652
C  1.07538132 2.65636215 -0.10264017
C  -1.96783672 -2.44945509 -0.85089689
C  2.54273480 -1.15621495 0.59444772
C  -1.03941380 -0.08510733 -0.00158474
H  -0.22085549 -0.33531970 0.34426370
H  -0.65585099 -0.03267385 -0.42087438
H  -0.82112194 -0.55374389 0.51123060
H  0.51580140 0.65334068 -0.05092921
H  -0.39286636 -0.06608999 0.09179672
H  0.80995910 0.05352855 -0.02078036
12
MD Step 187.0 Units = [eV / Ang.]
C  0.18489411 0.86672260 -0.70700312
C  0.02172649 0.66678319 0.59595890
C  0.91342222 2.47235949 -0.06414141
C  -2.01196957 -2.41299662 -0.97674522
C  2.53207090 -1.72301386 0.79352964
C  -0.60853500 0.09227461 -0.10286290
H  -0.22200815 -0.43072193 0.33643796
H  -0.63818692 -0.11761042 -0.39010940
H  -0.75501556 -0.53128595 0.52083302
H  0.64460336 0.76521554 -0.02296693
H  -0.56399763 0.32227062 0.02840057
H  0.50299576 0.03000275 -0.01133112
12
MD Step 187.5 Units = [eV / Ang.]
C  0.06788864 0.89993234 -0.63471743
C  0.15171947 0.82779271 0.50168454
C  0.69260747 2.23258171 -0.00975063
C  -1.97116364 -2.24482206 -1.08857809
C  2.46312106 -2.23208606 0.97949554
C  -0.12349983 0.26119038 -0.20380979
H  -0.19848201 -0.48423882 0.32820729
H  -0.60154481 -0.21361148 -0.35530809
H  -0.62091273 -0.49415885 0.51409927
H  0.71049376 0.77607416 -0.00250789
H  -0.70760214 0.66493639 -0.02506268
H  0.13737476 0.00640958 -0.00375202
12
MD Step 188.0 Units = [eV / Ang.]
C  -0.07334764 0.88810644 -0.55966037
C  0.26636374 0.99625471 0.40154882
C  0.42275715 1.94436844 0.05945003
C  -1.84784502 -1.94287535 -1.18673562
C  2.31663483 -2.63436814 1.14873880
C  0.38614491 0.41556550 -0.30341390
H  -0.14832529 -0.49281653 0.31954166
H  -0.55042465 -0.31396079 -0.31813618
H  -0.42588601 -0.44437154 0.49143952
H  0.71395968 0.68167033 0.01202041
H  -0.80027490 0.91812509 -0.06674655
H  -0.25975678 -0.01569815 0.00195338
12
MD Step 188.5 Units = [eV / Ang.]
C  -0.23631412 0.83342880 -0.48185071
C  0.36761108 1.16040296 0.29784309
C  0.11788961 1.61621683 0.14114097
C  -1.65188924 -1.52163914 -1.27237685
C  2.07601844 -2.89134761 1.29977492
C  0.88213033 0.55043826 -0.40095244
H  -0.07275343 -0.45844533 0.30996050
H  -0.49054495 -0.41081673 -0.28022731
H  -0.18179936 -0.38469229 0.45463080
H  0.66368359 0.49368825 0.02291478
H  -0.82215228 1.04749816 -0.09706557
H  -0.65187967 -0.03473217 0.00620783
12
MD Step 189.0 Units = [eV / Ang.]
C  -0.41550965 0.74255636 -0.40104012
C  0.45857657 1.30834465 0.19263553
C  -0.20314026 1.25750031 0.23152439
C  -1.39810631 -1.00923644 -1.34684842
C  1.73265554 -2.98376229 1.43315409
C  1.32001485 0.66200234 -0.49611495
H  0.02391752 -0.38769797 0.29867225
H  -0.42839087 -0.49571837 -0.24298274
H  0.09383435 -0.31848727 0.40708807
H  0.57405744 0.23676437 0.03250136
H  -0.76212621 1.03701414 -0.11850918
H  -0.99578297 -0.04927984 0.00991972
12
MD Step 189.5 Units = [eV / Ang.]
C  -0.60285745 0.62542585 -0.31691542
C  0.54288126 1.42892055 0.08757356
C  -0.51659995 0.87805744 0.32524368
C  -1.10311932 -0.44170979 -1.41120651
C  1.28984355 -2.91572092 1.55066827
C  1.65510216 0.74756806 -0.58896311
H  0.13487424 -0.29055745 0.28479139
H  -0.37054524 -0.56030885 -0.20737996
H  0.37767086 -0.24938027 0.35395547
H  0.46181223 -0.05727364 0.04257555
H  -0.62135315 0.89332932 -0.13472557
H  -1.24770919 -0.05835029 0.01438265
12
MD Step 190.0 Units = [eV / Ang.]
C  -0.78849219 0.49368121 -0.22930106
C  0.62378063 1.51261763 -0.01626223
C  -0.79508837 0.48762098 0.41565108
C  -0.78280458 0.14330754 -1.46603664
C  0.76361830 -2.71227802 1.65424551
C  1.85085950 0.80547398 -0.67968975
H  0.25177653 -0.17886376 0.26756564
H  -0.32286810 -0.59722289 -0.17383361
H  0.64171396 -0.18072584 0.30182148
H  0.34295318 -0.35569217 0.05413821
H  -0.41341715 0.64365397 -0.14927926
H  -1.37203172 -0.06157264 0.02098063
12
MD Step 190.5 Units = [eV / Ang.]
C  -0.96172586 0.35912140 -0.13831607
C  0.70324882 1.55243059 -0.11840186
C  -1.01042328 0.09517148 0.49556170
C  -0.45093112 0.71157265 -1.51155184
C  0.18015867 -2.41158426 1.74508244
C  1.88725110 0.83492608 -0.76823431
H  0.36584180 -0.06475622 0.24655495
H  -0.28965855 -0.60102417 -0.14215235
H  0.85629644 -0.11500113 0.25792228
H  0.23077348 -0.62969726 0.06742403
H  -0.16103212 0.32810164 -0.16465187
H  -1.34979937 -0.05926080 0.03076289
12
MD Step 191.0 Units = [eV / Ang.]
C  -1.11199980 0.23248499 -0.04444430
C  0.78122778 1.54451568 -0.21890668
C  -1.13803668 -0.29155948 0.55845468
C  -0.11901369 1.23494410 -1.54783307
C  -0.42889043 -2.05515895 1.82335589
C  1.76568585 0.83578796 -0.85392546
H  0.46880575 0.04058428 0.22172736
H  -0.27298247 -0.56901666 -0.11161817
H  0.99467458 -0.05333462 0.22887797
H  0.13510556 -0.85695203 0.08210404
H  0.10920288 -0.00998093 -0.18184902
H  -1.18377933 -0.05231436 0.04405676
12
MD Step 191.5 Units = [eV / Ang.]
C  -1.22970416 0.12270740 0.05146848
C  0.85525166 1.48849751 -0.31817149
C  -1.16189777 -0.66620172 0.59984162
C  0.20309305 1.69197650 -1.57507061
C  -1.03120097 -1.67994264 1.88847569
C  1.50835655 0.80833747 -0.93533055
H  0.55362074 0.12776505 0.19347106
H  -0.27234240 -0.50174217 -0.08118225
H  1.03820627 0.00459082 0.21925923
H  0.06251175 -1.02196861 0.09753232
H  0.37186585 -0.33202541 -0.20059362
H  -0.89776058 -0.04199421 0.06030013
12
MD Step 192.0 Units = [eV / Ang.]
C  -1.30682479 0.03660548 0.14827659
C  0.92056795 1.38734844 -0.41665798
C  -1.07837424 -1.02336342 0.61833696
C  0.50642028 2.06716709 -1.59372093
C  -1.59716297 -1.31410000 1.93959099
C  1.15227037 0.75307004 -1.01039844
H  0.61486369 0.18960154 0.16254198
H  -0.28478098 -0.40304181 -0.04973335
H  0.98047036 0.06014525 0.23046559
H  0.01694765 -1.11519395 0.11295137
H  0.60604185 -0.60857452 -0.21982759
H  -0.53043916 -0.02966413 0.07817482
12
MD Step 192.5 Units = [eV / Ang.]
C  -1.33742480 -0.02115790 0.24462077
C  0.97072920 1.24685194 -0.51462283
C  -0.89753114 -1.35789453 0.61599630
C  0.78233414 2.34972857 -1.60455170
C  -2.10146427 -0.97644339 1.97605140
C  0.74057992 0.67059223 -1.07681656
H  0.64891023 0.22124464 0.12997368
H  -0.30539679 -0.27965230 -0.01637285
H  0.82879794 0.11499087 0.26035769
H  0.00049157 -1.13168179 0.12762546
H  0.79652137 -0.81999436 -0.23822605
H  -0.12654737 -0.01658399 0.09596469
12
MD Step 193.0 Units = [eV / Ang.]
C  -1.31799923 -0.04802253 0.33902471
C  0.99854023 1.07477636 -0.61191325
C  -0.64129562 -1.66415561 0.59777281
C  1.02243137 2.53256551 -1.60859853
C  -2.52327668 -0.67813429 1.99766638
C  0.31449687 0.56162854 -1.13241917
H  0.65397483 0.22017311 0.09696916
H  -0.32814309 -0.14042396 0.01937017
H  0.60260580 0.17026722 0.30380169
H  0.01387658 -1.07001849 0.14091303
H  0.93337247 -0.95485913 -0.25455678
H  0.27141646 -0.00379672 0.11196980
12
MD Step 193.5 Units = [eV / Ang.]
C  -1.24771979 -0.04352742 0.42998865
C  0.99710548 0.87991267 -0.70786728
C  -0.33913750 -1.93561377 0.57030831
C  1.21893353 2.61187425 -1.60706248
C  -2.84582060 -0.42515055 2.00474997
C  -0.09194414 0.42713713 -1.17548933
H  0.63010219 0.18616688 0.06478475
H  -0.34671399 0.00466418 0.05742697
H  0.32920032 0.22605436 0.35390077
H  0.05668927 -0.93189122 0.15230130
H  1.01074486 -1.00752296 -0.26786186
H  0.62856037 0.00789646 0.12482022
12
MD Step 194.0 Units = [eV / Ang.]
C  -1.12858969 -0.00942857 0.51608523
C  0.96079527 0.67118325 -0.80132851
C  -0.02279957 -2.16499293 0.54051931
C  1.36547038 2.58756667 -1.60118322
C  -3.05591890 -0.22042306 1.99802837
C  -0.45378128 0.26848907 -1.20489389
H  0.57916332 0.12134102 0.03460670
H  -0.35533807 0.14550116 0.09718903
H  0.03859680 0.28127761 0.40344271
H  0.12719628 -0.72242450 0.16142514
H  1.02566053 -0.97599251 -0.27751542
H  0.91954493 0.01790278 0.13362455
12
MD Step 194.5 Units = [eV / Ang.]
C  -0.96548056 0.05009256 0.59606296
C  0.88593956 0.45691637 -0.89074810
C  0.27830742 -2.34483795 0.51443200
C  1.45818773 2.46442289 -1.59211162
C  -3.14400295 -0.06508782 1.97850265
C  -0.75446333 0.08768752 -1.22008125
H  0.50485456 0.03023151 0.00741781
H  -0.34935972 0.27269686 0.13759914
H  -0.24101877 0.33399327 0.44610053
H  0.22183030 -0.45118878 0.16807970
H  0.97728245 -0.86070957 -0.28322847
H  1.12792331 0.02578314 0.13797465
12
MD Step 195.0 Units = [eV / Ang.]
C  -0.76600892 0.12822810 0.66895777
C  0.77121338 0.24436270 -0.97433885
C  0.54007434 -2.46830734 0.49650905
C  1.49694395 2.25367079 -1.58078976
C  -3.10471360 0.04135020 1.94733360
C  -0.98395818 -0.11240967 -1.22100343
H  0.41264230 -0.08014045 -0.01614296
H  -0.32557256 0.37821323 0.17729815
H  -0.48621066 0.38185570 0.47713464
H  0.33446372 -0.13354360 0.17222074
H  0.86690250 -0.66448072 -0.28504978
H  1.24422373 0.03120107 0.13787084
12
MD Step 195.5 Units = [eV / Ang.]
C  -0.54019103 0.21551298 0.73420595
C  0.61773038 0.03943383 -1.05024647
C  0.74485987 -2.52993811 0.48947001
C  1.48632304 1.97434025 -1.56783917
C  -2.93812104 0.10193617 1.90578822
C  -1.13674155 -0.32789921 -1.20803574
H  0.30956578 -0.20035862 -0.03591316
H  -0.28233464 0.45576704 0.21479222
H  -0.67944624 0.42256608 0.49359375
H  0.45572617 0.20830560 0.17393181
H  0.69869373 -0.39355920 -0.28337859
H  1.26393551 0.03389318 0.13363116
12
MD Step 196.0 Units = [eV / Ang.]
C  -0.29981546 0.30015870 0.79172816
C  0.42890942 -0.15339585 -1.11671221
C  0.88129964 -2.52623674 0.49444900
C  1.43605297 1.65348796 -1.55344420
C  -2.65138183 0.12408048 1.85522943
C  -1.21039742 -0.55371730 -1.18192837
H  0.20379784 -0.31902274 -0.05230034
H  -0.21952821 0.50105464 0.24861525
H  -0.80893738 0.45419056 0.49417119
H  0.57276788 0.54539927 0.17333424
H  0.48106651 -0.05966737 -0.27896466
H  1.18616603 0.03366839 0.12582250
12
MD Step 196.5 Units = [eV / Ang.]
C  -0.05750006 0.36888451 0.84194734
C  0.21021740 -0.33108705 -1.17221711
C  0.94341820 -2.45606739 0.51129611
C  1.36035733 1.32437443 -1.53723316
C  -2.26038494 0.12178026 1.79709290
C  -1.20519771 -0.78362075 -1.14379878
H  0.10390941 -0.42361114 -0.06629468
H  -0.13843596 0.51187091 0.27747416
H  -0.86785846 0.47533011 0.47891320
H  0.66994329 0.84412710 0.17043359
H  0.22819321 0.31758054 -0.27283654
H  1.01333828 0.03043849 0.11522297
12
MD Step 197.0 Units = [eV / Ang.]
C  0.17447847 0.40829039 0.88570300
C  -0.03114171 -0.49200717 -1.21561125
C  0.92966626 -2.32085474 0.53887060
C  1.27596272 1.02217882 -1.51818481
C  -1.79061851 0.11730668 1.73275821
C  -1.12473647 -1.01031743 -1.09514742
H  0.01787811 -0.50181607 -0.07936195
H  -0.04158160 0.48818325 0.30037562
H  -0.85354890 0.48518493 0.44893229
H  0.73072529 1.07070156 0.16494105
H  -0.03908275 0.70887592 -0.26607754
H  0.75199910 0.02427385 0.10280219
12
MD Step 197.5 Units = [eV / Ang.]
C  0.38543190 0.40662342 0.92404591
C  -0.28654829 -0.63590225 -1.24621815
C  0.84228249 -2.12462846 0.57524748
C  1.19893100 0.77781663 -1.49463294
C  -1.27624104 0.14095404 1.66324473
C  -0.97747685 -1.22574064 -1.03785586
H  -0.04800468 -0.54320971 -0.09320346
H  0.06744204 0.43218711 0.31673186
H  -0.76710721 0.48356748 0.40620099
H  0.74072332 1.19736913 0.15615782
H  -0.29397780 1.07549652 -0.25940493
H  0.41454511 0.01546670 0.08968653
12
MD Step 198.0 Units = [eV / Ang.]
C  0.56732576 0.35560737 0.95794378
C  -0.54628904 -0.76387722 -1.26392054
C  0.68719307 -1.87395169 0.61783037
C  1.14110928 0.61165878 -1.46444467
C  -0.75655547 0.22748829 1.58877345
C  -0.77874657 -1.42145834 -0.97411270
H  -0.09007632 -0.54091369 -0.10941588
H  0.18415650 0.34833267 0.32644447
H  -0.61354030 0.47090091 0.35343343
H  0.69104002 1.20856201 0.14302598
H  -0.50696213 1.37307677 -0.25262229
H  0.02134521 0.00457414 0.07706460
12
MD Step 198.5 Units = [eV / Ang.]
C  0.71541069 0.25189859 0.98797080
C  -0.79989346 -0.87834116 -1.26920611
C  0.47439820 -1.57768799 0.66341688
C  1.10742882 0.52939284 -1.42539233
C  -0.27000680 0.40893221 1.50839921
C  -0.55228052 -1.58913682 -0.90622258
H  -0.10783353 -0.49285738 -0.12912924
H  0.30341190 0.24326537 0.32995414
H  -0.40240152 0.44820119 0.29400361
H  0.58078669 1.10471928 0.12438908
H  -0.65132091 1.55921613 -0.24418026
H  -0.39769954 -0.00760224 0.06599679
12
MD Step 199.0 Units = [eV / Ang.]
C  0.82827291 0.09778526 1.01407480
C  -1.03651704 -0.98285024 -1.26316093
C  0.21860731 -1.24659377 0.70830257
C  1.09510783 0.52169261 -1.37563235
C  0.15276880 0.70526858 1.42002972
C  -0.33005805 -1.72097012 -0.83628319
H  -0.10388939 -0.40226464 -0.15272321
H  0.41965150 0.12559700 0.32824049
H  -0.14862784 0.41701516 0.23181935
H  0.41770577 0.90216571 0.09938989
H  -0.70957145 1.60328850 -0.23117987
H  -0.80345036 -0.02013404 0.05712275
12
MD Step 199.5 Units = [eV / Ang.]
C  0.90732829 -0.09906606 1.03549910
C  -1.24539934 -1.08176613 -1.24738392
C  -0.06037257 -0.89270287 0.74851045
C  1.09504547 0.56770908 -1.31411851
C  0.49425531 1.11652011 1.32102999
C  -0.14920321 -1.80997300 -0.76579742
H  -0.08336613 -0.27721520 -0.17970562
H  0.52724073 0.00542124 0.32275104
H  0.12695763 0.37926331 0.17106044
H  0.21660667 0.62909483 0.06783976
H  -0.67817304 1.49489890 -0.21002169
H  -1.15091982 -0.03218421 0.05033640
12
MD Step 200.0 Units = [eV / Ang.]
C  0.95594994 -0.32670161 1.05087817
C  -1.41640195 -1.17968596 -1.22381529
C  -0.33812724 -0.52851096 0.78020859
C  1.09472792 0.64078461 -1.24079977
C  0.75149335 1.61991809 1.20927272
C  -0.04556100 -1.85014074 -0.69536383
H  -0.05291209 -0.12941524 -0.20878058
H  0.62085168 -0.10647251 0.31524783
H  0.39813785 0.33695583 0.11572688
H  -0.00373742 0.31932770 0.03040008
H  -0.56830292 1.24720672 -0.17754847
H  -1.39611813 -0.04326594 0.04457369
12
MD Step 200.5 Units = [eV / Ang.]
C  0.97849000 -0.57048688 1.05847223
C  -1.54060024 -1.28065333 -1.19448648
C  -0.58759485 -0.16605210 0.80028946
C  1.08143842 0.71418929 -1.15655576
C  0.93321634 2.17377036 1.08415794
C  -0.04519994 -1.83656817 -0.62462979
H  -0.01961396 0.02748407 -0.23807311
H  0.69587392 -0.19966080 0.30757620
H  0.63539587 0.29180659 0.06902572
H  -0.22404526 0.00613485 -0.01148148
H  -0.40229220 0.89346363 -0.13218176
H  -1.50506807 -0.05342752 0.03788684
12
MD Step 201.0 Units = [eV / Ang.]
C  0.97943219 -0.81481190 1.05645753
C  -1.61085940 -1.38725588 -1.16122391
C  -0.78266617 0.18395777 0.80697171
C  1.04468581 0.76519638 -1.06294496
C  1.05437119 2.72640918 0.94708739
C  -0.15672408 -1.76567728 -0.55259460
H  0.00993976 0.17959967 -0.26543267
H  0.74879785 -0.26529320 0.30138702
H  0.80976847 0.24485196 0.03274099
H  -0.42725214 -0.28213493 -0.05581625
H  -0.20744216 0.47840355 -0.07451894
H  -1.46205131 -0.06324534 0.02788669
12
MD Step 201.5 Units = [eV / Ang.]
C  0.96281050 -1.04452911 1.04319625
C  -1.62233739 -1.49979532 -1.12536549
C  -0.90287584 0.51270447 0.80020253
C  0.97736458 0.77693118 -0.96189906
C  1.13063805 3.22644157 0.80121549
C  -0.36766973 -1.63566076 -0.47817575
H  0.03029670 0.31423283 -0.28873541
H  0.77751313 -0.29723880 0.29786378
H  0.89787049 0.19624350 0.00681787
H  -0.59997532 -0.52402717 -0.10037643
H  -0.00989787 0.04828730 -0.00718565
H  -1.27373731 -0.07358971 0.01244186
12
MD Step 202.0 Units = [eV / Ang.]
C  0.93191261 -1.24598331 1.01743161
C  -1.57282412 -1.61575119 -1.08755619
C  -0.93787118 0.81341658 0.78164643
C  0.87577554 0.73839736 -0.85547002
C  1.17489637 3.63073973 0.65068729
C  -0.64678906 -1.44705886 -0.40077766
H  0.03745360 0.42082811 -0.30612571
H  0.78146787 -0.29291864 0.29752091
H  0.88671936 0.14535661 -0.01062149
H  -0.73279661 -0.70496806 -0.14294696
H  0.16939546 -0.35680200 0.06585581
H  -0.96733985 -0.08525632 -0.00964402
12
MD Step 202.5 Units = [eV / Ang.]
C  0.88920269 -1.40764256 0.97839413
C  -1.46286754 -1.72971618 -1.04766971
C  -0.89005046 1.08106526 0.75419816
C  0.73897554 0.64350115 -0.74568235
C  1.19613098 3.90846664 0.49978712
C  -0.95130311 -1.20326532 -0.32059748
H  0.02891550 0.49149318 -0.31617839
H  0.76166198 -0.25362908 0.30012296
H  0.77669101 0.09122639 -0.02276564
H  -0.81978978 -0.81613397 -0.18148124
H  0.31608657 -0.70673363 0.14013879
H  -0.58365337 -0.09863186 -0.03826636
12
MD Step 203.0 Units = [eV / Ang.]
C  0.83639483 -1.52046959 0.92583584
C  -1.29571131 -1.83387549 -1.00487431
C  -0.77426281 1.31181903 0.72116495
C  0.56795028 0.48987675 -0.63447135
C  1.20014492 4.04147819 0.35232788
C  -1.23613028 -0.91076145 -0.23856655
H  0.00360978 0.52120458 -0.31798836
H  0.72048350 -0.18428214 0.30474564
H  0.58146919 0.03315073 -0.03325675
H  -0.85779472 -0.85306864 -0.21417430
H  0.42178780 -0.98153947 0.21133767
H  -0.16794118 -0.11353251 -0.07208035
12
MD Step 203.5 Units = [eV / Ang.]
C  0.77458310 -1.57821433 0.86002430
C  -1.07704367 -1.91895341 -0.95781701
C  -0.61461799 1.50254456 0.68541485
C  0.36501334 0.27805915 -0.52366127
C  1.19101668 4.02248783 0.21140357
C  -1.46177377 -0.57895927 -0.15603174
H  -0.03824322 0.50786306 -0.31121346
H  0.66141931 -0.09262843 0.30995976
H  0.32500088 -0.02879593 -0.04529327
H  -0.84583595 -0.81465655 -0.23949953
H  0.48247885 -1.16950157 0.27560145
H  0.23800244 -0.12924511 -0.10888765
12
MD Step 204.0 Units = [eV / Ang.]
C  0.70438169 -1.57774204 0.78172282
C  -0.81464229 -1.97543097 -0.90487574
C  -0.43955807 1.65059001 0.64878310
C  0.13361772 0.01127743 -0.41492404
C  1.17246072 3.85245831 0.07944430
C  -1.59888897 -0.21967542 -0.07438329
H  -0.09523333 0.45233214 -0.29609201
H  0.58869815 0.01183778 0.31408630
H  0.03662471 -0.09354046 -0.06099004
H  -0.78491721 -0.70277398 -0.25626711
H  0.49683734 -1.26463293 0.32962565
H  0.60061955 -0.14469988 -0.14612994
12
MD Step 204.5 Units = [eV / Ang.]
C  0.62604785 -1.51942274 0.69217095
C  -0.51797006 -1.99480284 -0.84441343
C  -0.27684176 1.75390770 0.61186694
C  -0.12137565 -0.30404029 -0.30966880
C  1.14864494 3.53823711 -0.04157522
C  -1.62937098 0.15367237 0.00519491
H  -0.16481472 0.35851334 -0.27344673
H  0.50691986 0.11905816 0.31546224
H  -0.25396235 -0.15912689 -0.08113689
H  -0.67827317 -0.52271529 -0.26375063
H  0.46501681 -1.26460531 0.37059475
H  0.89597925 -0.15867532 -0.18129809
12
MD Step 205.0 Units = [eV / Ang.]
C  0.53956592 -1.40751050 0.59306413
C  -0.19774646 -1.97061150 -0.77499244
C  -0.14979976 1.81137703 0.57417187
C  -0.39305733 -0.65719476 -0.20883674
C  1.12429446 3.09100285 -0.14994208
C  -1.54498496 0.52702120 0.08179229
H  -0.24332769 0.23343282 -0.24466962
H  0.42072024 0.21945474 0.31266245
H  -0.52053798 -0.22306213 -0.10531625
H  -0.53199751 -0.28425162 -0.26190321
H  0.38808371 -1.16969563 0.39614084
H  1.10878737 -0.16996250 -0.21217124
12
MD Step 205.5 Units = [eV / Ang.]
C  0.44473699 -1.25034944 0.48650804
C  0.13446030 -1.89914619 -0.69552230
C  -0.07540101 1.82314443 0.53445401
C  -0.67172191 -1.03189625 -0.11262054
C  1.10412037 2.52577461 -0.24417051
C  -1.34494941 0.88666340 0.15469270
H  -0.32604367 0.08721145 -0.21166741
H  0.33449598 0.30471809 0.30465101
H  -0.74241278 -0.28272470 -0.13222682
H  -0.35580980 -0.00296535 -0.25163939
H  0.26814924 -0.98296044 0.40444203
H  1.23037569 -0.17746961 -0.23690082
12
MD Step 206.0 Units = [eV / Ang.]
C  0.34127876 -1.06020539 0.37492342
C  0.46666441 -1.77972747 -0.60534169
C  -0.06396982 1.79080360 0.49110240
C  -0.94440221 -1.40534425 -0.02019207
C  1.09162998 1.86201955 -0.32323079
C  -1.03358213 1.22021046 0.22323845
H  -0.40730245 -0.06725510 -0.17674201
H  0.25219763 0.36830082 0.29085408
H  -0.90488815 -0.33570147 -0.16005379
H  -0.16353681 0.29880303 -0.23509538
H  0.10914229 -0.71161985 0.39454579
H  1.25676851 -0.18028394 -0.25400841
12
MD Step 206.5 Units = [eV / Ang.]
C  0.22900889 -0.85250451 0.26087786
C  0.78690243 -1.61463697 -0.50425034
C  -0.11993041 1.71734337 0.44245481
C  -1.19519129 -1.74852316 0.07041676
C  1.08747583 1.12515777 -0.38707593
C  -0.61871866 1.51742064 0.28672356
H  -0.48081899 -0.21509907 -0.14238551
H  0.17717944 0.40566064 0.27116915
H  -0.99871606 -0.37999759 -0.18678209
H  0.02722592 0.59225444 -0.21571456
H  -0.08193009 -0.36935425 0.36694040
H  1.18751298 -0.17772130 -0.26237410
12
MD Step 207.0 Units = [eV / Ang.]
C  0.10812158 -0.64439709 0.14684130
C  1.08371408 -1.40877799 -0.39250377
C  -0.24291951 1.60690419 0.38701715
C  -1.40676365 -2.02852741 0.16210446
C  1.08766030 0.34834392 -0.43738619
C  -0.11121992 1.77085113 0.34439481
H  -0.54019722 -0.34085774 -0.11099345
H  0.11209001 0.41431897 0.24592673
H  -1.01922277 -0.41413441 -0.21042082
H  0.19672862 0.84448567 -0.19798041
H  -0.29356947 0.02118252 0.32428163
H  1.02557796 -0.16939176 -0.26128144
12
MD Step 207.5 Units = [eV / Ang.]
C  -0.02046169 -0.45271472 0.03490676
C  1.34667506 -1.16918326 -0.27079143
C  -0.42872326 1.46439465 0.32361092
C  -1.56313411 -2.21315427 0.25805835
C  1.08219353 -0.42659235 -0.47825983
C  0.47438446 1.97622095 0.39559485
H  -0.57963199 -0.43034875 -0.08453866
H  0.05877818 0.39382688 0.21582467
H  -0.96562447 -0.43718233 -0.22916250
H  0.32602039 1.02314688 -0.18669571
H  -0.50882110 0.42687287 0.27200632
H  0.77834499 -0.15528655 -0.25055375
12
MD Step 208.0 Units = [eV / Ang.]
C  -0.15470715 -0.29167683 -0.07346747
C  1.56693799 -0.90447584 -0.14019478
C  -0.66976369 1.29511064 0.25147787
C  -1.65301425 -2.27701018 0.36076896
C  1.05503389 -1.15060416 -0.51640622
C  1.11832143 2.13248591 0.44004775
H  -0.59469360 -0.47273247 -0.06427480
H  0.01820577 0.34568074 0.18184581
H  -0.84081548 -0.44877790 -0.24151244
H  0.40063577 1.10260270 -0.18590143
H  -0.70558629 0.80526907 0.21840016
H  0.45944561 -0.13587170 -0.23078341
12
MD Step 208.5 Units = [eV / Ang.]
C  -0.29119550 -0.17080775 -0.17760812
C  1.73774828 -0.62435078 -0.00213031
C  -0.95502510 1.10442384 0.17040041
C  -1.67264053 -2.20730669 0.47101563
C  0.98612905 -1.77248609 -0.56037184
C  1.79366135 2.24151130 0.47822631
H  -0.58303021 -0.46229351 -0.05055512
H  -0.00963633 0.27321393 0.14516418
H  -0.65170962 -0.44914908 -0.24643881
H  0.41382991 1.06975049 -0.19776658
H  -0.85895839 1.10963246 0.17366464
H  0.09082710 -0.11213811 -0.20360040
12
MD Step 209.0 Units = [eV / Ang.]
C  -0.42507807 -0.09363499 -0.27761926
C  1.85488151 -0.33911708 0.14172883
C  -1.26956844 0.89760032 0.08085377
C  -1.62685626 -2.00717081 0.58726171
C  0.85570751 -2.24736551 -0.61863993
C  2.46506029 2.30737412 0.51166490
H  -0.54479790 -0.39943784 -0.04282600
H  -0.02579369 0.18145200 0.10704058
H  -0.40997534 -0.43914235 -0.24355934
H  0.36808192 0.92728666 -0.22189964
H  -0.94566599 1.29769594 0.14785256
H  -0.29599554 -0.08554045 -0.17185818
12
MD Step 209.5 Units = [eV / Ang.]
C  -0.55030981 -0.05748140 -0.37421298
C  1.91689520 -0.05927549 0.28955710
C  -1.59398800 0.67972627 -0.01582121
C  -1.52792958 -1.69511463 0.70575714
C  0.64986662 -2.54633188 -0.69706331
C  3.08951694 2.33531985 0.54302568
H  -0.48269516 -0.29061261 -0.03980075
H  -0.03236063 0.07688449 0.06871049
H  -0.13278605 -0.42020842 -0.23335268
H  0.27423078 0.69306142 -0.25539641
H  -0.94958757 1.34179474 0.14816047
H  -0.66085273 -0.05776235 -0.13956355
12
MD Step 210.0 Units = [eV / Ang.]
C  -0.66015533 -0.05437478 -0.46842706
C  1.92515467 0.20488449 0.43949641
C  -1.90433783 0.45567430 -0.11727521
C  -1.39257637 -1.30089504 0.82132902
C  0.36542099 -2.66333910 -0.79669000
C  3.62028899 2.33054742 0.57573779
H  -0.40158585 -0.14717316 -0.03975977
H  -0.03240131 -0.03288902 0.03126837
H  0.15698254 -0.39428737 -0.21733564
H  0.14861995 0.39578434 -0.29360815
H  -0.86629290 1.23638389 0.17665640
H  -0.95911753 -0.03031597 -0.11139217
12
MD Step 210.5 Units = [eV / Ang.]
C  -0.74784448 -0.07276055 -0.56131360
C  1.88357922 0.44372001 0.58978083
C  -2.17317037 0.23001697 -0.22013815
C  -1.23842706 -0.85949500 0.92851417
C  0.01194551 -2.61607094 -0.91306516
C  4.01406456 2.29708799 0.61317831
H  -0.30781290 0.01646492 -0.04089049
H  -0.02973970 -0.13967517 -0.00443722
H  0.43176996 -0.36354524 -0.19810589
H  0.00943131 0.06885717 -0.33128907
H  -0.70458058 0.99949005 0.22954056
H  -1.14921548 -0.00409021 -0.09177428
12
MD Step 211.0 Units = [eV / Ang.]
C  -0.80721222 -0.09951395 -0.65368040
C  1.79809642 0.64872872 0.73883997
C  -2.37212357 0.00684236 -0.32023765
C  -1.08116712 -0.40537365 1.02259571
C  -0.38988424 -2.44018732 -1.03739552
C  4.23975123 2.23710326 0.65760289
H  -0.20838820 0.18487519 -0.04157682
H  -0.02859587 -0.23537075 -0.03788039
H  0.66202272 -0.32997201 -0.17914023
H  -0.12651706 -0.25546649 -0.36367622
H  -0.48425509 0.66739268 0.29832197
H  -1.20172700 0.02094194 -0.08377332
12
MD Step 211.5 Units = [eV / Ang.]
C  -0.83321540 -0.12175916 -0.74592823
C  1.67587592 0.81306058 0.88535663
C  -2.47599945 -0.21045784 -0.41310704
C  -0.93301694 0.03148487 1.10024029
C  -0.81274697 -2.17957582 -1.15897854
C  4.28574897 2.15080844 0.70925687
H  -0.11023726 0.34341167 -0.04058761
H  -0.03309196 -0.31274709 -0.06888568
H  0.82047758 -0.29494062 -0.16429216
H  -0.24573155 -0.55004046 -0.38718962
H  -0.23118703 0.28508713 0.37230171
H  -1.10687592 0.04566827 -0.08818662
12
MD Step 212.0 Units = [eV / Ang.]
C  -0.82225130 -0.12819989 -0.83799724
C  1.52444615 0.93200242 1.02826117
C  -2.46750137 -0.41929350 -0.49471687
C  -0.80253044 0.42726741 1.15966898
C  -1.22792375 -1.87664987 -1.26775174
C  4.16258791 2.03701340 0.76608933
H  -0.01962500 0.47946220 -0.03715149
H  -0.04668839 -0.36623683 -0.09759359
H  0.88717238 -0.25889998 -0.15705184
H  -0.33865501 -0.79445626 -0.39967837
H  0.02821449 -0.10342057 0.44120776
H  -0.87724568 0.07141148 -0.10328610
12
MD Step 212.5 Units = [eV / Ang.]
C  -0.77229209 -0.10987881 -0.92938859
C  1.35084259 1.00332954 1.16665961
C  -2.34119541 -0.61772929 -0.56224318
C  -0.69520972 0.76425116 1.20049043
C  -1.60945244 -1.56584255 -1.35602850
C  3.89967212 1.89398746 0.82422054
H  0.05820023 0.58312309 -0.03094282
H  -0.07165419 -0.39257419 -0.12436466
H  0.85368971 -0.22136303 -0.15976318
H  -0.39931667 -0.97484516 -0.40032525
H  0.27118061 -0.46178173 0.49702052
H  -0.54446475 0.09932351 -0.12533493
12
MD Step 213.0 Units = [eV / Ang.]
C  -0.68288577 -0.06047844 -1.01923829
C  1.16094510 1.02743975 1.29971937
C  -2.10520910 -0.80405527 -0.61460723
C  -0.61438734 1.02975959 1.22337836
C  -1.93631944 -1.27122246 -1.41910104
C  3.53758484 1.72027992 0.87893450
H  0.11917470 0.64741271 -0.02201375
H  -0.10868558 -0.39115978 -0.14964243
H  0.72509908 -0.18123665 -0.17306744
H  -0.42453499 -1.08270573 -0.38938822
H  0.48057444 -0.76391882 0.53466465
H  -0.15135594 0.12988519 -0.14963850
12
MD Step 213.5 Units = [eV / Ang.]
C  -0.55510115 0.02363455 -1.10640047
C  0.95912139 1.00720830 1.42654272
C  -1.77993172 -0.97621659 -0.65259526
C  -0.56194944 1.21497148 1.22975255
C  -2.19285724 -1.00734884 -1.45496133
C  3.11915142 1.51522638 0.92574871
H  0.16047477 0.66822902 -0.01070837
H  -0.15676378 -0.36406532 -0.17380669
H  0.51884111 -0.13737081 -0.19577431
H  -0.41311704 -1.11358421 -0.36792913
H  0.64493858 -0.99339158 0.55180177
H  0.25719308 0.16270761 -0.17167019
12
MD Step 214.0 Units = [eV / Ang.]
C  -0.39145138 0.14342050 -1.18952717
C  0.74819428 0.94759367 1.54606872
C  -1.39415191 -1.13134423 -0.67852812
C  -0.53869184 1.31412525 1.22154803
C  -2.36806063 -0.78173721 -1.46360839
C  2.68233984 1.27910425 0.96117218
H  0.18053947 0.64424286 0.00241975
H  -0.21328103 -0.31568788 -0.19705260
H  0.26097529 -0.08909791 -0.22519159
H  -0.36532176 -1.06616369 -0.33761178
H  0.75741226 -1.14109425 0.54818725
H  0.64149741 0.19663862 -0.18787628
12
MD Step 214.5 Units = [eV / Ang.]
C  -0.19587260 0.29710151 -1.26713493
C  0.52971447 0.85504402 1.65703143
C  -0.97997456 -1.26560263 -0.69563786
C  -0.54426548 1.32446462 1.20108480
C  -2.45457491 -0.59754145 -1.44633718
C  2.25652601 1.01308195 0.98300712
H  0.17912442 0.57686004 0.01667573
H  -0.27440452 -0.25212482 -0.21932381
H  -0.01883007 -0.03655688 -0.25775832
H  -0.28271281 -0.94207060 -0.30058485
H  0.81434315 -1.20269428 0.52498784
H  0.97092692 0.23003850 -0.19600997
12
MD Step 215.0 Units = [eV / Ang.]
C  0.02624363 0.47999016 -1.33766063
C  0.30442056 0.73683072 1.75798006
C  -0.56811189 -1.37441447 -0.70738818
C  -0.57676082 1.24700370 1.17100126
C  -2.44788497 -0.45557064 -1.40524234
C  1.86196320 0.71912050 0.99026952
H  0.15741310 0.47029136 0.03127839
H  -0.33558648 -0.18041154 -0.24030741
H  -0.29196382 0.01927475 -0.28973950
H  -0.16841044 -0.74647016 -0.25941071
H  0.81417873 -1.17671238 0.48429051
H  1.22449920 0.26106800 -0.19507098
12
MD Step 215.5 Units = [eV / Ang.]
C  0.26797340 0.68427080 -1.39951442
C  0.07276739 0.60041178 1.84735708
C  -0.18462619 -1.45297026 -0.71693780
C  -0.63204988 1.08798648 1.13417314
C  -2.34599621 -0.35528595 -1.34299274
C  1.51128082 0.39996331 0.98291691
H  0.11816929 0.33168183 0.04540586
H  -0.39211669 -0.10775417 -0.25948474
H  -0.53409545 0.07678090 -0.31777858
H  -0.02766446 -0.48931583 -0.21696654
H  0.75694319 -1.06366265 0.42886172
H  1.38941479 0.28789377 -0.18503987
12
MD Step 216.0 Units = [eV / Ang.]
C  0.52078018 0.89891311 -1.45113617
C  -0.16457425 0.45291540 1.92360636
C  0.15056946 -1.49686022 -0.72683855
C  -0.70307307 0.86063444 1.09352889
C  -2.14974727 -0.29466036 -1.26283940
C  1.21171695 0.05921551 0.96155213
H  0.06586128 0.17114709 0.05824150
H  -0.43961802 -0.04087079 -0.27621601
H  -0.72665239 0.13400795 -0.33921535
H  0.13144165 -0.18685299 -0.17622550
H  0.64442085 -0.86638883 0.36211846
H  1.45887463 0.30879967 -0.16657637
12
MD Step 216.5 Units = [eV / Ang.]
C  0.77453791 1.10990837 -1.49105772
C  -0.40631107 0.30078810 1.98529316
C  0.42376583 -1.50266856 -0.73895191
C  -0.77936953 0.58644624 1.05168552
C  -1.86374706 -0.26897680 -1.16873695
C  0.96708613 -0.29851089 0.92720619
H  0.00665128 0.00152234 0.06902010
H  -0.47442958 0.01450610 -0.28983850
H  -0.85688407 0.18894956 -0.35218410
H  0.29747512 0.13732804 -0.13984311
H  0.48101794 -0.59153522 0.28819276
H  1.43020710 0.32224271 -0.14078544
12
MD Step 217.0 Units = [eV / Ang.]
C  1.01778344 1.30105252 -1.51797510
C  -0.65022834 0.14959268 2.03121694
C  0.62670215 -1.46843642 -0.75449972
C  -0.84723640 0.29505586 1.01040083
C  -1.49779078 -0.26881440 -1.06541104
C  0.77891129 -0.66746988 0.88123296
H  -0.05188153 -0.16238702 0.07707840
H  -0.49386306 0.05396427 -0.29975887
H  -0.91715855 0.23975170 -0.35557469
H  0.45576432 0.45265086 -0.10955042
H  0.27511375 -0.25187014 0.21192383
H  1.30388372 0.32690997 -0.10908313
12
MD Step 217.5 Units = [eV / Ang.]
C  1.23828922 1.45537987 -1.53081602
C  -0.89298718 0.00392952 2.06049800
C  0.75560970 -1.39395954 -0.77415921
C  -0.89090373 0.02173039 0.96996773
C  -1.06832532 -0.27783385 -0.95816291
C  0.64649343 -1.04074454 0.82529296
H  -0.10137885 -0.30516476 0.08190119
H  -0.49634033 0.07460585 -0.30552644
H  -0.90411085 0.28483254 -0.34894370
H  0.58954590 0.72419965 -0.08548880
H  0.04045883 0.13120245 0.13857909
H  1.08364918 0.32182243 -0.07314189
12
MD Step 218.0 Units = [eV / Ang.]
C  1.42400016 1.55716530 -1.52880377
C  -1.13000975 -0.13257231 2.07264447
C  0.81049368 -1.28094248 -0.79813246
C  -0.89481921 -0.19777643 0.92882141
C  -0.59927126 -0.27147126 -0.85223635
C  0.56592054 -1.41036094 0.76137478
H  -0.13370590 -0.41267210 0.08315743
H  -0.48144727 0.07514906 -0.30688533
H  -0.81807991 0.32294772 -0.33244634
H  0.68230493 0.91790695 -0.06577251
H  -0.20311944 0.52611660 0.07314488
H  0.77773343 0.30650989 -0.03486622
12
MD Step 218.5 Units = [eV / Ang.]
C  1.56420648 1.59416069 -1.51150104
C  -1.35542055 -0.25724023 2.06758588
C  0.79490310 -1.13302328 -0.82615022
C  -0.84668426 -0.33408581 0.88366936
C  -0.12124136 -0.21802704 -0.75173925
C  0.52826699 -1.76754259 0.69177887
H  -0.14218273 -0.47415408 0.08071908
H  -0.44992785 0.05596756 -0.30379919
H  -0.66306482 0.35323584 -0.30682157
H  0.72092862 1.00732768 -0.04660476
H  -0.43062306 0.89214775 0.01919542
H  0.40083945 0.28123351 0.00366740
12
MD Step 219.0 Units = [eV / Ang.]
C  1.65072446 1.55954919 -1.47883741
C  -1.56208207 -0.36834938 2.04567903
C  0.71620930 -0.95568395 -0.85740923
C  -0.74032641 -0.37066906 0.83029610
C  0.33151847 -0.08336350 -0.65840976
C  0.51759858 -2.10306305 0.61898679
H  -0.12276637 -0.48404818 0.07465952
H  -0.40363497 0.01908184 -0.29645148
H  -0.44718999 0.37527146 -0.27343130
H  0.69875428 0.97989408 -0.02310943
H  -0.61504941 1.18419707 -0.02234627
H  -0.02375587 0.24718348 0.04037344
12
MD Step 219.5 Units = [eV / Ang.]
C  1.67879228 1.45307086 -1.43111744
C  -1.74173125 -0.46511356 2.00768130
C  0.58624938 -0.75606577 -0.89047765
C  -0.57733176 -0.30743717 0.76485540
C  0.72631450 0.16089893 -0.57082299
C  0.50979751 -2.40754622 0.54536222
H  -0.07486532 -0.44299088 0.06523487
H  -0.34543751 -0.03190788 -0.28521783
H  -0.18349408 0.38912486 -0.23432029
H  0.61735607 0.84018118 0.00931100
H  -0.73257847 1.36125900 -0.05394829
H  -0.46307135 0.20652665 0.07345970
12
MD Step 220.0 Units = [eV / Ang.]
C  1.64742791 1.28099568 -1.36901368
C  -1.88526217 -0.54766103 1.95468572
C  0.42191675 -0.54263468 -0.92323619
C  -0.36673927 -0.16002493 0.68515833
C  1.03788920 0.52791506 -0.48464661
C  0.47352086 -2.67157958 0.47271180
H  -0.00153265 -0.35769838 0.05285379
H  -0.27906650 -0.09198392 -0.27061112
H  0.10939616 0.39539861 -0.19223363
H  0.48632342 0.60877914 0.05360025
H  -0.76827561 1.39632254 -0.08110218
H  -0.87559810 0.16217151 0.10183352
12
MD Step 220.5 Units = [eV / Ang.]
C  1.55921074 1.05496095 -1.29354813
C  -1.98319788 -0.61694155 1.88802651
C  0.24517549 -0.32470661 -0.95293320
C  -0.12295938 0.04484003 0.59142307
C  1.25277700 1.00868443 -0.39409306
C  0.37431813 -2.88555385 0.40183350
H  0.09101518 -0.23976698 0.03804126
H  -0.20888067 -0.15500841 -0.25320253
H  0.40727905 0.39518825 -0.15051676
H  0.32110821 0.31723914 0.11020709
H  -0.72002169 1.28386505 -0.11071259
H  -1.21582420 0.11719954 0.12547483
12
MD Step 221.0 Units = [eV / Ang.]
C  1.41958541 0.79003785 -1.20606335
C  -2.02633601 -0.67452280 1.80915542
C  0.08183894 -0.11179845 -0.97643146
C  0.13721829 0.27582093 0.48624825
C  1.37031586 1.57105825 -0.29401371
C  0.18179851 -3.03934984 0.33227908
H  0.19440103 -0.10375160 0.02140105
H  -0.13953698 -0.21419157 -0.23352530
H  0.68172397 0.38991453 -0.11282681
H  0.13982353 0.00119923 0.17704792
H  -0.59885302 1.04150005 -0.14883705
H  -1.44197954 0.07408342 0.14556597
12
MD Step 221.5 Units = [eV / Ang.]
C  1.23596164 0.50260833 -1.10818118
C  -2.00656615 -0.72226362 1.71951160
C  -0.04122619 0.08715022 -0.99065508
C  0.39738667 0.50292027 0.37395000
C  1.40015398 2.16548107 -0.18164490
C  -0.12197567 -3.12224391 0.26252177
H  0.29930920 0.03493483 0.00357709
H  -0.07557504 -0.26272592 -0.21198004
H  0.90309901 0.38101477 -0.08264698
H  -0.03985742 -0.30585732 0.25014044
H  -0.42557011 0.70498386 -0.19880183
H  -1.52513992 0.03399742 0.16420912
12
MD Step 222.0 Units = [eV / Ang.]
C  1.01684632 0.20855088 -1.00175420
C  -1.91775955 -0.76187236 1.62040891
C  -0.10031564 0.26457109 -0.99316772
C  0.64331042 0.70130795 0.25964797
C  1.35775892 2.73504982 -0.05726435
C  -0.53605318 -3.12341086 0.19054456
H  0.39662655 0.16183194 -0.01478192
H  -0.02095092 -0.29453997 -0.18876085
H  1.04507291 0.36955674 -0.06267671
H  -0.20285162 -0.57658952 0.32452771
H  -0.22524540 0.31897528 -0.26047456
H  -1.45643881 -0.00343099 0.18375116
12
MD Step 222.5 Units = [eV / Ang.]
C  0.77117914 -0.07795059 -0.88880879
C  -1.75663474 -0.79443651 1.51296806
C  -0.07954269 0.41491533 -0.98271195
C  0.86357373 0.85272376 0.14846556
C  1.26009188 3.22591421 0.07629434
C  -1.03905647 -3.03322577 0.11462370
H  0.47829788 0.26468137 -0.03305475
H  0.02140990 -0.30506079 -0.16382626
H  1.08957023 0.35591326 -0.05427060
H  -0.33760523 -0.79121994 0.39511776
H  -0.02193637 -0.07248871 -0.33076719
H  -1.24934725 -0.03976561 0.20597014
12
MD Step 223.0 Units = [eV / Ang.]
C  0.50791127 -0.34494111 -0.77148103
C  -1.52345365 -0.82000928 1.39811513
C  0.02552844 0.53495388 -0.95951749
C  1.04938421 0.94508545 0.04503370
C  1.12292782 3.59481482 0.21474156
C  -1.59347446 -2.84512865 0.03395967
H  0.53783574 0.33407941 -0.05067450
H  0.04996231 -0.29185097 -0.13692914
H  1.03065804 0.33965209 -0.05712564
H  -0.43604902 -0.93703478 0.45723601
H  0.16475070 -0.43265760 -0.40484227
H  -0.93598142 -0.07696326 0.23148401
12
MD Step 223.5 Units = [eV / Ang.]
C  0.23575245 -0.58274285 -0.65194487
C  -1.22242200 -0.83738266 1.27664419
C  0.20665213 0.62367710 -0.92524417
C  1.19401358 0.97125044 -0.04670515
C  0.96009949 3.81254722 0.35339941
C  -2.15399323 -2.55749559 -0.05108819
H  0.57054982 0.36368157 -0.06715021
H  0.06471461 -0.25497649 -0.10770422
H  0.87593836 0.31971750 -0.06935230
H  -0.49302518 -1.00696581 0.50688127
H  0.32083105 -0.73478724 -0.47735542
H  -0.55911108 -0.11652321 0.25961966
12
MD Step 224.0 Units = [eV / Ang.]
C  -0.03697174 -0.78379329 -0.53232786
C  -0.86174810 -0.84409812 1.14932844
C  0.44461170 0.68183298 -0.88257655
C  1.29227839 0.92776976 -0.12351162
C  0.78401603 3.86397976 0.48785547
C  -2.67652553 -2.17490535 -0.13917328
H  0.57360711 0.35015710 -0.08208594
H  0.06719436 -0.19703207 -0.07579562
H  0.64490399 0.29484390 -0.08791536
H  -0.50562900 -0.99812817 0.54079521
H  0.43741490 -0.96168398 -0.54331489
H  -0.16315211 -0.15894252 0.28872202
12
MD Step 224.5 Units = [eV / Ang.]
C  -0.30249812 -0.94251508 -0.41461332
C  -0.45332059 -0.83674272 1.01703807
C  0.71323659 0.71133936 -0.83462407
C  1.34035997 0.81413891 -0.18282822
C  0.60656039 3.74602090 0.61416063
C  -3.12491243 -1.70849530 -0.22835059
H  0.54605619 0.29310286 -0.09520015
H  0.06020155 -0.12279823 -0.04099233
H  0.36488348 0.26403160 -0.10928651
H  -0.47278751 -0.91088549 0.55648985
H  0.50937883 -1.10358849 -0.59847618
H  0.21284164 -0.20360832 0.31668282
12
MD Step 225.0 Units = [eV / Ang.]
C  -0.55386594 -1.05537762 -0.30052969
C  -0.01209549 -0.81144820 0.88083095
C  0.98432184 0.71475809 -0.78433556
C  1.33604421 0.63279484 -0.22285449
C  0.43970821 3.46487672 0.72874303
C  -3.47396613 -1.17538139 -0.31646925
H  0.48888616 0.19502566 -0.10634852
H  0.04741643 -0.03862710 -0.00333927
H  0.06602530 0.22690185 -0.13009101
H  -0.39525199 -0.74869993 0.55236235
H  0.53399711 -1.15579874 -0.63940713
H  0.53878030 -0.24902418 0.34143858
12
MD Step 225.5 Units = [eV / Ang.]
C  -0.78525236 -1.12119245 -0.19143360
C  0.44474361 -0.76449851 0.74198500
C  1.23193378 0.69496524 -0.73409552
C  1.27941290 0.38986670 -0.24279527
C  0.29551209 3.03349288 0.82826831
C  -3.70921355 -0.59733864 -0.40144399
H  0.40514571 0.06143109 -0.11555003
H  0.03292953 0.04832923 0.03680154
H  -0.22315082 0.18383201 -0.14757527
H  -0.27605379 -0.51878954 0.52797655
H  0.50999751 -1.11692881 -0.66342984
H  0.79399539 -0.29316921 0.36129210
12
MD Step 226.0 Units = [eV / Ang.]
C  -0.99236547 -1.14154350 -0.08820205
C  0.89875050 -0.69292033 0.60196324
C  1.43518461 0.65503140 -0.68555853
C  1.17385521 0.09646157 -0.24329146
C  0.18540273 2.46974448 0.90963621
C  -3.82467551 0.00095487 -0.48139338
H  0.30006580 -0.09906096 -0.12301028
H  0.02078226 0.13089593 0.07874925
H  -0.47868421 0.13588202 -0.15982923
H  -0.12133387 -0.23336879 0.48451686
H  0.43726173 -0.98824820 -0.66862208
H  0.96575622 -0.33382848 0.37504146
12
MD Step 226.5 Units = [eV / Ang.]
C  -1.17276487 -1.12117632 0.00884371
C  1.33122126 -0.59494229 0.46232506
C  1.57930292 0.59819766 -0.63968251
C  1.02713510 -0.22995708 -0.22694471
C  0.11884373 1.79562000 0.97023410
C  -3.82008690 0.59388572 -0.55469764
H  0.18106969 -0.27473162 -0.12913120
H  0.01457469 0.20255147 0.12155564
H  -0.68240447 0.08459963 -0.16579623
H  0.05871322 0.08900520 0.42531852
H  0.31724486 -0.77422648 -0.65400292
H  1.04715079 -0.36882591 0.38197818
12
MD Step 227.0 Units = [eV / Ang.]
C  -1.32598880 -1.06809012 0.09995726
C  1.72420191 -0.47028020 0.32460234
C  1.65540150 0.52787470 -0.59687371
C  0.85207975 -0.56487247 -0.19871322
C  0.10147372 1.03748612 1.00847867
C  -3.69859460 1.15685309 -0.62004003
H  0.05751690 -0.45112521 -0.13448963
H  0.01717158 0.25794058 0.16409564
H  -0.82186961 0.03179944 -0.16515398
H  0.24924247 0.42276213 0.35624619
H  0.15407567 -0.48417530 -0.61994750
H  1.03528951 -0.39617276 0.38183796
12
MD Step 227.5 Units = [eV / Ang.]
C  -1.45332039 -0.99306407 0.18590083
C  2.06143558 -0.32023287 0.19017113
C  1.65958124 0.44757445 -0.55715334
C  0.66630462 -0.87760557 -0.16586457
C  0.13295264 0.22717382 1.02456702
C  -3.46549972 1.66803062 -0.67646884
H  -0.05996402 -0.61196706 -0.13976861
H  0.03051060 0.29321267 0.20517799
H  -0.88964267 -0.02061949 -0.15815119
H  0.43111231 0.73625372 0.28559567
H  -0.04385288 -0.13457404 -0.56877010
H  0.93038268 -0.41418218 0.37476402
12
MD Step 228.0 Units = [eV / Ang.]
C  -1.55713802 -0.90850363 0.26778638
C  2.32923308 -0.14763852 0.06013739
C  1.59195559 0.36077294 -0.52028819
C  0.49046294 -1.13452358 -0.13717808
C  0.20500634 -0.59682733 1.02120706
C  -3.12826800 2.10982788 -0.72349812
H  -0.16059770 -0.74072159 -0.14563464
H  0.05549299 0.30621955 0.24366225
H  -0.88249772 -0.07080060 -0.14545956
H  0.58271307 0.99502064 0.22321156
H  -0.26227461 0.24877862 -0.50526115
H  0.73591205 -0.42160438 0.36131511
12
MD Step 228.5 Units = [eV / Ang.]
C  -1.63992372 -0.82665269 0.34684223
C  2.51721540 0.04326468 -0.06474408
C  1.45600213 0.27073241 -0.48586083
C  0.34499208 -1.30450571 -0.12132992
C  0.30044442 -1.38930814 1.00393312
C  -2.69776897 2.46991251 -0.76122521
H  -0.23493008 -0.82267386 -0.15257699
H  0.09194294 0.29659994 0.27856880
H  -0.80095432 -0.11701801 -0.12806678
H  0.68334164 1.16731937 0.17875938
H  -0.48024352 0.63013729 -0.43680713
H  0.45988201 -0.41780779 0.34250740
12
MD Step 229.0 Units = [eV / Ang.]
C  -1.70318211 -0.75751485 0.42415111
C  2.61889119 0.24701634 -0.18411507
C  1.25842044 0.18036065 -0.45329304
C  0.24600316 -1.36545077 -0.12480701
C  0.39421741 -2.10088941 0.98055973
C  -2.19043306 2.74170244 -0.79042080
H  -0.27634586 -0.84715706 -0.16074638
H  0.13861338 0.26579288 0.30917752
H  -0.64932030 -0.15776295 -0.10720652
H  0.71743686 1.23065879 0.15951814
H  -0.67116764 0.96623148 -0.37266719
H  0.11686652 -0.40298752 0.31984951
12
MD Step 229.5 Units = [eV / Ang.]
C  -1.74661864 -0.70701182 0.50042753
C  2.63199775 0.45712707 -0.29801759
C  1.00950808 0.09216993 -0.42184656
C  0.20168893 -1.30961685 -0.15009542
C  0.45722452 -2.68400639 0.95955005
C  -1.63066289 2.92423325 -0.81250984
H  -0.28222792 -0.80937522 -0.16984802
H  0.19324294 0.21697616 0.33510526
H  -0.43622621 -0.19186071 -0.08430692
H  0.67828960 1.17712542 0.16846134
H  -0.80641921 1.21255613 -0.32220986
H  -0.26979696 -0.37831696 0.29529002
12
MD Step 230.0 Units = [eV / Ang.]
C  -1.76789390 -0.67589900 0.57589777
C  2.55857076 0.66629747 -0.40685932
C  0.72380444 0.00838350 -0.39064472
C  0.21065240 -1.14567587 -0.19492508
C  0.46261769 -3.10151205 0.94761227
C  -1.05234087 3.02132589 -0.82935414
H  -0.25440500 -0.71129453 -0.17913516
H  0.25266723 0.15492319 0.35635514
H  -0.17540031 -0.21863402 -0.06092357
H  0.56975774 1.01534799 0.20343596
H  -0.86123901 1.33264486 -0.29244647
H  -0.66679117 -0.34590742 0.27098732
12
MD Step 230.5 Units = [eV / Ang.]
C  -1.76303862 -0.65976278 0.65031089
C  2.40467565 0.86667525 -0.51134011
C  0.42061334 -0.06882239 -0.35874931
C  0.26283886 -0.89658565 -0.25292638
C  0.39283456 -3.33507927 0.94745248
C  -0.49797562 3.04011772 -0.84278672
H  -0.19873566 -0.56132694 -0.18751837
H  0.31300190 0.08574065 0.37332499
H  0.11374760 -0.23809253 -0.03862811
H  0.40524846 0.76823428 0.25781295
H  -0.82119741 1.30734514 -0.28580239
H  -1.03201304 -0.30844347 0.24885006
12
MD Step 231.0 Units = [eV / Ang.]
C  -1.72740951 -0.65006744 0.72305984
C  2.17982591 1.05021445 -0.61233783
C  0.12380256 -0.13703700 -0.32531104
C  0.34257480 -0.59423574 -0.31538489
C  0.24466658 -3.38969285 0.95678559
C  -0.01429119 2.98916074 -0.85395929
H  -0.12396147 -0.37289743 -0.19376231
H  0.36991201 0.01644933 0.38676166
H  0.40634733 -0.25108555 -0.01883566
H  0.20443138 0.46746325 0.32229888
H  -0.68657692 1.14020438 -0.29922722
H  -1.31932148 -0.26847612 0.22991229
12
MD Step 231.5 Units = [eV / Ang.]
C  -1.65680013 -0.63587102 0.79335961
C  1.89610702 1.20914675 -0.71076114
C  -0.13968657 -0.19343829 -0.28977582
C  0.43238903 -0.27300564 -0.37332989
C  0.03016182 -3.29185682 0.96916268
C  0.35570246 2.87653425 -0.86273648
H  -0.04019544 -0.16234923 -0.19671202
H  0.41896314 -0.04560102 0.39765634
H  0.67367777 -0.25932143 -0.00258494
H  -0.01096333 0.14693123 0.38712708
H  -0.47260281 0.85640657 -0.32517688
H  -1.48675296 -0.22757536 0.21377144
12
MD Step 232.0 Units = [eV / Ang.]
C  -1.54837783 -0.60572644 0.86041644
C  1.56711558 1.33657027 -0.80737359
C  -0.34289808 -0.23486426 -0.25209198
C  0.51620725 0.03560517 -0.41918960
C  -0.22688481 -3.08215522 0.97618448
C  0.58216450 2.70855500 -0.86745871
H  0.04255175 0.05326275 -0.19548770
H  0.45603553 -0.09346202 0.40708173
H  0.88644211 -0.26516170 0.00967454
H  -0.22078717 -0.16264793 0.44383926
H  -0.20539519 0.49576854 -0.35400661
H  -1.50617365 -0.18574415 0.19841174
12
MD Step 232.5 Units = [eV / Ang.]
C  -1.40119646 -0.54929597 0.92354230
C  1.20683845 1.42709203 -0.90260995
C  -0.46316285 -0.25819361 -0.21283489
C  0.58116653 0.30611958 -0.44763933
C  -0.49707419 -2.80541459 0.96999977
C  0.65591299 2.48952518 -0.86530661
H  0.11548901 0.25799666 -0.18960590
H  0.47774994 -0.12137601 0.41599510
H  1.01935051 -0.27116380 0.01820663
H  -0.40868892 -0.43682199 0.48625159
H  0.08445575 0.10301034 -0.37663615
H  -1.37084076 -0.14147783 0.18063744
12
MD Step 233.0 Units = [eV / Ang.]
C  -1.21626116 -0.45844309 0.98220716
C  0.82862800 1.47743650 -0.99641879
C  -0.48658770 -0.26096152 -0.17316970
C  0.61802980 0.51997218 -0.45568166
C  -0.75155405 -2.50225817 0.94506064
C  0.59061275 2.22253389 -0.85319525
H  0.17168729 0.43823397 -0.17902012
H  0.48184133 -0.12550549 0.42504095
H  1.05590842 -0.27946486 0.02394807
H  -0.56279712 -0.65815101 0.51062636
H  0.36802962 -0.28085751 -0.38643159
H  -1.09753717 -0.09253489 0.15703392
12
MD Step 233.5 Units = [eV / Ang.]
C  -0.99627441 -0.32777244 1.03603886
C  0.44440264 1.48687445 -1.08816408
C  -0.41125047 -0.24197902 -0.13463752
C  0.62070854 0.66485713 -0.44226031
C  -0.96624913 -2.20433513 0.89873516
C  0.41860438 1.91082056 -0.82881499
H  0.20629227 0.58327099 -0.16409483
H  0.46740946 -0.10445304 0.43440197
H  0.99188172 -0.29120401 0.02828542
H  -0.67531888 -0.81539258 0.51533707
H  0.62203047 -0.62362427 -0.37988845
H  -0.72223659 -0.03706265 0.12506171
12
MD Step 234.0 Units = [eV / Ang.]
C  -0.74523787 -0.15475766 1.08480050
C  0.06413914 1.45740146 -1.17661659
C  -0.24787628 -0.20173848 -0.09882137
C  0.58547779 0.73342709 -0.40772967
C  -1.12364316 -1.93337761 0.83100112
C  0.18228850 1.55899864 -0.79135383
H  0.21645329 0.68546328 -0.14553905
H  0.43500273 -0.05946904 0.44373268
H  0.83617199 -0.30620387 0.03270712
H  -0.74165290 -0.90205197 0.50035283
H  0.83011033 -0.90317371 -0.35634100
H  -0.29123355 0.02548186 0.08380728
12
MD Step 234.5 Units = [eV / Ang.]
C  -0.46809019 0.06033605 1.12836227
C  -0.30430671 1.39358241 -1.26004798
C  -0.01768917 -0.14241991 -0.06700816
C  0.51036797 0.72204087 -0.35341060
C  -1.21265569 -1.70282264 0.74371106
C  -0.07532131 1.17364248 -0.74164769
H  0.20113036 0.74014834 -0.12432219
H  0.38651505 0.00571193 0.45219810
H  0.60877001 -0.32303251 0.03844974
H  -0.75952924 -0.91504311 0.46677887
H  0.98222280 -1.10614194 -0.31720114
H  0.14858614 0.09399805 0.03413771
12
MD Step 235.0 Units = [eV / Ang.]
C  -0.17047979 0.31455042 1.16667629
C  -0.65511613 1.30210749 -1.33641099
C  0.25179955 -0.06755110 -0.03996072
C  0.39494599 0.63003299 -0.28133671
C  -1.22752490 -1.52041136 0.63985546
C  -0.31764092 0.76315309 -0.68183426
H  0.16091048 0.74555567 -0.10158231
H  0.32492802 0.08535927 0.45860604
H  0.33656269 -0.33940141 0.04625299
H  -0.72849808 -0.85392129 0.41656909
H  1.07305484 -1.22547351 -0.26517077
H  0.55705824 0.16599974 -0.02166410
12
MD Step 235.5 Units = [eV / Ang.]
C  0.14129178 0.60221950 1.19974691
C  -0.98423020 1.19111833 -1.40357339
C  0.53159801 0.01855302 -0.01784785
C  0.24058907 0.45970405 -0.19419871
C  -1.16652508 -1.39056485 0.52304539
C  -0.51779112 0.33719781 -0.61478553
H  0.09790472 0.70283451 -0.07852586
H  0.25394992 0.17245980 0.46160146
H  0.04847294 -0.35272395 0.05627878
H  -0.64992093 -0.72088906 0.35242343
H  1.10043698 -1.25809983 -0.20366379
H  0.90422392 0.23819068 -0.08050085
12
MD Step 236.0 Units = [eV / Ang.]
C  0.46018347 0.91483446 1.22758184
C  -1.28897813 1.06943461 -1.45955600
C  0.79525630 0.11134798 -0.00032010
C  0.05118435 0.21707619 -0.09541977
C  -1.03099503 -1.31586606 0.39724443
C  -0.65853988 -0.09395946 -0.54359337
H  0.01573235 0.61622394 -0.05630985
H  0.17762067 0.25951493 0.45987814
H  -0.22865743 -0.36062937 0.06817843
H  -0.52747706 -0.52158559 0.27781289
H  1.06427004 -1.20343376 -0.13647862
H  1.17040036 0.30704213 -0.13901802
12
MD Step 236.5 Units = [eV / Ang.]
C  0.77825603 1.24085202 1.25010505
C  -1.56768470 0.94579637 -1.50273462
C  1.02132716 0.20649283 0.01333903
C  -0.16590750 -0.08676036 0.01074908
C  -0.82492033 -1.29740032 0.26666690
C  -0.73031088 -0.52000034 -0.47125034
H  -0.08045301 0.49329349 -0.03589523
H  0.09994436 0.33928873 0.45236565
H  -0.47263979 -0.36130234 0.08124312
H  -0.36805593 -0.26646836 0.19702251
H  0.96621123 -1.06298032 -0.06764387
H  1.34423337 0.36918861 -0.19396728
12
MD Step 237.0 Units = [eV / Ang.]
C  1.08654706 1.56564721 1.26703338
C  -1.81930436 0.82821084 -1.53198015
C  1.19419532 0.30009998 0.02405409
C  -0.39892453 -0.43413289 0.11925795
C  -0.55515705 -1.33395163 0.13571531
C  -0.72865843 -0.93090122 -0.40053726
H  -0.18399081 0.34506103 -0.01787251
H  0.02458884 0.40541813 0.43836349
H  -0.66689002 -0.35361777 0.09456860
H  -0.18272967 0.02766055 0.11506844
H  0.81015191 -0.84110984 -0.00130545
H  1.42017173 0.42161559 -0.24236590
12
MD Step 237.5 Units = [eV / Ang.]
C  1.37510229 1.87184893 1.27772903
C  -2.04309464 0.72344731 -1.54672331
C  1.30374269 0.38884763 0.03282902
C  -0.63130275 -0.79986658 0.22456079
C  -0.23222823 -1.42020122 0.00880209
C  -0.65220945 -1.31714736 -0.33404135
H  -0.28691341 0.18573192 -0.00227844
H  -0.04533411 0.45285003 0.41761210
H  -0.80021033 -0.33712417 0.10719180
H  0.01271062 0.33674241 0.03734561
H  0.60335297 -0.54684663 0.05849993
H  1.39638435 0.46171772 -0.28152728
12
MD Step 238.0 Units = [eV / Ang.]
C  1.63327971 2.14030121 1.28107570
C  -2.23832662 0.63670099 -1.54695115
C  1.34445746 0.46998318 0.04066645
C  -0.84239349 -1.15191315 0.32126650
C  0.12855528 -1.54435331 -0.11007300
C  -0.50157272 -1.66989856 -0.27419737
H  -0.38042549 0.03180404 0.01154822
H  -0.10741208 0.47810841 0.39030171
H  -0.86601135 -0.31195258 0.11818374
H  0.19829620 0.63012817 -0.03106551
H  0.35789019 -0.19624443 0.10831378
H  1.27366291 0.48733602 -0.30906909
12
MD Step 238.5 Units = [eV / Ang.]
C  1.85038102 2.35179517 1.27545041
C  -2.40402466 0.57139201 -1.53315019
C  1.31453066 0.54129334 0.04851871
C  -1.00974668 -1.45434937 0.40505554
C  0.50622204 -1.68602323 -0.21803780
C  -0.27942694 -1.98123278 -0.22324948
H  -0.45571286 -0.09959654 0.02500486
H  -0.16001611 0.47942524 0.35703086
H  -0.86151464 -0.27871944 0.12670962
H  0.35200981 0.87362267 -0.08634329
H  0.09176563 0.18551980 0.14601351
H  1.05553273 0.49687313 -0.32300278
12
MD Step 239.0 Units = [eV / Ang.]
C  2.01656303 2.48941398 1.25884592
C  -2.53872355 0.52909150 -1.50620681
C  1.21530609 0.60104807 0.05724773
C  -1.11287666 -1.67281611 0.47357941
C  0.87433286 -1.81565832 -0.31423445
C  0.00823459 -2.24451808 -0.18303782
H  -0.50501262 -0.19301972 0.04009366
H  -0.20234557 0.45677123 0.31872530
H  -0.78729686 -0.23845725 0.13207530
H  0.45347907 1.03495681 -0.12682724
H  -0.17120413 0.56364532 0.17172637
H  0.74954375 0.48954257 -0.32198736
12
MD Step 239.5 Units = [eV / Ang.]
C  2.12385146 2.54106411 1.22917627
C  -2.64025192 0.50953370 -1.46728340
C  1.05124943 0.64795619 0.06757213
C  -1.13762389 -1.78123389 0.52693528
C  1.20307061 -1.89690849 -0.40051415
C  0.34991998 -2.45491668 -0.15455857
H  -0.52275157 -0.23720065 0.05909707
H  -0.23444580 0.41181212 0.27652830
H  -0.64733241 -0.19257828 0.13378143
H  0.48837947 1.09050108 -0.15346737
H  -0.40356582 0.89622416 0.18852463
H  0.36950046 0.46574664 -0.30579162
12
MD Step 240.0 Units = [eV / Ang.]
C  2.16703268 2.50153727 1.18471942
C  -2.70559325 0.51073200 -1.41767794
C  0.83040879 0.68112511 0.07998810
C  -1.07960376 -1.76759146 0.56742792
C  1.46350276 -1.89263541 -0.48142499
C  0.72609980 -2.60992325 -0.13732216
H  -0.50647537 -0.22712252 0.08410585
H  -0.25719275 0.34778532 0.23166858
H  -0.44950779 -0.14284555 0.13159547
H  0.45201722 1.03098159 -0.16952525
H  -0.57869057 1.14047453 0.20237200
H  -0.06199777 0.42748239 -0.27592702
12
MD Step 240.5 Units = [eV / Ang.]
C  2.14416181 2.37345081 1.12457625
C  -2.73084603 0.52918699 -1.35868160
C  0.56515852 0.70001103 0.09466441
C  -0.94529426 -1.63650139 0.59864610
C  1.63313357 -1.77361475 -0.56311387
C  1.10739049 -2.70968500 -0.12867551
H  -0.45729532 -0.16499420 0.11652099
H  -0.27224031 0.26929427 0.18531747
H  -0.20638842 -0.09130987 0.12564448
H  0.35060087 0.86389599 -0.17956457
H  -0.67655902 1.26170203 0.22093945
H  -0.51182189 0.37856410 -0.23627360
12
MD Step 241.0 Units = [eV / Ang.]
C  2.05656943 2.16674918 1.04900675
C  -2.71134502 0.56020858 -1.29144518
C  0.27282980 0.70434948 0.11133819
C  -0.75028103 -1.40748771 0.62424659
C  1.70079362 -1.52704998 -0.65128746
C  1.45496052 -2.75680424 -0.12342429
H  -0.37971556 -0.05982320 0.15667578
H  -0.28189986 0.18198650 0.13844644
H  0.06416476 -0.04017173 0.11650546
H  0.19962550 0.61158689 -0.18813463
H  -0.68879492 1.24206793 0.25144075
H  -0.93690723 0.32438831 -0.19336841
12
MD Step 241.5 Units = [eV / Ang.]
C  1.90842398 1.89690100 0.95952787
C  -2.64197869 0.59835552 -1.21687623
C  -0.02431693 0.69401176 0.12924899
C  -0.51544019 -1.10980246 0.64695114
C  1.66872984 -1.16128590 -0.74902320
C  1.72452348 -2.75538998 -0.11417037
H  -0.28089344 0.07427204 0.20369285
H  -0.28893714 0.09210668 0.09170712
H  0.33909179 0.00845552 0.10525901
H  0.02007419 0.30583189 -0.19867229
H  -0.62073522 1.08550092 0.29829740
H  -1.28854167 0.27104298 -0.15594229
12
MD Step 242.0 Units = [eV / Ang.]
C  1.70602950 1.58235167 0.85875659
C  -2.51770815 0.63797506 -1.13558287
C  -0.30034674 0.66881243 0.14716778
C  -0.26263477 -0.77597331 0.66808444
C  1.55093632 -0.70446882 -0.85545765
C  1.87417662 -2.70946036 -0.09264478
H  -0.16955235 0.22047385 0.25560239
H  -0.29627401 0.00593146 0.04535660
H  0.59150422 0.05285814 0.09345240
H  -0.16601379 -0.01882538 -0.21297163
H  -0.48955190 0.81647587 0.36169082
H  -1.52056496 0.22384938 -0.13345408
12
MD Step 242.5 Units = [eV / Ang.]
C  1.45709542 1.24194967 0.75006438
C  -2.33425918 0.67377803 -1.04788505
C  -0.52843312 0.62832874 0.16355268
C  -0.01138469 -0.43631474 0.68766618
C  1.36860760 -0.19776819 -0.96595651
C  1.87429389 -2.62126089 -0.05185310
H  -0.05483915 0.36172182 0.30965905
H  -0.30661637 -0.07085920 -0.00074610
H  0.79363453 0.09202863 0.08293299
H  -0.33911579 -0.33071649 -0.23124109
H  -0.31934402 0.47328558 0.43763106
H  -1.59963912 0.18582705 -0.13382450
12
MD Step 243.0 Units = [eV / Ang.]
C  1.17015923 0.89295236 0.63716569
C  -2.08891820 0.70139181 -0.95390240
C  -0.68491817 0.57183307 0.17683797
C  0.22280279 -0.11569048 0.70482634
C  1.14480942 0.31378139 -1.07353553
C  1.71592572 -2.49030007 0.01169285
H  0.05462602 0.48266120 0.36274439
H  -0.32204756 -0.13379924 -0.04706081
H  0.92108073 0.12584591 0.07554924
H  -0.48416953 -0.60435870 -0.25252815
H  -0.13538994 0.09888212 0.51933853
H  -1.51396050 0.15680061 -0.16112812
12
MD Step 243.5 Units = [eV / Ang.]
C  0.85421625 0.54989662 0.52375388
C  -1.78131252 0.71777143 -0.85371192
C  -0.75372683 0.49845826 0.18578910
C  0.42860677 0.16740102 0.71828205
C  0.90036610 0.78932095 -1.17073615
C  1.41396860 -2.31370991 0.09665675
H  0.15138452 0.57084424 0.41174739
H  -0.34366518 -0.18012481 -0.09420822
H  0.95738699 0.15502397 0.07277788
H  -0.59094785 -0.82137371 -0.27523899
H  0.04034682 -0.26716630 0.59914268
H  -1.27662366 0.13365824 -0.21425444
12
MD Step 244.0 Units = [eV / Ang.]
C  0.51853376 0.22427745 0.41324353
C  -1.41405873 0.72141470 -0.74754486
C  -0.72973340 0.40758765 0.18981912
C  0.59816698 0.40015137 0.72670242
C  0.65189492 1.19692986 -1.25114226
C  1.00357789 -2.08782918 0.19710365
H  0.22945917 0.61722273 0.45385959
H  -0.37133416 -0.20904655 -0.14276255
H  0.89753038 0.18080964 0.07538771
H  -0.65341575 -0.96975770 -0.29756962
H  0.19145241 -0.59342642 0.67007943
H  -0.92207347 0.11166644 -0.28717616
12
MD Step 244.5 Units = [eV / Ang.]
C  0.17255186 -0.07521870 0.30862669
C  -0.99316301 0.71233235 -0.63598473
C  -0.61986937 0.29937901 0.18915096
C  0.72613036 0.57408865 0.72890886
C  0.41175448 1.51493875 -1.31014803
C  0.53144618 -1.81032502 0.30412697
H  0.28444953 0.61615664 0.48677270
H  -0.40361843 -0.22174470 -0.19303945
H  0.74906981 0.20452742 0.08325854
H  -0.66871364 -1.04246084 -0.31778280
H  0.30723478 -0.85785912 0.72677786
H  -0.49727254 0.08618557 -0.37066758
12
MD Step 245.0 Units = [eV / Ang.]
C  -0.17421763 -0.34230250 0.21240413
C  -0.52809391 0.69180955 -0.52011535
C  -0.44153468 0.17521015 0.18476619
C  0.80893352 0.68384654 0.72395189
C  0.18908549 1.73083666 -1.34502796
C  0.04570696 -1.48194048 0.40806090
H  0.31352655 0.56521173 0.50880102
H  -0.43791286 -0.22109662 -0.24492963
H  0.53051663 0.22714364 0.09541977
H  -0.63626895 -1.03607978 -0.33435610
H  0.38165212 -1.04665525 0.76566310
H  -0.05139325 0.05401636 -0.45463796
12
MD Step 245.5 Units = [eV / Ang.]
C  -0.51238322 -0.57275831 0.12653882
C  -0.03153262 0.66199547 -0.40158603
C  -0.21891836 0.03790954 0.17817290
C  0.84452495 0.72651332 0.71112250
C  -0.00887862 1.83918347 -1.35460295
C  -0.41194969 -1.10736711 0.50036327
H  0.31544113 0.46496899 0.51897021
H  -0.47074902 -0.21119969 -0.29781427
H  0.26755394 0.24900713 0.11028390
H  -0.55730504 -0.95014435 -0.34605703
H  0.41186702 -1.15207111 0.78474709
H  0.37232952 0.01396266 -0.53013841
12
MD Step 246.0 Units = [eV / Ang.]
C  -0.83299295 -0.76437942 0.05238873
C  0.48117041 0.62542113 -0.28257404
C  0.02147751 -0.10832066 0.17108352
C  0.83257787 0.70182615 0.68996717
C  -0.17581520 1.83961021 -1.33881203
C  -0.81020504 -0.69520384 0.57463808
H  0.29061451 0.31897088 0.51710143
H  -0.49821748 -0.19678453 -0.35058009
H  -0.01157277 0.26982282 0.12598123
H  -0.43485170 -0.78724198 -0.35200524
H  0.39703113 -1.17039343 0.78330249
H  0.74078372 -0.03332732 -0.59049126
12
MD Step 246.5 Units = [eV / Ang.]
C  -1.12799864 -0.91718335 -0.00939853
C  0.99277134 0.58452623 -0.16565643
C  0.25475365 -0.25821978 0.16511858
C  0.77508971 0.61321017 0.66034090
C  -0.30586894 1.73552729 -1.29841132
C  -1.12839281 -0.25728293 0.62680368
H  0.24132484 0.13381502 0.50390168
H  -0.51642686 -0.18262778 -0.40172304
H  -0.28011547 0.28881203 0.14068153
H  -0.27420667 -0.55397578 -0.35175660
H  0.33759854 -1.10069676 0.76162814
H  1.03147131 -0.08590436 -0.63152858
12
MD Step 247.0 Units = [eV / Ang.]
C  -1.39081965 -1.03378433 -0.05900672
C  1.48504373 0.54124773 -0.05360999
C  0.46017614 -0.40590925 0.16160619
C  0.67719741 0.46946581 0.62250594
C  -0.39387784 1.53381925 -1.23490114
C  -1.35451599 0.19228676 0.65471715
H  0.17193646 -0.08069604 0.48103963
H  -0.52193063 -0.17303933 -0.44951715
H  -0.51550132 0.30495369 0.15282332
H  -0.08367279 -0.26253657 -0.34541384
H  0.23527262 -0.94469884 0.72100571
H  1.23069187 -0.14110888 -0.65124909
12
MD Step 247.5 Units = [eV / Ang.]
C  -1.61689064 -1.11971716 -0.09753596
C  1.93978214 0.49671683 0.05082455
C  0.62221843 -0.54534812 0.16149768
C  0.54788387 0.28655491 0.57724347
C  -0.43621271 1.24557112 -1.15068533
C  -1.48256866 0.63814803 0.65763591
H  0.08904717 -0.31154156 0.45115637
H  -0.51207796 -0.17146432 -0.49221555
H  -0.70047828 0.31721146 0.16122826
H  0.12475847 0.06764890 -0.33372574
H  0.09356397 -0.70776257 0.66384655
H  1.33097419 -0.19601751 -0.64927021
12
MD Step 248.0 Units = [eV / Ang.]
C  -1.80404668 -1.18343937 -0.12697175
C  2.33983328 0.45107474 0.14518470
C  0.73047601 -0.67076149 0.16537354
C  0.40012843 0.08862278 0.52589957
C  -0.43213670 0.88765254 -1.04935880
C  -1.51025364 1.06468559 0.63578232
H  0.00138450 -0.54283492 0.41774398
H  -0.48526395 -0.18020950 -0.52825494
H  -0.82310206 0.32469622 0.16512106
H  0.33525536 0.40907940 -0.31809940
H  -0.08116086 -0.40085597 0.59393121
H  1.32888631 -0.24771001 -0.62635149
12
MD Step 248.5 Units = [eV / Ang.]
C  -1.95252379 -1.23575971 -0.14996294
C  2.67008501 0.40337873 0.22751186
C  0.77899582 -0.77697831 0.17349341
C  0.25008469 -0.09287340 0.47027935
C  -0.38543241 0.48465931 -0.93592869
C  -1.43772951 1.45697397 0.59014600
H  -0.08073059 -0.75677031 0.38482755
H  -0.44108200 -0.20027067 -0.55644381
H  -0.87614229 0.32676161 0.16409587
H  0.52902822 0.72722816 -0.30043684
H  -0.27842301 -0.04293391 0.51654861
H  1.22386986 -0.29341546 -0.58413038
12
MD Step 249.0 Units = [eV / Ang.]
C  -2.06447637 -1.28856471 -0.16938555
C  2.91839223 0.35162296 0.29653604
C  0.76555558 -0.85973631 0.18585089
C  0.11497840 -0.22278115 0.41233234
C  -0.30575597 0.07026939 -0.81668872
C  -1.26764947 1.80166233 0.52254002
H  -0.14644911 -0.93525444 0.35643651
H  -0.38038283 -0.23124476 -0.57611730
H  -0.85644658 0.32305470 0.15807294
H  0.68655040 0.98432464 -0.28274944
H  -0.48268422 0.33727772 0.43826429
H  1.01836794 -0.33063037 -0.52509202
12
MD Step 249.5 Units = [eV / Ang.]
C  -2.14300467 -1.35292963 -0.18774545
C  3.07633837 0.29283211 0.35180790
C  0.69124732 -0.91592150 0.20220827
C  0.01002010 -0.26854127 0.35368008
C  -0.20899567 -0.31339926 -0.69848533
C  -1.00652914 2.08779904 0.43584388
H  -0.18592076 -1.06209818 0.33593081
H  -0.30524456 -0.27130911 -0.58724943
H  -0.76463200 0.31355021 0.14726789
H  0.79088732 1.14575610 -0.26661517
H  -0.67344886 0.70155468 0.36607126
H  0.71928256 -0.35729319 -0.45271470
12
MD Step 250.0 Units = [eV / Ang.]
C  -2.19092662 -1.43698463 -0.20656585
C  3.13975521 0.22323814 0.39375593
C  0.56053936 -0.94372710 0.22210065
C  -0.05482874 -0.20767030 0.29516714
C  -0.11583101 -0.61973498 -0.58733038
C  -0.66720765 2.30754357 0.33428311
H  -0.19199298 -1.12536694 0.32533678
H  -0.21884838 -0.31727852 -0.59050639
H  -0.60526818 0.29858178 0.13218651
H  0.83124781 1.18757331 -0.25267276
H  -0.82713789 1.00588532 0.30589626
H  0.34049907 -0.37205964 -0.37165099
12
MD Step 250.5 Units = [eV / Ang.]
C  -2.20969012 -1.54407802 -0.22596311
C  3.10894043 0.13855452 0.42365318
C  0.38177180 -0.94272968 0.24482232
C  -0.07700388 -0.03380592 0.23665818
C  -0.04818768 -0.80520070 -0.48672293
C  -0.27176359 2.45668060 0.22353304
H  -0.16163317 -1.11931133 0.32489730
H  -0.12525180 -0.36476155 -0.58722566
H  -0.38750396 0.27886887 0.11363627
H  0.80546944 1.10247264 -0.24039702
H  -0.92095620 1.20796185 0.26084572
H  -0.09419126 -0.37465129 -0.28773728
12
MD Step 251.0 Units = [eV / Ang.]
C  -2.19881837 -1.67179220 -0.24456944
C  2.98849966 0.03435112 0.44347904
C  0.16785190 -0.91382283 0.26941166
C  -0.06148160 0.24115239 0.17721874
C  -0.02424453 -0.83888826 -0.39643618
C  0.14639534 2.53478710 0.11038255
H  -0.09662329 -1.04531543 0.33299884
H  -0.02905375 -0.40845220 -0.57930362
H  -0.12586895 0.25551306 0.09273329
H  0.72040895 0.90177978 -0.22829559
H  -0.93798743 1.27683500 0.22996578
H  -0.54907794 -0.36614753 -0.20758505
12
MD Step 251.5 Units = [eV / Ang.]
C  -2.15609806 -1.81209446 -0.25984736
C  2.78681799 -0.09345840 0.45567436
C  -0.06330000 -0.85901157 0.29467235
C  -0.01887263 0.58974709 0.11560262
C  -0.05366064 -0.71064065 -0.31253836
C  0.54304282 2.54488967 0.00178691
H  -0.00329281 -0.91158542 0.34651657
H  0.06503431 -0.44257962 -0.56898560
H  0.15923193 0.22992730 0.07087152
H  0.59006552 0.61254900 -0.21445170
H  -0.87176061 1.20126539 0.20829155
H  -0.97720781 -0.34900833 -0.13759285
12
MD Step 252.0 Units = [eV / Ang.]
C  -2.07842847 -1.95257067 -0.26869458
C  2.51520155 -0.24802650 0.46280641
C  -0.28915449 -0.78107047 0.31925735
C  0.03768311 0.97526702 0.05081320
C  -0.13503749 -0.43409750 -0.22885273
C  0.86789976 2.49250889 -0.09660906
H  0.10863751 -0.73167151 0.36147307
H  0.15267241 -0.46151255 -0.55856877
H  0.44196634 0.20366402 0.04962324
H  0.43224741 0.27106871 -0.19716324
H  -0.72830705 0.99306466 0.18838941
H  -1.32538061 -0.32662408 -0.08247432
12
MD Step 252.5 Units = [eV / Ang.]
C  -1.96297849 -2.07833775 -0.26813467
C  2.18682973 -0.43092671 0.46719050
C  -0.48439037 -0.68310651 0.34183407
C  0.09556029 1.35906072 -0.01750985
C  -0.25669007 -0.04311223 -0.13924321
C  1.07386260 2.38421156 -0.18199556
H  0.22771856 -0.52229917 0.37380177
H  0.23035720 -0.46046327 -0.55005813
H  0.69303358 0.17813940 0.03055546
H  0.26506701 -0.08459255 -0.17541317
H  -0.52471651 0.68380714 0.16276279
H  -1.54365354 -0.30238063 -0.04378998
12
MD Step 253.0 Units = [eV / Ang.]
C  -1.80822613 -2.17409051 -0.25589446
C  1.81566381 -0.64153849 0.47053038
C  -0.62431235 -0.56814215 0.36131298
C  0.14466311 1.70644700 -0.08898267
C  -0.40025955 0.41683184 -0.03965792
C  1.12851256 2.22610418 -0.25522457
H  0.34246596 -0.30110110 0.38000747
H  0.29578679 -0.43619273 -0.54483585
H  0.88332373 0.15430910 0.01498232
H  0.10432990 -0.42053286 -0.14904360
H  -0.28483711 0.31645479 0.12603078
H  -1.59711073 -0.27854908 -0.01922486
12
MD Step 253.5 Units = [eV / Ang.]
C  -1.61458438 -2.22585027 -0.23074289
C  1.41550387 -0.87658627 0.47365611
C  -0.68939301 -0.43884301 0.37708070
C  0.17812179 1.98997927 -0.16260087
C  -0.54545295 0.89847313 0.07088677
C  1.02352350 2.02288916 -0.32036227
H  0.44270027 -0.08473403 0.37759407
H  0.34804224 -0.38757221 -0.54342146
H  0.98876221 0.13240599 0.00371586
H  -0.03774045 -0.71021769 -0.11866911
H  -0.03400327 -0.06440326 0.07604008
H  -1.47547983 -0.25554081 -0.00317699
12
MD Step 254.0 Units = [eV / Ang.]
C  -1.38449618 -2.22217378 -0.19257530
C  0.99930234 -1.12993076 0.47641134
C  -0.66973518 -0.29752417 0.38915700
C  0.19193930 2.19020622 -0.23696624
C  -0.67407478 1.36035962 0.19050291
C  0.77765721 1.77793573 -0.38303085
H  0.52034651 0.11235699 0.36523087
H  0.38755525 -0.31588571 -0.54537837
H  0.99508667 0.11186649 -0.00309867
H  -0.15260895 -0.93508352 -0.08545467
H  0.20527977 -0.42016917 0.01376662
H  -1.19625196 -0.23195794 0.01143537
12
MD Step 254.5 Units = [eV / Ang.]
C  -1.12212380 -2.15482171 -0.14230675
C  0.57879093 -1.39270540 0.47771682
C  -0.56790255 -0.14644953 0.39820676
C  0.18411784 2.29480361 -0.31049504
C  -0.77232141 1.77053996 0.31536173
C  0.43180979 1.49426619 -0.44830926
H  0.56972963 0.27855293 0.34271345
H  0.41586975 -0.22478679 -0.54939568
H  0.90096111 0.09151216 -0.00599355
H  -0.23482997 -1.08347198 -0.05088226
H  0.41565613 -0.72202002 -0.05755826
H  -0.79975748 -0.20541942 0.03094204
12
MD Step 255.0 Units = [eV / Ang.]
C  -0.83282007 -2.01903157 -0.08166990
C  0.16438222 -1.65380244 0.47578984
C  -0.39899230 0.01165491 0.40539534
C  0.15376134 2.29713590 -0.38155405
C  -0.83132384 2.10675447 0.44075853
C  0.03843008 1.17590435 -0.51915029
H  0.58751669 0.40521521 0.31080273
H  0.43526468 -0.11991350 -0.55352373
H  0.71826908 0.06993889 -0.00602435
H  -0.28123691 -1.14898211 -0.01657228
H  0.58529301 -0.95117934 -0.13350549
H  -0.33854398 -0.17369476 0.05925365
12
MD Step 255.5 Units = [eV / Ang.]
C  -0.52259402 -1.81359407 -0.01299239
C  -0.23476919 -1.90065932 0.46846288
C  -0.18783723 0.17311039 0.41213394
C  0.10046701 2.19501432 -0.44852161
C  -0.84650107 2.35460136 0.56191220
C  -0.35008452 0.82889003 -0.59585937
H  0.57250034 0.48662926 0.27101804
H  0.44832842 -0.00824619 -0.55550500
H  0.46946617 0.04596660 -0.00450535
H  -0.29027514 -1.12906588 0.01582864
H  0.70699793 -1.09706947 -0.20928476
H  0.13430130 -0.13557703 0.09731278
12
MD Step 256.0 Units = [eV / Ang.]
C  -0.19771964 -1.54088039 0.06100197
C  -0.61065767 -2.12023983 0.45353207
C  0.03566055 0.33303046 0.41980511
C  0.02416837 1.99011271 -0.50981532
C  -0.81642886 2.50518276 0.67437114
C  -0.68994968 0.46158567 -0.67651931
H  0.52537260 0.51993762 0.22542859
H  0.45757080 0.10266473 -0.55312458
H  0.18299858 0.01898158 -0.00272942
H  -0.26168662 -1.02435105 0.04472563
H  0.77688463 -1.15482709 -0.28022722
H  0.57378695 -0.09119715 0.14355134
12
MD Step 256.5 Units = [eV / Ang.]
C  0.13543248 -1.20693563 0.13737160
C  -0.95634532 -2.30008743 0.42907429
C  0.24150668 0.48543657 0.42954610
C  -0.07454607 1.68820910 -0.56393806
C  -0.74175670 2.55324957 0.77411670
C  -0.94984509 0.08432970 -0.75786415
H  0.44857917 0.50520506 0.17645130
H  0.46512656 0.20546487 -0.54451541
H  -0.11163842 -0.01092940 -0.00175719
H  -0.19663524 -0.83887729 0.06866445
H  0.79319790 -1.12322419 -0.34198708
H  0.94692406 -0.04184092 0.19483745
12
MD Step 257.0 Units = [eV / Ang.]
C  0.47036267 -0.82162227 0.21313144
C  -1.26597224 -2.42933218 0.39368987
C  0.40356477 0.62372836 0.44212514
C  -0.19368504 1.30020810 -0.60959186
C  -0.62448354 2.49633621 0.85752205
C  -1.11069999 -0.29131932 -0.83610705
H  0.34625908 0.44564740 0.12664302
H  0.47257592 0.29365101 -0.52837203
H  -0.38784422 -0.04304848 -0.00231086
H  -0.09826664 -0.58119185 0.08648044
H  0.75564227 -1.00353005 -0.39061381
H  1.23254695 0.01047307 0.24740365
12
MD Step 257.5 Units = [eV / Ang.]
C  0.80028531 -0.39876397 0.28546249
C  -1.53481419 -2.49956511 0.34666201
C  0.50180247 0.74137361 0.45790659
C  -0.32881947 0.84363571 -0.64588888
C  -0.46777850 2.33498092 0.92136183
C  -1.16318504 -0.65340206 -0.90747467
H  0.22421598 0.34794897 0.07845946
H  0.48086225 0.36207127 -0.50406554
H  -0.62418199 -0.07622083 -0.00476852
H  0.02741494 -0.26597742 0.09753295
H  0.66536522 -0.79949380 -0.42266875
H  1.41883302 0.06341273 0.29748102
12
MD Step 258.0 Units = [eV / Ang.]
C  1.11797005 0.04391679 0.35196659
C  -1.75936250 -2.50551168 0.28802948
C  0.52292489 0.83264714 0.47687656
C  -0.47204841 0.34397110 -0.67264398
C  -0.27641428 2.07396517 0.96301794
C  -1.10461820 -0.99031053 -0.96843108
H  0.08981171 0.22247966 0.03396959
H  0.49028458 0.40726183 -0.47166234
H  -0.80506197 -0.10908127 -0.00921963
H  0.17063429 0.08444601 0.10200965
H  0.52561447 -0.51840999 -0.43552529
H  1.50026537 0.11462577 0.34161251
12
MD Step 258.5 Units = [eV / Ang.]
C  1.41574051 0.48527160 0.41095623
C  -1.93735550 -2.44546712 0.21859081
C  0.45990888 0.89324780 0.49869470
C  -0.61141479 -0.16513147 -0.69066715
C  -0.05779364 1.72427579 0.98098562
C  -0.93645753 -1.29135434 -1.01571222
H  -0.04834092 0.08313742 -0.00545980
H  0.50052794 0.42764804 -0.43187022
H  -0.92035789 -0.14024563 -0.01554440
H  0.31736907 0.43973276 0.10121461
H  0.34294993 -0.17301322 -0.42793986
H  1.47522395 0.16189838 0.37675168
12
MD Step 259.0 Units = [eV / Ang.]
C  1.68572738 0.90189279 0.46171801
C  -2.06772213 -2.32147934 0.13984394
C  0.31107789 0.92069863 0.52275451
C  -0.73136168 -0.64380240 -0.70190129
C  0.17670201 1.30524840 0.97565918
C  -0.66292604 -1.54720408 -1.04632204
H  -0.18097982 -0.05346891 -0.03944949
H  0.51070929 0.42363650 -0.38592806
H  -0.96460064 -0.16844739 -0.02348819
H  0.44990259 0.76333073 0.09768573
H  0.12868950 0.21635858 -0.40086620
H  1.34478166 0.20323647 0.40029391
12
MD Step 259.5 Units = [eV / Ang.]
C  1.92042054 1.27006884 0.50465770
C  -2.15040171 -2.13925562 0.05386871
C  0.07923683 0.91447328 0.54824218
C  -0.81462745 -1.05070340 -0.70922709
C  0.41058065 0.84593625 0.95020077
C  -0.29101594 -1.75023878 -1.05762458
H  -0.29909811 -0.16965890 -0.06876773
H  0.51942329 0.39761214 -0.33545497
H  -0.93627267 -0.19262668 -0.03271899
H  0.54885573 1.01713527 0.09495798
H  -0.10002809 0.62031374 -0.35830454
H  1.11292693 0.23694386 0.41017057
12
MD Step 260.0 Units = [eV / Ang.]
C  2.11341609 1.56842665 0.54121771
C  -2.18607397 -1.90780524 -0.03684369
C  -0.22879481 0.87588966 0.57419091
C  -0.84554892 -1.35004724 -0.71584892
C  0.62221672 0.38443255 0.91106534
C  0.16818224 -1.89486827 -1.04762225
H  -0.39502924 -0.24904902 -0.09525906
H  0.52479587 0.35381916 -0.28226561
H  -0.83751941 -0.21199867 -0.04286413
H  0.59663448 1.16846274 0.09689110
H  -0.32042256 1.00098269 -0.30775944
H  0.78814349 0.26175500 0.40509803
12
MD Step 260.5 Units = [eV / Ang.]
C  2.26016321 1.78078428 0.57352928
C  -2.17583054 -1.63880612 -0.12961258
C  -0.60215979 0.80781937 0.59953310
C  -0.81390768 -1.51895246 -0.72437910
C  0.78678015 -0.03596128 0.86763614
C  0.69706003 -1.97786799 -1.01545495
H  -0.46347483 -0.27921054 -0.12149260
H  0.52455676 0.29809556 -0.22816248
H  -0.67437380 -0.22612084 -0.05353072
H  0.58144704 1.19739165 0.10668256
H  -0.50630010 1.31578164 -0.25976280
H  0.38603955 0.27704673 0.38501416
12
MD Step 261.0 Units = [eV / Ang.]
C  2.35846678 1.89853597 0.60383453
C  -2.12087366 -1.34570789 -0.22182235
C  -1.02554637 0.71432298 0.62315086
C  -0.71793395 -1.55241911 -0.73595934
C  0.88039471 -0.37383674 0.83060117
C  1.26871480 -1.99869987 -0.96203409
H  -0.50219817 -0.25394030 -0.15017285
H  0.51615796 0.23741048 -0.17471975
H  -0.45738350 -0.23496961 -0.06431476
H  0.50045304 1.10170947 0.12591488
H  -0.63249924 1.52450852 -0.22610949
H  -0.06775240 0.28308611 0.35163119
12
MD Step 261.5 Units = [eV / Ang.]
C  2.40857342 1.92184013 0.63384489
C  -2.02231556 -1.04263318 -0.31117680
C  -1.47867603 0.60027454 0.64392086
C  -0.56519887 -1.46381341 -0.74981311
C  0.88564978 -0.59844870 0.80927732
C  1.84511903 -1.95967195 -0.89060760
H  -0.51217322 -0.17444340 -0.18346948
H  0.49695871 0.17919790 -0.12308727
H  -0.20231818 -0.23901059 -0.07480208
H  0.36071518 0.89734840 0.15404635
H  -0.68057174 1.59816454 -0.21703229
H  -0.53576252 0.28119571 0.30889922
12
MD Step 262.0 Units = [eV / Ang.]
C  2.41284622 1.85924676 0.66422956
C  -1.88116956 -0.74314364 -0.39591349
C  -1.93619953 0.47102512 0.66075069
C  -0.37097178 -1.28069454 -0.76344215
C  0.79645676 -0.69704518 0.80880910
C  2.37803909 -1.86573653 -0.80689522
H  -0.49716058 -0.04905825 -0.22246495
H  0.46449648 0.13050523 -0.07385009
H  0.06955805 -0.23922452 -0.08456481
H  0.17751740 0.61411032 0.18856989
H  -0.64365070 1.52635320 -0.23827148
H  -0.96976182 0.27366203 0.26304296
12
MD Step 262.5 Units = [eV / Ang.]
C  2.37514208 1.72587358 0.69439719
C  -1.69852423 -0.45902626 -0.47492266
C  -2.36856782 0.33205940 0.67260384
C  -0.15485332 -1.03782134 -0.77334903
C  0.62015256 -0.67760867 0.82849980
C  2.81424434 -1.72377743 -0.71844139
H  -0.46285679 0.10837684 -0.26688655
H  0.41682511 0.09707887 -0.02698438
H  0.33225036 -0.23703749 -0.09315434
H  -0.02919849 0.28856455 0.22573218
H  -0.52837165 1.32006809 -0.28932190
H  -1.31624214 0.26324985 0.22182724
12
MD Step 263.0 Units = [eV / Ang.]
C  2.30015154 1.54070839 0.72261325
C  -1.47591464 -0.19927523 -0.54774608
C  -2.74435407 0.18864870 0.67851619
C  0.06294964 -0.77008480 -0.77593959
C  0.37583277 -0.56578291 0.86208097
C  3.10502809 -1.54141467 -0.63308399
H  -0.41588335 0.28096434 -0.31517079
H  0.35288938 0.08252930 0.01806920
H  0.55732090 -0.23411508 -0.10009647
H  -0.23883399 -0.04312792 0.26146800
H  -0.35293732 1.00858100 -0.36367756
H  -1.52624895 0.25236887 0.19296686
12
MD Step 263.5 Units = [eV / Ang.]
C  2.19286783 1.32379770 0.74637513
C  -1.21578469 0.03053921 -0.61444262
C  -3.03403149 0.04545919 0.67760745
C  0.26443616 -0.50746403 -0.76824524
C  0.08976562 -0.39744453 0.89972148
C  3.21759818 -1.32571870 -0.55692081
H  -0.36286861 0.45129551 -0.36479208
H  0.27285924 0.08777112 0.06221650
H  0.71771864 -0.23202542 -0.10489553
H  -0.43325519 -0.35030262 0.29218712
H  -0.14225537 0.63189179 -0.45088264
H  -1.56705032 0.24220078 0.18207123
12
MD Step 264.0 Units = [eV / Ang.]
C  2.05828293 1.09398291 0.76289363
C  -0.92193149 0.22839475 -0.67535753
C  -3.21457550 -0.09380403 0.66910779
C  0.43519740 -0.27277050 -0.74828933
C  -0.21007998 -0.21012905 0.93075625
C  3.14394051 -1.08238384 -0.49259380
H  -0.30979150 0.60351166 -0.41271517
H  0.17834482 0.11087203 0.10644345
H  0.79248622 -0.23184853 -0.10706177
H  -0.59841424 -0.61003746 0.31521747
H  0.07771602 0.23197132 -0.53935104
H  -1.43117518 0.23224073 0.19095006
12
MD Step 264.5 Units = [eV / Ang.]
C  1.90127285 0.86750712 0.76953807
C  -0.59981643 0.39542976 -0.73085616
C  -3.27360452 -0.22661737 0.65240749
C  0.56456764 -0.08170080 -0.71510789
C  -0.49844710 -0.03636256 0.94597895
C  2.90309014 -0.81572485 -0.43870476
H  -0.26162430 0.72460552 -0.45583761
H  0.07243173 0.14734565 0.15153567
H  0.77102670 -0.23386502 -0.10616803
H  -0.72458092 -0.80703403 0.32890774
H  0.28438336 -0.15413308 -0.61878653
H  -1.13869916 0.22054965 0.21709307
12
MD Step 265.0 Units = [eV / Ang.]
C  1.72660327 0.65746024 0.76415148
C  -0.25666250 0.53514245 -0.78108762
C  -3.21164543 -0.35161068 0.62712875
C  0.64506918 0.05581358 -0.66856902
C  -0.75515669 0.09968255 0.93887515
C  2.53566458 -0.52941753 -0.39062623
H  -0.22222334 0.80498597 -0.49133659
H  -0.04049442 0.19082835 0.19784996
H  0.65547330 -0.23745486 -0.10193069
H  -0.80571225 -0.93218230 0.33251060
H  0.46073296 -0.49785718 -0.68154207
H  -0.73164865 0.20460940 0.25457628
12
MD Step 265.5 Units = [eV / Ang.]
C  1.53894872 0.47379857 0.74521986
C  0.09868773 0.65237125 -0.82583357
C  -3.04165736 -0.46825414 0.59320010
C  0.67174501 0.13395083 -0.60913442
C  -0.96558086 0.18247080 0.90579185
C  2.09324762 -0.22751549 -0.34222893
H  -0.19436255 0.83852938 -0.51690056
H  -0.15510274 0.23397120 0.24518659
H  0.46026301 -0.24125951 -0.09429268
H  -0.83854758 -0.98083123 0.32598876
H  0.59552039 -0.77956121 -0.72290353
H  -0.26316138 0.18232956 0.29590653
12
MD Step 266.0 Units = [eV / Ang.]
C  1.34287515 0.32358276 0.71192806
C  0.45610741 0.75228801 -0.86446198
C  -2.78596823 -0.57636463 0.55090466
C  0.64172007 0.14971988 -0.53767564
C  -1.11993538 0.20352154 0.84545438
C  1.62719644 0.08479996 -0.28767861
H  -0.17980799 0.82239735 -0.53087086
H  -0.26558209 0.26935477 0.29277809
H  0.20907190 -0.24354459 -0.08347833
H  -0.82186747 -0.95145956 0.30984834
H  0.68223755 -0.98703015 -0.74068155
H  0.21395264 0.15273466 0.33393342
12
MD Step 266.5 Units = [eV / Ang.]
C  1.14274822 0.21115528 0.66415908
C  0.80465338 0.83954944 -0.89597597
C  -2.47174293 -0.67557798 0.50087737
C  0.55418696 0.10243035 -0.45538665
C  -1.21215068 0.15925972 0.75827802
C  1.18064439 0.40098422 -0.22262811
H  -0.17935054 0.75684870 -0.53233384
H  -0.36613751 0.29027752 0.33938033
H  -0.06976389 -0.24262148 -0.06999578
H  -0.75617597 -0.84512537 0.28504816
H  0.71770276 -1.11331059 -0.73456079
H  0.65538581 0.11613019 0.36313816
12
MD Step 267.0 Units = [eV / Ang.]
C  0.94254880 0.13811195 0.60248583
C  1.13308641 0.91770342 -0.91912572
C  -2.12643651 -0.76495530 0.44405037
C  0.41082410 -0.00594609 -0.36379288
C  -1.23887866 0.04922353 0.64580273
C  0.78509861 0.71334614 -0.14460865
H  -0.19275204 0.64517338 -0.52119753
H  -0.45144314 0.29132399 0.38342994
H  -0.34784769 -0.23718388 -0.05458760
H  -0.64389708 -0.66581260 0.25298760
H  0.70088348 -1.15483582 -0.70553341
H  1.02881374 0.07385128 0.38008931
12
MD Step 267.5 Units = [eV / Ang.]
C  0.74560451 0.10305612 0.52818193
C  1.43040024 0.98885089 -0.93255197
C  -1.77438905 -0.84281506 0.38156621
C  0.21656923 -0.16958599 -0.26481433
C  -1.19892171 -0.12488972 0.51039647
C  0.46085247 1.01351293 -0.05281912
H  -0.21859476 0.49376121 -0.49826630
H  -0.51701583 0.26870930 0.42323167
H  -0.60017289 -0.22647739 -0.03814717
H  -0.49004147 -0.42159142 0.21553593
H  0.63226010 -1.11036867 -0.65557139
H  1.31344917 0.02783779 0.38325808
12
MD Step 268.0 Units = [eV / Ang.]
C  0.55426112 0.10128738 0.44323802
C  1.68633454 1.05350349 -0.93493711
C  -1.43500770 -0.90678124 0.31468707
C  -0.01948497 -0.37708148 -0.16081274
C  -1.09319384 -0.35913611 0.35524135
C  0.21944370 1.29292586 0.05234233
H  -0.25407441 0.31219171 -0.46529022
H  -0.55950331 0.22044706 0.45714813
H  -0.80695407 -0.21030764 -0.02163067
H  -0.30314351 -0.12628478 0.17503704
H  0.51384572 -0.98100915 -0.58756176
H  1.49747674 -0.01975511 0.37253857
12
MD Step 268.5 Units = [eV / Ang.]
C  0.36956069 0.12464915 0.35033913
C  1.89189413 1.11058099 -0.92515198
C  -1.12238285 -0.95400628 0.24472203
C  -0.28340389 -0.60978454 -0.05453296
C  -0.92524361 -0.64620450 0.18451912
C  0.06652160 1.54327936 0.16973176
H  -0.29482033 0.11314656 -0.42494485
H  -0.57690596 0.14641174 0.48377437
H  -0.95402329 -0.18893964 -0.00598495
H  -0.09608066 0.19898552 0.13420272
H  0.34983119 -0.77130393 -0.50543097
H  1.57505297 -0.06681444 0.34875658
12
MD Step 269.0 Units = [eV / Ang.]
C  0.19103809 0.16181123 0.25273987
C  2.03987168 1.15747143 -0.90239498
C  -0.84577530 -0.98148851 0.17298033
C  -0.55648727 -0.84117243 0.05113176
C  -0.70222386 -0.97344594 0.00364177
C  0.00405484 1.75688752 0.29774687
H  -0.33487389 -0.08810265 -0.38067848
H  -0.56875739 0.04836259 0.50209437
H  -1.03234509 -0.16295966 0.00790090
H  0.11379805 0.52532246 0.09582352
H  0.14770057 -0.49128816 -0.41430786
H  1.54399959 -0.11139788 0.31332192
12
MD Step 269.5 Units = [eV / Ang.]
C  0.01676229 0.19921568 0.15398352
C  2.12538105 1.19013564 -0.86632795
C  -0.61043140 -0.98641829 0.10074247
C  -0.81659916 -1.03833626 0.15356715
C  -0.43604099 -1.32057051 -0.18070098
C  0.03135664 1.92700046 0.43442287
H  -0.36696838 -0.27482539 -0.33637928
H  -0.53627082 -0.07004497 0.51161550
H  -1.03724137 -0.13314731 0.01922654
H  0.30583158 0.81771543 0.06228924
H  -0.08053461 -0.15893624 -0.32050270
H  1.40475516 -0.15178825 0.26806365
12
MD Step 270.0 Units = [eV / Ang.]
C  -0.15622988 0.22274028 0.05746202
C  2.14634272 1.20325314 -0.81719755
C  -0.41825994 -0.96651498 0.02923409
C  -1.04100759 -1.16626603 0.25094978
C  -0.14412224 -1.65798580 -0.36092778
C  0.14474450 2.04810568 0.57737478
H  -0.38322353 -0.43062715 -0.29586500
H  -0.48243890 -0.20326118 0.51247577
H  -0.96779867 -0.10038194 0.02730952
H  0.45879471 1.03948778 0.03502708
H  -0.31757632 0.19799234 -0.23105617
H  1.16077515 -0.18654213 0.21521346
12
MD Step 270.5 Units = [eV / Ang.]
C  -0.33112260 0.21987294 -0.03411505
C  2.10385353 1.19045302 -0.75592530
C  -0.26812229 -0.92031354 -0.04041673
C  -1.21029603 -1.19453392 0.34263151
C  0.15093024 -1.94718972 -0.52954526
C  0.33588718 2.11621955 0.72367275
H  -0.37624074 -0.54167488 -0.26227598
H  -0.41203350 -0.34391654 0.50550448
H  -0.82671739 -0.06558022 0.03162848
H  0.55485990 1.15908153 0.01408313
H  -0.54132564 0.54216704 -0.15270253
H  0.82032735 -0.21458527 0.15746050
12
MD Step 271.0 Units = [eV / Ang.]
C  -0.51024074 0.18193984 -0.11920638
C  2.00231346 1.14469212 -0.68413173
C  -0.15567288 -0.84737337 -0.10725561
C  -1.31219646 -1.10455538 0.42916399
C  0.42348497 -2.14454973 -0.68062138
C  0.58913648 2.12914728 0.86976602
H  -0.34042953 -0.59888518 -0.23751695
H  -0.33143330 -0.48304932 0.49221081
H  -0.62065936 -0.02964836 0.03189561
H  0.58361102 1.15731623 -0.00191350
H  -0.72725003 0.83034147 -0.09036151
H  0.39933638 -0.23537561 0.09797062
12
MD Step 271.5 Units = [eV / Ang.]
C  -0.69400414 0.10577686 -0.19771332
C  1.84920075 1.05883955 -0.60406232
C  -0.07287069 -0.74840237 -0.17061236
C  -1.34385034 -0.89470994 0.51187766
C  0.64887488 -2.20877845 -0.81126187
C  0.87865767 2.08665322 1.01158332
H  -0.27323470 -0.59946421 -0.22192357
H  -0.24820508 -0.61057423 0.47467062
H  -0.36093857 0.00657493 0.02816050
H  0.54456496 1.03239996 -0.01530813
H  -0.85262319 1.02077730 -0.04565944
H  -0.07557154 -0.24909263 0.04024892
12
MD Step 272.0 Units = [eV / Ang.]
C  -0.88024291 -0.00565990 -0.27093523
C  1.65443749 0.92652473 -0.51839003
C  -0.00747416 -0.62529670 -0.23023243
C  -1.31153029 -0.58118500 0.59216704
C  0.80832316 -2.11047711 -0.92235740
C  1.16675830 1.99045278 1.14491004
H  -0.17589518 -0.54732353 -0.21426689
H  -0.17039914 -0.71605596 0.45529423
H  -0.06420983 0.04239863 0.02093252
H  0.44712397 0.80055184 -0.02865131
H  -0.90160545 1.08281468 -0.01622424
H  -0.56528595 -0.25674447 -0.01224630
12
MD Step 272.5 Units = [eV / Ang.]
C  -1.06411035 -0.14390047 -0.34121159
C  1.42935338 0.74319628 -0.42990088
C  0.05703503 -0.48111553 -0.28639496
C  -1.22797791 -0.19418023 0.67080914
C  0.89300036 -1.84033129 -1.01805226
C  1.40532735 1.84391316 1.26604521
H  -0.05348011 -0.45223742 -0.21209716
H  -0.10560074 -0.78976615 0.43648764
H  0.24736678 0.07738155 0.01128555
H  0.30799239 0.49194453 -0.04392987
H  -0.86929145 1.00513116 0.00369030
H  -1.01961474 -0.26003559 -0.05673111
12
MD Step 273.0 Units = [eV / Ang.]
C  -1.23861362 -0.29657215 -0.41136060
C  1.18542746 0.50728475 -0.34111201
C  0.14052030 -0.31999759 -0.33995295
C  -1.10856438 0.22880045 0.74759734
C  0.90546921 -1.41235515 -1.10402927
C  1.54186577 1.65144468 1.37255503
H  0.08581229 -0.32801968 -0.21231170
H  -0.05987986 -0.82390439 0.42025944
H  0.54708431 0.11142265 0.00088558
H  0.14719535 0.14374162 -0.06210087
H  -0.76295096 0.79904645 0.02135440
H  -1.38336587 -0.26089164 -0.09178441
12
MD Step 273.5 Units = [eV / Ang.]
C  -1.39556509 -0.44948200 -0.48409104
C  0.93303746 0.22124992 -0.25390914
C  0.26390308 -0.14703410 -0.39223959
C  -0.96782014 0.64994183 0.82138253
C  0.85790628 -0.86067526 -1.18538914
C  1.52990728 1.41772074 1.46378875
H  0.23186708 -0.19027702 -0.21176642
H  -0.03685869 -0.81376412 0.40786358
H  0.80616154 0.14478648 -0.00811999
H  -0.01577449 -0.20705406 -0.08303373
H  -0.59989154 0.49530859 0.04328545
H  -1.60687280 -0.26072098 -0.11777125
12
MD Step 274.0 Units = [eV / Ang.]
C  -1.52664628 -0.58862587 -0.56153777
C  0.68051896 -0.10773584 -0.16929990
C  0.44553755 0.03193633 -0.44479963
C  -0.81735262 1.03622772 0.89039949
C  0.76800892 -0.23142368 -1.26509723
C  1.34097606 1.14708733 1.54084252
H  0.37401824 -0.05432329 -0.20777243
H  -0.03713747 -0.75857378 0.39957167
H  0.99767541 0.17800848 -0.01339154
H  -0.16456958 -0.52875838 -0.10576339
H  -0.40294484 0.13591144 0.07354092
H  -1.65808435 -0.25973047 -0.13669271
12
MD Step 274.5 Units = [eV / Ang.]
C  -1.62432760 -0.70170169 -0.64499814
C  0.43373377 -0.46769907 -0.08735186
C  0.69699612 0.21061033 -0.49898236
C  -0.66535119 1.36188947 0.95267618
C  0.65439794 0.42662855 -1.34353021
C  0.97334723 0.84353829 1.60591037
H  0.50224045 0.06634881 -0.19839404
H  -0.05824303 -0.66178819 0.39464583
H  1.10118602 0.21166869 -0.01283099
H  -0.28703999 -0.79736374 -0.12886018
H  -0.19550212 -0.23542766 0.11314197
H  -1.53143761 -0.25670380 -0.15142659
12
MD Step 275.0 Units = [eV / Ang.]
C  -1.68249947 -0.77899237 -0.73486305
C  0.19620313 -0.84243938 -0.00733067
C  1.01951071 0.38253459 -0.55550084
C  -0.51723557 1.60859768 1.00636196
C  0.53313833 1.06930348 -1.41900004
C  0.45352381 0.51139414 1.66132992
H  0.60797805 0.16091832 -0.18254507
H  -0.09511311 -0.53073941 0.39151961
H  1.10674347 0.24608964 -0.00505538
H  -0.37505167 -0.99653422 -0.15075885
H  0.00220901 -0.58069176 0.16052476
H  -1.24940668 -0.24944072 -0.16468235
12
MD Step 275.5 Units = [eV / Ang.]
C  -1.69682404 -0.81371461 -0.83068436
C  -0.03032122 -1.21272469 0.07201265
C  1.40241528 0.54141711 -0.61411220
C  -0.37677049 1.76437382 1.04990763
C  0.41607277 1.66057994 -1.48872844
C  -0.17033954 0.15639152 1.70880421
H  0.68459568 0.22152496 -0.15994054
H  -0.14098314 -0.37572188 0.38813277
H  1.01689805 0.28107285 0.01024964
H  -0.42366192 -1.11627037 -0.16997402
H  0.17488570 -0.87126964 0.21250289
H  -0.85596712 -0.23565902 -0.17817021
12
MD Step 276.0 Units = [eV / Ang.]
C  -1.66489994 -0.80202079 -0.93130721
C  -0.24508140 -1.55787415 0.15209383
C  1.82427056 0.68133398 -0.67354504
C  -0.24708709 1.82222728 1.08211938
C  0.31078269 2.17289491 -1.54974587
C  -0.83995547 -0.21340716 1.74910913
H  0.72754823 0.24321892 -0.13097122
H  -0.18843207 -0.20873686 0.38232399
H  0.84598678 0.31578888 0.03222594
H  -0.43020307 -1.15128348 -0.18520914
H  0.31218289 -1.08825227 0.26522015
H  -0.40511210 -0.21388927 -0.19231393
12
MD Step 276.5 Units = [eV / Ang.]
C  -1.58633905 -0.74292583 -1.03501090
C  -0.44759658 -1.85747841 0.23417468
C  2.25638528 0.79687071 -0.73169761
C  -0.13125724 1.77917003 1.10214075
C  0.22152986 2.58564533 -1.59943572
C  -1.49855490 -0.58734053 1.78226618
H  0.73442338 0.22381751 -0.09656045
H  -0.23035171 -0.04216923 0.37218578
H  0.61696372 0.34886785 0.05902333
H  -0.39364040 -1.09980739 -0.19540504
H  0.40773895 -1.22069185 0.31481028
H  0.05069870 -0.18395820 -0.20649128
12
MD Step 277.0 Units = [eV / Ang.]
C  -1.46287213 -0.63828613 -1.13963311
C  -0.63716288 -2.09301024 0.31912868
C  2.66754262 0.88323419 -0.78602512
C  -0.03229457 1.63600562 1.10942935
C  0.15053339 2.88333193 -1.63570189
C  -2.09889589 -0.95264931 1.80791628
H  0.70498443 0.16383649 -0.05803224
H  -0.26067109 0.11236432 0.35631604
H  0.35694474 0.37864686 0.08818562
H  -0.31440144 -0.96325454 -0.19977975
H  0.45792068 -1.26326047 0.35772914
H  0.46837215 -0.14695869 -0.21953301
12
MD Step 277.5 Units = [eV / Ang.]
C  -1.29849515 -0.49293119 -1.24267906
C  -0.81264145 -2.24915404 0.40731057
C  3.02850929 0.93642845 -0.83396817
C  0.04744438 1.39798342 1.10377507
C  0.09909358 3.05434425 -1.65688482
C  -2.60651200 -1.29552946 1.82562931
H  0.64128387 0.06658010 -0.01699692
H  -0.27478132 0.24486497 0.33394603
H  0.09287194 0.40346899 0.11709843
H  -0.19473778 -0.74683526 -0.19790011
H  0.46080693 -1.21434581 0.39086672
H  0.81715771 -0.10487442 -0.23019703
12
MD Step 278.0 Units = [eV / Ang.]
C  -1.09965183 -0.31488985 -1.34143016
C  -0.97247063 -2.31478782 0.49851302
C  3.31526839 0.95353724 -0.87329278
C  0.10734378 1.07620195 1.08538099
C  0.06827489 3.09078653 -1.66160870
C  -2.99917541 -1.60237357 1.83503212
H  0.54783181 -0.06164414 0.02475664
H  -0.26969862 0.34748261 0.30496005
H  -0.15165156 0.42193073 0.14336531
H  -0.03956095 -0.46101099 -0.18980001
H  0.41569230 -1.07511797 0.41159163
H  1.07779783 -0.06011471 -0.23746809
12
MD Step 278.5 Units = [eV / Ang.]
C  -0.87533544 -0.11557032 -1.43307907
C  -1.11481261 -2.28362228 0.59198470
C  3.51059676 0.93309014 -0.90227613
C  0.14987629 0.68932721 1.05498870
C  0.05896958 2.98943590 -1.64871741
C  -3.26442624 -1.86092285 1.83577602
H  0.43171690 -0.21131991 0.06538122
H  -0.24405490 0.41480064 0.26984132
H  -0.35798644 0.43302211 0.16504130
H  0.14245715 -0.12333446 -0.17612501
H  0.32324256 -0.84976505 0.41786159
H  1.23975640 -0.01514114 -0.24067722
12
MD Step 279.0 Units = [eV / Ang.]
C  -0.63695635 0.09034549 -1.51489747
C  -1.23769714 -2.15452554 0.68648102
C  3.60420432 0.87539867 -0.91974517
C  0.18180006 0.26484470 1.01398452
C  0.07122592 2.75362312 -1.61742071
C  -3.39676887 -2.06113856 1.82744326
H  0.30249782 -0.36976260 0.10311474
H  -0.19801456 0.44398071 0.22957592
H  -0.51276210 0.43616052 0.18072042
H  0.33793950 0.24014980 -0.15824183
H  0.18632558 -0.54683019 0.40849355
H  1.29820583 0.02775388 -0.23950825
12
MD Step 279.5 Units = [eV / Ang.]
C  -0.39779881 0.28553327 -1.58443526
C  -1.33908608 -1.93158344 0.78033937
C  3.59197637 0.78275264 -0.92502672
C  0.21456820 -0.16130768 0.96439111
C  0.10288763 2.39563825 -1.56769714
C  -3.39552004 -2.19573241 1.80948383
H  0.17167678 -0.52166062 0.13644313
H  -0.13318545 0.43486300 0.18553771
H  -0.60739432 0.43115534 0.18952592
H  0.52864957 0.59511951 -0.13821296
H  0.01140998 -0.18132163 0.38361767
H  1.25181619 0.06654378 -0.23396665
12
MD Step 280.0 Units = [eV / Ang.]
C  -0.17193739 0.45141213 -1.63972083
C  -1.41683254 -1.62392707 0.87157623
C  3.47489604 0.65937281 -0.91786454
C  0.26331103 -0.54779523 0.90863885
C  0.14779771 1.93890937 -1.50087432
C  -3.26376699 -2.26040076 1.78124053
H  0.05161435 -0.65033747 0.16425713
H  -0.05255296 0.39006253 0.13936045
H  -0.63736210 0.41814727 0.19105613
H  0.69279791 0.90191938 -0.11854194
H  -0.18980374 0.22312717 0.34523086
H  1.10183868 0.09950985 -0.22435858
12
MD Step 280.5 Units = [eV / Ang.]
C  0.02732046 0.57026171 -1.67941518
C  -1.46854515 -1.24532847 0.95801473
C  3.25809985 0.51108385 -0.89835977
C  0.34402866 -0.85398534 0.84910328
C  0.19425148 1.41877511 -1.42016171
C  -3.00856867 -2.25381228 1.74206846
H  -0.04606474 -0.73973957 0.18596152
H  0.03957770 0.31504232 0.09279582
H  -0.60166622 0.39755679 0.18533489
H  0.80814729 1.12160307 -0.10167227
H  -0.39919831 0.63324293 0.29762275
H  0.85261765 0.12529987 -0.21129253
12
MD Step 281.0 Units = [eV / Ang.]
C  0.18920238 0.62779246 -1.70287868
C  -1.49144390 -0.81354609 1.03744947
C  2.95033800 0.34478054 -0.86695475
C  0.46944684 -1.04797954 0.78751835
C  0.22470925 0.88048380 -1.33076732
C  -2.64237421 -2.17747407 1.69151220
H  -0.11229887 -0.77687108 0.20149689
H  0.13768311 0.21806589 0.04755207
H  -0.50269871 0.37005166 0.17278985
H  0.85647032 1.22394694 -0.08935968
H  -0.59247638 1.00769190 0.24732414
H  0.51344216 0.14305760 -0.19568253
12
MD Step 281.5 Units = [eV / Ang.]
C  0.30699973 0.61559961 -1.71013351
C  -1.48231603 -0.34934963 1.10784337
C  2.56392425 0.16777537 -0.82446341
C  0.64481217 -1.11397746 0.72450919
C  0.21781776 0.37351050 -1.23924775
C  -2.18534347 -2.03558130 1.62945521
H  -0.14218241 -0.75411984 0.21126028
H  0.23524230 0.10988474 0.00511847
H  -0.34656686 0.33652492 0.15426454
H  0.82800819 1.19481868 -0.08216526
H  -0.74173110 1.30227810 0.20225628
H  0.10133546 0.15263630 -0.17869740
12
MD Step 282.0 Units = [eV / Ang.]
C  0.37887462 0.53280890 -1.70173673
C  -1.43767073 0.12481546 1.16753338
C  2.11506533 -0.01280069 -0.77211945
C  0.86535575 -1.05599715 0.65948499
C  0.15302034 -0.05731173 -1.15202300
C  -1.66781371 -1.83488481 1.55614257
H  -0.13582295 -0.67079356 0.21594594
H  0.32513985 0.00302348 -0.03340732
H  -0.14372791 0.29805435 0.13103704
H  0.72417232 1.03988074 -0.07931546
H  -0.82051758 1.47835571 0.17004676
H  -0.35607535 0.15484929 -0.16158871
12
MD Step 282.5 Units = [eV / Ang.]
C  0.40770897 0.38638880 -1.67861681
C  -1.35417283 0.58652524 1.21540578
C  1.62426963 -0.19041340 -0.71160143
C  1.11656193 -0.89629468 0.59096044
C  0.01672165 -0.38136660 -1.07348513
C  -1.13150852 -1.58451320 1.47198417
H  -0.09817467 -0.53337218 0.21636174
H  0.40027972 -0.08940874 -0.06745134
H  0.09039232 0.25581099 0.10481408
H  0.55728513 0.78294679 -0.07900799
H  -0.81024878 1.51206674 0.15597595
H  -0.81911456 0.15163024 -0.14533945
12
MD Step 283.0 Units = [eV / Ang.]
C  0.40005671 0.19004481 -1.64192729
C  -1.22932329 1.01532333 1.25099624
C  1.11635703 -0.35928443 -0.64498123
C  1.37711972 -0.66922489 0.51715332
C  -0.19237216 -0.58889084 -1.00452267
C  -0.62765065 -1.29556807 1.37715309
H  -0.03790829 -0.35439127 0.21327896
H  0.45436982 -0.15530854 -0.09701589
H  0.33528854 0.21089128 0.07764712
H  0.34748319 0.45974174 -0.07901617
H  -0.70553226 1.40074168 0.16140391
H  -1.23788837 0.14592520 -0.13016938
12
MD Step 283.5 Units = [eV / Ang.]
C  0.36460324 -0.03797665 -1.59294833
C  -1.06228122 1.39464726 1.27447654
C  0.61952629 -0.51429737 -0.57455433
C  1.62325291 -0.41321153 0.43657897
C  -0.46119308 -0.69173837 -0.94221293
C  -0.21064824 -0.98033336 1.27113615
H  0.03430383 -0.15031554 0.20735190
H  0.48275537 -0.18531561 -0.12261993
H  0.56632052 0.16408654 0.05173583
H  0.11813825 0.10975522 -0.07731295
H  -0.51604032 1.16352355 0.18344117
H  -1.55873755 0.14117585 -0.11507210
12
MD Step 284.0 Units = [eV / Ang.]
C  0.31062203 -0.27749312 -1.53303629
C  -0.85462071 1.71335958 1.28652384
C  0.16308538 -0.65077360 -0.50254855
C  1.83275017 -0.16376170 0.34841383
C  -0.76458263 -0.71806874 -0.88083150
C  0.07226586 -0.65110012 1.15254054
H  0.10756310 0.06094796 0.19910733
H  0.48311800 -0.17430469 -0.14512871
H  0.75709748 0.11565392 0.02911761
H  -0.10845055 -0.23082003 -0.07248616
H  -0.26400892 0.83592502 0.21601019
H  -1.73483920 0.14043553 -0.09768213
12
MD Step 284.5 Units = [eV / Ang.]
C  0.24682141 -0.50874809 -1.46360677
C  -0.61082643 1.96653326 1.28810660
C  -0.22610223 -0.76428141 -0.43076537
C  1.98760327 0.05072206 0.25256880
C  -1.07082543 -0.70350044 -0.81363919
C  0.19243347 -0.31892761 1.01942784
H  0.17215152 0.26226613 0.18898153
H  0.45586791 -0.12224869 -0.16551083
H  0.88322127 0.06519947 0.01130130
H  -0.31388490 -0.53327882 -0.06386974
H  0.02142989 0.46084811 0.25173402
H  -1.73788975 0.14541604 -0.07472817
12
MD Step 285.0 Units = [eV / Ang.]
C  0.18071642 -0.71408973 -1.38612303
C  -0.33836577 2.15528099 1.28025311
C  -0.52777355 -0.85064115 -0.36027182
C  2.07500431 0.21015213 0.14955284
C  -1.34801730 -0.68246352 -0.73460489
C  0.14757245 0.00718874 0.87017494
H  0.22036733 0.43883613 0.17737192
H  0.40411093 -0.03419587 -0.18459063
H  0.92666144 0.01178354 -0.00104297
H  -0.48471527 -0.77754061 -0.05145577
H  0.31058129 0.07977771 0.28377992
H  -1.56614229 0.15591163 -0.04304362
12
MD Step 285.5 Units = [eV / Ang.]
C  0.11845135 -0.87885272 -1.30207819
C  -0.04730337 2.28569808 1.26386318
C  -0.73180698 -0.90620215 -0.29125792
C  2.08714927 0.30190458 0.04025829
C  -1.56906386 -0.68246795 -0.63947191
C  -0.03773533 0.32040954 0.70449020
H  0.24680967 0.57898705 0.16468191
H  0.33319948 0.08061908 -0.20286242
H  0.87950008 -0.04572127 -0.00821483
H  -0.61213453 -0.95116574 -0.03570687
H  0.57795979 -0.27312170 0.30703078
H  -1.24502557 0.16991320 -0.00073223
12
MD Step 286.0 Units = [eV / Ang.]
C  0.06487839 -0.99162229 -1.21296302
C  0.25045065 2.36720075 1.23961056
C  -0.83988371 -0.92830541 -0.22313454
C  2.02047730 0.31907541 -0.07421976
C  -1.71426722 -0.72202785 -0.52604740
C  -0.31920334 0.61545259 0.52405215
H  0.24828949 0.67439310 0.15134679
H  0.24998014 0.21027577 -0.22041179
H  0.74574855 -0.10811099 -0.01136999
H  -0.69100057 -1.04746105 -0.01736750
H  0.80453981 -0.57322782 0.31843816
H  -0.82000948 0.18435779 0.05206633
12
MD Step 286.5 Units = [eV / Ang.]
C  0.02370579 -1.04418197 -1.12022115
C  0.54208504 2.41069188 1.20793880
C  -0.86460035 -0.91573358 -0.15484403
C  1.87488383 0.25879387 -0.19268650
C  -1.77170244 -0.81140343 -0.39395098
C  -0.64430612 0.88772548 0.33244572
H  0.22356861 0.71995827 0.13784027
H  0.16192805 0.34187221 -0.23694329
H  0.54054004 -0.17536453 -0.01219057
H  -0.71880717 -1.06366935 0.00267504
H  0.97779018 -0.80481237 0.31678596
H  -0.34508547 0.19612351 0.11315072
12
MD Step 287.0 Units = [eV / Ang.]
C  -0.00242304 -1.03145464 -1.02519259
C  0.81485024 2.42693532 1.16912121
C  -0.82633409 -0.86894990 -0.08525988
C  1.65321306 0.12114483 -0.31387280
C  -1.73622950 -0.95471103 -0.24415905
C  -0.96331775 1.13267074 0.13449195
H  0.17310337 0.71363571 0.12466056
H  0.07634212 0.46306123 -0.25188646
H  0.28699591 -0.24638483 -0.01246271
H  -0.69499623 -0.99981761 0.02347546
H  1.09044579 -0.95895442 0.30220398
H  0.12835013 0.20282458 0.17888033
12
MD Step 287.5 Units = [eV / Ang.]
C  -0.01196639 -0.95162881 -0.92904956
C  1.05687843 2.42535920 1.12335174
C  -0.74896424 -0.79001048 -0.01354266
C  1.36115721 -0.09103839 -0.43641865
C  -1.60800227 -1.15215025 -0.07858955
C  -1.23649018 1.34556543 -0.06464616
H  0.09889029 0.65636716 0.11229695
H  -0.00027729 0.56317902 -0.26453603
H  0.01189053 -0.31905233 -0.01370258
H  -0.62081422 -0.85848863 0.04407778
H  1.13896936 -1.03126718 0.27569625
H  0.55872878 0.20316527 0.24506247
12
MD Step 288.0 Units = [eV / Ang.]
C  -0.00465518 -0.80652285 -0.83272753
C  1.25780711 2.41334675 1.07083009
C  -0.65579259 -0.68219233 0.06064678
C  1.00757366 -0.37149126 -0.55885610
C  -1.39111710 -1.40159190 0.10016072
C  -1.43651843 1.52175263 -0.26019531
H  0.00444536 0.55221831 0.10117227
H  -0.06262926 0.63390373 -0.27418652
H  -0.25852940 -0.39053617 -0.01693009
H  -0.49974973 -0.64552851 0.06355740
H  1.12237190 -1.02023781 0.23881774
H  0.91679366 0.19687939 0.30771054
12
MD Step 288.5 Units = [eV / Ang.]
C  0.01826943 -0.60209598 -0.73684629
C  1.40920277 2.39592595 1.01182598
C  -0.56664547 -0.54950580 0.13710160
C  0.60510990 -0.70908988 -0.67963406
C  -1.09274487 -1.69917175 0.28892198
C  -1.54744663 1.65709924 -0.44815248
H  -0.10512903 0.40865672 0.09155690
H  -0.10682376 0.66952962 -0.28024139
H  -0.50155749 -0.45771368 -0.02261142
H  -0.33844709 -0.37150276 0.08108087
H  1.04173146 -0.92656749 0.19351989
H  1.18448076 0.18443581 0.36347842
12
MD Step 289.0 Units = [eV / Ang.]
C  0.05383061 -0.34888209 -0.64163207
C  1.50483006 2.37571387 0.94671901
C  -0.49647864 -0.39622442 0.21513966
C  0.17090614 -1.08612727 -0.79720694
C  -0.72293928 -2.03881843 0.48395719
C  -1.56184970 1.74846918 -0.62533583
H  -0.22308588 0.23680169 0.08346000
H  -0.13046566 0.66699989 -0.28228734
H  -0.69953701 -0.51755369 -0.03072634
H  -0.14780710 -0.05344712 0.09600238
H  0.90051856 -0.75363042 0.14212791
H  1.35207789 0.16669882 0.40978238
12
MD Step 289.5 Units = [eV / Ang.]
C  0.09724803 -0.06204606 -0.54684325
C  1.54083216 2.35296905 0.87602330
C  -0.45525347 -0.22656193 0.29373527
C  -0.27308015 -1.47704948 -0.91017328
C  -0.29511448 -2.41081142 0.68094834
C  -1.47785647 1.79408358 -0.78924313
H  -0.34112666 0.05136434 0.07651097
H  -0.13268870 0.62585758 -0.28013933
H  -0.84008884 -0.56737905 -0.04089706
H  0.05624338 0.28388383 0.10798085
H  0.70563289 -0.50897116 0.08736398
H  1.41525231 0.14466071 0.44473333
12
MD Step 290.0 Units = [eV / Ang.]
C  0.14216060 0.23926622 -0.45173359
C  1.51587536 2.32568059 0.80039642
C  -0.44856519 -0.04451848 0.37165666
C  -0.70074303 -1.84872946 -1.01741883
C  0.17301190 -2.79968827 0.87506557
C  -1.29696592 1.79370637 -0.93786750
H  -0.44979151 -0.13003541 0.06986887
H  -0.11418048 0.54819961 -0.27386304
H  -0.91557954 -0.60500348 -0.05252501
H  0.25301201 0.60833960 0.11707777
H  0.46883774 -0.20650445 0.03231783
H  1.37292807 0.11928718 0.46702484
12
MD Step 290.5 Units = [eV / Ang.]
C  0.18123738 0.53351944 -0.35509468
C  1.43126960 2.28965991 0.72064299
C  -0.47848138 0.14613220 0.44757949
C  -1.08403939 -2.16325890 -1.11818500
C  0.65852720 -3.18221313 1.06120907
C  -1.02306704 1.74863595 -1.06960025
H  -0.53924499 -0.28840029 0.06220960
H  -0.07721425 0.43866937 -0.26377354
H  -0.92237370 -0.62878779 -0.06490144
H  0.41896578 0.88324924 0.12376285
H  0.20797329 0.13132572 -0.01973740
H  1.22644749 0.09146828 0.47588833
12
MD Step 291.0 Units = [eV / Ang.]
C  0.20716745 0.79927331 -0.25541471
C  1.29105657 2.23868586 0.63769791
C  -0.54417373 0.34177388 0.52016991
C  -1.39682502 -2.38352704 -1.21198519
C  1.13333697 -3.52656166 1.23446776
C  -0.66282594 1.66154612 -1.18328886
H  -0.60043473 -0.40571464 0.05184263
H  -0.02565967 0.30443354 -0.25041293
H  -0.86028821 -0.63767592 -0.07728925
H  0.53145609 1.07308997 0.12877113
H  -0.05296109 0.47263401 -0.06574328
H  0.98015132 0.06204256 0.47118487
12
MD Step 291.5 Units = [eV / Ang.]
C  0.21387170 1.01819306 -0.15117134
C  1.10198234 2.16479976 0.55258935
C  -0.64212889 0.53887741 0.58814697
C  -1.61952867 -2.48051169 -1.29837184
C  1.56600162 -3.79409312 1.39074241
C  -0.22736239 1.53616249 -1.27848024
H  -0.62644386 -0.46775743 0.03697530
H  0.03509473 0.15503068 -0.23449755
H  -0.73246993 -0.63125620 -0.08898110
H  0.57348596 1.15083254 0.13281833
H  -0.28577696 0.77785855 -0.10341912
H  0.64327436 0.03186393 0.45364881
12
MD Step 292.0 Units = [eV / Ang.]
C  0.19763303 1.17785437 -0.04121754
C  0.87327693 2.05887308 0.46637416
C  -0.76589550 0.73398159 0.65033588
C  -1.74310422 -2.43991327 -1.37664963
C  1.92581934 -3.94460683 1.52733312
C  0.26511051 1.37684419 -1.35579604
H  -0.61370756 -0.46666528 0.01609025
H  0.09839039 0.00194804 -0.21683227
H  -0.54573943 -0.60986340 -0.09934725
H  0.53792501 1.10455494 0.13627952
H  -0.46248531 1.00511611 -0.13180054
H  0.23277681 0.00187645 0.42523033
12
MD Step 292.5 Units = [eV / Ang.]
C  0.15781964 1.27355013 0.07484043
C  0.61615296 1.91153641 0.38004010
C  -0.90551330 0.92374775 0.70572660
C  -1.77059602 -2.26546212 -1.44569701
C  2.18846872 -3.94454328 1.64321966
C  0.78649787 1.18813344 -1.41729245
H  -0.56273708 -0.40247327 -0.01166241
H  0.15678824 -0.14218972 -0.19819441
H  -0.31125557 -0.57469043 -0.10788347
H  0.42942695 0.94063114 0.13898853
H  -0.56129571 1.11859324 -0.15147373
H  -0.22375670 -0.02683329 0.38938814
12
MD Step 293.0 Units = [eV / Ang.]
C  0.09697998 1.30854978 0.19639074
C  0.34299664 1.71448547 0.29440099
C  -1.04693382 1.10503381 0.75353654
C  -1.71557020 -1.97747794 -1.50400756
C  2.34126413 -3.77566103 1.73884199
C  1.29734646 0.97436319 -1.46654747
H  -0.47811023 -0.28311367 -0.04618482
H  0.20281595 -0.26484635 -0.17920750
H  -0.04517367 -0.52784427 -0.11426081
H  0.26318187 0.68208194 0.14026983
H  -0.57216064 1.09746273 -0.16431036
H  -0.68663648 -0.05303366 0.35107844
12
MD Step 293.5 Units = [eV / Ang.]
C  0.02030232 1.29277599 0.32178055
C  0.06631486 1.46203306 0.21000354
C  -1.17192263 1.27488221 0.79327042
C  -1.59808046 -1.60738302 -1.54994549
C  2.38571149 -3.44067597 1.81544882
C  1.74852952 0.73944269 -1.50819903
H  -0.36772154 -0.12287582 -0.08635551
H  0.22990586 -0.35509930 -0.16023349
H  0.23121456 -0.47224660 -0.11836733
H  0.06106095 0.36283117 0.13918451
H  -0.49945465 0.94173242 -0.17275955
H  -1.10586028 -0.07541683 0.31617254
12
MD Step 294.0 Units = [eV / Ang.]
C  -0.06534011 1.24037939 0.44850539
C  -0.20239262 1.15262395 0.12708221
C  -1.25897254 1.43032270 0.82475546
C  -1.43985310 -1.19054714 -1.58208629
C  2.33608391 -2.96322254 1.87433032
C  2.08745170 0.48687918 -1.54680099
H  -0.24152431 0.06015774 -0.13018010
H  0.23335238 -0.40518693 -0.14131964
H  0.49241519 -0.41130500 -0.12032257
H  -0.15321635 0.02029924 0.13486061
H  -0.36048397 0.67234052 -0.17901832
H  -1.42752017 -0.09274110 0.29019394
12
MD Step 294.5 Units = [eV / Ang.]
C  -0.15244142 1.16699397 0.57355138
C  -0.45361569 0.78995567 0.04558350
C  -1.28560766 1.56794694 0.84812451
C  -1.26040394 -0.76006504 -1.59949045
C  2.21467843 -2.38215291 1.91630662
C  2.26838589 0.22004151 -1.58525729
H  -0.11012976 0.24691183 -0.17510465
H  0.21106996 -0.41171803 -0.12222434
H  0.71114226 -0.34834806 -0.12044174
H  -0.35816678 -0.31100931 0.12675814
H  -0.18053158 0.32547152 -0.18445750
H  -1.60437970 -0.10402809 0.27665182
12
MD Step 295.0 Units = [eV / Ang.]
C  -0.23375005 1.08737161 0.69377552
C  -0.68043547 0.38337090 -0.03474128
C  -1.23201484 1.68338044 0.86374145
C  -1.07499364 -0.34303454 -1.60183136
C  2.04589160 -1.74280399 1.94164462
C  2.26396326 -0.05741183 -1.62349473
H  0.01640485 0.41966939 -0.21838679
H  0.16394379 -0.37621448 -0.10252141
H  0.86213592 -0.28594904 -0.11914176
H  -0.53689110 -0.60333425 0.11479013
H  0.01333372 -0.05627700 -0.18949272
H  -1.60758804 -0.10876720 0.27565833
12
MD Step 295.5 Units = [eV / Ang.]
C  -0.30284295 1.01382462 0.80622566
C  -0.87864829 -0.05261634 -0.11419870
C  -1.08529166 1.77088124 0.87207978
C  -0.89434979 0.04050805 -1.58938245
C  1.85136631 -1.08879378 1.95031732
C  2.07317654 -0.34108709 -1.65814000
H  0.12939892 0.56358840 -0.25742610
H  0.09567629 -0.30483285 -0.08175423
H  0.92665705 -0.22536820 -0.11680693
H  -0.67764029 -0.83674841 0.09930948
H  0.19732562 -0.43229151 -0.19382216
H  -1.43482775 -0.10706413 0.28359833
12
MD Step 296.0 Units = [eV / Ang.]
C  -0.35442181 0.95553330 0.90834677
C  -1.04643203 -0.49960481 -0.19301182
C  -0.84303992 1.82337310 0.87360217
C  -0.72551830 0.37677266 -1.56292326
C  1.64741549 -0.45681837 1.94237499
C  1.72214445 -0.62553370 -1.68351046
H  0.22195709 0.66736955 -0.28999837
H  0.01217459 -0.20734308 -0.05959303
H  0.89636152 -0.16636555 -0.11366041
H  -0.77316712 -0.99832167 0.08102053
H  0.35362657 -0.76938755 -0.19680984
H  -1.11110053 -0.09967388 0.29416271
12
MD Step 296.5 Units = [eV / Ang.]
C  -0.38442847 0.91850921 0.99807968
C  -1.18372564 -0.93709972 -0.27121135
C  -0.51500171 1.83305672 0.86868836
C  -0.57306081 0.65657435 -1.52363181
C  1.44464859 0.12502916 1.91823705
C  1.25722053 -0.90417705 -1.69349445
H  0.28906107 0.72330776 -0.31438756
H  -0.07934654 -0.09564960 -0.03595215
H  0.77521045 -0.10750171 -0.10969470
H  -0.81958647 -1.08045727 0.06087877
H  0.47075210 -1.04369887 -0.19781922
H  -0.68174311 -0.08789296 0.30030736
12
MD Step 297.0 Units = [eV / Ang.]
C  -0.39010116 0.90588013 1.07389074
C  -1.29154032 -1.34445858 -0.34858183
C  -0.12202529 1.79250360 0.85764316
C  -0.44005072 0.87375864 -1.47299762
C  1.24900074 0.63637478 1.87882145
C  0.73367910 -1.16951946 -1.68342355
H  0.32749980 0.72704789 -0.32944496
H  -0.17131673 0.01777888 -0.01103999
H  0.57868821 -0.04682697 -0.10469227
H  -0.81532022 -1.07930758 0.04001090
H  0.54244496 -1.23989043 -0.19641296
H  -0.20095838 -0.07334090 0.29622694
12
MD Step 297.5 Units = [eV / Ang.]
C  -0.37007499 0.91817494 1.13477942
C  -1.37138037 -1.70266336 -0.42465559
C  0.30734006 1.69595334 0.84076605
C  -0.32856471 1.02423725 -1.41276154
C  1.06327871 1.06258120 1.82552854
C  0.20468278 -1.41355941 -1.65116915
H  0.33578784 0.67733706 -0.33461581
H  -0.25662585 0.12125944 0.01465586
H  0.33060958 0.01731667 -0.09832454
H  -0.76047135 -0.99383497 0.01965792
H  0.56606546 -1.34909893 -0.19242946
H  0.27935284 -0.05770324 0.27856829
12
MD Step 298.0 Units = [eV / Ang.]
C  -0.32454885 0.95340548 1.18030085
C  -1.42489462 -1.99570851 -0.49874431
C  0.74147334 1.54044124 0.81844351
C  -0.23959638 1.10593808 -1.34486237
C  0.88859779 1.39289824 1.76014062
C  -0.28602633 -1.62833063 -1.59724845
H  0.31417344 0.57595610 -0.32996618
H  -0.32919085 0.20484368 0.04043258
H  0.05866090 0.08568020 -0.09028336
H  -0.65677317 -0.82578800 0.00111911
H  0.54117743 -1.36682350 -0.18598731
H  0.71694728 -0.04251239 0.24665528
12
MD Step 298.5 Units = [eV / Ang.]
C  -0.25554093 1.00688512 1.21061342
C  -1.45371455 -2.21155677 -0.56998400
C  1.15009417 1.32651686 0.79121125
C  -0.17242779 1.11972616 -1.27134777
C  0.72538407 1.61946726 1.68469504
C  -0.70680149 -1.80646322 -1.52422219
H  0.26477660 0.42788705 -0.31622208
H  -0.38427383 0.26086253 0.06545921
H  -0.20990325 0.15784745 -0.08039263
H  -0.50811341 -0.58063469 -0.01434486
H  0.46868351 -1.29152802 -0.17746530
H  1.08183690 -0.02900973 0.20199992
12
MD Step 299.0 Units = [eV / Ang.]
C  -0.16716185 1.07085422 1.22653608
C  -1.45943709 -2.34268598 -0.63738602
C  1.50744467 1.05847464 0.75976513
C  -0.12364748 1.07116697 -1.19420873
C  0.57382803 1.73746695 1.60136889
C  -1.03722728 -1.94167379 -1.43585002
H  0.19181958 0.24164019 -0.29480764
H  -0.41860245 0.28414267 0.08886852
H  -0.45138371 0.23231750 -0.06866872
H  -0.32149585 -0.26927669 -0.02569036
H  0.35062642 -1.12433271 -0.16747817
H  1.35523700 -0.01809396 0.14755105
12
MD Step 299.5 Units = [eV / Ang.]
C  -0.06581104 1.13415558 1.22957151
C  -1.44361300 -2.38631168 -0.69989073
C  1.79382596 0.74414285 0.72492327
C  -0.08610486 0.97265500 -1.11510174
C  0.43373741 1.74642075 1.51238166
C  -1.26553823 -2.02915735 -1.33636842
H  0.10183046 0.02952378 -0.26783996
H  -0.43039029 0.27204707 0.10984160
H  -0.64719619 0.30679863 -0.05532699
H  -0.10811650 0.08994820 -0.03237976
H  0.19063279 -0.86989702 -0.15684362
H  1.52674349 -0.01032580 0.08703319
12
MD Step 300.0 Units = [eV / Ang.]
C  0.03986828 1.18227669 1.22183576
C  -1.40767613 -2.34437104 -0.75643207
C  1.99575476 0.39435037 0.68756309
C  -0.04833792 0.84502748 -1.03497622
C  0.30384407 1.65245368 1.41989275
C  -1.38585930 -2.06584697 -1.23005056
H  0.00363595 -0.19245424 -0.23802282
H  -0.41933172 0.22445633 0.12768470
H  -0.78411688 0.37855783 -0.04075210
H  0.11598969 0.46986586 -0.03475866
H  -0.00512354 -0.53835753 -0.14650765
H  1.59135274 -0.00595845 0.02452378
12
MD Step 300.5 Units = [eV / Ang.]
C  0.13945869 1.19810509 1.20583997
C  -1.35275571 -2.22332293 -0.80601522
C  2.10526479 0.02215213 0.64855509
C  0.00491701 0.71746340 -0.95370055
C  0.18070882 1.47098026 1.32584772
C  -1.39620367 -2.05053877 -1.12103819
H  -0.09206993 -0.40539067 -0.20838771
H  -0.38662217 0.14376735 0.14189896
H  -0.85374567 0.44472656 -0.02545277
H  0.33041629 0.83487018 -0.03441689
H  -0.22669984 -0.14784755 -0.13738221
H  1.54733140 -0.00496506 -0.03574819
12
MD Step 301.0 Units = [eV / Ang.]
C  0.22178222 1.16362569 1.18410950
C  -1.27938783 -2.03378346 -0.84781146
C  2.11894879 -0.35810655 0.60870873
C  0.09058750 0.62451008 -0.86987632
C  0.05763939 1.22885007 1.23172966
C  -1.29764236 -1.98387868 -1.01333568
H  -0.17372836 -0.58921957 -0.18186856
H  -0.33500402 0.03491433 0.15224430
H  -0.85176314 0.50253013 -0.01001691
H  0.51253746 1.14424799 -0.03433452
H  -0.45937583 0.27336280 -0.13005511
H  1.39540619 -0.00705283 -0.08949363
12
MD Step 301.5 Units = [eV / Ang.]
C  0.27642008 1.06249680 1.15870458
C  -1.18720379 -1.78998499 -0.88125830
C  2.03720569 -0.73182090 0.56873001
C  0.22354987 0.59995853 -0.78105916
C  -0.07573627 0.96451189 1.13821545
C  -1.09478557 -1.86824808 -0.91080100
H  -0.23046370 -0.72529652 -0.16077426
H  -0.26879304 -0.09465299 0.15879146
H  -0.77742010 0.54946540 0.00492991
H  0.64134345 1.35866244 -0.03859020
H  -0.68354067 0.68657228 -0.12438819
H  1.13942405 -0.01166387 -0.13250031
12
MD Step 302.0 Units = [eV / Ang.]
C  0.29547652 0.88305136 1.13076983
C  -1.07471194 -1.50901432 -0.90614413
C  1.86397200 -1.08519034 0.52918250
C  0.41224840 0.66886103 -0.68448309
C  -0.23249778 0.72469127 1.04483720
C  -0.79751718 -1.70755763 -0.81695213
H  -0.25390821 -0.79938098 -0.14629569
H  -0.19380331 -0.23515173 0.16194977
H  -0.63350397 0.58347278 0.01877003
H  0.70204516 1.44845859 -0.05153444
H  -0.87618617 1.04574449 -0.11912151
H  0.78838650 -0.01798452 -0.16097833
12
MD Step 302.5 Units = [eV / Ang.]
C  0.27511422 0.62094198 1.10029032
C  -0.93932160 -1.20976543 -0.92265038
C  1.60703753 -1.40621704 0.49044293
C  0.65526428 0.84042025 -0.57812601
C  -0.42564894 0.55696917 0.94985762
C  -0.42364083 -1.50698663 -0.73442897
H  -0.23981750 -0.80422846 -0.13822293
H  -0.11706998 -0.37494659 0.16245183
H  -0.42684636 0.60314063 0.03095127
H  0.68979990 1.40099331 -0.07660284
H  -1.01431856 1.30467580 -0.11171325
H  0.35944784 -0.02499698 -0.17224959
12
MD Step 303.0 Units = [eV / Ang.]
C  0.21638012 0.28061512 1.06616749
C  -0.77772196 -0.91159388 -0.93132446
C  1.27881315 -1.68551673 0.45264008
C  0.94040482 1.10475344 -0.46168806
C  -0.66398217 0.49954666 0.85059673
C  -0.00157302 -1.27263969 -0.66406111
H  -0.18896282 -0.74098969 -0.13499580
H  -0.04629381 -0.50143078 0.16127781
H  -0.16921457 0.60794504 0.04106983
H  0.61094395 1.22394088 -0.11521603
H  -1.07972333 1.42698508 -0.09866176
H  -0.11907035 -0.03161542 -0.16580472
12
MD Step 303.5 Units = [eV / Ang.]
C  0.12503093 -0.12488840 1.02661413
C  -0.58665585 -0.63271957 -0.93297184
C  0.89721663 -1.91684272 0.41557921
C  1.24680043 1.43502051 -0.33701886
C  -0.94798952 0.57161493 0.74426429
C  0.42843394 -1.01114902 -0.60371381
H  -0.10698181 -0.61893236 -0.13409417
H  0.01099922 -0.60230701 0.15951407
H  0.12178251 0.59847586 0.04897722
H  0.48115162 0.94309152 -0.16625299
H  -1.06353637 1.39556176 -0.07637292
H  -0.60625173 -0.03692550 -0.14452432
12
MD Step 304.0 Units = [eV / Ang.]
C  0.01042445 -0.57572091 0.97973793
C  -0.36398995 -0.38854018 -0.92848272
C  0.48608276 -2.09720448 0.37866665
C  1.54912871 1.79388915 -0.20779585
C  -1.26767421 0.76838852 0.62905219
C  0.81647469 -0.72923115 -0.54742742
H  -0.00324111 -0.45359245 -0.13264053
H  0.04848731 -0.66712429 0.15816401
H  0.42236918 0.57654318 0.05489630
H  0.32135725 0.59567933 -0.22631703
H  -0.96871429 1.21740732 -0.04231348
H  -1.05070479 -0.04049404 -0.11554005
12
MD Step 304.5 Units = [eV / Ang.]
C  -0.11612331 -1.04800375 0.92410414
C  -0.10987136 -0.19014733 -0.91862788
C  0.07439387 -2.22648708 0.34086811
C  1.82225643 2.14153910 -0.07863639
C  -1.60341171 1.06309329 0.50498971
C  1.10988821 -0.43330750 -0.48558172
H  0.11089769 -0.26398235 -0.12801461
H  0.06206637 -0.68878101 0.15794911
H  0.70355956 0.54503061 0.05950512
H  0.15314973 0.22210564 -0.29061848
H  -0.80925447 0.92156764 0.00405431
H  -1.39755100 -0.04262726 -0.08999141
12
MD Step 305.0 Units = [eV / Ang.]
C  -0.24302305 -1.51675472 0.85911132
C  0.17233815 -0.04335199 -0.90388710
C  -0.30623590 -2.30659217 0.30075286
C  2.04476809 2.44231862 0.04592442
C  -1.92959166 1.41491437 0.37414610
C  1.26422270 -0.12937336 -0.40665675
H  0.22387743 -0.06968893 -0.11831005
H  0.05059187 -0.66463625 0.15915653
H  0.93393689 0.50740482 0.06393123
H  -0.00478503 -0.14097391 -0.35404452
H  -0.60651410 0.55113958 0.06099289
H  -1.59958539 -0.04440607 -0.08111692
12
MD Step 305.5 Units = [eV / Ang.]
C  -0.35972415 -1.95825531 0.78510215
C  0.47561941 0.05152079 -0.88435648
C  -0.62584914 -2.34021998 0.25666851
C  2.20074120 2.66846100 0.16220376
C  -2.21949762 1.77922969 0.24012257
C  1.25489545 0.17678360 -0.30042438
H  0.32536275 0.11143502 -0.10254994
H  0.01613164 -0.59692893 0.16157845
H  1.08422681 0.46692848 0.06960428
H  -0.13844591 -0.46456503 -0.41201805
H  -0.38427610 0.15299613 0.12494044
H  -1.62918434 -0.04738545 -0.10087132
12
MD Step 306.0 Units = [eV / Ang.]
C  -0.45750073 -2.35153360 0.70324583
C  0.78950547 0.09902658 -0.85976548
C  -0.86137823 -2.32964666 0.20705193
C  2.27999243 2.80089384 0.26771240
C  -2.44965499 2.11619845 0.10714732
C  1.08465695 0.47907071 -0.16141975
H  0.40707479 0.26467339 -0.08068043
H  -0.03635202 -0.49238897 0.16456435
H  1.13278069 0.42580538 0.07796072
H  -0.23867759 -0.72823442 -0.46095829
H  -0.16443720 -0.23084187 0.19139702
H  -1.48600957 -0.05302284 -0.15625561
12
MD Step 306.5 Units = [eV / Ang.]
C  -0.52975304 -2.67900727 0.61528727
C  1.10089576 0.10734200 -0.82958624
C  -1.00124563 -2.27590658 0.15080695
C  2.27739483 2.82814946 0.36111816
C  -2.60248777 2.39549477 -0.02079092
C  0.78324303 0.77057310 0.00892242
H  0.46307234 0.37897953 -0.05341958
H  -0.09980169 -0.36115673 0.16716662
H  1.07034952 0.38460574 0.09006699
H  -0.30034896 -0.91899837 -0.49837608
H  0.03554039 -0.56798282 0.25582165
H  -1.19685877 -0.06209282 -0.24701725
12
MD Step 307.0 Units = [eV / Ang.]
C  -0.57199795 -2.92659738 0.52326975
C  1.39529954 0.08668073 -0.79320108
C  -1.04763331 -2.17871070 0.08763061
C  2.19191782 2.74459285 0.44198671
C  -2.66716290 2.59717858 -0.14046915
C  0.39932960 1.04336135 0.20249806
H  0.48966052 0.44692074 -0.02204744
H  -0.16613138 -0.21529957 0.16833581
H  0.90241313 0.34225267 0.10629047
H  -0.32122687 -1.02942959 -0.52275126
H  0.20330201 -0.83657513 0.31424295
H  -0.80777023 -0.07437454 -0.36578545
12
MD Step 307.5 Units = [eV / Ang.]
C  -0.58172467 -3.08369108 0.42930176
C  1.65822526 0.04774584 -0.75007028
C  -1.01548996 -2.03711150 0.01815871
C  2.02575457 2.54887845 0.51048024
C  -2.63906474 2.71006513 -0.24955822
C  -0.01146158 1.28878298 0.40687346
H  0.48514721 0.46437627 0.01180155
H  -0.22729523 -0.06728689 0.16711066
H  0.64812867 0.29659985 0.12614806
H  -0.30102229 -1.05593705 -0.53335631
H  0.33097107 -1.02368679 0.36350889
H  -0.37216831 -0.08873520 -0.50039851
12
MD Step 308.0 Units = [eV / Ang.]
C  -0.55824613 -3.14323416 0.33539840
C  1.87646504 0.00048878 -0.69986445
C  -0.92864794 -1.85060828 -0.05611983
C  1.78375358 2.24316122 0.56713609
C  -2.51861535 2.72919510 -0.34646512
C  -0.39763430 1.49814688 0.60845760
H  0.44962127 0.43026790 0.04631827
H  -0.27615591 0.07129049 0.16276160
H  0.33627999 0.24534481 0.14839134
H  -0.24085537 -0.99779105 -0.53014055
H  0.41397690 -1.12275661 0.40126992
H  0.06005824 -0.10350507 -0.63714330
12
MD Step 308.5 Units = [eV / Ang.]
C  -0.50262521 -3.10212352 0.24338231
C  2.03911070 -0.04670923 -0.64254190
C  -0.81452187 -1.62022043 -0.13313899
C  1.47318096 1.83326333 0.61280175
C  -2.30994517 2.65359433 -0.43007042
C  -0.71873273 1.66355968 0.79514122
H  0.38486017 0.34650829 0.07967599
H  -0.30705679 0.19061207 0.15487237
H  -0.00027627 0.18688883 0.17128447
H  -0.14321787 -0.85715072 -0.51373634
H  0.44993608 -1.13129791 0.42584588
H  0.44928801 -0.11692472 -0.76351635
12
MD Step 309.0 Units = [eV / Ang.]
C  -0.41769852 -2.96186802 0.15481258
C  2.13822585 -0.08744987 -0.57837344
C  -0.69916863 -1.34915422 -0.21060345
C  1.10380811 1.32977234 0.64872647
C  -2.01980013 2.48494467 -0.49951573
C  -0.94750310 1.77869299 0.95768239
H  0.29438634 0.21820490 0.11018515
H  -0.31610119 0.28312173 0.14335999
H  -0.32985206 0.12084799 0.19295700
H  -0.01239365 -0.64011145 -0.48558370
H  0.43794835 -1.04951537 0.43611431
H  0.76814863 -0.12748570 -0.86976157
12
MD Step 309.5 Units = [eV / Ang.]
C  -0.30815797 -2.72935876 0.07090323
C  2.16919942 -0.11743918 -0.50792933
C  -0.60397398 -1.04292917 -0.28629861
C  0.68823915 0.74983110 0.67676114
C  -1.65689069 2.22739174 -0.55415724
C  -1.06862565 1.83934942 1.08988913
H  0.18361048 0.05403160 0.13646800
H  -0.30121670 0.34372511 0.12845209
H  -0.62556981 0.04813637 0.21171352
H  0.14479872 -0.35855356 -0.44811313
H  0.37847939 -0.88008383 0.43151552
H  1.00010763 -0.13410086 -0.94920433
12
MD Step 310.0 Units = [eV / Ang.]
C  -0.18058799 -2.41745936 -0.00758782
C  2.13082334 -0.13445600 -0.43204388
C  -0.54429321 -0.70906570 -0.35829481
C  0.24226197 0.11906265 0.69953096
C  -1.23182594 1.88846184 -0.59373061
C  -1.07587624 1.84381915 1.18807534
H  0.05992995 -0.13346098 0.15765846
H  -0.26209505 0.36982143 0.11063716
H  -0.86702454 -0.02926696 0.22622932
H  0.31821222 -0.03222243 -0.40485381
H  0.27388312 -0.62909864 0.41222109
H  1.13659236 -0.13613500 -0.99784141
12
MD Step 310.5 Units = [eV / Ang.]
C  -0.04332703 -2.04504078 -0.08048586
C  2.02518521 -0.13826704 -0.35176879
C  -0.52970823 -0.35651901 -0.42504356
C  -0.21507922 -0.52735789 0.72039737
C  -0.75768244 1.48085628 -0.61871974
C  -0.96921697 1.79303354 1.25032291
H  -0.06739695 -0.32792280 0.17360380
H  -0.20008315 0.36128238 0.09060126
H  -1.04030394 -0.10868509 0.23562534
H  0.49394339 0.30995378 -0.36028604
H  0.12949412 -0.30796934 0.37945634
H  1.17417522 -0.13336402 -1.01370303
12
MD Step 311.0 Units = [eV / Ang.]
C  0.09402574 -1.63607594 -0.14829175
C  1.85741371 -0.13053994 -0.26831703
C  -0.56512594 0.00492425 -0.48539648
C  -0.66216838 -1.14574223 0.74301906
C  -0.25106866 1.02461177 -0.63082974
C  -0.75269631 1.69055205 1.27593663
H  -0.18778714 -0.51004033 0.18500771
H  -0.11805576 0.32043405 0.06915701
H  -1.13710287 -0.18709746 0.23945799
H  0.65478945 0.63063012 -0.31926695
H  -0.04494510 0.06426387 0.33589072
H  1.11272126 -0.12592020 -0.99636718
12
MD Step 311.5 Units = [eV / Ang.]
C  0.22153166 -1.21757452 -0.21216212
C  1.63533515 -0.11476787 -0.18299634
C  -0.65203147 0.36519609 -0.53859147
C  -1.07657224 -1.68813161 0.77046768
C  0.26675224 0.54866837 -0.63336202
C  -0.43355688 1.54238701 1.26529460
H  -0.29036838 -0.65935314 0.19343250
H  -0.02027247 0.25204467 0.04716484
H  -1.15362415 -0.26141573 0.23767004
H  0.78199531 0.88801520 -0.28600549
H  -0.23405421 0.45918432 0.28590617
H  0.95486545 -0.11425278 -0.94681839
12
MD Step 312.0 Units = [eV / Ang.]
C  0.33020523 -0.81644154 -0.27370722
C  1.36903438 -0.09612237 -0.09713003
C  -0.78936999 0.71439025 -0.58423359
C  -1.43786510 -2.10978686 0.80411080
C  0.76949593 0.09053061 -0.63120102
C  -0.02264801 1.35665639 1.22013370
H  -0.36544092 -0.75698887 0.20108891
H  0.08782389 0.16323921 0.02544745
H  -1.08978694 -0.32868725 0.23054150
H  0.85827470 1.04312306 -0.26283028
H  -0.41659535 0.83919399 0.23547288
H  0.70687218 -0.09910662 -0.86769310
12
MD Step 312.5 Units = [eV / Ang.]
C  0.41340858 -0.45581762 -0.33460038
C  1.07032026 -0.08116762 -0.01196647
C  -0.97378729 1.04314035 -0.62228710
C  -1.73086247 -2.37820811 0.84275234
C  1.22719007 -0.30725521 -0.63015678
C  0.46397170 1.14305502 1.14417622
H  -0.40606626 -0.78880818 0.21040647
H  0.19990657 0.06323870 0.00470056
H  -0.94901284 -0.38627372 0.21865907
H  0.87141508 1.06861356 -0.24926232
H  -0.56715528 1.16097462 0.19139047
H  0.38067187 -0.08149180 -0.76381209
12
MD Step 313.0 Units = [eV / Ang.]
C  0.46794470 -0.15178555 -0.39607886
C  0.75206944 -0.07732607 0.07141181
C  -1.19918929 1.34299239 -0.65307204
C  -1.94815001 -2.48055160 0.88255022
C  1.60976275 -0.60409876 -0.63563360
C  1.00271362 0.91212428 1.04383171
H  -0.40933928 -0.74812404 0.22347079
H  0.30919964 -0.03719611 -0.01459008
H  -0.73863904 -0.43205516 0.20290224
H  0.81724199 0.95606678 -0.24192539
H  -0.66014154 1.38255701 0.15987714
H  -0.00347297 -0.06260316 -0.64274394
12
MD Step 313.5 Units = [eV / Ang.]
C  0.49449011 0.08861038 -0.45849862
C  0.42745961 -0.09203787 0.15216341
C  -1.45578907 1.60680403 -0.67724975
C  -2.09083840 -2.42629243 0.91790890
C  1.89239049 -0.77037088 -0.65099759
C  1.56040553 0.67436225 0.92853602
H  -0.37692756 -0.63712541 0.24149567
H  0.40904221 -0.12668241 -0.03220819
H  -0.47079756 -0.46468669 0.18442427
H  0.70072851 0.71853534 -0.23548206
H  -0.67543071 1.47252867 0.14488468
H  -0.41473318 -0.04364499 -0.51497674
12
MD Step 314.0 Units = [eV / Ang.]
C  0.49719161 0.26747174 -0.52110640
C  0.10914261 -0.13166319 0.22972448
C  -1.72902601 1.82917155 -0.69576743
C  -2.16717111 -2.24394439 0.94301327
C  2.06083585 -0.79520165 -0.67634323
C  2.09406381 0.43925768 0.81019867
H  -0.31468308 -0.46650520 0.26450765
H  0.49352653 -0.19445282 -0.04822275
H  -0.16337031 -0.48388282 0.16459355
H  0.53476248 0.38716603 -0.22424430
H  -0.60378419 1.41813651 0.14683927
H  -0.81148818 -0.02555346 -0.39319279
12
MD Step 314.5 Units = [eV / Ang.]
C  0.48260488 0.39435669 -0.58211586
C  -0.19156162 -0.20026790 0.30379387
C  -1.99894892 2.00675968 -0.70972873
C  -2.18960075 -1.97333297 0.95333691
C  2.11450808 -0.68963706 -0.70831360
C  2.55413289 0.21442507 0.70140433
H  -0.23146455 -0.25342595 0.29134038
H  0.55810788 -0.23174935 -0.06294815
H  0.15957939 -0.49064030 0.14485703
H  0.33710593 0.00340999 -0.20376048
H  -0.44971831 1.22878167 0.16245678
H  -1.14474489 -0.00867954 -0.29032248
12
MD Step 315.0 Units = [eV / Ang.]
C  0.45834612 0.48344012 -0.63904441
C  -0.46531569 -0.29854945 0.37426434
C  -2.24076757 2.13836150 -0.72017180
C  -2.17155004 -1.65667980 0.94653774
C  2.06580146 -0.48358744 -0.74111559
C  2.89191793 0.00510611 0.61255555
H  -0.13756069 -0.01851236 0.31991397
H  0.60006290 -0.23309531 -0.07684876
H  0.46861401 -0.48725608 0.12650735
H  0.12678090 -0.38989209 -0.17177534
H  -0.23044975 0.93324948 0.18577802
H  -1.36587958 0.00741532 -0.21660107
12
MD Step 315.5 Units = [eV / Ang.]
C  0.43186849 0.55044612 -0.68917913
C  -0.70516823 -0.42319178 0.44111678
C  -2.42715430 2.22453513 -0.72777797
C  -2.12496213 -1.33154222 0.92256759
C  1.93606376 -0.21795293 -0.76824939
C  3.06991951 -0.18577671 0.54891442
H  -0.04317078 0.21722960 0.34767530
H  0.61869544 -0.19713880 -0.09040841
H  0.73153748 -0.47700220 0.11038033
H  -0.07890531 -0.75547972 -0.12837557
H  0.02859429 0.57199422 0.20993720
H  -1.43731822 0.02387927 -0.17660114
12
MD Step 316.0 Units = [eV / Ang.]
C  0.40964629 0.61013220 -0.73001104
C  -0.90665576 -0.56685374 0.50430831
C  -2.53233638 2.26677235 -0.73259235
C  -2.05917632 -1.02708647 0.88320458
C  1.75008814 0.06464712 -0.78416155
C  3.07151113 -0.35698955 0.50892586
H  0.04271684 0.43482614 0.37204645
H  0.61524900 -0.12684813 -0.10399791
H  0.91784735 -0.46342105 0.09657149
H  -0.26603144 -1.06520364 -0.07553317
H  0.29966954 0.18788017 0.22887569
H  -1.34252838 0.04214460 -0.16763635
12
MD Step 316.5 Units = [eV / Ang.]
C  0.39680759 0.67470341 -0.75953592
C  -1.06763625 -0.71885149 0.56368393
C  -2.53718705 2.26641404 -0.73387700
C  -1.98099303 -0.76346994 0.83137164
C  1.53129077 0.32718594 -0.78523133
C  2.90571919 -0.50801868 0.48481815
H  0.11293379 0.61876673 0.39077211
H  0.59256116 -0.02900651 -0.11777585
H  1.00419445 -0.44939261 0.08429947
H  -0.42443518 -1.30038030 -0.01642063
H  0.55774773 -0.18125383 0.23840577
H  -1.09100318 0.06330323 -0.18051034
12
MD Step 317.0 Units = [eV / Ang.]
C  0.39711321 0.75316160 -0.77638949
C  -1.18792907 -0.86636819 0.61893293
C  -2.43381828 2.22367978 -0.73020508
C  -1.89541577 -0.55318239 0.77053661
C  1.29886982 0.54193419 -0.76995913
C  2.60471905 -0.63818806 0.46530394
H  0.16228965 0.75750908 0.40212393
H  0.55455913 0.08684444 -0.13164532
H  0.97928937 -0.43629830 0.07202336
H  -0.54720970 -1.45018618 0.04520106
H  0.78335950 -0.50648925 0.23648147
H  -0.71582691 0.08758329 -0.20240426
12
MD Step 317.5 Units = [eV / Ang.]
C  0.41309136 0.85130503 -0.77985614
C  -1.26888845 -0.99595959 0.66959167
C  -2.22793448 2.13727675 -0.71980689
C  -1.80653734 -0.40309400 0.70432590
C  1.06706161 0.69078984 -0.73859638
C  2.21515605 -0.74620576 0.43910720
H  0.18745262 0.84337035 0.40498137
H  0.50571325 0.20974715 -0.14527075
H  0.84649259 -0.42364207 0.05782317
H  -0.62984289 -1.50942543 0.10538662
H  0.96317656 -0.76834494 0.22289641
H  -0.26494087 0.11418265 -0.22058219
12
MD Step 318.0 Units = [eV / Ang.]
C  0.44617576 0.97199876 -0.76981200
C  -1.31299020 -1.09503167 0.71508359
C  -1.93798413 2.00476390 -0.70105837
C  -1.71817780 -0.31626931 0.63633387
C  0.84583140 0.76355385 -0.69256471
C  1.78714361 -0.83022792 0.39777929
H  0.18673675 0.87217818 0.39883731
H  0.45055132 0.32865430 -0.15814050
H  0.62308657 -0.40930598 0.03992393
H  -0.66943073 -1.47664638 0.16021761
H  1.08908020 -0.95516645 0.19874941
H  0.20997727 0.14149873 -0.22534943
12
MD Step 318.5 Units = [eV / Ang.]
C  0.49674498 1.11540971 -0.74666292
C  -1.32350291 -1.15308251 0.75477597
C  -1.59137708 1.82358589 -0.67293155
C  -1.63405274 -0.29305582 0.57004062
C  0.64215150 0.75556876 -0.63394003
C  1.36510132 -0.88827703 0.33695712
H  0.15993844 0.84298239 0.38377571
H  0.39329103 0.43351925 -0.16965334
H  0.33649809 -0.39032386 0.01717232
H  -0.66424138 -1.35312911 0.20591578
H  1.15664956 -1.06077974 0.16594021
H  0.66279919 0.16758207 -0.21138990
12
MD Step 319.0 Units = [eV / Ang.]
C  0.56402353 1.27899518 -0.71130697
C  -1.30424089 -1.16257421 0.78803894
C  -1.21917014 1.59235681 -0.63525656
C  -1.55741804 -0.33121920 0.50871487
C  0.46121798 0.66570317 -0.56512414
C  0.98274225 -0.91872761 0.25614421
H  0.10830456 0.75801203 0.36045105
H  0.33760297 0.51604581 -0.17920516
H  0.01888929 -0.36383036 -0.01069462
H  -0.61378204 -1.14292308 0.23898523
H  1.16378848 -1.08241779 0.12682031
H  1.05804205 0.19057924 -0.17756718
12
MD Step 319.5 Units = [eV / Ang.]
C  0.64586314 1.45721414 -0.66512240
C  -1.25938251 -1.11942339 0.81429687
C  -0.85099069 1.31197856 -0.58874401
C  -1.49017908 -0.42514939 0.45517824
C  0.30719812 0.49520258 -0.48871017
C  0.66220420 -0.92067490 0.15767389
H  0.03464559 0.62291435 0.33007315
H  0.28647979 0.57010656 -0.18626385
H  -0.29809417 -0.32782624 -0.04304167
H  -0.51942399 -0.85387298 0.25650683
H  1.10991441 -1.01948405 0.08400854
H  1.37176518 0.20901475 -0.12585542
12
MD Step 320.0 Units = [eV / Ang.]
C  0.73845568 1.64107926 -0.60995582
C  -1.19329523 -1.02317723 0.83307150
C  -0.51148934 0.98629971 -0.53483148
C  -1.43157759 -0.56435883 0.41134272
C  0.18330917 0.24757630 -0.40746984
C  0.41589096 -0.89410353 0.04553706
H  -0.05646174 0.44715341 0.29437500
H  0.24216675 0.59191946 -0.19042416
H  -0.58708839 -0.28156089 -0.07852617
H  -0.38552294 -0.49933088 0.25667218
H  0.99589085 -0.87338366 0.04031213
H  1.58972182 0.22188688 -0.06010312
12
MD Step 320.5 Units = [eV / Ang.]
C  0.83609448 1.81782674 -0.54806304
C  -1.11033317 -0.87692952 0.84401994
C  -0.21877751 0.62223908 -0.47545898
C  -1.37671999 -0.73182233 0.37751208
C  0.09117431 -0.07047510 -0.32436268
C  0.24932899 -0.83990287 -0.07551251
H  -0.15850003 0.24430983 0.25552427
H  0.20611632 0.58007292 -0.19144430
H  -0.82683126 -0.22553797 -0.11537340
H  -0.22078047 -0.09994933 0.23955648
H  0.82472995 -0.64846566 -0.00133834
H  1.70449839 0.22863422 0.01494049
12
MD Step 321.0 Units = [eV / Ang.]
C  0.93113922 1.97105951 -0.48195250
C  -1.01458189 -0.68708193 0.84696791
C  0.01548539 0.22948110 -0.41286238
C  -1.31543341 -0.90306624 0.35158844
C  0.02948809 -0.44726533 -0.24244926
C  0.16378865 -0.75975391 -0.20046538
H  -0.26303590 0.03190856 0.21593509
H  0.17893239 0.53548788 -0.18926739
H  -1.00233886 -0.16128031 -0.15163596
H  -0.03932656 0.31539728 0.20797641
H  0.60294379 -0.35393969 -0.03804710
H  1.71293910 0.22905308 0.09421213
12
MD Step 321.5 Units = [eV / Ang.]
C  1.01432400 2.08177614 -0.41411533
C  -0.90952360 -0.46295175 0.84193837
C  0.18503054 -0.18015620 -0.34942116
C  -1.23222724 -1.04711672 0.32852127
C  -0.00765635 -0.86383635 -0.16460808
C  0.15795837 -0.65601870 -0.32425615
H  -0.36012849 -0.16960780 0.17796421
H  0.16029890 0.46134101 -0.18402746
H  -1.10411293 -0.09101239 -0.18538438
H  0.13924775 0.71070154 0.16807708
H  0.34219723 -0.00634508 -0.06729764
H  1.61459180 0.22322630 0.17260927
12
MD Step 322.0 Units = [eV / Ang.]
C  1.07556842 2.13045317 -0.34666587
C  -0.79769732 -0.21626474 0.82917020
C  0.28766448 -0.59350688 -0.28755110
C  -1.10805161 -1.13017178 0.30047445
C  -0.03217822 -1.29206079 -0.09300806
C  0.22839139 -0.53161409 -0.44182794
H  -0.43924022 -0.33896569 0.14352238
H  0.14890483 0.36293464 -0.17604067
H  -1.12708209 -0.01736867 -0.21482821
H  0.29166440 1.04675511 0.12915748
H  0.06059029 0.36831533 -0.08752133
H  1.41146564 0.21149439 0.24511866
12
MD Step 322.5 Units = [eV / Ang.]
C  1.10523006 2.10006207 -0.28099191
C  -0.68038731 0.03948327 0.80912022
C  0.32423416 -0.99691146 -0.22960476
C  -0.92410053 -1.12184023 0.25808605
C  -0.06216118 -1.69441555 -0.02842477
C  0.36865182 -0.38995808 -0.54824458
H  -0.49061754 -0.45705814 0.11369718
H  0.14240514 0.24745572 -0.16577647
H  -1.06979569 0.05683176 -0.23839712
H  0.39478631 1.28773294 0.10234722
H  -0.21739038 0.73414594 -0.09879483
H  1.10914514 0.19447174 0.30698379
12
MD Step 323.0 Units = [eV / Ang.]
C  1.09559727 1.97939175 -0.21753964
C  -0.55744968 0.28984575 0.78243702
C  0.29817503 -1.37707652 -0.17773945
C  -0.66691611 -1.00236807 0.19277184
C  -0.11976273 -2.02686267 0.03032557
C  0.56731628 -0.23496890 -0.63902283
H  -0.50689441 -0.51023943 0.08851999
H  0.13747729 0.12354561 -0.15380623
H  -0.93416659 0.12876224 -0.25482420
H  0.43074793 1.40877346 0.09819196
H  -0.46318489 1.04811620 -0.10339299
H  0.71906060 0.17308058 0.35407896
12
MD Step 323.5 Units = [eV / Ang.]
C  1.04223322 1.76574613 -0.15584485
C  -0.42737045 0.52040835 0.74990963
C  0.21574058 -1.72187901 -0.13373107
C  -0.33304759 -0.76815691 0.09937046
C  -0.22658505 -2.24550800 0.08644025
C  0.80532258 -0.07108420 -0.71079628
H  -0.48449772 -0.49298099 0.06698899
H  0.13003087 0.00063267 -0.14072924
H  -0.72584494 0.19575917 -0.26326541
H  0.39163108 1.40180608 0.12385649
H  -0.64897971 1.26670042 -0.10579503
H  0.26136713 0.14855629 0.38359605
12
MD Step 324.0 Units = [eV / Ang.]
C  0.94476944 1.46611831 -0.09483134
C  -0.28762752 0.71791152 0.71239121
C  0.08681280 -2.02106267 -0.09872843
C  0.06866584 -0.43321254 -0.02194585
C  -0.39747640 -2.31591747 0.14435752
C  1.05367151 0.09676571 -0.76227287
H  -0.42441244 -0.40900183 0.04737067
H  0.11561132 -0.11196827 -0.12708500
H  -0.45511322 0.25552955 -0.26347342
H  0.28172666 1.27718657 0.18105620
H  -0.75398592 1.35529151 -0.11184164
H  -0.23264205 0.12235958 0.39500296
12
MD Step 324.5 Units = [eV / Ang.]
C  0.80689997 1.09642583 -0.03327693
C  -0.13535542 0.87140156 0.67071513
C  -0.07402982 -2.26678205 -0.07298730
C  0.51820283 -0.02584141 -0.16536266
C  -0.63505137 -2.22201419 0.20824385
C  1.27306869 0.26332345 -0.79522530
H  -0.33204477 -0.27046934 0.02768786
H  0.08998763 -0.20609754 -0.11326683
H  -0.13796500 0.30641026 -0.25600786
H  0.11635770 1.06043489 0.26561412
H  -0.76988150 1.29725614 -0.12713463
H  -0.72018893 0.09595237 0.39100055
12
MD Step 325.0 Units = [eV / Ang.]
C  0.63563776 0.67906026 0.02971561
C  0.03175884 0.97323776 0.62562219
C  -0.24672263 -2.45393561 -0.05564887
C  0.98828945 0.41788336 -0.32079906
C  -0.92739677 -1.97074949 0.28031651
C  1.41715648 0.42333591 -0.81498916
H  -0.21623101 -0.09554970 0.00622880
H  0.04984693 -0.27575710 -0.09945995
H  0.20318506 0.34764244 -0.24242479
H  -0.08214322 0.78559587 0.36875352
H  -0.70298528 1.09877867 -0.15526854
H  -1.15039560 0.07045763 0.37795374
12
MD Step 325.5 Units = [eV / Ang.]
C  0.44013217 0.23958956 0.09440773
C  0.21452956 1.01974667 0.57771890
C  -0.40592386 -2.58019177 -0.04467420
C  1.44940892 0.86119481 -0.47625075
C  -1.25011410 -1.59030430 0.35979113
C  1.44006498 0.57196482 -0.82988445
H  -0.08773738 0.09484725 -0.01808378
H  -0.00654548 -0.31786661 -0.08562228
H  0.53988685 0.37955684 -0.22534006
H  -0.28951674 0.48794919 0.47942190
H  -0.57209979 0.78719020 -0.19669336
H  -1.47208512 0.04632334 0.36520923
12
MD Step 326.0 Units = [eV / Ang.]
C  0.23045355 -0.19644238 0.16033911
C  0.41146976 1.01137922 0.52747770
C  -0.52287412 -2.64564931 -0.03703640
C  1.87409112 1.27192052 -0.62009448
C  -1.57172182 -1.12267824 0.44292746
C  1.30693113 0.70508390 -0.84929758
H  0.04230342 0.28018117 -0.04553868
H  -0.07887888 -0.33259176 -0.07151798
H  0.83977992 0.40353443 -0.20825174
H  -0.48384608 0.19846793 0.58663279
H  -0.40309761 0.40361281 -0.24869658
H  -1.64461040 0.02318173 0.36305637
12
MD Step 326.5 Units = [eV / Ang.]
C  0.01664989 -0.60589903 0.22645068
C  0.61833580 0.95231308 0.47527476
C  -0.56917072 -2.65209346 -0.02923817
C  2.23949232 1.62501365 -0.74263081
C  -1.86004780 -0.61402647 0.52404598
C  1.00380008 0.81930536 -0.88090487
H  0.16363854 0.44254974 -0.07568658
H  -0.16465324 -0.32316582 -0.05679580
H  1.07068723 0.42163604 -0.19504474
H  -0.64797327 -0.05893704 0.68108288
H  -0.22268988 -0.00673606 -0.30637631
H  -1.64806898 0.00004002 0.37982298
12
MD Step 327.0 Units = [eV / Ang.]
C  -0.19182021 -0.96934647 0.29132196
C  0.82812962 0.84959220 0.42144798
C  -0.52188236 -2.60195824 -0.01809238
C  2.52827506 1.90266066 -0.83667967
C  -2.08734635 -0.10648195 0.59692766
C  0.54265853 0.91171712 -0.92817456
H  0.26764811 0.56787664 -0.10751570
H  -0.25940690 -0.29525509 -0.04109116
H  1.20605827 0.43592945 -0.18922768
H  -0.77004714 -0.26767376 0.75583237
H  -0.05366900 -0.40282598 -0.36402378
H  -1.48859764 -0.02423458 0.41927495
12
MD Step 327.5 Units = [eV / Ang.]
C  -0.38633285 -1.27144446 0.35342416
C  1.03155281 0.71203144 0.36635723
C  -0.36861599 -2.49730751 -0.00156468
C  2.72837603 2.09300580 -0.89745919
C  -2.23306643 0.36640269 0.65599734
C  -0.04084321 0.97955614 -0.98933265
H  0.34763978 0.64618997 -0.13967052
H  -0.35725266 -0.25604425 -0.02412533
H  1.23032444 0.44772275 -0.19309847
H  -0.84284185 -0.41722601 0.80625686
H  0.08735284 -0.75251796 -0.41630848
H  -1.19629292 -0.05036861 0.47952375
12
MD Step 328.0 Units = [eV / Ang.]
C  -0.55918963 -1.50078954 0.41131760
C  1.21782783 0.54911031 0.31042432
C  -0.11074383 -2.33919457 0.02061817
C  2.83237101 2.18851743 -0.92213026
C  -2.28446467 0.78052912 0.69697293
C  -0.69593083 1.02005469 -1.05820795
H  0.39883630 0.67135185 -0.17065132
H  -0.45160029 -0.21323873 -0.00577850
H  1.14233096 0.45702421 -0.20713498
H  -0.86261388 -0.50144260 0.82964184
H  0.18997951 -1.03357758 -0.45894978
H  -0.81680247 -0.07834458 0.55387793
12
MD Step 328.5 Units = [eV / Ang.]
C  -0.70372397 -1.64965100 0.46377157
C  1.37573899 0.37009777 0.25414538
C  0.23648697 -2.12772261 0.04683439
C  2.83690452 2.18476383 -0.90935145
C  -2.23586501 1.11970831 0.71699951
C  -1.36772270 1.03061749 -1.12637029
H  0.41825869 0.64063506 -0.19897397
H  -0.53590386 -0.17417875 0.01387615
H  0.95554629 0.46248582 -0.22985452
H  -0.82810477 -0.51712533 0.82475766
H  0.24878449 -1.23222778 -0.48888776
H  -0.40039963 -0.10740283 0.63305332
12
MD Step 329.0 Units = [eV / Ang.]
C  -0.81452403 -1.71388360 0.50981467
C  1.49471005 0.18348018 0.19807960
C  0.64705361 -1.86279679 0.07395829
C  2.74245295 2.07998075 -0.85905481
C  -2.08740159 1.37326415 0.71446065
C  -2.00660974 1.00922382 -1.18545051
H  0.40466859 0.55443378 -0.22329369
H  -0.60431448 -0.14516315 0.03457685
H  0.69496182 0.46186154 -0.25819766
H  -0.74003049 -0.46333118 0.79163103
H  0.26172157 -1.34076048 -0.50414616
H  0.00731174 -0.13630903 0.70762173
12
MD Step 329.5 Units = [eV / Ang.]
C  -0.88785191 -1.69317120 0.54875467
C  1.56581435 -0.00328641 0.14281919
C  1.08926238 -1.54529970 0.09811117
C  2.55347966 1.87557758 -0.77253552
C  -1.84377872 1.53395415 0.68869269
C  -2.57364683 0.95488658 -1.22874943
H  0.35867633 0.41626011 -0.24251463
H  -0.65216998 -0.13101231 0.05590662
H  0.39189089 0.45276133 -0.28826987
H  -0.60118712 -0.34157876 0.73160993
H  0.22881803 -1.35538384 -0.50360575
H  0.37069291 -0.16370752 0.76978094
12
MD Step 330.0 Units = [eV / Ang.]
C  -0.92223211 -1.59156750 0.58020542
C  1.58260296 -0.18381182 0.08895307
C  1.53110118 -1.17825479 0.11548638
C  2.27890607 1.57753704 -0.65282931
C  -1.51329763 1.59688537 0.63976676
C  -3.04185740 0.86798845 -1.25184621
H  0.28303823 0.23303272 -0.25590391
H  -0.67631613 -0.13482646 0.07734577
H  0.07845959 0.43337864 -0.31615639
H  -0.41712553 -0.15695982 0.64770453
H  0.15144577 -1.27499792 -0.48685043
H  0.66527501 -0.18840390 0.81412432
12
MD Step 330.5 Units = [eV / Ang.]
C  -0.91912470 -1.41812586 0.60413840
C  1.54171981 -0.35270288 0.03702748
C  1.94431748 -0.76763574 0.12299994
C  1.93273613 1.19844811 -0.50524223
C  -1.10727619 1.55968397 0.56843499
C  -3.39477811 0.75042342 -1.25242003
H  0.18306616 0.01549826 -0.26321379
H  -0.67528953 -0.15787291 0.09833177
H  -0.21667352 0.40294706 -0.33855942
H  -0.19717584 0.08004854 0.54507246
H  0.03224655 -1.10120035 -0.45417279
H  0.87623176 -0.20951161 0.83760321
12
MD Step 331.0 Units = [eV / Ang.]
C  -0.88347695 -1.18731472 0.62095191
C  1.44326768 -0.50549147 -0.01249124
C  2.30655756 -0.32265651 0.11864809
C  1.53444490 0.75958177 -0.33775977
C  -0.63988613 1.42396303 0.47627157
C  -3.62388651 0.60555675 -1.22970821
H  0.06697320 -0.22149557 -0.26479439
H  -0.64939876 -0.19954340 0.11832118
H  -0.47067762 0.36185407 -0.35313870
H  0.04462111 0.35161198 0.43138033
H  -0.12431848 -0.83958703 -0.40676237
H  0.99578000 -0.22647890 0.83908160
12
MD Step 331.5 Units = [eV / Ang.]
C  -0.82388994 -0.91878517 0.63151398
C  1.29093140 -0.63862383 -0.05925143
C  2.60172112 0.14442998 0.10159096
C  1.10862218 0.29204342 -0.16095906
C  -0.12842894 1.19781470 0.36597101
C  -3.72614171 0.43806812 -1.18396268
H  -0.05411848 -0.45927161 -0.26165029
H  -0.60073064 -0.25734635 0.13684724
H  -0.66712710 0.31149119 -0.35857953
H  0.28931491 0.63134914 0.31666797
H  -0.31093221 -0.50212151 -0.34702692
H  1.02077941 -0.23904806 0.81883875
12
MD Step 332.0 Units = [eV / Ang.]
C  -0.75210299 -0.63612892 0.63712189
C  1.09184230 -0.74951150 -0.10305289
C  2.81916929 0.61890772 0.07205572
C  0.68327156 -0.16427386 0.01294191
C  0.40609913 0.89870484 0.24167636
C  -3.70234003 0.25374285 -1.11612118
H  -0.16679820 -0.67651020 -0.25538234
H  -0.53307209 -0.32694510 0.15357190
H  -0.79541035 0.25397500 -0.35448299
H  0.51427757 0.88518388 0.21235292
H  -0.51617831 -0.10994867 -0.27891180
H  0.95124212 -0.24719603 0.77823050
12
MD Step 332.5 Units = [eV / Ang.]
C  -0.68161102 -0.36445556 0.63931863
C  0.85617726 -0.83660707 -0.14387463
C  2.95252734 1.08440524 0.03115893
C  0.28652788 -0.56492521 0.17200397
C  0.93851849 0.55554233 0.10911889
C  -3.55658247 0.05924787 -1.02775565
H  -0.25680061 -0.85152286 -0.24796654
H  -0.45171965 -0.40228435 0.16832477
H  -0.84969249 0.19185510 -0.34119009
H  0.69622284 1.07525663 0.12927728
H  -0.72360715 0.30457522 -0.20799221
H  0.79003959 -0.25108734 0.71957664
12
MD Step 333.0 Units = [eV / Ang.]
C  -0.62551994 -0.12702132 0.63957403
C  0.59649137 -0.89942601 -0.18188956
C  2.99865425 1.52384432 -0.01927997
C  -0.05773471 -0.86829432 0.30705476
C  1.43971164 0.20821379 -0.02469846
C  -3.29690399 -0.13811497 -0.92125584
H  -0.31116595 -0.96539202 -0.24137738
H  -0.36312783 -0.47587816 0.18112138
H  -0.82799294 0.12786686 -0.31961540
H  0.81560777 1.16687345 0.07520437
H  -0.91184788 0.69837261 -0.14107231
H  0.54382821 -0.25104422 0.64623439
12
MD Step 333.5 Units = [eV / Ang.]
C  -0.59408039 0.05836614 0.63889900
C  0.32677433 -0.93845367 -0.21745251
C  2.95715784 1.92047601 -0.07690297
C  -0.33409700 -1.04433639 0.41384104
C  1.87835572 -0.09698770 -0.15245079
C  -2.93688548 -0.33069508 -0.80010270
H  -0.32067470 -1.00528121 -0.23713775
H  -0.27436725 -0.53932383 0.19215211
H  -0.73172581 0.06473251 -0.29112588
H  0.86108148 1.13676993 0.05268358
H  -1.05649763 1.02225277 -0.08513092
H  0.22495889 -0.24751947 0.56272780
12
MD Step 334.0 Units = [eV / Ang.]
C  -0.59262826 0.18217104 0.63753369
C  0.06130145 -0.95485135 -0.25105441
C  2.83056744 2.25894238 -0.13894962
C  -0.53790400 -1.08157784 0.49383980
C  2.22449982 -0.31624779 -0.26795075
C  -2.49778063 -0.51088554 -0.66901716
H  -0.28184145 -0.96694009 -0.23594021
H  -0.19240167 -0.58407392 0.20173526
H  -0.56583041 0.00498313 -0.25746311
H  0.83221659 0.97963503 0.05829377
H  -1.13402965 1.22988406 -0.04575951
H  -0.14616921 -0.24103911 0.47473223
12
MD Step 334.5 Units = [eV / Ang.]
C  -0.62061015 0.24430096 0.63484204
C  -0.18662998 -0.95000042 -0.28323948
C  2.62511103 2.52635909 -0.20239363
C  -0.67466182 -0.98945313 0.55327878
C  2.45445239 -0.41926055 -0.36761722
C  -2.01018782 -0.67164138 -0.53372265
H  -0.19777623 -0.85555512 -0.23748151
H  -0.12326471 -0.60241865 0.21023622
H  -0.33941914 -0.04924039 -0.22067628
H  0.73930777 0.71001970 0.08372290
H  -1.12698244 1.28897038 -0.02562408
H  -0.53933890 -0.23208049 0.38867490
12
MD Step 335.0 Units = [eV / Ang.]
C  -0.67200739 0.25327693 0.62947063
C  -0.40590884 -0.92493428 -0.31450144
C  2.35182832 2.71330322 -0.26410589
C  -0.75680579 -0.79499833 0.60080438
C  2.55541705 -0.39812002 -0.45126297
C  -1.51389558 -0.80711599 -0.40013122
H  -0.07759121 -0.68463873 -0.24057467
H  -0.07127708 -0.58854320 0.21796697
H  -0.06668530 -0.09642516 -0.18302022
H  0.60034336 0.35871284 0.11823659
H  -1.02867388 1.19035874 -0.02366659
H  -0.91474367 -0.22087605 0.31078444
12
MD Step 335.5 Units = [eV / Ang.]
C  -0.73694718 0.22376934 0.61971080
C  -0.58856794 -0.87981697 -0.34517854
C  2.02753838 2.81461889 -0.32108199
C  -0.79931187 -0.53554008 0.64486275
C  2.52795302 -0.26989406 -0.52175566
C  -1.05450925 -0.91328794 -0.27299750
H  0.06542926 -0.47335750 -0.24348754
H  -0.03847356 -0.53945956 0.22508890
H  0.23240290 -0.13594518 -0.14677190
H  0.43651587 -0.03475028 0.15144950
H  -0.84542699 0.95085654 -0.03549857
H  -1.22660262 -0.20719320 0.24565974
12
MD Step 336.0 Units = [eV / Ang.]
C  -0.80386157 0.17337509 0.60392699
C  -0.73031446 -0.81361276 -0.37538074
C  1.67501042 2.82985738 -0.37074744
C  -0.81590032 -0.25048930 0.69179853
C  2.38513110 -0.07149700 -0.58370070
C  -0.67642311 -0.98837833 -0.15446604
H  0.21624607 -0.24320518 -0.24437296
H  -0.02438350 -0.45559231 0.23154818
H  0.53224844 -0.16826615 -0.11394013
H  0.26802334 -0.43030372 0.17536446
H  -0.59522553 0.60832077 -0.05483022
H  -1.43055085 -0.19020847 0.19480007
12
MD Step 336.5 Units = [eV / Ang.]
C  -0.86148776 0.11959683 0.58090658
C  -0.83056685 -0.72408741 -0.40496598
C  1.32168575 2.76320607 -0.41131384
C  -0.81691941 0.02500597 0.74510585
C  2.14882020 0.15071700 -0.64179646
C  -0.41352327 -1.03287782 -0.04322482
H  0.36034074 -0.01496711 -0.24164838
H  -0.02622261 -0.34086507 0.23706227
H  0.80323597 -0.19497497 -0.08590108
H  0.11135799 -0.79352527 0.18521908
H  -0.30338530 0.21138877 -0.07525776
H  -1.49333545 -0.16861700 0.15581454
12
MD Step 337.0 Units = [eV / Ang.]
C  -0.90024285 0.07767618 0.55004455
C  -0.89200344 -0.60814586 -0.43357293
C  0.99659245 2.62279773 -0.44209369
C  -0.80901530 0.26332059 0.80564952
C  1.84477911 0.35202919 -0.69957921
C  -0.28085173 -1.04909235 0.06512252
H  0.48532809 0.19338887 -0.23423348
H  -0.03944246 -0.20225728 0.24116388
H  1.01511228 -0.21851834 -0.06305464
H  -0.02164442 -1.09857180 0.17930217
H  0.00287926 -0.19159568 -0.09166669
H  -1.40149099 -0.14103126 0.12291800
12
MD Step 337.5 Units = [eV / Ang.]
C  -0.91286819 0.05948714 0.51136312
C  -0.91977425 -0.46244763 -0.46069611
C  0.72580307 2.41946627 -0.46364195
C  -0.79602287 0.44486389 0.87238426
C  1.49842480 0.49717727 -0.75890487
C  -0.27085735 -1.04037200 0.17642806
H  0.58175840 0.36774413 -0.22163311
H  -0.05849480 -0.04893701 0.24328852
H  1.14176387 -0.24162025 -0.04465076
H  -0.12342980 -1.32826541 0.15821393
H  0.29898151 -0.56054472 -0.10086956
H  -1.16528438 -0.10655169 0.08871847
12
MD Step 338.0 Units = [eV / Ang.]
C  -0.89449909 0.07331446 0.46541462
C  -0.92055606 -0.28412542 -0.48577778
C  0.52753551 2.16518356 -0.47761173
C  -0.78028733 0.55693671 0.94313323
C  1.13231553 0.56348476 -0.82008986
C  -0.35606419 -1.01034216 0.29581022
H  0.64324450 0.49798662 -0.20390328
H  -0.07763057 0.10882877 0.24288121
H  1.16624546 -0.26650336 -0.02891214
H  -0.18970616 -1.47252104 0.12402590
H  0.56546680 -0.86699131 -0.10154124
H  -0.81606440 -0.06525156 0.04657086
12
MD Step 338.5 Units = [eV / Ang.]
C  -0.84244541 0.12414470 0.41313928
C  -0.90163520 -0.07145585 -0.50829297
C  0.40851779 1.87158632 -0.48630718
C  -0.76384104 0.59207639 1.01517823
C  0.76542537 0.54007699 -0.88239286
C  -0.49696691 -0.96241173 0.42589588
H  0.66620253 0.57767951 -0.18155695
H  -0.09158327 0.26076775 0.23949583
H  1.08443084 -0.29417879 -0.01347575
H  -0.21835718 -1.52634502 0.07960952
H  0.78847136 -1.09359697 -0.09375940
H  -0.39821888 -0.01834330 -0.00753364
12
MD Step 339.0 Units = [eV / Ang.]
C  -0.75595212 0.21409305 0.35572986
C  -0.87013105 0.17565947 -0.52781110
C  0.36294731 1.54896807 -0.49206176
C  -0.74906629 0.54669893 1.08560054
C  0.41357337 0.42503295 -0.94453102
C  -0.65169059 -0.89967826 0.56615997
H  0.64949130 0.60361948 -0.15545474
H  -0.09604899 0.39752559 0.23286811
H  0.90594071 -0.32408973 0.00397391
H  -0.20865474 -1.48828037 0.02821441
H  0.95883310 -1.23158330 -0.07846167
H  0.04075798 0.03203412 -0.07422651
12
MD Step 339.5 Units = [eV / Ang.]
C  -0.63607929 0.34265447 0.29452926
C  -0.83242306 0.45544062 -0.54403032
C  0.37442894 1.20595218 -0.49665736
C  -0.73874300 0.42048651 1.15143033
C  0.09029649 0.22214088 -1.00505481
C  -0.78388693 -0.82507214 0.71335362
H  0.59415018 0.57555701 -0.12670340
H  -0.08795276 0.51133431 0.22295389
H  0.65198324 -0.35425358 0.02510215
H  -0.16094284 -1.35976165 -0.02674760
H  1.07069437 -1.27774640 -0.05700849
H  0.45847468 0.08326777 -0.15116728
12
MD Step 340.0 Units = [eV / Ang.]
C  -0.48577279 0.50666670 0.23095584
C  -0.79377085 0.76419532 -0.55679037
C  0.42008304 0.84975477 -0.50097464
C  -0.73550645 0.21669097 1.20970208
C  -0.19240556 -0.06166234 -1.06253901
C  -0.86693204 -0.74156790 0.86252736
H  0.50332479 0.49621208 -0.09656054
H  -0.06553942 0.59642478 0.20993448
H  0.35094381 -0.38182225 0.05055842
H  -0.07684666 -1.14552192 -0.08181042
H  1.12026941 -1.23211764 -0.03091330
H  0.82215272 0.13274743 -0.23408991
12
MD Step 340.5 Units = [eV / Ang.]
C  -0.31005095 0.69995032 0.16643866
C  -0.75810679 1.09642181 -0.56606762
C  0.47531564 0.48678310 -0.50495080
C  -0.74077281 -0.05669825 1.25752912
C  -0.42383890 -0.41775509 -1.11562080
C  -0.88451109 -0.65221733 1.00808581
H  0.38236131 0.37157952 -0.06633304
H  -0.02835470 0.64924091 0.19419385
H  0.03327441 -0.40381220 0.07992504
H  0.04002184 -0.85494506 -0.13356940
H  1.10518552 -1.09674970 -0.00172080
H  1.10947651 0.17820197 -0.31791002
12
MD Step 341.0 Units = [eV / Ang.]
C  -0.11620526 0.91281818 0.10233042
C  -0.72794753 1.44496812 -0.57196171
C  0.51778881 0.12323477 -0.50777549
C  -0.75333606 -0.38523297 1.29228749
C  -0.59505459 -0.83604013 -1.16296046
C  -0.82886157 -0.56003171 1.14453309
H  0.23894878 0.21136738 -0.03724801
H  0.02282760 0.66852975 0.17627685
H  -0.27280881 -0.41773410 0.11192687
H  0.18299535 -0.50396939 -0.17890185
H  1.02461922 -0.87575351 0.02902127
H  1.30703406 0.21784362 -0.39752846
12
MD Step 341.5 Units = [eV / Ang.]
C  0.08617630 1.13172655 0.03978952
C  -0.70438176 1.80120712 -0.57466987
C  0.52978767 -0.23453015 -0.50819589
C  -0.76795408 -0.74644681 1.31196118
C  -0.70009700 -1.30400472 -1.20318196
C  -0.69815756 -0.46771174 1.26684260
H  0.08311446 0.02928246 -0.01029006
H  0.08609422 0.65536434 0.15683019
H  -0.54398679 -0.42196148 0.14476227
H  0.34123561 -0.11676688 -0.21534697
H  0.88031387 -0.57651818 0.05975443
H  1.40785507 0.25035951 -0.46825544
12
MD Step 342.0 Units = [eV / Ang.]
C  0.28557829 1.33946604 -0.02036615
C  -0.68713583 2.15518883 -0.57444952
C  0.49894632 -0.57988720 -0.50479801
C  -0.77446600 -1.10954141 1.31560573
C  -0.73798605 -1.80485687 -1.23485551
C  -0.49415529 -0.37735194 1.37056101
H  -0.07315889 -0.15722343 0.01398172
H  0.15849063 0.61311778 0.13653041
H  -0.76279026 -0.41581907 0.17642639
H  0.49910794 0.27392717 -0.24160309
H  0.67838666 -0.21184906 0.08892367
H  1.40918248 0.27482915 -0.52595666
12
MD Step 342.5 Units = [eV / Ang.]
C  0.46945214 1.51626168 -0.07778945
C  -0.67467894 2.49581475 -0.57156334
C  0.41781101 -0.90609764 -0.49620584
C  -0.75814292 -1.43749968 1.30377806
C  -0.71508176 -2.31528878 -1.25656786
C  -0.22071975 -0.29021740 1.45182131
H  -0.21686840 -0.32810795 0.03559192
H  0.23614224 0.54736301 0.11599983
H  -0.91731919 -0.39947280 0.20495249
H  0.63674588 0.62904023 -0.25797889
H  0.43152875 0.19755897 0.11505580
H  1.31113095 0.29064562 -0.56709405
12
MD Step 343.0 Units = [eV / Ang.]
C  0.62564928 1.64193822 -0.13265589
C  -0.66440333 2.81109172 -0.56620671
C  0.28290667 -1.20658890 -0.48119023
C  -0.70182393 -1.69224692 1.27867262
C  -0.64698959 -2.80383035 -1.26708206
C  0.11648013 -0.20668876 1.50742882
H  -0.33549357 -0.46295111 0.05521128
H  0.31443217 0.46563151 0.09571502
H  -1.00038556 -0.37373314 0.22856004
H  0.73236198 0.90853669 -0.26653517
H  0.16074762 0.62134593 0.13691318
H  1.11651813 0.29749512 -0.58883089
12
MD Step 343.5 Units = [eV / Ang.]
C  0.74415948 1.69893650 -0.18556765
C  -0.65288445 3.08856477 -0.55843245
C  0.09384932 -1.47527891 -0.45872505
C  -0.58980005 -1.84213612 1.24374998
C  -0.55868303 -3.23120602 -1.26555683
C  0.50908352 -0.12643001 1.53513890
H  -0.41883668 -0.54399888 0.07406037
H  0.38826775 0.37694991 0.07592144
H  -1.00864308 -0.33985883 0.24573923
H  0.76625290 1.07916730 -0.27069378
H  -0.10464951 1.01986849 0.15369026
H  0.83188385 0.29542178 -0.58932440
12
MD Step 344.0 Units = [eV / Ang.]
C  0.81870517 1.67550996 -0.23730106
C  -0.63624137 3.31596620 -0.54808416
C  -0.14709823 -1.70684788 -0.42803992
C  -0.41246277 -1.86945171 1.20285313
C  -0.48153659 -3.55397601 -1.25172581
C  0.94409953 -0.04880332 1.53419323
H  -0.46073727 -0.55935459 0.09363445
H  0.45245378 0.29110533 0.05656948
H  -0.94210283 -0.29940877 0.25531664
H  0.72550538 1.12222083 -0.27430862
H  -0.33009716 1.34806831 0.16516103
H  0.46951235 0.28497162 -0.56826839
12
MD Step 344.5 Units = [eV / Ang.]
C  0.84770647 1.56815307 -0.28844643
C  -0.61059963 3.48209058 -0.53477087
C  -0.43489458 -1.89690527 -0.38870792
C  -0.17001403 -1.77492262 1.15911698
C  -0.44687542 -3.73174420 -1.22593263
C  1.40142346 0.02655275 1.50605335
H  -0.46012926 -0.50537325 0.11530891
H  0.50215929 0.21764940 0.03729788
H  -0.80419816 -0.25414713 0.25654411
H  0.60767342 1.03819567 -0.28051105
H  -0.48216442 1.56308500 0.17167331
H  0.04991286 0.26736601 -0.52762566
12
MD Step 345.0 Units = [eV / Ang.]
C  0.83427670 1.38244086 -0.33906642
C  -0.57261927 3.57780927 -0.51789509
C  -0.76102230 -2.04204813 -0.34079316
C  0.12636801 -1.57719995 1.11414703
C  -0.47752763 -3.73629902 -1.18896664
C  1.85178340 0.09915070 1.45511404
H  -0.42107348 -0.38744364 0.13994749
H  0.53343208 0.16474275 0.01747957
H  -0.60239928 -0.20597981 0.24923304
H  0.42182429 0.84631073 -0.29082241
H  -0.53680807 1.63391237 0.17394485
H  -0.39623444 0.24460389 -0.47232229
12
MD Step 345.5 Units = [eV / Ang.]
C  0.78527578 1.13200294 -0.38849852
C  -0.52002340 3.59702141 -0.49675268
C  -1.11246646 -2.13981412 -0.28504104
C  0.45642126 -1.30756133 1.06781474
C  -0.58057382 -3.55930826 -1.14177248
C  2.25656810 0.16732038 1.38898496
H  -0.35176141 -0.21888973 0.16764778
H  0.54367440 0.13804454 -0.00366225
H  -0.34914881 -0.15688473 0.23392852
H  0.18645596 0.57910052 -0.30489873
H  -0.48631075 1.54960536 0.17273932
H  -0.82811085 0.21936303 -0.41048962
12
MD Step 346.0 Units = [eV / Ang.]
C  0.70978590 0.83598916 -0.43537817
C  -0.45202969 3.53734804 -0.47068248
C  -1.47078658 -2.18860998 -0.22306926
C  0.79485513 -1.00222248 1.01866897
C  -0.74465714 -3.21507794 -1.08519666
C  2.57098241 0.22834326 1.31786416
H  -0.26284061 -0.01838639 0.19770251
H  0.53198736 0.13987986 -0.02688541
H  -0.06270075 -0.10880101 0.21208016
H  -0.07476852 0.27451416 -0.32092583
H  -0.34164482 1.32242166 0.16859143
H  -1.19818268 0.19460164 -0.35276944
12
MD Step 346.5 Units = [eV / Ang.]
C  0.61752018 0.51591038 -0.47785497
C  -0.36961729 3.40035024 -0.43923562
C  -1.81191179 -2.18764925 -0.15747056
C  1.11588687 -0.69524829 0.96465893
C  -0.94317579 -2.73694555 -1.01989860
C  2.75110410 0.27906911 1.25272864
H  -0.16559741 0.19323402 0.22876103
H  0.49930418 0.16889091 -0.05274211
H  0.23277979 -0.06345943 0.18612552
H  -0.33771644 -0.03143298 -0.33636848
H  -0.12904889 0.98439365 0.16172026
H  -1.45952752 0.17288719 -0.31042405
12
MD Step 347.0 Units = [eV / Ang.]
C  0.51759153 0.19275116 -0.51391574
C  -0.27556507 3.19120949 -0.40231852
C  -2.10731780 -2.13692985 -0.09172548
C  1.39675292 -0.41409473 0.90380809
C  -1.14171734 -2.16896980 -0.94643904
C  2.76351433 0.31681460 1.20264595
H  -0.07046899 0.39587645 0.25910924
H  0.44828075 0.22025924 -0.08141969
H  0.50851018 -0.02217594 0.15938253
H  -0.58135050 -0.30936937 -0.34870161
H  0.11746854 0.57896230 0.15213928
H  -1.57569856 0.15566645 -0.29256500
12
MD Step 347.5 Units = [eV / Ang.]
C  0.41782127 -0.11502912 -0.54170041
C  -0.17427323 2.91792385 -0.36027221
C  -2.32699143 -2.03722784 -0.02984107
C  1.61956854 -0.17817165 0.83461184
C  -1.30636683 -1.55654413 -0.86543266
C  2.59429223 0.34011854 1.17215910
H  0.01387421 0.57219237 0.28696324
H  0.38296417 0.28644552 -0.11264759
H  0.73418548 0.01433012 0.13566928
H  -0.78948285 -0.53818930 -0.35588614
H  0.36427503 0.15133756 0.13985107
H  -1.52986658 0.14281408 -0.30347445
12
MD Step 348.0 Units = [eV / Ang.]
C  0.32453289 -0.39242682 -0.55973238
C  -0.07140829 2.59022188 -0.31386773
C  -2.44398809 -1.89004346 0.02427045
C  1.77169686 0.00036055 0.75614968
C  -1.40986297 -0.93931695 -0.77765409
C  2.25359665 0.34900344 1.15993414
H  0.08087076 0.70855451 0.31070326
H  0.30831447 0.35825645 -0.14569042
H  0.88265116 0.04600820 0.11866101
H  -0.95091087 -0.70436246 -0.35655058
H  0.58394542 -0.25897332 0.12500212
H  -1.32943797 0.13271800 -0.34122548
12
MD Step 348.5 Units = [eV / Ang.]
C  0.24263640 -0.62798429 -0.56703414
C  0.02656045 2.21845274 -0.26423148
C  -2.43952945 -1.69747242 0.06754780
C  1.84525334 0.11476503 0.66801186
C  -1.43442785 -0.34794518 -0.68404878
C  1.77370193 0.34468389 1.15935533
H  0.12600501 0.79521812 0.32902037
H  0.22967657 0.42600377 -0.17941986
H  0.93507987 0.07338016 0.11112174
H  -1.05859156 -0.80013389 -0.34996567
H  0.75765434 -0.62185951 0.10794000
H  -1.00401905 0.12289158 -0.39829715
12
MD Step 349.0 Units = [eV / Ang.]
C  0.17579102 -0.81343236 -0.56314517
C  0.11288183 1.81268481 -0.21272299
C  -2.30707342 -1.46203079 0.09842526
C  1.83635240 0.16188414 0.57017770
C  -1.37173238 0.19572901 -0.58567704
C  1.20141542 0.32896901 1.16075365
H  0.14655272 0.82604094 0.34098889
H  0.15228811 0.48054243 -0.21244327
H  0.88504272 0.09728883 0.11425560
H  -1.10855506 -0.82164572 -0.33593507
H  0.87472169 -0.91684847 0.08919052
H  -0.59768504 0.11081818 -0.46386807
12
MD Step 349.5 Units = [eV / Ang.]
C  0.12650305 -0.94329935 -0.54808203
C  0.18105219 1.38214292 -0.16080017
C  -2.05385478 -1.18653302 0.11713498
C  1.74452852 0.14090515 0.46294057
C  -1.22125276 0.67653024 -0.48364397
C  0.58818015 0.30372899 1.15418207
H  0.14132667 0.79813073 0.34609567
H  0.08088330 0.51406398 -0.24325711
H  0.73996536 0.11858389 0.12741938
H  -1.09907613 -0.76763592 -0.31469519
H  0.93066907 -1.13126888 0.06940338
H  -0.15892464 0.09465127 -0.52669758
12
MD Step 350.0 Units = [eV / Ang.]
C  0.09608133 -1.01479443 -0.52228461
C  0.22532934 0.93501390 -0.10990216
C  -1.69935362 -0.87413735 0.12555837
C  1.57257636 0.05302648 0.34691673
C  -0.98816977 1.08332412 -0.37905368
C  -0.01846022 0.27065338 1.13161364
H  0.11054985 0.71168899 0.34425642
H  0.01941233 0.52060831 -0.27039919
H  0.51941651 0.13787385 0.14830625
H  -1.03040140 -0.63902774 -0.28687167
H  0.92502038 -1.25776913 0.04930603
H  0.26799893 0.07353962 -0.57744613
12
MD Step 350.5 Units = [eV / Ang.]
C  0.08443706 -1.02809627 -0.48657649
C  0.24122671 0.47853450 -0.06135939
C  -1.27133772 -0.52861141 0.12671115
C  1.32685711 -0.09789084 0.22313325
C  -0.68150801 1.40695680 -0.27299859
C  -0.57988726 0.23130522 1.08798064
H  0.05590967 0.57017635 0.33583668
H  -0.02913957 0.49634212 -0.29258329
H  0.25089915 0.15542689 0.17351518
H  -0.90514000 -0.43950308 -0.25349675
H  0.85960278 -1.29222117 0.02967914
H  0.64808009 0.04758087 -0.60984155
12
MD Step 351.0 Units = [eV / Ang.]
C  0.08976010 -0.98700792 -0.44214617
C  0.22596770 0.01922324 -0.01633569
C  -0.80096397 -0.15476315 0.12407841
C  1.01801852 -0.30377204 0.09315346
C  -0.31283014 1.63930576 -0.16657297
C  -1.06776383 0.18732892 1.02115183
H  -0.01921939 0.38077065 0.32167325
H  -0.06286382 0.43968004 -0.30881252
H  -0.03532308 0.17122436 0.19927953
H  -0.72925852 -0.17697599 -0.21605624
H  0.73764738 -1.23257228 0.01134553
H  0.95682904 0.01755839 -0.62075843
12
MD Step 351.5 Units = [eV / Ang.]
C  0.10816287 -0.89974527 -0.39053591
C  0.17889772 -0.43685962 0.02421158
C  -0.31851379 0.24107619 0.12103376
C  0.66186421 -0.55021868 -0.04083882
C  0.10443996 1.77364242 -0.06087981
C  -1.46288028 0.14063931 0.93129356
H  -0.10947899 0.15492848 0.30307322
H  -0.08100294 0.35131800 -0.31847105
H  -0.31076048 0.18510036 0.22211396
H  -0.51338806 0.13437379 -0.17650193
H  0.56371362 -1.07889482 -0.00485076
H  1.17894617 -0.01536016 -0.60964780
12
MD Step 352.0 Units = [eV / Ang.]
C  0.13345591 -0.77949844 -0.33358689
C  0.10180647 -0.88394370 0.05955793
C  0.14934099 0.65067636 0.12047707
C  0.27988588 -0.81453515 -0.17608429
C  0.55507287 1.80633445 0.04300565
C  -1.75296887 0.09350895 0.82008981
H  -0.20731899 -0.09129334 0.28174895
H  -0.08401059 0.23422330 -0.32139708
H  -0.55163412 0.19688392 0.23923038
H  -0.27388039 0.47220480 -0.13714920
H  0.34432039 -0.83470785 -0.01810819
H  1.30593045 -0.04985332 -0.57778413
12
MD Step 352.5 Units = [eV / Ang.]
C  0.15721987 -0.64425040 -0.27330569
C  -0.00084215 -1.31648359 0.08923491
C  0.58058074 1.06371961 0.12470870
C  -0.10130899 -1.06502075 -0.30949918
C  1.02161324 1.73968360 0.14414845
C  -1.93061760 0.04850152 0.69013343
H  -0.30310378 -0.33760591 0.25964844
H  -0.07359462 0.09357824 -0.31793314
H  -0.74003959 0.20648735 0.24869818
H  -0.03277726 0.80538219 -0.10038999
H  0.08904348 -0.50941994 -0.02780417
H  1.33382666 -0.08457192 -0.52763994
12
MD Step 353.0 Units = [eV / Ang.]
C  0.16942456 -0.51546635 -0.21162040
C  -0.12186649 -1.72919919 0.11304276
C  0.95768597 1.46788162 0.13546417
C  -0.45234425 -1.26283444 -0.43813680
C  1.48369906 1.58534623 0.24196698
C  -1.99198498 0.00833805 0.54459582
H  -0.38575128 -0.56095045 0.23866575
H  -0.05271684 -0.06336850 -0.30894399
H  -0.86379733 0.21392699 0.24941659
H  0.18412586 1.09589641 -0.06822544
H  -0.18831199 -0.12138639 -0.03372087
H  1.26183769 -0.11818397 -0.46250457
12
MD Step 353.5 Units = [eV / Ang.]
C  0.15965951 -0.41544734 -0.15006180
C  -0.25154225 -2.11714884 0.13104658
C  1.26693549 1.84918963 0.15401241
C  -0.74539757 -1.36723303 -0.55973744
C  1.91764305 1.36719853 0.33650926
C  -1.93658456 -0.02428828 0.38715346
H  -0.44401469 -0.73820534 0.22026954
H  -0.02550533 -0.22760840 -0.29578552
H  -0.91564541 0.21929208 0.24099432
H  0.35140356 1.30410712 -0.04174117
H  -0.46906530 0.29952686 -0.03632982
H  1.09211351 -0.14938299 -0.38632983
12
MD Step 354.0 Units = [eV / Ang.]
C  0.11887310 -0.36371491 -0.08945649
C  -0.37807477 -2.47575188 0.14353111
C  1.49778752 2.19265039 0.18123612
C  -0.95962573 -1.34361597 -0.67313412
C  2.29694849 1.12191714 0.42869597
C  -1.76822072 -0.04687438 0.22204696
H  -0.46827500 -0.84978811 0.20514948
H  0.00297769 -0.38891282 -0.28020690
H  -0.89240365 0.22268874 0.22362031
H  0.44950883 1.39671806 -0.02075812
H  -0.73027066 0.71159385 -0.03703141
H  0.83077490 -0.17691010 -0.30369290
12
MD Step 354.5 Units = [eV / Ang.]
C  0.04121456 -0.37325998 -0.02976833
C  -0.48839009 -2.80072110 0.15091490
C  1.64271472 2.48314100 0.21765105
C  -1.08576443 -1.17203844 -0.77828618
C  2.59435527 0.89547938 0.52034387
C  -1.49689536 -0.05722349 0.05410623
H  -0.45244138 -0.88329528 0.19302009
H  0.02714770 -0.53662929 -0.26417883
H  -0.79451053 0.22418824 0.19797484
H  0.46974472 1.35510719 -0.00388466
H  -0.94713934 1.06488077 -0.03817670
H  0.48996415 -0.19962899 -0.21971629
12
MD Step 355.0 Units = [eV / Ang.]
C  -0.07455337 -0.44782574 0.02981818
C  -0.56925724 -3.08789303 0.15361837
C  1.69768397 2.70649889 0.26335247
C  -1.12783159 -0.85287688 -0.87588337
C  2.78546032 0.73491356 0.61380550
C  -1.14120359 -0.05349580 -0.11145743
H  -0.39537094 -0.83603967 0.18268281
H  0.04149065 -0.66070316 -0.24965486
H  -0.62613845 0.22379819 0.16519543
H  0.41653748 1.18070227 0.01098725
H  -1.09718259 1.30959094 -0.04270311
H  0.09036535 -0.21666957 -0.13976125
12
MD Step 355.5 Units = [eV / Ang.]
C  -0.22457546 -0.58112816 0.09056285
C  -0.60863128 -3.33299594 0.15191513
C  1.66321970 2.85068678 0.31791681
C  -1.10097176 -0.40715264 -0.96671383
C  2.85304945 0.67696487 0.71119932
C  -0.73020850 -0.03423313 -0.26964325
H  -0.30130244 -0.71559329 0.17235502
H  0.04127860 -0.75280143 -0.23830005
H  -0.39585848 0.22147104 0.12688170
H  0.30589609 0.89493796 0.02594381
H  -1.16502538 1.40746039 -0.05336803
H  -0.33687054 -0.22761644 -0.06874947
12
MD Step 356.0 Units = [eV / Ang.]
C  -0.40051531 -0.75825580 0.15369573
C  -0.59705181 -3.53149485 0.14580575
C  1.54580635 2.90688683 0.38030189
C  -1.02636617 0.12855807 -1.05112027
C  2.79054145 0.73774771 0.81347222
C  -0.30333126 0.00160385 -0.41664681
H  -0.17912392 -0.53813559 0.16015644
H  0.02328002 -0.80733046 -0.23123997
H  -0.11761496 0.21715499 0.08509996
H  0.16078793 0.53379822 0.04240970
H  -1.14611212 1.34213390 -0.07181725
H  -0.75030020 -0.23266686 -0.01011738
12
MD Step 356.5 Units = [eV / Ang.]
C  -0.59099212 -0.95869749 0.21997319
C  -0.52888045 -3.67858982 0.13495769
C  1.35911259 2.87033030 0.44880747
C  -0.92542586 0.71025898 -1.12878197
C  2.60307354 0.90802534 0.91971980
C  0.09318006 0.05449326 -0.55097893
H  -0.04073369 -0.32521675 0.14458180
H  -0.01367929 -0.82214413 -0.22888847
H  0.18847729 0.21088280 0.04233498
H  0.00549597 0.13939594 0.06085752
H  -1.04770753 1.12391106 -0.09791126
H  -1.10192050 -0.23264951 0.03532818
12
MD Step 357.0 Units = [eV / Ang.]
C  -0.78333155 -1.15993407 0.28940521
C  -0.40312441 -3.76946397 0.11874480
C  1.12432861 2.74072189 0.52115693
C  -0.81544982 1.29446357 -1.19884157
C  2.30577531 1.15636832 1.02712714
C  0.41367272 0.12406136 -0.67418825
H  0.10095447 -0.10002367 0.12481601
H  -0.06845576 -0.79875870 -0.23090115
H  0.49619170 0.20287632 0.00133425
H  -0.13892356 -0.24807058 0.08089308
H  -0.88674732 0.78657730 -0.12965982
H  -1.34489040 -0.22881777 0.07011336
12
MD Step 357.5 Units = [eV / Ang.]
C  -0.96509049 -1.34058384 0.36121127
C  -0.22372580 -3.79974200 0.09637862
C  0.86888112 2.52222223 0.59473502
C  -0.70777502 1.84355780 -1.26022389
C  1.92010559 1.43858713 1.13155788
C  0.62291650 0.20868322 -0.79061369
H  0.23378544 0.11580708 0.10083367
H  -0.13768541 -0.74204194 -0.23626231
H  0.77480443 0.19362931 -0.03517652
H  -0.25699177 -0.59560437 0.10156605
H  -0.68553535 0.37792550 -0.16379144
H  -1.44368923 -0.22244011 0.09978533
12
MD Step 358.0 Units = [eV / Ang.]
C  -1.12506117 -1.48249368 0.43395995
C  0.00075899 -3.76607916 0.06710508
C  0.62309787 2.22303055 0.66695570
C  -0.60816950 2.32798470 -1.31195314
C  1.46983538 1.70904273 1.22849051
C  0.70491687 0.30514511 -0.90596755
H  0.34755659 0.30423724 0.07331734
H  -0.21622568 -0.65944641 -0.24348448
H  0.99263890 0.18391737 -0.06487891
H  -0.33906223 -0.87932441 0.12171298
H  -0.46707053 -0.05166799 -0.19665132
H  -1.38321551 -0.21434606 0.13139383
12
MD Step 358.5 Units = [eV / Ang.]
C  -1.25372826 -1.57168037 0.50580511
C  0.25798203 -3.66673407 0.03041275
C  0.41515072 1.85472599 0.73567293
C  -0.51850557 2.72597994 -1.35335934
C  0.97802680 1.92953322 1.31388517
C  0.66692376 0.40857527 -1.02521235
H  0.43455294 0.45166734 0.04347407
H  -0.29782377 -0.55998625 -0.25086510
H  1.12219027 0.17469628 -0.08625205
H  -0.38028092 -1.08381244 0.14021134
H  -0.25153515 -0.45830991 -0.22502211
H  -1.17295284 -0.20465501 0.17124958
12
MD Step 359.0 Units = [eV / Ang.]
C  -1.34335844 -1.59843191 0.57472827
C  0.53298661 -3.50198620 -0.01380235
C  0.26550383 1.43148901 0.79949455
C  -0.43872843 3.02210153 -1.38414844
C  0.46554824 2.07364413 1.38470900
C  0.53673143 0.51278060 -1.15067655
H  0.48958145 0.54889861 0.01282963
H  -0.37586279 -0.45317125 -0.25674074
H  1.14558417 0.16688881 -0.09883364
H  -0.37912299 -1.20020519 0.15611373
H  -0.05459329 -0.80917897 -0.24660453
H  -0.84426980 -0.19282918 0.22293107
12
MD Step 359.5 Units = [eV / Ang.]
C  -1.38796104 -1.55698328 0.63872895
C  0.80955260 -3.27432809 -0.06514205
C  0.18266871 0.96929986 0.85788830
C  -0.36843921 3.20565615 -1.40437917
C  -0.04910921 2.12691017 1.43908104
C  0.35456166 0.61089674 -1.28122942
H  0.50974298 0.59066195 -0.01695365
H  -0.44404833 -0.34807701 -0.25969491
H  1.05858824 0.16112082 -0.10324829
H  -0.33612655 -1.22420954 0.16869334
H  0.11271345 -1.08294542 -0.26012973
H  -0.44214329 -0.17800236 0.28638558
12
MD Step 360.0 Units = [eV / Ang.]
C  -1.38331879 -1.44516945 0.69595494
C  1.07153884 -2.98841848 -0.12269516
C  0.16181852 0.48513910 0.91104620
C  -0.30778932 3.26972167 -1.41440038
C  -0.54929276 2.08446665 1.47615057
C  0.16310686 0.69613071 -1.41271124
H  0.49417541 0.57512768 -0.04422467
H  -0.49694521 -0.25265140 -0.25869385
H  0.87165532 0.15750560 -0.10098274
H  -0.25312810 -1.15479840 0.17744994
H  0.24311750 -1.26766089 -0.26522609
H  -0.01493828 -0.15939280 0.35833247
12
MD Step 360.5 Units = [eV / Ang.]
C  -1.32716401 -1.26431156 0.74478825
C  1.30408343 -2.65084885 -0.18509107
C  0.18673288 -0.00384279 0.95958171
C  -0.25765698 3.21112052 -1.41479809
C  -1.01949433 1.94795150 1.49587342
C  -0.00059923 0.76238853 -1.53915951
H  0.44391924 0.50365771 -0.06747332
H  -0.53034059 -0.17326788 -0.25315145
H  0.60758109 0.15556852 -0.09399653
H  -0.13307006 -0.99394674 0.18211740
H  0.33198176 -1.35786343 -0.26220005
H  0.39402679 -0.13660551 0.43350923
12
MD Step 361.0 Units = [eV / Ang.]
C  -1.21953640 -1.01943642 0.78392583
C  1.49460950 -2.26982050 -0.25059404
C  0.23420087 -0.48115993 1.00418676
C  -0.21916692 3.03145622 -1.40637215
C  -1.44489253 1.72287289 1.49879947
C  -0.10952445 0.80468131 -1.65415312
H  0.36196665 0.38090974 -0.08546720
H  -0.54145951 -0.11447389 -0.24293623
H  0.29669484 0.15433859 -0.08430803
H  0.01965614 -0.74751303 0.18269615
H  0.37633105 -1.35211519 -0.25184247
H  0.75112076 -0.10973980 0.50606501
12
MD Step 361.5 Units = [eV / Ang.]
C  -1.06321258 -0.71974333 0.81248796
C  1.63357718 -1.85480061 -0.31721337
C  0.27919512 -0.93179573 1.04536827
C  -0.19272481 2.73906443 -1.39014474
C  -1.81133934 1.41703425 1.48593731
C  -0.14729216 0.81933249 -1.75178709
H  0.25345195 0.21522499 -0.09741730
H  -0.52907543 -0.07886498 -0.22833837
H  -0.02868782 0.15256220 -0.07367961
H  0.19847324 -0.42708648 0.17950601
H  0.37432554 -1.25159105 -0.23531305
H  1.03330910 -0.07933620 0.57059400
12
MD Step 362.0 Units = [eV / Ang.]
C  -0.86406731 -0.37909986 0.83016334
C  1.71497564 -1.41624353 -0.38281173
C  0.29919055 -1.34286771 1.08331782
C  -0.17681772 2.35139660 -1.36737206
C  -2.10589525 1.04019005 1.45870215
C  -0.10643914 0.80407684 -1.82714766
H  0.12585086 0.01907916 -0.10316955
H  -0.49356205 -0.06701416 -0.21001031
H  -0.33889407 0.14895040 -0.06345685
H  0.39372353 -0.05229481 0.17322904
H  0.32530865 -1.05992051 -0.21410006
H  1.22662631 -0.04625249 0.62265587
12
MD Step 362.5 Units = [eV / Ang.]
C  -0.63115632 -0.01619948 0.83736607
C  1.73655888 -0.96537833 -0.44520644
C  0.27674164 -1.70410466 1.11790408
C  -0.16697528 1.89687184 -1.33949953
C  -2.31796086 0.60487889 1.41890962
C  0.01418378 0.75811840 -1.87640703
H  -0.01101892 -0.19076991 -0.10338991
H  -0.43690158 -0.07742687 -0.18888863
H  -0.60971204 0.14238492 -0.05454778
H  0.59201025 0.34741067 0.16488044
H  0.23047674 -0.78423939 -0.19001382
H  1.32375371 -0.01154606 0.65889293
12
MD Step 363.0 Units = [eV / Ang.]
C  -0.37630988 0.34606939 0.83533499
C  1.69981775 -0.51405918 -0.50226936
C  0.20026622 -2.00809003 1.14874680
C  -0.15541593 1.41478149 -1.30800118
C  -2.44097862 0.12817126 1.36875098
C  0.21174209 0.68216660 -1.89675781
H  -0.14543020 -0.39387910 -0.09967102
H  -0.36263956 -0.10652524 -0.16609748
H  -0.82334492 0.13204566 -0.04749217
H  0.77630511 0.73290544 0.15564231
H  0.09411980 -0.43718885 -0.16514385
H  1.32186814 0.02360255 0.67695780
12
MD Step 363.5 Units = [eV / Ang.]
C  -0.11308931 0.68238296 0.82608511
C  1.60968866 -0.07460104 -0.55203274
C  0.06360058 -2.25030881 1.17531724
C  -0.13189056 0.95186270 -1.27406702
C  -2.47448462 -0.36622988 1.31064606
C  0.48082910 0.57843979 -1.88637534
H  -0.26477887 -0.56781560 -0.09446930
H  -0.27574248 -0.14871973 -0.14283140
H  -0.96807098 0.11746737 -0.04256454
H  0.92733147 1.05886008 0.14653245
H  -0.07481416 -0.03926877 -0.14168662
H  1.22142115 0.05793093 0.67544610
12
MD Step 364.0 Units = [eV / Ang.]
C  0.14484218 0.96792117 0.81213624
C  1.47400174 0.34048063 -0.59280616
C  -0.13498269 -2.42902088 1.19703117
C  -0.08591348 0.55505920 -1.23821228
C  -2.42594710 -0.84650348 1.24689538
C  0.81368339 0.45057044 -1.84453289
H  -0.35719432 -0.69099712 -0.09080138
H  -0.18230427 -0.19665002 -0.12021977
H  -1.03732246 0.09854912 -0.03987129
H  1.02639366 1.28097898 0.13798391
H  -0.26137770 0.37948323 -0.12156791
H  1.02612104 0.09012873 0.65396497
12
MD Step 364.5 Units = [eV / Ang.]
C  0.38563250 1.18204720 0.79601979
C  1.30267871 0.71891260 -0.62330146
C  -0.39366415 -2.54501877 1.21330951
C  -0.00994120 0.26187803 -1.19997680
C  -2.31148566 -1.27322360 1.17910772
C  1.19922161 0.30336140 -1.77190174
H  -0.41343970 -0.74623584 -0.09170503
H  -0.08906136 -0.24168271 -0.09918194
H  -1.02880879 0.07554463 -0.03942051
H  1.05914925 1.36559626 0.12952172
H  -0.44438107 0.77991505 -0.10585448
H  0.74409985 0.11890575 0.61338322
12
MD Step 365.0 Units = [eV / Ang.]
C  0.60092226 1.31180400 0.77967304
C  1.10673556 1.04934080 -0.64274529
C  -0.70750827 -2.60128658 1.22360393
C  0.09761612 0.09157905 -1.15793540
C  -2.15441714 -1.60308294 1.10755353
C  1.62112776 0.14233511 -1.67098229
H  -0.42858408 -0.72406379 -0.09957965
H  -0.00272011 -0.27471341 -0.08029665
H  -0.94408144 0.04904442 -0.04115489
H  1.01912125 1.29835363 0.11975592
H  -0.59818330 1.11756512 -0.09410862
H  0.38997139 0.14312460 0.55621636
12
MD Step 365.5 Units = [eV / Ang.]
C  0.78678973 1.35414620 0.76391901
C  0.89716011 1.32220068 -0.65095467
C  -1.06830600 -2.60254765 1.22738490
C  0.23089431 0.04088788 -1.11009660
C  -1.98114962 -1.79607737 1.03075155
C  2.05565426 -0.02687852 -1.54649719
H  -0.40290013 -0.62477265 -0.11560690
H  0.07083227 -0.28723896 -0.06371287
H  -0.78867622 0.01994342 -0.04494645
H  0.90953021 1.08824746 0.10677911
H  -0.69692984 1.35008504 -0.08400358
H  -0.01289907 0.16200448 0.48698369
12
MD Step 366.0 Units = [eV / Ang.]
C  0.94363729 1.31616286 0.74822319
C  0.68384998 1.53066875 -0.64834133
C  -1.46390967 -2.55473510 1.22410302
C  0.37732828 0.08615572 -1.05455759
C  -1.81510473 -1.82449282 0.94565724
C  2.47023449 -0.19925361 -1.40546882
H  -0.34166904 -0.45843272 -0.13945311
H  0.12729386 -0.27255333 -0.04913573
H  -0.57276315 -0.01062415 -0.05055523
H  0.74261738 0.76513716 0.08882457
H  -0.72046339 1.44661275 -0.07155934
H  -0.43105130 0.17535448 0.41226312
12
MD Step 366.5 Units = [eV / Ang.]
C  1.07514887 1.21321694 0.73082244
C  0.47475075 1.67148076 -0.63583043
C  -1.87738885 -2.46436977 1.21312918
C  0.52038658 0.19084251 -0.99011609
C  -1.67077323 -1.68044246 0.84858974
C  2.82438266 -0.37093848 -1.25667021
H  -0.25396707 -0.24287235 -0.16935161
H  0.16452047 -0.22683650 -0.03589898
H  -0.31196733 -0.04141182 -0.05755798
H  0.53674450 0.37186764 0.06488155
H  -0.65986204 1.39572921 -0.05212964
H  -0.82197532 0.18373432 0.34013203
12
MD Step 367.0 Units = [eV / Ang.]
C  1.18674469 1.06571467 0.70916422
C  0.27536922 1.74539759 -0.61470210
C  -2.28653075 -2.33790592 1.19368863
C  0.64312376 0.31491847 -0.91657950
C  -1.55044329 -1.37856957 0.73661438
C  3.07408561 -0.53946675 -1.10928670
H  -0.15087593 -0.00034933 -0.20250894
H  0.18275834 -0.14987425 -0.02311783
H  -0.02783026 -0.07126214 -0.06526347
H  0.31249855 -0.04552364 0.03500638
H  -0.52017456 1.20851201 -0.02184237
H  -1.13872538 0.18840885 0.27882730
12
MD Step 367.5 Units = [eV / Ang.]
C  1.28407831 0.89554462 0.68048173
C  0.08871202 1.75713944 -0.58638511
C  -2.66434726 -2.18109964 1.16481487
C  0.73119182 0.42265166 -0.83471724
C  -1.44502676 -0.95256938 0.60877137
C  3.17970131 -0.70345197 -0.97098672
H  -0.04367574 0.24602083 -0.23567028
H  0.18447338 -0.04521673 -0.00988611
H  0.25277720 -0.09936633 -0.07264385
H  0.08921846 -0.44591100 0.00026076
H  -0.31903638 0.91524820 0.02112997
H  -1.33806636 0.19101029 0.23483061
12
MD Step 368.0 Units = [eV / Ang.]
C  1.37197512 0.72312612 0.64232149
C  -0.08438146 1.71478060 -0.55225267
C  -2.98115607 -1.99853038 1.12535441
C  0.77450384 0.48686736 -0.74597384
C  -1.33842287 -0.44714890 0.46659283
C  3.11544460 -0.86179921 -0.84605916
H  0.05753133 0.47514610 -0.26565588
H  0.17383168 0.08026452 0.00453009
H  0.49986063 -0.12551183 -0.07832597
H  -0.11715548 -0.79752514 -0.03759639
H  -0.08184956 0.55736452 0.07603310
H  -1.39018175 0.19296623 0.21103199
12
MD Step 368.5 Units = [eV / Ang.]
C  1.45393289 0.56557162 0.59288998
C  -0.24464259 1.62871028 -0.51346495
C  -3.20836850 -1.79338649 1.07406705
C  0.76748128 0.48973266 -0.65213280
C  -1.21324041 0.09109706 0.31376657
C  2.87697281 -1.01276097 -0.73445180
H  0.14458300 0.66968668 -0.28974283
H  0.15596993 0.21730964 0.02054858
H  0.68425268 -0.15020812 -0.08068809
H  -0.29477003 -1.07877452 -0.07647511
H  0.16425762 0.17810010 0.13986449
H  -1.28642868 0.19492207 0.20581891
12
MD Step 369.0 Units = [eV / Ang.]
C  1.53210249 0.43596529 0.53119780
C  -0.39369617 1.51040238 -0.47088446
C  -3.32336208 -1.56761713 1.00983872
C  0.70829197 0.42130890 -0.55506689
C  -1.05553736 0.62065056 0.15525195
C  2.48371081 -1.15323038 -0.63223490
H  0.21146031 0.81666422 -0.30586006
H  0.13623575 0.35545406 0.03820183
H  0.78266062 -0.17458427 -0.07808445
H  -0.43547338 -1.27669440 -0.11423945
H  0.39538298 -0.18476551 0.20826821
H  -1.04177594 0.19644626 0.21361169
12
MD Step 369.5 Units = [eV / Ang.]
C  1.60751339 0.34343794 0.45703673
C  -0.53343551 1.37124975 -0.42506721
C  -3.31406641 -1.32245481 0.93198063
C  0.59768669 0.27732046 -0.45661528
C  -0.85730601 1.10842227 -0.00368939
C  1.97475494 -1.27856432 -0.53328666
H  0.25413305 0.90730740 -0.31263213
H  0.11954821 0.48420796 0.05714567
H  0.78240617 -0.20003029 -0.06916727
H  -0.53392794 -1.38451430 -0.14886374
H  0.59347722 -0.50255577 0.27651423
H  -0.69078380 0.19617372 0.22664442
12
MD Step 370.0 Units = [eV / Ang.]
C  1.68033692 0.29359288 0.37087584
C  -0.66553708 1.22165165 -0.37631333
C  -3.18166993 -1.05916515 0.84053228
C  0.43791960 0.05719871 -0.35856131
C  -0.61669249 1.52991559 -0.15819678
C  1.40013096 -1.38294269 -0.43140530
H  0.27027386 0.93657917 -0.30934211
H  0.10995982 0.59403549 0.07672726
H  0.68422655 -0.22768015 -0.05321937
H  -0.58671110 -1.39946647 -0.17848655
H  0.74670936 -0.75601655 0.34020999
H  -0.27894647 0.19229753 0.23717938
12
MD Step 370.5 Units = [eV / Ang.]
C  1.75004744 0.28888094 0.27374434
C  -0.79114437 1.07044213 -0.32475067
C  -2.94037414 -0.77977285 0.73646195
C  0.23206191 -0.23703810 -0.26264651
C  -0.33671398 1.86757723 -0.30414868
C  0.81097133 -1.46004172 -0.32195756
H  0.25902441 0.90276767 -0.29587909
H  0.11042959 0.67704093 0.09608588
H  0.50204495 -0.25793233 -0.03037980
H  -0.59173326 -1.32146704 -0.20142413
H  0.84839407 -0.93360800 0.39563861
H  0.14699202 0.18315114 0.23925565
12
MD Step 371.0 Units = [eV / Ang.]
C  1.81539040 0.32868394 0.16715529
C  -0.91068593 0.92461254 -0.27042810
C  -2.61429260 -0.48752476 0.62167845
C  -0.01611508 -0.60083562 -0.17055286
C  -0.02339644 2.10874277 -0.43820207
C  0.25188522 -1.50376974 -0.20261121
H  0.22092784 0.80737337 -0.27271019
H  0.12276116 0.72737934 0.11426494
H  0.25981201 -0.29019935 -0.00167748
H  -0.54816986 -1.15294070 -0.21621380
H  0.89542152 -1.02915494 0.43980284
H  0.54646177 0.16763314 0.22949419
12
MD Step 371.5 Units = [eV / Ang.]
C  1.87415889 0.40901647 0.05308363
C  -1.02379678 0.78924720 -0.21340421
C  -2.23267974 -0.18696562 0.49885021
C  -0.30161032 -1.02608805 -0.08379183
C  0.31595973 2.24411204 -0.55768665
C  -0.24298335 -1.50889718 -0.07322032
H  0.15806529 0.65536753 -0.24089060
H  0.14764056 0.74146064 0.13032002
H  -0.01338323 -0.32296517 0.03113812
H  -0.45700218 -0.89981823 -0.22174832
H  0.88688175 -1.03984205 0.47033009
H  0.88874936 0.14537242 0.20701984
12
MD Step 372.0 Units = [eV / Ang.]
C  1.92281576 0.52195888 -0.06601639
C  -1.12929192 0.66752354 -0.15382300
C  -1.82509016 0.11632235 0.37109613
C  -0.61707655 -1.49923769 -0.00345861
C  0.67396735 2.26718641 -0.66049181
C  -0.65050761 -1.47154111 0.06474905
H  0.07436086 0.45572177 -0.20209281
H  0.18470756 0.71805457 0.14341824
H  -0.28828213 -0.35408848 0.06589707
H  -0.32214447 -0.57349731 -0.21754094
H  0.82325448 -0.96508065 0.48538860
H  1.15328684 0.11667772 0.17287448
12
MD Step 372.5 Units = [eV / Ang.]
C  1.95607701 0.65509744 -0.18720375
C  -1.22516632 0.56071436 -0.09198235
C  -1.41778084 0.41617407 0.24165574
C  -0.95131581 -1.99900956 0.07014207
C  1.04357507 2.17477629 -0.74506403
C  -0.95702255 -1.38953454 0.20886785
H  -0.02406665 0.22194096 -0.15861037
H  0.23262046 0.65835723 0.15293006
H  -0.53917643 -0.38120287 0.10033310
H  -0.15195026 -0.19323379 -0.20411044
H  0.70631266 -0.80646447 0.48372758
H  1.32789365 0.08238488 0.12931455
12
MD Step 373.0 Units = [eV / Ang.]
C  1.96664351 0.79140480 -0.30711570
C  -1.30859017 0.46814593 -0.02839608
C  -1.03184231 0.70629271 0.11361791
C  -1.28790198 -2.49472179 0.13791117
C  1.41763089 1.96847814 -0.81059264
C  -1.15602585 -1.26265765 0.35622987
H  -0.12870885 -0.02782827 -0.11327678
H  0.28909874 0.56605252 0.15851484
H  -0.74585862 -0.40207295 0.13234409
H  0.03941061 0.21204789 -0.18339244
H  0.53974563 -0.56884022 0.46491450
H  1.40639839 0.04369888 0.07924126
12
MD Step 373.5 Units = [eV / Ang.]
C  1.94531750 0.91003667 -0.42216311
C  -1.37591011 0.38716162 0.03614832
C  -0.68286520 0.98059908 -0.01025051
C  -1.60473293 -2.94657515 0.20221694
C  1.78763956 1.65690088 -0.85740071
C  -1.24610470 -1.09275086 0.50371826
H  -0.22888309 -0.27158170 -0.06924587
H  0.35095376 0.44732835 0.16019826
H  -0.89399363 -0.41483191 0.16014642
H  0.23153843 0.60395519 -0.15897763
H  0.33038802 -0.26232595 0.42977487
H  1.38665239 0.00208378 0.02583477
12
MD Step 374.0 Units = [eV / Ang.]
C  1.88174139 0.98838085 -0.52887278
C  -1.42266423 0.31319140 0.10054518
C  -0.38154752 1.23340917 -0.12759032
C  -1.87542289 -3.30923830 0.26674253
C  2.14198676 1.25812563 -0.88748060
C  -1.22966037 -0.88364336 0.64810776
H  -0.31258837 -0.48548843 -0.02962132
H  0.41414322 0.31076021 0.15842961
H  -0.97451700 -0.41809888 0.18233621
H  0.39928740 0.93820291 -0.13591056
H  0.08974470 0.09519856 0.38095488
H  1.26949692 -0.04079975 -0.02764059
12
MD Step 374.5 Units = [eV / Ang.]
C  1.76580848 1.00531697 -0.62433087
C  -1.44365914 0.24005128 0.16335600
C  -0.13458615 1.45948520 -0.23648350
C  -2.07300346 -3.53909294 0.33572546
C  2.46422659 0.80145788 -0.90495581
C  -1.11261907 -0.64089484 0.78611224
H  -0.36805969 -0.64711672 0.00301455
H  0.47389757 0.16693934 0.15410229
H  -0.98272436 -0.41102014 0.19789450
H  0.51663684 1.17191804 -0.11986023
H  -0.16478086 0.47609674 0.32338268
H  1.05886325 -0.08314081 -0.07795732
12
MD Step 375.0 Units = [eV / Ang.]
C  1.58957470 0.94507340 -0.70660699
C  -1.43318012 0.16058384 0.22284831
C  0.05462681 1.65401817 -0.33547392
C  -2.17533827 -3.60363590 0.41266685
C  2.73239281 0.32713587 -0.91612481
C  -0.90517996 -0.37135989 0.91449254
H  -0.38579854 -0.73925702 0.02704887
H  0.52496788 0.02774354 0.14851377
H  -0.91755638 -0.39328252 0.20618240
H  0.56235008 1.27313559 -0.11574775
H  -0.40982519 0.84290101 0.26427593
H  0.76296617 -0.12305610 -0.12207521
12
MD Step 375.5 Units = [eV / Ang.]
C  1.34917255 0.80061845 -0.77501302
C  -1.38537373 0.06766544 0.27710869
C  0.18577519 1.81263666 -0.42360667
C  -2.17042487 -3.48972929 0.49895815
C  2.92034475 -0.11737961 -0.92871567
C  -0.62336864 -0.08261578 1.03032095
H  -0.36055932 -0.75327079 0.04211084
H  0.56202389 -0.09478195 0.14324746
H  -0.78137554 -0.36513557 0.20696323
H  0.52555555 1.22911939 -0.12628957
H  -0.61804970 1.15161774 0.21233087
H  0.39627986 -0.15874470 -0.15741527
12
MD Step 376.0 Units = [eV / Ang.]
C  1.04612607 0.57544003 -0.83009900
C  -1.29485788 -0.04451335 0.32423644
C  0.26193428 1.93151540 -0.50050031
C  -2.05929955 -3.20714865 0.59305165
C  3.00163930 -0.48493468 -0.95022526
C  -0.29084194 0.21766038 1.13143878
H  -0.29263828 -0.69082626 0.04906666
H  0.58019674 -0.18984524 0.13997479
H  -0.58030789 -0.32742499 0.20046917
H  0.40889082 1.04988797 -0.15109673
H  -0.76249126 1.35892890 0.17598182
H  -0.01835040 -0.18873950 -0.18229802
12
MD Step 376.5 Units = [eV / Ang.]
C  0.68760314 0.28308454 -0.87338151
C  -1.15748699 -0.17911887 0.36259702
C  0.29030292 2.00757240 -0.56644383
C  -1.85516463 -2.78576801 0.69061329
C  2.95522959 -0.73857354 -0.98572509
C  0.06005366 0.52226880 1.21704285
H  -0.18799427 -0.56339167 0.04972986
H  0.57570231 -0.24939310 0.14020133
H  -0.32502272 -0.28160984 0.18750678
H  0.22774326 0.76526730 -0.18677977
H  -0.82244379 1.43187840 0.16113339
H  -0.44852246 -0.21221640 -0.19649431
12
MD Step 377.0 Units = [eV / Ang.]
C  0.28557635 -0.05536922 -0.90692373
C  -0.97120513 -0.33562503 0.39109170
C  0.28305623 2.03870570 -0.62249184
C  -1.57923827 -2.26777072 0.78558525
C  2.77106016 -0.86039406 -1.03602448
C  0.38926819 0.82487561 1.28820839
H  -0.05714837 -0.38968104 0.04640184
H  0.54643214 -0.26933513 0.14500675
H  -0.03160431 -0.22971101 0.16956638
H  0.00599954 0.41687853 -0.22798516
H  -0.78885980 1.35667453 0.16926566
H  -0.85333674 -0.22924815 -0.20170076
12
MD Step 377.5 Units = [eV / Ang.]
C  -0.14476415 -0.41497193 -0.93291553
C  -0.73679894 -0.50935018 0.40938061
C  0.25780224 2.02394651 -0.67049440
C  -1.25532832 -1.69834397 0.87163927
C  2.45319342 -0.85558072 -1.09711961
C  0.65317014 1.12009061 1.34804079
H  0.08673694 -0.19198371 0.04139719
H  0.49237676 -0.25018872 0.15483953
H  0.27803125 -0.17413159 0.14886612
H  -0.22971610 0.04859427 -0.26884534
H  -0.66694947 1.14275925 0.19685318
H  -1.18775377 -0.24083983 -0.20164182
12
MD Step 378.0 Units = [eV / Ang.]
C  -0.58674199 -0.77054802 -0.95338509
C  -0.45841418 -0.69173219 0.41800589
C  0.23699800 1.96341889 -0.71298384
C  -0.90536764 -1.11825288 0.94341913
C  2.01913405 -0.74971720 -1.16128304
C  0.81178261 1.40314750 1.40117876
H  0.22996069 0.00745373 0.03668884
H  0.41576917 -0.19696415 0.16942193
H  0.57684564 -0.11732018 0.12824738
H  -0.45504771 -0.30106113 -0.30423247
H  -0.47475414 0.82019337 0.23644535
H  -1.41016450 -0.24861775 -0.20152284
12
MD Step 378.5 Units = [eV / Ang.]
C  -1.02359827 -1.09942481 -0.97008304
C  -0.14370983 -0.87132157 0.41838108
C  0.24580661 1.85811725 -0.75285322
C  -0.54715858 -0.55997475 0.99721731
C  1.49586816 -0.58071400 -1.21927216
C  0.83742646 1.66927674 1.45261393
H  0.36000062 0.18910471 0.03373008
H  0.32090010 -0.11831821 0.18778628
H  0.83503556 -0.06132016 0.11085249
H  -0.65080985 -0.60283211 -0.33045664
H  -0.23838236 0.43161217 0.27888645
H  -1.49137862 -0.25420526 -0.20680258
12
MD Step 379.0 Units = [eV / Ang.]
C  -1.43933888 -1.38291562 -0.98451145
C  0.19636687 -1.03524116 0.41265962
C  0.30829941 1.70961047 -0.79282526
C  -0.19428352 -0.04717063 1.03108279
C  0.91455852 -0.38899213 -1.26264648
C  0.72166020 1.91304307 1.50617818
H  0.46655669 0.33757051 0.03343367
H  0.21364694 -0.02521063 0.20842931
H  1.02410005 -0.00733719 0.09958662
H  -0.80368081 -0.83718601 -0.34540013
H  0.01396565 0.02235344 0.31565209
H  -1.42185111 -0.25852411 -0.22163895
12
MD Step 379.5 Units = [eV / Ang.]
C  -1.81911355 -1.60670098 -0.99802225
C  0.54815187 -1.17077975 0.40351234
C  0.44267825 1.51987617 -0.83482040
C  0.14265459 0.40378606 1.04455925
C  0.30601223 -0.20962630 -1.28532374
C  0.47754962 2.12800159 1.56332106
H  0.54193504 0.44188181 0.03625181
H  0.10082599 0.07060271 0.22953724
H  1.12189287 0.04448627 0.09647663
H  -0.90540288 -0.99261789 -0.34828803
H  0.25694452 -0.36754627 0.34043382
H  -1.21412855 -0.26136343 -0.24763772
12
MD Step 380.0 Units = [eV / Ang.]
C  -2.14937093 -1.76055620 -1.01190887
C  0.89609443 -1.26680847 0.39386622
C  0.65691508 1.29146159 -0.87942996
C  0.45446784 0.78160523 1.03829711
C  -0.30193639 -0.06834136 -1.28409145
C  0.13619073 2.30690422 1.62271351
H  0.58098585 0.49512980 0.04229250
H  -0.01049422 0.15792132 0.24922618
H  1.11721701 0.09494445 0.10213682
H  -0.95140200 -1.06326066 -0.33933541
H  0.47076784 -0.70756414 0.34968291
H  -0.89943525 -0.26143579 -0.28344955
12
MD Step 380.5 Units = [eV / Ang.]
C  -2.41803177 -1.83788267 -1.02743850
C  1.22372385 -1.31481348 0.38664351
C  0.94637537 1.02796571 -0.92570054
C  0.73223501 1.07818926 1.01370608
C  -0.88515119 0.01884879 -1.25829839
C  -0.26099116 2.44236624 1.68078669
H  0.58086713 0.49389028 0.05142529
H  -0.11360110 0.22710021 0.26575113
H  1.01235848 0.14529480 0.11555619
H  -0.93953841 -1.04684035 -0.31944304
H  0.64169789 -0.97724994 0.34234040
H  -0.51994410 -0.25686885 -0.32532883
12
MD Step 381.0 Units = [eV / Ang.]
C  -2.61489546 -1.83542038 -1.04580207
C  1.51471710 -1.30948091 0.38452566
C  1.29438594 0.73466528 -0.97133981
C  0.96695663 1.28758877 0.97273092
C  -1.42274475 0.04374277 -1.20916629
C  -0.67103266 2.52771455 1.73284955
H  0.54086309 0.43780138 0.06335209
H  -0.20260803 0.27064993 0.27766020
H  0.82257184 0.19661534 0.13431495
H  -0.86940458 -0.94354455 -0.29001604
H  0.76110102 -1.16447108 0.31918930
H  -0.11991014 -0.24586111 -0.36829846
12
MD Step 381.5 Units = [eV / Ang.]
C  -2.73230302 -1.75333495 -1.06799090
C  1.75395117 -1.24889701 0.38975714
C  1.67556633 0.41898780 -1.01326847
C  1.15013108 1.40603234 0.91775158
C  -1.89629701 0.00336470 -1.13908911
C  -1.05639300 2.55769426 1.77424067
H  0.46239638 0.32949196 0.07763470
H  -0.27277866 0.28349946 0.28388980
H  0.57271681 0.24926084 0.15515417
H  -0.74235123 -0.75601492 -0.25290832
H  0.82399427 -1.26287605 0.28219805
H  0.26136689 -0.22720842 -0.40736930
12
MD Step 382.0 Units = [eV / Ang.]
C  -2.76604243 -1.59571211 -1.09462094
C  1.92853452 -1.13448234 0.40398010
C  2.06066872 0.09059447 -1.04830741
C  1.27518303 1.43306890 0.85156917
C  -2.28934832 -0.10221752 -1.05112570
C  -1.38864360 2.52887998 1.80111808
H  0.34926462 0.17490142 0.09368166
H  -0.32074957 0.26305642 0.28381874
H  0.29231400 0.30261565 0.17468471
H  -0.56225540 -0.49046259 -0.21044420
H  0.82777655 -1.26969034 0.23404873
H  0.59329788 -0.20055194 -0.43840294
12
MD Step 382.5 Units = [eV / Ang.]
C  -2.71630461 -1.37131007 -1.12574402
C  2.02874895 -0.97077130 0.42810689
C  2.42131735 -0.23900841 -1.07377300
C  1.33950157 1.37366810 0.77739530
C  -2.58747602 -0.27108925 -0.94872973
C  -1.64909114 2.43981735 1.81077448
H  0.20801139 -0.01614108 0.11070527
H  -0.34470074 0.20918043 0.27729345
H  0.01065695 0.35518162 0.18999927
H  -0.33688333 -0.15868786 -0.16542545
H  0.77154625 -1.18446932 0.17788807
H  0.85467338 -0.16637021 -0.45849053
12
MD Step 383.0 Units = [eV / Ang.]
C  -2.58844063 -1.09424784 -1.16068131
C  2.04884094 -0.76514175 0.46222861
C  2.73342236 -0.55722169 -1.08783628
C  1.34663847 1.24077491 0.69873464
C  -2.77908646 -0.49948000 -0.83566663
C  -1.82741966 2.29099777 1.80159706
H  0.04823231 -0.22936983 0.12766330
H  -0.34451692 0.12415923 0.26464066
H  -0.24676182 0.40489249 0.19904232
H  -0.07945900 0.21954440 -0.12100825
H  0.65618543 -1.00907857 0.11723812
H  1.03236501 -0.12582913 -0.46595224
12
MD Step 383.5 Units = [eV / Ang.]
C  -2.39317336 -0.78416051 -1.19792173
C  1.98761300 -0.52750681 0.50556843
C  2.97881983 -0.85130762 -1.08962826
C  1.30787943 1.05732376 0.61905145
C  -2.85687306 -0.78057045 -0.71600042
C  -1.91960365 2.08479807 1.77286918
H  -0.11748916 -0.44602563 0.14321268
H  -0.32194821 0.01270501 0.24666887
H  -0.46006090 0.44949175 0.20071773
H  0.19027392 0.61478903 -0.08033690
H  0.48522814 -0.74893257 0.05594661
H  1.11933402 -0.08060402 -0.46014764
12
MD Step 384.0 Units = [eV / Ang.]
C  -2.14595755 -0.46531790 -1.23512111
C  1.84873267 -0.26996448 0.55649821
C  3.14540488 -1.10935815 -1.07916211
C  1.24218975 0.85626052 0.54117950
C  -2.81977568 -1.10230820 -0.59400184
C  -1.92602679 1.82542589 1.72458426
H  -0.27432000 -0.64377588 0.15570548
H  -0.28073097 -0.11807760 0.22464827
H  -0.61526244 0.48685123 0.19480609
H  0.44647179 0.98829850 -0.04590010
H  0.26636623 -0.41529947 -0.00197242
H  1.11290811 -0.03273447 -0.44126421
12
MD Step 384.5 Units = [eV / Ang.]
C  -1.86530657 -0.16433471 -1.26923725
C  1.64067421 -0.00630525 0.61262976
C  3.22635975 -1.32118613 -1.05716552
C  1.17366875 0.67718420 0.46659500
C  -2.67502017 -1.44480120 -0.47381527
C  -1.85032101 1.51885333 1.65736096
H  -0.40677438 -0.79896323 0.16326736
H  -0.22658429 -0.25885503 0.20025219
H  -0.70367840 0.51518088 0.18179220
H  0.65995299 1.29583021 -0.01874457
H  0.01316977 -0.02808839 -0.05275440
H  1.01385936 0.01548533 -0.41018045
12
MD Step 385.0 Units = [eV / Ang.]
C  -1.57027189 0.09343339 -1.29681650
C  1.37622807 0.24869702 0.67099805
C  3.21913214 -1.47905224 -1.02490003
C  1.12644111 0.55923438 0.39486950
C  -2.43945097 -1.77837145 -0.35879263
C  -1.69915053 1.17266541 1.57248223
H  -0.50103025 -0.89008273 0.16398295
H  -0.16697011 -0.39848943 0.17543797
H  -0.72104219 0.53314383 0.16268323
H  0.80339249 1.49517611 0.00211559
H  -0.25376975 0.38202625 -0.09363057
H  0.82649191 0.06161946 -0.36842978
12
MD Step 385.5 Units = [eV / Ang.]
C  -1.27761624 0.28811004 -1.31441049
C  1.07152462 0.48030127 0.72833415
C  3.12465333 -1.57819852 -0.98400433
C  1.11828394 0.53181236 0.32369260
C  -2.13910579 -2.06386390 -0.25057850
C  -1.48290924 0.79573324 1.47200555
H  -0.54745048 -0.90179170 0.15618425
H  -0.11051822 -0.52483113 0.15225806
H  -0.66686607 0.53991835 0.13885796
H  0.85769214 1.55574038 0.01968398
H  -0.50735870 0.77380240 -0.12379401
H  0.55967072 0.10326719 -0.31822923
12
MD Step 386.0 Units = [eV / Ang.]
C  -0.99951519 0.40894642 -1.31905474
C  0.74459662 0.67508795 0.78140797
C  2.94706953 -1.61710766 -0.93636610
C  1.15542342 0.60649404 0.24965225
C  -1.80609396 -2.25674753 -0.14830593
C  -1.21706541 0.39763466 1.35885391
H  -0.54252118 -0.82826468 0.13878667
H  -0.06608543 -0.62589912 0.13260966
H  -0.54429228 0.53524472 0.11194936
H  0.81713774 1.46671423 0.03816764
H  -0.71712431 1.09954368 -0.14520846
H  0.22847045 0.13835330 -0.26249225
12
MD Step 386.5 Units = [eV / Ang.]
C  -0.74247762 0.45616593 -1.30869889
C  0.41361615 0.82242100 0.82739422
C  2.69405010 -1.59748943 -0.88400208
C  1.23084209 0.77372817 0.16952915
C  -1.47277570 -2.31537029 -0.04845261
C  -0.92356536 -0.01213231 1.23675791
H  -0.48951479 -0.67470880 0.11157794
H  -0.04153827 -0.69133799 0.11796215
H  -0.36048347 0.51946821 0.08373433
H  0.69100272 1.24022609 0.06160845
H  -0.85495313 1.31348714 -0.16269872
H  -0.14420272 0.16554228 -0.20471185
12
MD Step 387.0 Units = [eV / Ang.]
C  -0.50777616 0.44037120 -1.28247286
C  0.09507670 0.91580323 0.86419024
C  2.37752063 -1.52395825 -0.82891701
C  1.32689012 1.00585542 0.08152241
C  -1.16472870 -2.21150003 0.05421810
C  -0.63134283 -0.42501323 1.10992556
H  -0.39761996 -0.45643577 0.07535813
H  -0.04249028 -0.71388396 0.10912424
H  -0.12738426 0.49355816 0.05599190
H  0.50080799 0.90794940 0.09256975
H  -0.90194536 1.38255645 -0.18290615
H  -0.52700788 0.18469739 -0.14860432
12
MD Step 387.5 Units = [eV / Ang.]
C  -0.29302551 0.37978864 -1.24072684
C  -0.19776250 0.95382836 0.89062404
C  2.01446068 -1.40344990 -0.77290949
C  1.42084800 1.26491466 -0.01414694
C  -0.89524404 -1.93920706 0.16476341
C  -0.37483152 -0.83402912 0.98240181
H  -0.27988259 -0.19583547 0.03187656
H  -0.07129283 -0.69051461 0.10611201
H  0.13753703 0.45905097 0.03029448
H  0.27455396 0.51279787 0.13145430
H  -0.85365778 1.29544969 -0.21226074
H  -0.88170290 0.19720597 -0.09748259
12
MD Step 388.0 Units = [eV / Ang.]
C  -0.09419533 0.29637408 -1.18485100
C  -0.45583498 0.94044543 0.90649584
C  1.62717933 -1.24442229 -0.71731536
C  1.49090250 1.51170363 -0.11540915
C  -0.66380601 -1.51803595 0.28600834
C  -0.18973751 -1.23385779 0.85722813
H  -0.15069852 0.08167596 -0.01641391
H  -0.12657458 -0.62296033 0.10816479
H  0.41114937 0.41785945 0.00772596
H  0.04043972 0.09935361 0.17663529
H  -0.72126512 1.06593594 -0.25479239
H  -1.16755888 0.20592823 -0.05347654
12
MD Step 388.5 Units = [eV / Ang.]
C  0.09267882 0.21202495 -1.11696202
C  -0.67448433 0.88442233 0.91245780
C  1.24240640 -1.05592190 -0.66272610
C  1.52036112 1.71277405 -0.21903422
C  -0.45918762 -0.98889238 0.41734834
C  -0.10637180 -1.62015916 0.73569747
H  -0.02361782 0.35146633 -0.06669916
H  -0.20345924 -0.51744282 0.11390418
H  0.66578810 0.37192285 -0.01142854
H  -0.17774316 -0.29354370 0.22514835
H  -0.52804559 0.72874985 -0.31081815
H  -1.34832488 0.21459958 -0.01688794
12
MD Step 389.0 Units = [eV / Ang.]
C  0.27050949 0.14578728 -1.03955877
C  -0.85297522 0.79812707 0.90976869
C  0.88871917 -0.84664738 -0.60877570
C  1.49925834 1.84381923 -0.32141160
C  -0.26541683 -0.40464398 0.55493126
C  -0.14230166 -1.98827725 0.61706710
H  0.09007361 0.59237061 -0.11613843
H  -0.29439809 -0.38370817 0.12159385
H  0.87208939 0.32275370 -0.02791259
H  -0.36266755 -0.63645742 0.27351670
H  -0.30292351 0.33012614 -0.37705283
H  -1.39996714 0.22675017 0.01397231
12
MD Step 389.5 Units = [eV / Ang.]
C  0.44091460 0.11239279 -0.95523356
C  -0.99352669 0.69589308 0.89999644
C  0.59239213 -0.62418609 -0.55413248
C  1.42380097 1.88981977 -0.41911302
C  -0.06780617 0.18040217 0.69294881
C  -0.29705162 -2.33182845 0.49894073
H  0.18191838 0.78796982 -0.16211634
H  -0.39037058 -0.23362289 0.12942898
H  1.00340819 0.27103302 -0.04350722
H  -0.50335254 -0.90961006 0.31838548
H  -0.07391035 -0.08277429 -0.44787304
H  -1.31641632 0.24451114 0.04227522
12
MD Step 390.0 Units = [eV / Ang.]
C  0.60447038 0.12192677 -0.86647332
C  -1.10017844 0.59234464 0.88473688
C  0.37257842 -0.39465368 -0.49678870
C  1.29465735 1.84328974 -0.50915103
C  0.14317830 0.71845005 0.82525743
C  -0.55117643 -2.64185498 0.37820560
H  0.24621213 0.92672890 -0.20238841
H  -0.48213901 -0.07967487 0.13578855
H  1.04086863 0.21645851 -0.06071652
H  -0.59383242 -1.10109898 0.35685398
H  0.13632545 -0.46973813 -0.51695954
H  -1.11096436 0.26782203 0.07163507
12
MD Step 390.5 Units = [eV / Ang.]
C  0.76113003 0.18019728 -0.77554927
C  -1.17775641 0.50098913 0.86540361
C  0.23732711 -0.16284080 -0.43463592
C  1.11507292 1.70199091 -0.58900635
C  0.37084767 1.17209643 0.94662730
C  -0.87028071 -2.90701357 0.25211942
H  0.27960078 1.00148318 -0.23513920
H  -0.56129002 0.06631721 0.13940633
H  0.97750163 0.15798102 -0.08215376
H  -0.63153954 -1.20450195 0.38656342
H  0.31208562 -0.80109661 -0.57860649
H  -0.81269908 0.29439778 0.10497091
12
MD Step 391.0 Units = [eV / Ang.]
C  0.91052329 0.28930888 -0.68445129
C  -1.23107740 0.43323326 0.84309957
C  0.18195586 0.06720083 -0.36614812
C  0.88943203 1.46708498 -0.65655989
C  0.61339087 1.51473437 1.05331830
C  -1.21238225 -3.11480068 0.11909960
H  0.28064729 1.00879464 -0.25900111
H  -0.62093148 0.19412946 0.13945218
H  0.81993331 0.09438785 -0.10980940
H  -0.61601582 -1.21689198 0.40566332
H  0.44407171 -1.05760788 -0.62839322
H  -0.45954740 0.32042627 0.14373008
12
MD Step 391.5 Units = [eV / Ang.]
C  1.05200541 0.44808314 -0.59483045
C  -1.26444443 0.39783611 0.81857367
C  0.19044949 0.29143007 -0.29092855
C  0.62254120 1.14220052 -0.71004962
C  0.86600896 1.72906394 1.14306445
C  -1.53586226 -3.25337543 -0.02100204
H  0.24955972 0.94854075 -0.27308183
H  -0.65603621 0.29566243 0.13553624
H  0.58694814 0.02500288 -0.14446475
H  -0.54824566 -1.13780900 0.41278067
H  0.52773317 -1.22826394 -0.66329576
H  -0.09065752 0.34162854 0.18769797
12
MD Step 392.0 Units = [eV / Ang.]
C  1.18440034 0.65211087 -0.50790863
C  -1.28136806 0.40070195 0.79223444
C  0.23934697 0.50528045 -0.20991577
C  0.31970844 0.73360588 -0.74814108
C  1.12308236 1.80517460 1.21473530
C  -1.80557098 -3.31338153 -0.16706759
H  0.18817830 0.82392746 -0.27703809
H  -0.66351976 0.36516424 0.12766570
H  0.30547039 -0.04979180 -0.18546144
H  -0.43069948 -0.96941425 0.40708113
H  0.56149086 -1.30760795 -0.68149395
H  0.25948063 0.35423008 0.23530998
12
MD Step 392.5 Units = [eV / Ang.]
C  1.30549634 0.89340017 -0.42433489
C  -1.28442338 0.44484447 0.76419759
C  0.30266388 0.70355832 -0.12521189
C  -0.01247121 0.25148157 -0.77014698
C  1.37977551 1.73911960 1.26793712
C  -1.99597064 -3.28930404 -0.31708435
H  0.10021887 0.64193109 -0.27121284
H  -0.64218083 0.39928524 0.11617863
H  0.00544515 -0.12840515 -0.23086879
H  -0.26804677 -0.71783518 0.38847028
H  0.54541492 -1.29363533 -0.68212478
H  0.56407816 0.35555922 0.28420091
12
MD Step 393.0 Units = [eV / Ang.]
C  1.41142089 1.15980370 -0.34400688
C  -1.27517451 0.53041152 0.73435029
C  0.35627046 0.88075754 -0.03965537
C  -0.36481922 -0.28792531 -0.77638378
C  1.63279018 1.53235465 1.30274708
C  -2.09154656 -3.18016518 -0.46849672
H  -0.00832457 0.41397299 -0.25681407
H  -0.59259966 0.39708030 0.10167394
H  -0.28477297 -0.20825559 -0.27792611
H  -0.06836093 -0.39545525 0.35792291
H  0.48060375 -1.18681186 -0.66514912
H  0.80451313 0.34423249 0.33173783
12
MD Step 393.5 Units = [eV / Ang.]
C  1.49609956 1.43458100 -0.26590809
C  -1.25410717 0.65468461 0.70242036
C  0.38069405 1.03161887 0.04367060
C  -0.72415971 -0.85987682 -0.76856986
C  1.88017938 1.19212856 1.31968163
C  -2.08544019 -2.98957524 -0.61843956
H  -0.12881541 0.15644853 -0.23607563
H  -0.51705887 0.36004240 0.08494442
H  -0.54146188 -0.28620330 -0.32356161
H  0.15556358 -0.02350695 0.31784805
H  0.36932344 -0.99039472 -0.63140839
H  0.96918322 0.32005305 0.37539809
12
MD Step 394.0 Units = [eV / Ang.]
C  1.55108376 1.69658745 -0.18805792
C  -1.22057194 0.81204011 0.66804067
C  0.36216826 1.15170399 0.12184261
C  -1.07242726 -1.42957200 -0.75007233
C  2.12024458 0.73273284 1.31990964
C  -1.97739302 -2.72524623 -0.76386704
H  -0.24993141 -0.10941225 -0.21229600
H  -0.41949102 0.29218111 0.06691181
H  -0.74679008 -0.35900807 -0.36482528
H  0.38542471 0.36621246 0.27229497
H  0.21586152 -0.71200871 -0.58285826
H  1.05182190 0.28378931 0.41297712
12
MD Step 394.5 Units = [eV / Ang.]
C  1.56603490 1.92161561 -0.10768999
C  -1.17276817 0.99396383 0.63081690
C  0.29232828 1.23778577 0.19234220
C  -1.38709108 -1.95300543 -0.72574158
C  2.34966317 0.17733964 1.30561617
C  -1.77181545 -2.39815928 -0.90165010
H  -0.35825238 -0.35887573 -0.18963529
H  -0.30539928 0.20007951 0.04855711
H  -0.88868358 -0.42367958 -0.39916089
H  0.59799189 0.73211824 0.22673712
H  0.02792829 -0.36614440 -0.52287555
H  1.05006342 0.23696181 0.44268390
12
MD Step 395.0 Units = [eV / Ang.]
C  1.53005880 2.08511621 -0.02173806
C  -1.10783834 1.18922723 0.59039619
C  0.16724671 1.28799673 0.25316496
C  -1.64355136 -2.38161850 -0.70112787
C  2.56124530 -0.44025299 1.28030280
C  -1.47647466 -2.02150668 -1.02872230
H  -0.43967572 -0.56647823 -0.17259095
H  -0.18167521 0.09281535 0.03084052
H  -0.95997530 -0.47768594 -0.42453251
H  0.76771879 1.02749056 0.18723480
H  -0.18178350 0.02320443 -0.45642520
H  0.96470448 0.18169182 0.46319762
12
MD Step 395.5 Units = [eV / Ang.]
C  1.43379708 2.16602745 0.07240330
C  -1.02215900 1.38437785 0.54654408
C  -0.01357064 1.30177263 0.30284781
C  -1.81942632 -2.67079343 -0.68113830
C  2.74208982 -1.07515239 1.24870938
C  -1.10204698 -1.60958748 -1.14231509
H  -0.48157576 -0.70994975 -0.16518848
H  -0.05621886 -0.01841758 0.01460961
H  -0.95746508 -0.51905287 -0.43946443
H  0.87133321 1.20904600 0.15903589
H  -0.39458177 0.42112513 -0.38979437
H  0.79982431 0.12060442 0.47375061
12
MD Step 396.0 Units = [eV / Ang.]
C  1.27182027 2.15077911 0.17602893
C  -0.91188500 1.56465987 0.49922129
C  -0.24780344 1.27969296 0.34048464
C  -1.89958558 -2.79008480 -0.66855923
C  2.87319615 -1.67375042 1.21607144
C  -0.66253570 -1.17675656 -1.24028021
H  -0.47524452 -0.77434496 -0.17007856
H  0.06268849 -0.12111120 0.00050343
H  -0.88132368 -0.54641866 -0.44306576
H  0.89322933 1.24727593 0.14505718
H  -0.58625669 0.78332566 -0.32964433
H  0.56370037 0.05673306 0.47426117
12
MD Step 396.5 Units = [eV / Ang.]
C  1.04460104 2.03619147 0.28847503
C  -0.77373992 1.71539820 0.44865260
C  -0.53034777 1.22333481 0.36577867
C  -1.87995702 -2.73129225 -0.66312411
C  2.93152726 -2.18009484 1.18669452
C  -0.17635184 -0.73652472 -1.32144370
H  -0.41787149 -0.75506868 -0.18784143
H  0.16724113 -0.20271493 -0.01112885
H  -0.73507283 -0.55910395 -0.43509374
H  0.82962218 1.13460339 0.14493008
H  -0.72987773 1.06191765 -0.28140031
H  0.27022699 -0.00664616 0.46550124
12
MD Step 397.0 Units = [eV / Ang.]
C  0.75933763 1.83019642 0.40694944
C  -0.60594965 1.82367729 0.39536370
C  -0.85274552 1.13524703 0.37915234
C  -1.76834457 -2.51068839 -0.66163502
C  2.89470026 -2.54580744 1.16229697
C  0.33247630 -0.30084627 -1.38588667
H  -0.31334090 -0.65868990 -0.21677736
H  0.25106929 -0.25224213 -0.02027125
H  -0.52615308 -0.55722360 -0.41607573
H  0.68959681 0.88762862 0.15512681
H  -0.80092183 1.21506300 -0.24746728
H  -0.05972473 -0.06631462 0.44922404
12
MD Step 397.5 Units = [eV / Ang.]
C  0.42933848 1.55008879 0.52692921
C  -0.40911871 1.88004735 0.34017141
C  -1.20222098 1.01902434 0.38189804
C  -1.58186015 -2.16432408 -0.65909925
C  2.74710377 -2.74074855 1.14095905
C  0.83376836 0.12042700 -1.43500721
H  -0.17153190 -0.50125065 -0.25327885
H  0.31010472 -0.26192747 -0.02722906
H  -0.26689097 -0.54182189 -0.38747178
H  0.49255728 0.54237671 0.17013197
H  -0.78340889 1.21766317 -0.22613543
H  -0.39784101 -0.11955473 0.42813192
12
MD Step 398.0 Units = [eV / Ang.]
C  0.07218982 1.21898041 0.64298880
C  -0.18682396 1.87984104 0.28411450
C  -1.56070806 0.87940600 0.37630525
C  -1.34222126 -1.73863846 -0.65032033
C  2.48505118 -2.76010054 1.11742513
C  1.29233460 0.51989346 -1.47124017
H  -0.00637526 -0.30472872 -0.29264364
H  0.34312634 -0.22853317 -0.03255263
H  0.02455129 -0.51496366 -0.35180565
H  0.26326290 0.14481009 0.18408617
H  -0.67464781 1.06868658 -0.21191587
H  -0.70973978 -0.16465302 0.40555842
12
MD Step 398.5 Units = [eV / Ang.]
C  -0.29263053 0.86171876 0.74975725
C  0.05426906 1.82375248 0.22833791
C  -1.90451010 0.72223224 0.36565533
C  -1.07098999 -1.28043535 -0.63123308
C  2.11865975 -2.62448733 1.08480112
C  1.67147060 0.89268656 -1.49738954
H  0.16663845 -0.09291705 -0.33002763
H  0.35183038 -0.15394321 -0.03691596
H  0.32388960 -0.47967103 -0.31265308
H  0.02655377 -0.25927412 0.19218592
H  -0.48638065 0.79161524 -0.19733356
H  -0.95880036 -0.20127718 0.38481532
12
MD Step 399.0 Units = [eV / Ang.]
C  -0.64595248 0.50146276 0.84271016
C  0.30479590 1.71751039 0.17395446
C  -2.20528521 0.55411666 0.35396568
C  -0.78641925 -0.82963551 -0.59956630
C  1.66966495 -2.37294199 1.03686175
C  1.93863229 1.23617368 -1.51570960
H  0.33273206 0.11206596 -0.36124060
H  0.34040444 -0.04487336 -0.04097841
H  0.60181735 -0.43960215 -0.27436350
H  -0.19647080 -0.63150261 0.19140661
H  -0.24172019 0.42773168 -0.17536045
H  -1.11219904 -0.23050551 0.36832021
12
MD Step 399.5 Units = [eV / Ang.]
C  -0.97047927 0.15761809 0.91863337
C  0.55349813 1.57074517 0.12191786
C  -2.43289006 0.38178634 0.34541109
C  -0.50243962 -0.41610058 -0.55483656
C  1.16642978 -2.05200642 0.96987657
C  2.07192029 1.54920576 -1.52705520
H  0.47939040 0.29194793 -0.38321776
H  0.31473540 0.08821053 -0.04526542
H  0.82700764 -0.39844134 -0.24144777
H  -0.39013754 -0.94402412 0.18054385
H  0.03066168 0.02544864 -0.14136807
H  -1.14769684 -0.25439000 0.35680805
12
MD Step 400.0 Units = [eV / Ang.]
C  -1.25160709 -0.15483436 0.97574605
C  0.78824001 1.39536004 0.07293317
C  -2.55996640 0.21122103 0.34348696
C  -0.22930875 -0.05986449 -0.49793806
C  0.63849105 -1.70547696 0.88328242
C  2.06511634 1.83105017 -1.53047429
H  0.59705653 0.43309834 -0.39415777
H  0.28146260 0.23265930 -0.05009396
H  0.97089073 -0.35911595 -0.21770143
H  -0.54407356 -1.17912721 0.15983608
H  0.30258122 -0.36981416 -0.09391189
H  -1.05888269 -0.27515574 0.34899270
12
MD Step 400.5 Units = [eV / Ang.]
C  -1.47768934 -0.42499736 1.01358549
C  0.99702989 1.20380924 0.02742045
C  -2.56730680 0.04689444 0.35014246
C  0.02496923 0.22674374 -0.43063207
C  0.11262314 -1.36796272 0.77926784
C  1.92922658 2.08032585 -1.52347079
H  0.67915626 0.52633059 -0.39342687
H  0.24709621 0.37529705 -0.05555027
H  1.01319494 -0.32310152 -0.20530232
H  -0.65206516 -1.32696014 0.13046933
H  0.55057025 -0.72202087 -0.03439517
H  -0.85680520 -0.29435830 0.34189191
12
MD Step 401.0 Units = [eV / Ang.]
C  -1.64003302 -0.64527819 1.03278096
C  1.16889360 1.00764207 -0.01447543
C  -2.44830860 -0.10855055 0.36520860
C  0.25326937 0.43654052 -0.35512360
C  -0.38888345 -1.06292836 0.66179011
C  1.68983798 2.29432589 -1.50283467
H  0.72176543 0.56623690 -0.38135583
H  0.21735329 0.50382281 -0.06151226
H  0.94652499 -0.29011851 -0.20421815
H  -0.71067938 -1.38286051 0.09416287
H  0.75757200 -1.00647267 0.03386222
H  -0.56731221 -0.31235941 0.33171518
12
MD Step 401.5 Units = [eV / Ang.]
C  -1.73286736 -0.81064603 1.03481507
C  1.29453040 0.81649272 -0.05283633
C  -2.21083386 -0.25401570 0.38638682
C  0.44850629 0.56543111 -0.27379605
C  -0.84813763 -0.80402105 0.53558262
C  1.38135561 2.46891131 -1.46567418
H  0.72321945 0.55051723 -0.35903040
H  0.19676109 0.60778773 -0.06769960
H  0.77826616 -0.25838926 -0.21219292
H  -0.71816844 -1.34527260 0.05290779
H  0.91257591 -1.20848929 0.10659264
H  -0.22520759 -0.32830620 0.31494453
12
MD Step 402.0 Units = [eV / Ang.]
C  -1.75343268 -0.91827755 1.02182841
C  1.36676001 0.63754654 -0.08790472
C  -1.87571069 -0.38914918 0.40982757
C  0.60353865 0.61132800 -0.18908527
C  -1.25067121 -0.59786064 0.40546897
C  1.04032507 2.59892577 -1.41023725
H  0.68387614 0.47960612 -0.32812572
H  0.18849500 0.67913351 -0.07373355
H  0.52904203 -0.22536339 -0.22534246
H  -0.67393640 -1.21473666 0.00884302
H  1.00918830 -1.32061916 0.17926692
H  0.13252579 -0.34053336 0.28919409
12
MD Step 402.5 Units = [eV / Ang.]
C  -1.70222237 -0.96774298 0.99646993
C  1.38079967 0.47535939 -0.12001099
C  -1.47243824 -0.51337833 0.43107399
C  0.71185339 0.57426297 -0.10343488
C  -1.58438225 -0.44684579 0.27603953
C  0.69991515 2.67889069 -1.33628828
H  0.60612976 0.35673835 -0.29078621
H  0.19437100 0.71240753 -0.07919518
H  0.22831100 -0.18860483 -0.23912906
H  -0.57868621 -0.99411507 -0.03579246
H  1.04404294 -1.33983415 0.24744043
H  0.47230614 -0.34713778 0.25361318
12
MD Step 403.0 Units = [eV / Ang.]
C  -1.58332047 -0.96170029 0.96176310
C  1.33440536 0.33189810 -0.14950591
C  -1.03371931 -0.62515706 0.44601740
C  0.76894101 0.45768792 -0.01926128
C  -1.83891728 -0.35111277 0.15158658
C  0.38670706 2.70372378 -1.24505517
H  0.49465615 0.18843005 -0.24951534
H  0.21491162 0.70479840 -0.08367735
H  -0.09124447 -0.14649601 -0.24934987
H  -0.43525447 -0.69000975 -0.07871119
H  1.01565404 -1.26558244 0.30686491
H  0.76718075 -0.34647993 0.20884413
12
MD Step 403.5 Units = [eV / Ang.]
C  -1.40469271 -0.90691079 0.92093321
C  1.22792389 0.20663287 -0.17670217
C  -0.59056561 -0.72166029 0.45157034
C  0.77418089 0.27078555 0.06115466
C  -2.00573183 -0.30933108 0.03612938
C  0.11976034 2.66936642 -1.13892129
H  0.35675942 -0.01480059 -0.20701767
H  0.24941361 0.65614079 -0.08683075
H  -0.39875502 -0.09856206 -0.25284019
H  -0.25001959 -0.31511845 -0.11771569
H  0.92400275 -1.09905793 0.35353208
H  0.99772387 -0.33748445 0.15670807
12
MD Step 404.0 Units = [eV / Ang.]
C  -1.17822814 -0.81516953 0.87713893
C  1.06427456 0.09663214 -0.20182659
C  -0.16912591 -0.79895813 0.44595079
C  0.73284436 0.03119910 0.13590131
C  -2.07891520 -0.31825946 -0.06664359
C  -0.08873956 2.57328147 -1.02106238
H  0.20257833 -0.23782658 -0.16593492
H  0.29599089 0.56895202 -0.08840599
H  -0.66845939 -0.04542109 -0.24777416
H  -0.03454004 0.10909912 -0.15098203
H  0.77096897 -0.84378491 0.38382413
H  1.15135114 -0.31974414 0.09981450
12
MD Step 404.5 Units = [eV / Ang.]
C  -0.91925727 -0.70362923 0.83308364
C  0.84887519 -0.00335955 -0.22498316
C  0.21053955 -0.85252452 0.42863508
C  0.65751041 -0.23295281 0.20380698
C  -2.05671516 -0.37116167 -0.15367799
C  -0.23216830 2.41486462 -0.89515007
H  0.04484293 -0.46091226 -0.12845229
H  0.35159012 0.44850747 -0.08829489
H  -0.88102771 0.01149194 -0.23362252
H  0.19325522 0.55059508 -0.17748822
H  0.56156188 -0.50742229 0.39492172
H  1.22099313 -0.29349677 0.04122172
12
MD Step 405.0 Units = [eV / Ang.]
C  -0.64534535 -0.59392892 0.79055077
C  0.58951609 -0.10074990 -0.24612730
C  0.53419480 -0.87792595 0.40012930
C  0.56793412 -0.48338520 0.26484440
C  -1.94355764 -0.45539140 -0.22320991
C  -0.30817955 2.19578545 -0.76515552
H  -0.10209802 -0.66084938 -0.09582228
H  0.41202120 0.30285874 -0.08656786
H  -1.02337792 0.07026265 -0.21091561
H  0.40929907 0.96733672 -0.19747122
H  0.30571198 -0.10445944 0.38556042
H  1.20388121 -0.25955336 -0.01581518
12
MD Step 405.5 Units = [eV / Ang.]
C  -0.37432094 -0.50978224 0.74999095
C  0.29616041 -0.20472508 -0.26505200
C  0.79241524 -0.87152543 0.36169577
C  0.48850090 -0.67573566 0.32034620
C  -1.75201296 -0.54986437 -0.27574039
C  -0.31791007 1.92022528 -0.63520502
H  -0.22406379 -0.81352984 -0.06794296
H  0.47205281 0.14266363 -0.08350140
H  -1.08773933 0.12878023 -0.18095506
H  0.58594316 1.31174057 -0.21267242
H  0.02005400 0.34097515 0.35708023
H  1.10092056 -0.21922224 -0.06804388
12
MD Step 406.0 Units = [eV / Ang.]
C  -0.12185055 -0.47319435 0.71036008
C  -0.01935976 -0.32550348 -0.28139745
C  0.97949667 -0.83110903 0.31512102
C  0.44316172 -0.76765645 0.37277480
C  -1.50376095 -0.62370825 -0.31505030
C  -0.26586378 1.59495251 -0.50940768
H  -0.30937746 -0.89775168 -0.04319261
H  0.52564809 -0.01935175 -0.07958332
H  -1.07064844 0.18492771 -0.14556119
H  0.69699645 1.53908546 -0.22610030
H  -0.27127329 0.79354779 0.31446866
H  0.91683132 -0.17423848 -0.11243173
12
MD Step 406.5 Units = [eV / Ang.]
C  0.10082831 -0.50013929 0.66936844
C  -0.34380468 -0.47313386 -0.29468577
C  1.09275585 -0.75637760 0.26255133
C  0.44910335 -0.72895809 0.42494655
C  -1.22839026 -0.63777461 -0.34868517
C  -0.16043035 1.22914960 -0.39156216
H  -0.35112856 -0.89940073 -0.01868746
H  0.56638976 -0.16941083 -0.07548440
H  -0.97235615 0.23669812 -0.10688509
H  0.72404404 1.61787798 -0.24120661
H  -0.53799226 1.20813908 0.26680854
H  0.66098095 -0.12666978 -0.14647820
12
MD Step 407.0 Units = [eV / Ang.]
C  0.28824075 -0.59702144 0.62415941
C  -0.66316178 -0.65590217 -0.30439210
C  1.13246829 -0.64923371 0.20637172
C  0.51158803 -0.54999373 0.47894722
C  -0.95923760 -0.55029323 -0.38720912
C  -0.01478563 0.83392733 -0.28469799
H  -0.34858198 -0.81469014 0.00902196
H  0.58810111 -0.29417386 -0.07198847
H  -0.79687910 0.28228251 -0.06726401
H  0.66165034 1.53828966 -0.26071666
H  -0.74799448 1.53556742 0.22643128
H  0.34859206 -0.07875864 -0.16866324
12
MD Step 407.5 Units = [eV / Ang.]
C  0.44062776 -0.75916185 0.57222675
C  -0.96346405 -0.87854941 -0.31005159
C  1.10244178 -0.51384904 0.14908735
C  0.62234075 -0.24454017 0.53523342
C  -0.72672534 -0.32633661 -0.44186985
C  0.15235582 0.42156384 -0.19047538
H  -0.30719036 -0.65127465 0.04301148
H  0.58560867 -0.38251218 -0.06988136
H  -0.55268501 0.32017399 -0.02907151
H  0.51905741 1.31488586 -0.28563735
H  -0.87409948 1.73226750 0.20643272
H  0.00173206 -0.03266729 -0.17900467
12
MD Step 408.0 Units = [eV / Ang.]
C  0.56251514 -0.97181734 0.51224698
C  -1.23167042 -1.14069964 -0.31138439
C  1.01104353 -0.35652122 0.09314858
C  0.76228912 0.15414957 0.59239104
C  -0.55133328 0.05167688 -0.52117397
C  0.31690409 0.00454216 -0.10858273
H  -0.23719143 -0.42678462 0.08512758
H  0.55551152 -0.42720046 -0.06982045
H  -0.25377993 0.34931638 0.00548988
H  0.31753548 0.98235030 -0.31493124
H  -0.90109642 1.77112100 0.21707467
H  -0.35072741 0.00986698 -0.17958595
12
MD Step 408.5 Units = [eV / Ang.]
C  0.66053864 -1.21328310 0.44453624
C  -1.45651970 -1.43594991 -0.30841386
C  0.87224823 -0.18533479 0.04068480
C  0.90728844 0.60212860 0.64762806
C  -0.43921494 0.57675551 -0.62776036
C  0.45124713 -0.40536836 -0.03639855
H  -0.15133301 -0.16533700 0.13551099
H  0.49678769 -0.42610052 -0.07221100
H  0.07930120 0.36928224 0.03468884
H  0.08467519 0.58628325 -0.34596423
H  -0.83002940 1.64903662 0.26250003
H  -0.67498949 0.04788746 -0.17480096
12
MD Step 409.0 Units = [eV / Ang.]
C  0.74129971 -1.45889820 0.37102538
C  -1.62917536 -1.75193644 -0.30154523
C  0.70601295 -0.00966909 -0.00684613
C  1.03423247 1.05444156 0.69768264
C  -0.38254862 1.21690972 -0.75713389
C  0.52817320 -0.79775100 0.03078880
H  -0.06251403 0.10673374 0.19260575
H  0.41107358 -0.38249164 -0.07712459
H  0.41932978 0.38042425 0.05764266
H  -0.15184445 0.17310318 -0.37541767
H  -0.67761027 1.38769474 0.33935059
H  -0.93642895 0.08143917 -0.17102831
12
MD Step 409.5 Units = [eV / Ang.]
C  0.80989627 -1.68472865 0.29484906
C  -1.74358662 -2.07146180 -0.29157797
C  0.53722520 0.16044485 -0.04901182
C  1.12532613 1.47230958 0.73967612
C  -0.36433012 1.92183031 -0.89889900
C  0.52635261 -1.16368930 0.09882449
H  0.01800868 0.36464395 0.25355413
H  0.30253759 -0.30444985 -0.08428050
H  0.73383296 0.38390607 0.07468059
H  -0.36880836 -0.21743030 -0.40019349
H  -0.47105874 1.02712251 0.43795111
H  -1.10539559 0.11150261 -0.17557271
12
MD Step 410.0 Units = [eV / Ang.]
C  0.86936016 -1.87010547 0.21976508
C  -1.79654145 -2.37445498 -0.27964493
C  0.39268875 0.31513341 -0.08661197
C  1.16968963 1.82643033 0.77161027
C  -0.36510381 2.63356743 -1.03977726
C  0.43584483 -1.49541937 0.17313526
H  0.08155879 0.58761936 0.31476185
H  0.17737337 -0.20345692 -0.09309302
H  0.98864921 0.38152580 0.08753066
H  -0.54946734 -0.55564434 -0.41799347
H  -0.24087045 0.61522274 0.54533958
H  -1.16318170 0.13958203 -0.19502204
12
MD Step 410.5 Units = [eV / Ang.]
C  0.92085338 -1.99886837 0.14960959
C  -1.78749855 -2.64032579 -0.26709269
C  0.29635753 0.44562447 -0.12156313
C  1.16273310 2.09694109 0.79246159
C  -0.36865209 3.29684535 -1.16689734
C  0.26159621 -1.78571268 0.25706407
H  0.12221263 0.75992412 0.37243242
H  0.04304676 -0.09262885 -0.10276794
H  1.15332740 0.37531328 0.09915297
H  -0.68336934 -0.82187860 -0.42750665
H  -0.01451065 0.19770040 0.64862263
H  -1.10609638 0.16706560 -0.23351553
12
MD Step 411.0 Units = [eV / Ang.]
C  0.96427797 -2.05958749 0.08789626
C  -1.71829033 -2.85022751 -0.25532643
C  0.26397685 0.54518338 -0.15638856
C  1.10439575 2.27154804 0.80202027
C  -0.36488919 3.86587301 -1.27008859
C  0.02338254 -2.02736265 0.35073921
H  0.13648567 0.87081082 0.42296250
H  -0.09252869 0.01501199 -0.11241992
H  1.20710026 0.36700031 0.11314381
H  -0.76500436 -1.00444202 -0.42832569
H  0.18714731 -0.18842630 0.73736269
H  -0.94605378 0.19461841 -0.29157555
12
MD Step 411.5 Units = [eV / Ang.]
C  0.99895611 -2.04525908 0.03758188
C  -1.59281432 -2.98884594 -0.24565845
C  0.29898888 0.60982981 -0.19341095
C  0.99720731 2.34324449 0.80064823
C  -0.34986718 4.30695580 -1.34274181
C  -0.24794757 -2.21311468 0.45091687
H  0.12285166 0.91394803 0.46318855
H  -0.22172037 0.10788946 -0.12118203
H  1.14349387 0.35755850 0.13282823
H  -0.79219515 -1.09708808 -0.42075790
H  0.35052105 -0.51698792 0.80454008
H  -0.70747429 0.22186961 -0.36595270
12
MD Step 412.0 Units = [eV / Ang.]
C  1.02410770 -1.95292807 0.00094014
C  -1.41673356 -3.04553660 -0.23918355
C  0.39136962 0.63862724 -0.23393747
C  0.84483216 2.30856599 0.78908927
C  -0.32393485 4.59799162 -1.38153449
C  -0.51656384 -2.33616071 0.55179118
H  0.08133722 0.88683918 0.49054353
H  -0.33771946 0.17672551 -0.12829103
H  0.97181732 0.34700066 0.16034457
H  -0.76485100 -1.09702636 -0.40565592
H  0.46812192 -0.77159749 0.84637292
H  -0.42178324 0.24749902 -0.45047915
12
MD Step 412.5 Units = [eV / Ang.]
C  1.03902463 -1.78356137 -0.02053470
C  -1.19719474 -3.01481533 -0.23670071
C  0.51997585 0.63346126 -0.27776042
C  0.65136110 2.16688069 0.76838254
C  -0.28928650 4.72649245 -1.38561151
C  -0.74801273 -2.39102581 0.64634994
H  0.01332570 0.79057323 0.50320277
H  -0.43487839 0.21492040 -0.13314098
H  0.71492735 0.33452336 0.19606723
H  -0.68437365 -1.00400200 -0.38432448
H  0.53664447 -0.94307638 0.86157670
H  -0.12151308 0.26962950 -0.53750638
12
MD Step 413.0 Units = [eV / Ang.]
C  1.04291462 -1.54231363 -0.02626839
C  -0.94252331 -2.89633228 -0.23868318
C  0.65747435 0.59842715 -0.32315449
C  0.42140353 1.92085694 0.73987064
C  -0.24781429 4.68747836 -1.35573723
C  -0.91406508 -2.37454885 0.72772424
H  -0.07838417 0.63005735 0.50028578
H  -0.50888637 0.21859788 -0.13531018
H  0.40418232 0.31890379 0.23855983
H  -0.55378661 -0.82063563 -0.35849774
H  0.55521191 -1.02680911 0.85057128
H  0.16427310 0.28631804 -0.61936057
12
MD Step 413.5 Units = [eV / Ang.]
C  1.03449025 -1.23912600 -0.01682596
C  -0.66185318 -2.69451024 -0.24528857
C  0.77602632 0.53902818 -0.36731257
C  0.16087169 1.57811478 0.70523946
C  -0.19975273 4.48195835 -1.29371717
C  -0.99524812 -2.28664102 0.79013724
H  -0.18931076 0.41465927 0.48213873
H  -0.55686014 0.18648691 -0.13457105
H  0.07345797 0.29896073 0.28500579
H  -0.37851942 -0.55401273 -0.33033025
H  0.52421986 -1.02087768 0.81492901
H  0.41247827 0.29595944 -0.68940466
12
MD Step 414.0 Units = [eV / Ang.]
C  1.01144124 -0.88940413 0.00581919
C  -0.36466854 -2.41798964 -0.25639767
C  0.85191604 0.46141522 -0.40699176
C  -0.12179183 1.15373135 0.66649024
C  -0.14329468 4.11629598 -1.20219334
C  -0.98120924 -2.13063195 0.82934084
H  -0.31293138 0.15897456 0.45065832
H  -0.57741429 0.11976073 -0.13089017
H  -0.24592140 0.27390251 0.33188109
H  -0.16760901 -0.21820059 -0.30230387
H  0.44493086 -0.92537002 0.75716226
H  0.60655223 0.29751598 -0.74257512
12
MD Step 414.5 Units = [eV / Ang.]
C  0.97000680 -0.51430187 0.03807057
C  -0.06024588 -2.07899073 -0.27166223
C  0.86812756 0.37175232 -0.43911615
C  -0.41439508 0.67290122 0.62572161
C  -0.07519016 3.60252270 -1.08477831
C  -0.86963001 -1.91316185 0.84265615
H  -0.44043415 -0.11677868 0.40954125
H  -0.57076228 0.02192094 -0.12442631
H  -0.52828803 0.24348226 0.37560495
H  0.06512893 0.16305342 -0.27693187
H  0.31982054 -0.74298413 0.68081373
H  0.73586175 0.29058440 -0.77549340
12
MD Step 415.0 Units = [eV / Ang.]
C  0.90489014 -0.14001280 0.07472687
C  0.24296895 -1.69263427 -0.29055276
C  0.81485509 0.27575103 -0.46118147
C  -0.70046766 0.17239494 0.58463859
C  0.00774896 2.95955702 -0.94639299
C  -0.66451172 -1.64367759 0.82882362
H  -0.56083739 -0.38736546 0.36427332
H  -0.53884166 -0.10128170 -0.11552603
H  -0.75469722 0.20798049 0.41300249
H  0.30066643 0.55480391 -0.25617965
H  0.15359584 -0.48087534 0.59071601
H  0.79463023 0.27535977 -0.78634802
12
MD Step 415.5 Units = [eV / Ang.]
C  0.80979381 0.20442971 0.10942212
C  0.53797001 -1.27620695 -0.31240070
C  0.68856346 0.17831076 -0.47143033
C  -0.96019356 -0.30089496 0.54382632
C  0.10648539 2.21504486 -0.79355950
C  -0.37451626 -1.33363737 0.78785301
H  -0.66172727 -0.62467372 0.32166718
H  -0.48542372 -0.24193918 -0.10471236
H  -0.91253866 0.16809177 0.44154058
H  0.51586848 0.91231450 -0.24065465
H  -0.04533205 -0.15339993 0.49318381
H  0.78105037 0.25256050 -0.77473548
12
MD Step 416.0 Units = [eV / Ang.]
C  0.67865277 0.49093747 0.13557586
C  0.81966655 -0.84836143 -0.33643363
C  0.49046348 0.08324826 -0.46886060
C  -1.17323451 -0.69566340 0.50205221
C  0.21740018 1.40715857 -0.63431609
C  -0.01178948 -0.99558263 0.72098230
H  -0.73071329 -0.80147601 0.28886307
H  -0.41611655 -0.39018891 -0.09266132
H  -0.99448962 0.12479337 0.45939633
H  0.68661161 1.18673096 -0.22884432
H  -0.26336453 0.21505394 0.39582260
H  0.69691339 0.22334981 -0.74157642
12
MD Step 416.5 Units = [eV / Ang.]
C  0.50743799 0.69709529 0.14772323
C  1.08508511 -0.42816423 -0.36181700
C  0.22507670 -0.00689265 -0.45315348
C  -1.32305311 -0.96589083 0.45604126
C  0.33060782 0.58502021 -0.47740956
C  0.40852274 -0.64219340 0.63076851
H  -0.75743903 -0.89618527 0.27192916
H  -0.33814877 -0.53465204 -0.08015497
H  -0.99748186 0.07924168 0.46544612
H  0.79253240 1.33473357 -0.21686870
H  -0.48099274 0.58862670 0.30663570
H  0.54785275 0.18926096 -0.68914027
12
MD Step 417.0 Units = [eV / Ang.]
C  0.29604260 0.81052840 0.14284964
C  1.33316048 -0.03400264 -0.38770539
C  -0.10062499 -0.09090438 -0.42460852
C  -1.40128647 -1.08180845 0.40111389
C  0.43000702 -0.19390915 -0.33065393
C  0.86810777 -0.28547231 0.52124412
H  -0.73565390 -0.89726468 0.27445115
H  -0.25984183 -0.66318633 -0.06801043
H  -0.92212699 0.03270959 0.45925826
H  0.82192234 1.32942643 -0.19914792
H  -0.67377876 0.92178005 0.23233745
H  0.34407272 0.15210345 -0.62112832
12
MD Step 417.5 Units = [eV / Ang.]
C  0.04960692 0.83138104 0.12123633
C  1.56408130 0.31766046 -0.41331222
C  -0.47734019 -0.16882650 -0.38413512
C  -1.41022792 -1.03777176 0.33265793
C  0.49586681 -0.87071427 -0.19881693
C  1.34496825 0.06389295 0.39799621
H  -0.66468111 -0.80574772 0.29661804
H  -0.18974219 -0.76396977 -0.05698666
H  -0.77278232 -0.01345104 0.44113642
H  0.77474874 1.16807172 -0.16996078
H  -0.81570451 1.16565321 0.17625814
H  0.10120624 0.11382168 -0.54269136
12
MD Step 418.0 Units = [eV / Ang.]
C  -0.22126811 0.77195487 0.08645812
C  1.77826586 0.61355952 -0.43799217
C  -0.89284660 -0.24166922 -0.33331650
C  -1.36213038 -0.85339376 0.24785782
C  0.50980193 -1.39553735 -0.08196825
C  1.81307686 0.39693091 0.26799678
H  -0.54973450 -0.63488752 0.33517369
H  -0.13549756 -0.82681401 -0.04768356
H  -0.55822519 -0.05784871 0.41222008
H  0.66239005 0.87301523 -0.12530018
H  -0.88457722 1.27840683 0.13677348
H  -0.15925516 0.07628322 -0.46021931
12
MD Step 418.5 Units = [eV / Ang.]
C  -0.50155391 0.65366115 0.04452629
C  1.97519503 0.84474704 -0.46131231
C  -1.33097194 -0.31097787 -0.27451648
C  -1.27559428 -0.56743084 0.14685518
C  0.46055559 -1.73858004 0.02465528
C  2.24293697 0.70657377 0.13901876
H  -0.40095542 -0.40707833 0.38424716
H  -0.10268309 -0.84449041 -0.04045682
H  -0.29266360 -0.09912406 0.37460114
H  0.50422822 0.48532295 -0.06417592
H  -0.86784038 1.23636389 0.10730736
H  -0.41065322 0.04101276 -0.38074963
12
MD Step 419.0 Units = [eV / Ang.]
C  -0.77376071 0.50243392 0.00251946
C  2.15245262 1.00732856 -0.48309787
C  -1.77063945 -0.37831312 -0.21094311
C  -1.17070688 -0.22741036 0.03283498
C  0.34813310 -1.89695573 0.12883591
C  2.60366499 0.98766860 0.01860553
H  -0.23152152 -0.14921737 0.43671999
H  -0.09386621 -0.81377474 -0.03536905
H  0.00343118 -0.13607003 0.33136968
H  0.32269326 0.05417219 0.01117600
H  -0.76634853 1.04120194 0.07830600
H  -0.62353187 0.00893613 -0.31095753
12
MD Step 419.5 Units = [eV / Ang.]
C  -1.02018309 0.34418876 -0.03279673
C  2.30524721 1.10261639 -0.50342756
C  -2.18571671 -0.44473542 -0.14655208
C  -1.06490256 0.12056765 -0.08885352
C  0.18433584 -1.89398542 0.23833129
C  2.86673716 1.23680060 -0.08723358
H  -0.05548497 0.11190649 0.48562432
H  -0.10816648 -0.73595797 -0.03219437
H  0.30338720 -0.16779005 0.28647236
H  0.13875660 -0.37350841 0.09609056
H  -0.59426851 0.71965784 0.04043456
H  -0.76974167 -0.01976047 -0.25589526
12
MD Step 420.0 Units = [eV / Ang.]
C  -1.22484921 0.20151191 -0.05596822
C  2.42660175 1.13662280 -0.52257851
C  -2.54639400 -0.51041706 -0.08568436
C  -0.97075600 0.43858994 -0.21197823
C  -0.01045304 -1.77118565 0.35807244
C  3.01075643 1.45194298 -0.17521848
H  0.11404458 0.35299024 0.52517357
H  -0.14144398 -0.61667961 -0.03047350
H  0.57601357 -0.19384934 0.24429023
H  -0.03082864 -0.75983493 0.18472801
H  -0.37513886 0.31587117 -0.01250702
H  -0.82755261 -0.04556246 -0.21785592
12
MD Step 420.5 Units = [eV / Ang.]
C  -1.37481023 0.09201776 -0.06332272
C  2.50815796 1.11896835 -0.54092717
C  -2.82251185 -0.57446644 -0.03242156
C  -0.89576919 0.69937430 -0.33052432
C  -0.21252224 -1.57668318 0.48882191
C  3.02579727 1.63196165 -0.24541283
H  0.26603049 0.55590535 0.55126970
H  -0.18706434 -0.46512563 -0.02960631
H  0.78927288 -0.21434923 0.20892873
H  -0.17432774 -1.07831454 0.27120029
H  -0.13595628 -0.11995353 -0.08218588
H  -0.78629673 -0.06933487 -0.19581985
12
MD Step 421.0 Units = [eV / Ang.]
C  -1.46073766 0.02815886 -0.05298182
C  2.54135714 1.06144849 -0.55883969
C  -2.98847680 -0.63501749 0.01021799
C  -0.84346747 0.88544062 -0.43931562
C  -0.39978727 -1.35482339 0.62752285
C  2.91571410 1.77605842 -0.30096567
H  0.39192957 0.70791799 0.56155573
H  -0.23701457 -0.29280563 -0.02895447
H  0.91555049 -0.22986226 0.18336366
H  -0.28442384 -1.31280941 0.35025420
H  0.09825149 -0.54180389 -0.16608553
H  -0.64889518 -0.09190229 -0.18577163
12
MD Step 421.5 Units = [eV / Ang.]
C  -1.47699911 0.01788356 -0.02460941
C  2.51869806 0.97653942 -0.57657135
C  -3.02850211 -0.68956837 0.04096697
C  -0.81496710 0.98671473 -0.53415775
C  -0.55484456 -1.14002380 0.76867938
C  2.69741416 1.88331981 -0.34704054
H  0.48561378 0.80103562 0.55519977
H  -0.28309022 -0.11218288 -0.02793252
H  0.93720690 -0.24121900 0.16872250
H  -0.35698821 -1.45486972 0.41749615
H  0.30773225 -0.91395475 -0.25893450
H  -0.43127383 -0.11367461 -0.18181870
12
MD Step 422.0 Units = [eV / Ang.]
C  -1.42145165 0.06553243 0.02091486
C  2.43479360 0.87612987 -0.59419892
C  -2.94036221 -0.73544604 0.06058898
C  -0.81035526 0.99799600 -0.61168833
C  -0.66583119 -0.95525480 0.90588508
C  2.39730287 1.95248330 -0.38934626
H  0.54306864 0.83108726 0.53259553
H  -0.31789497 0.06456209 -0.02607111
H  0.85055282 -0.24921608 0.16399956
H  -0.38984559 -1.50094900 0.46932365
H  0.47891542 -1.21245900 -0.35430708
H  -0.15889248 -0.13446602 -0.17769595
12
MD Step 422.5 Units = [eV / Ang.]
C  -1.29516190 0.17247962 0.08176699
C  2.28705713 0.77062455 -0.61159519
C  -2.73615911 -0.77024835 0.07159980
C  -0.82956038 0.91716473 -0.66915236
C  -0.72572075 -0.81371574 1.03290838
C  2.04619334 1.98198344 -0.43279794
H  0.56212779 0.79701246 0.49510776
H  -0.33552101 0.22647447 -0.02304788
H  0.66673196 -0.25436243 0.16635319
H  -0.38189711 -1.45041282 0.50277138
H  0.60361244 -1.42344481 -0.44579098
H  0.13829758 -0.15355511 -0.16812316
12
MD Step 423.0 Units = [eV / Ang.]
C  -1.10221487 0.33729220 0.15534462
C  2.07597629 0.66844789 -0.62843991
C  -2.43973551 -0.79212045 0.07752168
C  -0.87258617 0.74449835 -0.70428276
C  -0.73094917 -0.72181541 1.14419256
C  1.67434308 1.97018209 -0.48068367
H  0.54241358 0.70061285 0.44491176
H  -0.33188772 0.36442452 -0.01869133
H  0.40913986 -0.25676575 0.17188222
H  -0.33276856 -1.30474731 0.51544822
H  0.67747608 -1.54009332 -0.52756490
H  0.43079311 -0.16991566 -0.14963848
12
MD Step 423.5 Units = [eV / Ang.]
C  -0.84966787 0.55531163 0.23834108
C  1.80503088 0.57588415 -0.64425895
C  -2.08175680 -0.79982698 0.08196613
C  -0.93910041 0.48321920 -0.71542216
C  -0.68007550 -0.68201612 1.23491754
C  1.30786286 1.91570590 -0.53442620
H  0.48555900 0.54683963 0.38491267
H  -0.30481108 0.47141021 -0.01296690
H  0.10841582 -0.25618351 0.17657979
H  -0.24305484 -1.06807968 0.50570268
H  0.69849307 -1.55976660 -0.59452755
H  0.69310486 -0.18249783 -0.12081814
12
MD Step 424.0 Units = [eV / Ang.]
C  -0.54766420 0.81779899 0.32679544
C  1.48034807 0.49710176 -0.65847383
C  -1.69419780 -0.79265409 0.08786161
C  -1.02743060 0.14118206 -0.70195559
C  -0.57288559 -0.69474055 1.30087508
C  0.96694582 1.81776553 -0.59379069
H  0.39568220 0.34451172 0.31868095
H  -0.25390687 0.54267282 -0.00595468
H  -0.20320374 -0.25218319 0.17713483
H  -0.11515989 -0.74889529 0.47308916
H  0.66596184 -1.48210366 -0.64223016
H  0.90551077 -0.19045610 -0.08203210
12
MD Step 424.5 Units = [eV / Ang.]
C  -0.20959231 1.11094963 0.41621719
C  1.11021174 0.43424740 -0.67045533
C  -1.30590941 -0.77024163 0.09702689
C  -1.13307104 -0.26662806 -0.66505102
C  -0.41012568 -0.75905961 1.33839964
C  0.66565417 1.67643500 -0.65729774
H  0.27995715 0.10717009 0.25030927
H  -0.18042306 0.57573231 0.00217442
H  -0.49647718 -0.24432089 0.17138177
H  0.04535408 -0.36258963 0.41912857
H  0.58014898 -1.30841440 -0.66685561
H  1.05427257 -0.19328020 -0.03497804
12
MD Step 425.0 Units = [eV / Ang.]
C  0.14793885 1.41527805 0.50188111
C  0.70453337 0.38751202 -0.67956752
C  -0.94009728 -0.73244520 0.11010013
C  -1.24701663 -0.71556130 -0.60853878
C  -0.19394333 -0.87209187 1.34455577
C  0.41263651 1.49288737 -0.72265100
H  0.14898714 -0.14641880 0.18409714
H  -0.08706460 0.57042930 0.01117845
H  -0.74783204 -0.23226935 0.15838383
H  0.22820993 0.06596211 0.34819611
H  0.44269344 -1.04244829 -0.66544071
H  1.13095464 -0.19083404 0.01780549
12
MD Step 425.5 Units = [eV / Ang.]
C  0.50562899 1.70600438 0.57934305
C  0.27434818 0.35514604 -0.68520186
C  -0.61366206 -0.67926803 0.12672016
C  -1.35451553 -1.17007847 -0.53957009
C  0.07094587 -1.02721224 1.31771119
C  0.21215058 1.26960541 -0.78707165
H  0.01659356 -0.39272087 0.12401822
H  0.02217375 0.52899892 0.02075973
H  -0.94015860 -0.21587441 0.13826447
H  0.41726562 0.50117389 0.26815995
H  0.25773124 -0.69243817 -0.63647194
H  1.13149841 -0.18333646 0.07333877
12
MD Step 426.0 Units = [eV / Ang.]
C  0.84282677 1.95496514 0.64512313
C  -0.16860174 0.33345612 -0.68679966
C  -0.33782380 -0.61089909 0.14581751
C  -1.43512297 -1.58547387 -0.46850144
C  0.37550660 -1.21141343 1.25852267
C  0.06489381 1.01057306 -0.84753718
H  -0.10133170 -0.60537457 0.07302798
H  0.14217542 0.45615650 0.03057622
H  -1.06230574 -0.19515597 0.11193183
H  0.59067466 0.89851397 0.19021315
H  0.03356418 -0.27403321 -0.58086906
H  1.05554451 -0.17131466 0.12849486
12
MD Step 426.5 Units = [eV / Ang.]
C  1.13977016 2.13419361 0.69736809
C  -0.61221525 0.31686464 -0.68386781
C  -0.11925178 -0.52783771 0.16590866
C  -1.46490318 -1.91369062 -0.40751358
C  0.70445796 -1.40263129 1.17114560
C  -0.03159713 0.72142369 -0.90096633
H  -0.18901634 -0.75874178 0.03240173
H  0.26691068 0.35910689 0.04024951
H  -1.10804670 -0.17028751 0.08080851
H  0.72321549 1.21040623 0.12740403
H  -0.21557046 0.18674322 -0.50316496
H  0.90624655 -0.15554936 0.18022658
12
MD Step 427.0 Units = [eV / Ang.]
C  1.38036319 2.22057739 0.73622483
C  -1.04431385 0.29816847 -0.67599063
C  0.03888730 -0.43107660 0.18533393
C  -1.42093334 -2.11272923 -0.36794481
C  1.03500502 -1.56845361 1.06418442
C  -0.08305187 0.40948231 -0.94442628
H  -0.23368294 -0.83247280 0.00137914
H  0.38972697 0.24735175 0.04937340
H  -1.07512431 -0.14158024 0.04662032
H  0.79095765 1.39572734 0.09185048
H  -0.46845636 0.65201939 -0.41239230
H  0.69062254 -0.13701417 0.22578749
12
MD Step 427.5 Units = [eV / Ang.]
C  1.55472483 2.20033512 0.76369557
C  -1.45292285 0.26908920 -0.66284020
C  0.13637346 -0.32227812 0.20243172
C  -1.28705346 -2.15684254 -0.35710184
C  1.33738818 -1.66803860 0.95062968
C  -0.09895425 0.08363737 -0.97541081
H  -0.22829917 -0.81581382 -0.02265981
H  0.50374628 0.13217318 0.05752369
H  -0.96477360 -0.10948809 0.01124583
H  0.77716866 1.43005957 0.09142071
H  -0.69768121 1.07396742 -0.32192844
H  0.42028313 -0.11680068 0.26299391
12
MD Step 428.0 Units = [eV / Ang.]
C  1.66059206 2.07178633 0.78295425
C  -1.82658570 0.22119479 -0.64418796
C  0.17598624 -0.20389180 0.21566198
C  -1.05867878 -2.04335025 -0.37590611
C  1.57820247 -1.65851664 0.84609201
C  -0.09308105 -0.24599412 -0.99220272
H  -0.17322325 -0.71014044 -0.04346589
H  0.60236363 0.02571569 0.06427318
H  -0.78186192 -0.07463070 -0.02340363
H  0.67722969 1.31248016 0.12727002
H  -0.87310887 1.40136461 -0.24762566
H  0.11216548 -0.09601763 0.29054053
12
MD Step 428.5 Units = [eV / Ang.]
C  1.70298282 1.84541422 0.79735206
C  -2.15473207 0.14714501 -0.61991830
C  0.16412869 -0.07914070 0.22372051
C  -0.74448404 -1.79290019 -0.41856927
C  1.72641270 -1.50525452 0.76530163
C  -0.08361781 -0.56860372 -0.99426926
H  -0.07609861 -0.52873203 -0.06487580
H  0.67980882 -0.06031090 0.06921176
H  -0.53558952 -0.03782485 -0.05551379
H  0.50031723 1.06567804 0.19344804
H  -0.96788090 1.59018987 -0.20421256
H  -0.21124731 -0.07566023 0.30832499
12
MD Step 429.0 Units = [eV / Ang.]
C  1.69223666 1.54126720 0.80948409
C  -2.42807576 0.04208406 -0.59004252
C  0.11175359 0.04812004 0.22566377
C  -0.36419328 -1.44312007 -0.47446209
C  1.76040532 -1.19276358 0.71791691
C  -0.09225901 -0.87335143 -0.98255955
H  0.04995089 -0.29387059 -0.08983341
H  0.73168304 -0.11612533 0.07197548
H  -0.24047042 -0.00010219 -0.08354156
H  0.26703420 0.72934913 0.27877202
H  -0.96523369 1.61498081 -0.20104438
H  -0.52283155 -0.05646808 0.31767122
12
MD Step 429.5 Units = [eV / Ang.]
C  1.64117784 1.18476527 0.82064010
C  -2.63898592 -0.09510179 -0.55471246
C  0.03512765 0.17364442 0.22107495
C  0.05633489 -1.03873556 -0.53122176
C  1.67329813 -0.73153355 0.70550742
C  -0.14188377 -1.15000759 -0.95954903
H  0.18910490 -0.03238254 -0.11980222
H  0.75538149 -0.13528687 0.07227965
H  0.08291677 0.03730431 -0.10644788
H  0.00415588 0.34999590 0.37000821
H  -0.86335094 1.47615018 -0.23907581
H  -0.79327691 -0.03881218 0.32129884
12
MD Step 430.0 Units = [eV / Ang.]
C  1.56239075 0.80238245 0.83072625
C  -2.78177126 -0.26100184 -0.51423279
C  -0.04419924 0.29306932 0.21024189
C  0.49044184 -0.62230779 -0.57768315
C  1.47411786 -0.15730935 0.72123649
C  -0.25285225 -1.38944042 -0.92888374
H  0.32563165 0.22885625 -0.15467052
H  0.75031506 -0.11567978 0.06995601
H  0.40807426 0.07302149 -0.12395138
H  -0.26116958 -0.02863438 0.45493727
H  -0.67594243 1.19971040 -0.31060339
H  -0.99503664 -0.02266633 0.32292705
12
MD Step 430.5 Units = [eV / Ang.]
C  1.46634213 0.41838111 0.83855875
C  -2.85282828 -0.44759947 -0.46906431
C  -0.10089292 0.40215660 0.19428412
C  0.91444504 -0.22843526 -0.60563823
C  1.18448027 0.47696701 0.75236782
C  -0.43865105 -1.58385788 -0.89462890
H  0.44591816 0.46625834 -0.19304313
H  0.71789407 -0.05982550 0.06498350
H  0.70430558 0.10564435 -0.13672292
H  -0.50570435 -0.37155592 0.52427800
H  -0.42828187 0.82956749 -0.40188702
H  -1.10702676 -0.00770087 0.32651232
12
MD Step 431.0 Units = [eV / Ang.]
C  1.36060151 0.05307139 0.84232339
C  -2.85067124 -0.64299678 -0.41982127
C  -0.10910018 0.49699575 0.17512698
C  1.30914521 0.11804205 -0.61024005
C  0.83258932 1.11285013 0.78421167
C  -0.70219363 -1.72685431 -0.86029963
H  0.53946508 0.66123586 -0.23270753
H  0.66128327 0.02556675 0.05750699
H  0.94031573 0.13387388 -0.14640337
H  -0.71205154 -0.65440178 0.57225305
H  -0.15063792 0.41610343 -0.49725370
H  -1.11874562 0.00651365 0.33530348
12
MD Step 431.5 Units = [eV / Ang.]
C  1.24996844 -0.27758049 0.84000697
C  -2.77585373 -0.83277769 -0.36725458
C  -0.04712572 0.57416456 0.15523485
C  1.65951952 0.40093962 -0.58946302
C  0.44728715 1.69695895 0.80366257
C  -1.03415861 -1.81338760 -0.82798863
H  0.59899657 0.80049610 -0.27108546
H  0.58499047 0.13067822 0.04783664
H  1.08926892 0.15665308 -0.15534931
H  -0.86856159 -0.86224477 0.59617708
H  0.12806871 0.00583564 -0.58280333
H  -1.03240015 0.02026437 0.35102620
12
MD Step 432.0 Units = [eV / Ang.]
C  1.13711147 -0.56153258 0.82971402
C  -2.63085694 -1.00172329 -0.31222648
C  0.09768597 0.63089624 0.13710825
C  1.95353702 0.61035006 -0.54320222
C  0.05415478 2.18738235 0.80116680
C  -1.41408624 -1.83983942 -0.79790634
H  0.62005641 0.87548840 -0.30557418
H  0.49437681 0.24400246 0.03642771
H  1.13405525 0.17326734 -0.16611063
H  -0.96811668 -0.98704662 0.59563360
H  0.38434891 -0.36475972 -0.64852042
H  -0.86226678 0.03351480 0.37348990
12
MD Step 432.5 Units = [eV / Ang.]
C  1.02329346 -0.79000051 0.80985464
C  -2.41995834 -1.13554347 -0.25567607
C  0.32555728 0.66526700 0.12267224
C  2.18101597 0.74030380 -0.47246461
C  -0.32589044 2.55550729 0.77103103
C  -1.81392594 -1.80425174 -0.76846214
H  0.60047480 0.88160908 -0.33376737
H  0.39516896 0.35379791 0.02384327
H  1.07101245 0.18338817 -0.18077696
H  -1.00668530 -1.02510417 0.57168595
H  0.60148019 -0.67083099 -0.68867547
H  -0.63154309 0.04585764 0.40073547
12
MD Step 433.0 Units = [eV / Ang.]
C  0.90891353 -0.95700023 0.77924943
C  -2.14912717 -1.22230368 -0.19858306
C  0.62370994 0.67638531 0.11277639
C  2.33305592 0.78720610 -0.37887829
C  -0.67614712 2.78465851 0.71068571
C  -2.20282869 -1.70671525 -0.73679382
H  0.53999096 0.81763274 -0.35360147
H  0.29304209 0.44930038 0.01070814
H  0.91071275 0.18706107 -0.20042190
H  -0.98226318 -0.97530039 0.52635532
H  0.76878593 -0.89753284 -0.70111137
H  -0.36784496 0.05660828 0.42961490
12
MD Step 433.5 Units = [eV / Ang.]
C  0.79368714 -1.05938425 0.73720926
C  -1.82591633 -1.25341772 -0.14192656
C  0.96891896 0.66456635 0.10699121
C  2.40230397 0.74938809 -0.26456395
C  -0.98291232 2.86739100 0.61964109
C  -2.55172394 -1.54977167 -0.69948670
H  0.44018938 0.68563777 -0.36348910
H  0.19329637 0.52157148 -0.00233930
H  0.67550961 0.18465320 -0.22484826
H  -0.89453060 -0.83852304 0.46242141
H  0.87997020 -1.03709308 -0.68615123
H  -0.09879243 0.06498185 0.45654214
12
MD Step 434.0 Units = [eV / Ang.]
C  0.67645325 -1.09741524 0.68364480
C  -1.45934001 -1.22416913 -0.08664477
C  1.33223343 0.63143351 0.10376749
C  2.38408454 0.62786386 -0.13230827
C  -1.23435362 2.80281799 0.49864945
C  -2.83659036 -1.33869005 -0.65323409
H  0.30477444 0.49147972 -0.36248914
H  0.10062466 0.56398124 -0.01469156
H  0.39479537 0.17678117 -0.25270222
H  -0.74535781 -0.61835332 0.38349239
H  0.93142812 -1.08600753 -0.64564465
H  0.15124798 0.07027779 0.47816055
12
MD Step 434.5 Units = [eV / Ang.]
C  0.55470392 -1.07578172 0.61922943
C  -1.05971020 -1.13381497 -0.03359031
C  1.68418959 0.57991341 0.10085583
C  2.27824432 0.42823223 0.01411190
C  -1.41995934 2.59472927 0.34928609
C  -3.04004530 -1.08147013 -0.59528778
H  0.14009410 0.24567302 -0.35053208
H  0.01895128 0.57238793 -0.02581006
H  0.09967147 0.16423414 -0.28186373
H  -0.54011472 -0.32293789 0.29420849
H  0.92110292 -1.04317777 -0.58238549
H  0.36287197 0.07201247 0.49177769
12
MD Step 435.0 Units = [eV / Ang.]
C  0.42403378 -1.00468312 0.54558433
C  -0.63837588 -0.98540060 0.01651517
C  1.99899228 0.51409095 0.09581254
C  2.09136653 0.16338952 0.16965978
C  -1.53077370 2.25079516 0.17395174
C  -3.15147545 -0.78853575 -0.52367743
H  -0.04430555 -0.03568550 -0.32866511
H  -0.04870141 0.54514607 -0.03525776
H  -0.18142585 0.14790212 -0.30993085
H  -0.28950413 0.03232939 0.20037766
H  0.84816395 -0.90932900 -0.49992399
H  0.52200541 0.06998076 0.49555393
12
MD Step 435.5 Units = [eV / Ang.]
C  0.27784609 -0.90041803 0.46540977
C  -0.20736608 -0.78536033 0.06312808
C  2.25687375 0.43892377 0.08642973
C  1.83865718 -0.14376273 0.32809513
C  -1.56047399 1.78291391 -0.02382361
C  -3.16625577 -0.47211246 -0.43726701
H  -0.23543460 -0.33053582 -0.29922787
H  -0.10033686 0.48301485 -0.04272788
H  -0.42532393 0.12871267 -0.33463628
H  -0.01127275 0.42216407 0.10878465
H  0.71362016 -0.68779568 -0.40267772
H  0.61946681 0.06425578 0.48851301
12
MD Step 436.0 Units = [eV / Ang.]
C  0.10771529 -0.78477771 0.38242707
C  0.22108035 -0.54299246 0.10592568
C  2.44466052 0.35981394 0.07101009
C  1.54445023 -0.45904400 0.48259901
C  -1.50722385 1.20865846 -0.23898030
C  -3.08466019 -0.14538344 -0.33573486
H  -0.41732685 -0.61171097 -0.26582021
H  -0.13512211 0.38903808 -0.04806938
H  -0.61495150 0.10758249 -0.35411020
H  0.26925632 0.81024364 0.02644564
H  0.52184051 -0.38658213 -0.29616271
H  0.65028131 0.05515410 0.47047016
12
MD Step 436.5 Units = [eV / Ang.]
C  -0.09531965 -0.68270741 0.30101258
C  0.63508729 -0.26983613 0.14484251
C  2.55510745 0.28207937 0.04848562
C  1.24019008 -0.73892010 0.62701007
C  -1.37606873 0.55349274 -0.46469436
C  -2.91090813 0.17847930 -0.21954994
H  -0.57252445 -0.84955246 -0.23293480
H  -0.15352455 0.26839137 -0.05131003
H  -0.73896273 0.08538467 -0.36699348
H  0.52102375 1.15131763 -0.04072202
H  0.28273120 -0.02131492 -0.18709719
H  0.61316847 0.04318595 0.44195103
12
MD Step 437.0 Units = [eV / Ang.]
C  -0.33850662 -0.61824162 0.22548656
C  1.02374376 0.02103472 0.18009071
C  2.58570704 0.21038939 0.01842693
C  0.95932495 -0.93680806 0.75735251
C  -1.18122103 -0.14704333 -0.69263026
C  -2.65264730 0.48726573 -0.08997224
H  -0.68457508 -1.01625532 -0.20522048
H  -0.15741641 0.12816499 -0.05267152
H  -0.79084073 0.06293079 -0.37244955
H  0.71208239 1.39772156 -0.08947220
H  0.01390042 0.38183322 -0.08307941
H  0.51044861 0.02900792 0.40413894
12
MD Step 437.5 Units = [eV / Ang.]
C  -0.62466587 -0.60954181 0.15919584
C  1.37764720 0.31579394 0.21216069
C  2.53756602 0.14828351 -0.01900466
C  0.73000231 -1.01308593 0.87295998
C  -0.94708688 -0.84664250 -0.91391376
C  -2.32094337 0.77051950 0.05092876
H  -0.74105454 -1.09107181 -0.18651556
H  -0.15008726 -0.02297683 -0.05257134
H  -0.76806501 0.04096400 -0.37013919
H  0.81666642 1.50954362 -0.12033654
H  -0.25837329 0.78483432 0.00839255
H  0.34839428 0.01337998 0.35884323
12
MD Step 438.0 Units = [eV / Ang.]
C  -0.94989934 -0.66459238 0.10368331
C  1.68930114 0.60073041 0.24179378
C  2.41471932 0.09785316 -0.06311404
C  0.56808972 -0.94562780 0.97647975
C  -0.70660565 -1.49085465 -1.12079228
C  -1.93070647 1.02003465 0.20028009
H  -0.73620529 -1.06477471 -0.17895456
H  -0.13609972 -0.17531163 -0.05160247
H  -0.67170552 0.02015182 -0.36020263
H  0.82203780 1.46520704 -0.13755078
H  -0.50081964 1.14005561 0.08152514
H  0.13789365 -0.00287153 0.30845470
12
MD Step 438.5 Units = [eV / Ang.]
C  -1.30266327 -0.77916301 0.05827565
C  1.95325251 0.86316083 0.26992276
C  2.22406140 0.05971374 -0.11271731
C  0.47358143 -0.73641421 1.07257963
C  -0.49596838 -2.02421034 -1.30848420
C  -1.50122137 1.23000283 0.35450140
H  -0.67223491 -0.94174064 -0.18248768
H  -0.12092918 -0.31877823 -0.05048458
H  -0.50659495 0.00106831 -0.34327178
H  0.73206064 1.26794238 -0.14762255
H  -0.67841138 1.39730751 0.13396044
H  -0.10493255 -0.01888919 0.25582822
12
MD Step 439.0 Units = [eV / Ang.]
C  -1.66469108 -0.93784885 0.02026612
C  2.16594385 1.09233654 0.29758313
C  1.97584126 0.03323894 -0.16616535
C  0.43212883 -0.41101532 1.16593486
C  -0.34640112 -2.40098140 -1.47631582
C  -1.05629909 1.39679999 0.50954812
H  -0.55876046 -0.73881618 -0.19500323
H  -0.11038260 -0.44384984 -0.04998575
H  -0.28200660 -0.01584362 -0.32050499
H  0.56572270 0.94498040 -0.15714973
H  -0.76243487 1.51481546 0.16775291
H  -0.35866080 -0.03381612 0.20403973
12
MD Step 439.5 Units = [eV / Ang.]
C  -2.01354326 -1.11772699 -0.01438691
C  2.32530845 1.28023135 0.32580027
C  1.68448606 0.01704152 -0.22137183
C  0.42083145 -0.01131369 1.25949958
C  -0.27579112 -2.59605451 -1.62736731
C  -0.62341895 1.51852065 0.66132436
H  -0.41062659 -0.48143635 -0.21297786
H  -0.10984315 -0.54246900 -0.05082064
H  -0.01255587 -0.03033204 -0.29360661
H  0.35137833 0.53987263 -0.17091690
H  -0.73860627 1.47048613 0.18882426
H  -0.59761909 -0.04681972 0.15599959
12
MD Step 440.0 Units = [eV / Ang.]
C  -2.32591199 -1.29318851 -0.05013554
C  2.43022929 1.42210878 0.35546846
C  1.36928768 0.00951592 -0.27588187
C  0.41545004 0.41501655 1.35377191
C  -0.28386049 -2.61113073 -1.76660161
C  -0.23144957 1.59442624 0.80621266
H  -0.24493322 -0.19848722 -0.23237033
H  -0.12346890 -0.60888173 -0.05354337
H  0.28117132 -0.04240570 -0.26477647
H  0.11945593 0.10159684 -0.19101741
H  -0.61154327 1.26853540 0.20489975
H  -0.79442681 -0.05710583 0.11397384
12
MD Step 440.5 Units = [eV / Ang.]
C  -2.58069721 -1.44027803 -0.09101495
C  2.48003957 1.51673621 0.38723996
C  1.05428428 0.00933417 -0.32704110
C  0.39609788 0.82388936 1.44709364
C  -0.35324424 -2.47312122 -1.89839345
C  0.09305097 1.62447447 0.94158716
H  -0.07826157 0.08237934 -0.24943038
H  -0.15351456 -0.64021304 -0.05845572
H  0.57293563 -0.05238495 -0.23652801
H  -0.10346505 -0.32508389 -0.21706575
H  -0.40329236 0.93819486 0.22286625
H  -0.92393334 -0.06392729 0.07914235
12
MD Step 441.0 Units = [eV / Ang.]
C  -2.76114741 -1.53950003 -0.14011509
C  2.47421736 1.56620399 0.42144386
C  0.76671644 0.01573917 -0.37229837
C  0.34992350 1.18034053 1.53651225
C  -0.45577844 -2.22548012 -2.02470164
C  0.33018175 1.60904202 1.06612839
H  0.07522969 0.33786365 -0.26121579
H  -0.19993653 -0.63666354 -0.06555384
H  0.83271400 -0.06089329 -0.21134614
H  -0.29769461 -0.70523220 -0.24703999
H  -0.14667871 0.52518370 0.24682141
H  -0.96774704 -0.06660388 0.05136495
12
MD Step 441.5 Units = [eV / Ang.]
C  -2.85585261 -1.57686086 -0.19938503
C  2.41235730 1.57536811 0.45804695
C  0.53374067 0.02858695 -0.40961500
C  0.27098346 1.45993307 1.61865977
C  -0.56077988 -1.91662280 -2.14459601
C  0.47041360 1.54887365 1.17980062
H  0.20464991 0.55030426 -0.26577887
H  -0.26037707 -0.60130136 -0.07452562
H  1.03038001 -0.06875379 -0.19122278
H  -0.45072537 -1.01503863 -0.27820329
H  0.12325911 0.08008402 0.27753752
H  -0.91804914 -0.06457262 0.02928173
12
MD Step 442.0 Units = [eV / Ang.]
C  -2.85880171 -1.54359162 -0.26967730
C  2.29443661 1.55102642 0.49666031
C  0.37783813 0.04813253 -0.43787453
C  0.15847062 1.64735005 1.69033604
C  -0.64185496 -1.59011996 -2.25496126
C  0.51631696 1.44521309 1.28348465
H  0.30238071 0.70754597 -0.26211045
H  -0.33052858 -0.53950261 -0.08479862
H  1.14069544 -0.07678646 -0.17719500
H  -0.55583752 -1.24017794 -0.30777199
H  0.37623743 -0.35161505 0.31316362
H  -0.77935313 -0.05747442 0.01074454
12
MD Step 442.5 Units = [eV / Ang.]
C  -2.76886001 -1.43522836 -0.35090676
C  2.12124232 1.50099036 0.53658694
C  0.31214210 0.07465796 -0.45712768
C  0.01449878 1.73388320 1.74875020
C  -0.68037519 -1.27936633 -2.35168780
C  0.48163268 1.30001158 1.37840517
H  0.36362413 0.80207145 -0.24996645
H  -0.40477436 -0.45818379 -0.09562624
H  1.14833794 -0.08555618 -0.16906191
H  -0.61017146 -1.37299718 -0.33325872
H  0.59024930 -0.73502644 0.35046016
H  -0.56754622 -0.04525627 -0.00656692
12
MD Step 443.0 Units = [eV / Ang.]
C  -2.58905020 -1.25068252 -0.44221746
C  1.89483974 1.43322949 0.57689333
C  0.33731252 0.10806693 -0.46853868
C  -0.15772320 1.71508829 1.79153482
C  -0.66578253 -1.00674164 -2.43070724
C  0.38803008 1.11612093 1.46557222
H  0.38586657 0.83003358 -0.22968558
H  -0.47695432 -0.36497311 -0.10619089
H  1.05127931 -0.09515949 -0.16542120
H  -0.61305628 -1.40988863 -0.35257800
H  0.75181439 -1.04684391 0.38590417
H  -0.30657609 -0.02824991 -0.02456549
12
MD Step 443.5 Units = [eV / Ang.]
C  -2.32589767 -0.99170272 -0.54210413
C  1.61891663 1.35519480 0.61649537
C  0.44122619 0.14761104 -0.47402113
C  -0.35495132 1.58932650 1.81668332
C  -0.59397526 -0.78564656 -2.48859123
C  0.26071164 0.89737104 1.54541955
H  0.36851962 0.79062564 -0.20205696
H  -0.54109974 -0.26745981 -0.11570344
H  0.86123760 -0.10514179 -0.16404168
H  -0.56498475 -1.34962337 -0.36404924
H  0.85425506 -1.27336568 0.41636100
H  -0.02395800 -0.00718909 -0.04439142
12
MD Step 444.0 Units = [eV / Ang.]
C  -1.98900427 -0.66292562 -0.64847610
C  1.29893331 1.27338805 0.65424198
C  0.60163387 0.19181065 -0.47568541
C  -0.57410842 1.35749092 1.82253659
C  -0.46511695 -0.62354740 -2.52274763
C  0.12427149 0.64852832 1.61770252
H  0.31287583 0.68601198 -0.16825602
H  -0.59202645 -0.17259811 -0.12348437
H  0.60102856 -0.11458244 -0.16244034
H  -0.46735934 -1.19297360 -0.36640999
H  0.89539343 -1.40744610 0.43934111
H  0.25347893 0.01684336 -0.06632235
12
MD Step 444.5 Units = [eV / Ang.]
C  -1.59088102 -0.27251054 -0.75868135
C  0.94202251 1.19314474 0.68899270
C  0.79080365 0.23857934 -0.47530091
C  -0.81166913 1.02401937 1.80788898
C  -0.28176089 -0.52466713 -2.53138358
C  -0.00022552 0.37514365 1.68160437
H  0.22239898 0.52184631 -0.12983288
H  -0.62573581 -0.08629288 -0.12901865
H  0.29983015 -0.12230959 -0.15845648
H  -0.32301114 -0.94371772 -0.35891759
H  0.87560664 -1.44575647 0.45300801
H  0.50262159 0.04252091 -0.08990262
12
MD Step 445.0 Units = [eV / Ang.]
C  -1.14700177 0.16683577 -0.86953680
C  0.55670495 1.11857530 0.71968334
C  0.98050840 0.28546916 -0.47394462
C  -1.06233842 0.59909958 1.77223908
C  -0.04770777 -0.49162784 -2.51341668
C  -0.09662771 0.08335420 1.73594783
H  0.10325379 0.30821003 -0.08871368
H  -0.63962890 -0.01314582 -0.13198435
H  -0.01198405 -0.12715690 -0.15064323
H  -0.13740554 -0.61091117 -0.34156458
H  0.79667442 -1.38709973 0.45611500
H  0.70555261 0.06839742 -0.11418132
12
MD Step 445.5 Units = [eV / Ang.]
C  -0.67588377 0.63683685 -0.97740981
C  0.15247217 1.05258262 0.74537974
C  1.14592412 0.32995430 -0.47189522
C  -1.31730626 0.10165055 1.71613465
C  0.23231837 -0.52576236 -2.46845640
C  -0.15380721 -0.22031889 1.77941351
H  -0.03514977 0.06058897 -0.04716415
H  -0.63256940 0.04367841 -0.13225981
H  -0.30697490 -0.12817399 -0.13840967
H  0.07970777 -0.21197066 -0.31536851
H  0.66152819 -1.23208605 0.44799512
H  0.84974069 0.09302024 -0.13795945
12
MD Step 446.0 Units = [eV / Ang.]
C  -0.19889307 1.11322054 -1.07840263
C  -0.26066006 0.99689742 0.76531634
C  1.26775221 0.36966765 -0.46873101
C  -1.56257977 -0.43790158 1.64147756
C  0.55216967 -0.62606062 -2.39691119
C  -0.16503708 -0.52911998 1.81071423
H  -0.17994933 -0.19971024 -0.00766164
H  -0.60484187 0.08251134 -0.12991352
H  -0.56301480 -0.12474305 -0.12195394
H  0.31272887 0.22445430 -0.28261045
H  0.47484056 -0.98423680 0.42866505
H  0.92748467 0.11502103 -0.15998882
12
MD Step 446.5 Units = [eV / Ang.]
C  0.26060328 1.56659363 -1.16865851
C  -0.67255261 0.95210963 0.77892199
C  1.33263403 0.40255745 -0.46353730
C  -1.77826599 -0.97674150 1.55156948
C  0.90309949 -0.78684140 -2.30021366
C  -0.12717507 -0.83617247 1.82871559
H  -0.31537838 -0.44641126 0.02734930
H  -0.55804021 0.10319346 -0.12518221
H  -0.76396539 -0.11660323 -0.10207981
H  0.53960566 0.65752526 -0.24681071
H  0.24428028 -0.65239771 0.39903736
H  0.93515491 0.13318814 -0.17911150
12
MD Step 447.0 Units = [eV / Ang.]
C  0.67899791 1.96511023 -1.24475971
C  -1.07324131 0.91768785 0.78582339
C  1.33245647 0.42694140 -0.45512792
C  -1.93981300 -1.46257815 1.45067880
C  1.27217749 -0.99460828 -2.18107123
C  -0.04005776 -1.13454390 1.83251924
H  -0.42436683 -0.65090287 0.05579999
H  -0.49490730 0.10705021 -0.11843815
H  -0.89921319 -0.10381555 -0.07999041
H  0.73323878 1.03711665 -0.21223380
H  -0.01792350 -0.25399260 0.36115360
H  0.87265224 0.14653500 -0.19435380
12
MD Step 447.5 Units = [eV / Ang.]
C  1.03510543 2.27887605 -1.30413318
C  -1.45313725 0.89202559 0.78583355
C  1.26322647 0.44147818 -0.44222786
C  -2.02182231 -1.84147361 1.34307623
C  1.64088641 -1.22508168 -2.04356206
C  0.09367094 -1.41731241 1.82153527
H  -0.49116266 -0.78660691 0.07635358
H  -0.41912491 0.09681531 -0.11014737
H  -0.96273372 -0.08670620 -0.05711122
H  0.86553605 1.31166171 -0.18287978
H  -0.29373778 0.18194449 0.31826246
H  0.74329334 0.15437948 -0.20499962
12
MD Step 448.0 Units = [eV / Ang.]
C  1.31315916 2.48516359 -1.34533154
C  -1.80314623 0.87254217 0.77891607
C  1.12409468 0.44508574 -0.42359807
C  -2.00391946 -2.06934060 1.23182332
C  1.98481172 -1.44214364 -1.89284990
C  0.26826858 -1.67766967 1.79555830
H  -0.50441278 -0.83415199 0.08865018
H  -0.33505132 0.07647161 -0.10081816
H  -0.95223496 -0.06581896 -0.03495794
H  0.91357562 1.43969183 -0.16124990
H  -0.55930337 0.61373150 0.27451687
H  0.55415837 0.15643841 -0.21065923
12
MD Step 448.5 Units = [eV / Ang.]
C  1.50524485 2.57282634 -1.36809157
C  -2.11477713 0.85589018 0.76513589
C  0.91688431 0.43685115 -0.39811992
C  -1.87669660 -2.12322946 1.11787876
C  2.27536139 -1.60069449 -1.73435754
C  0.47426637 -1.90909835 1.75484535
H  -0.45974272 -0.78573193 0.09333677
H  -0.24739763 0.05097352 -0.09094320
H  -0.86873976 -0.04188531 -0.01503184
H  0.86587410 1.40113185 -0.14745635
H  -0.78702321 0.99003998 0.23413861
H  0.31674605 0.15292652 -0.21133496
12
MD Step 449.0 Units = [eV / Ang.]
C  1.61223634 2.54428519 -1.37314608
C  -2.38028948 0.83827966 0.74459749
C  0.64624848 0.41598960 -0.36487060
C  -1.64509491 -2.00739966 1.00005081
C  2.48391831 -1.65454293 -1.57252117
C  0.69782898 -2.10560528 1.70017273
H  -0.36085752 -0.64701009 0.09185773
H  -0.16085356 0.02582960 -0.08093839
H  -0.71673271 -0.01581023 0.00128785
H  0.72603285 1.20331267 -0.13919842
H  -0.95003489 1.25804751 0.20017326
H  0.04759812 0.14462397 -0.20746520
12
MD Step 449.5 Units = [eV / Ang.]
C  1.64282989 2.41432097 -1.36187077
C  -2.59290743 0.81591654 0.71738605
C  0.32038892 0.38189061 -0.32322693
C  -1.32749709 -1.75122638 0.87586539
C  2.58761865 -1.56806650 -1.40960615
C  0.92057939 -2.26195131 1.63282856
H  -0.21871476 -0.43579845 0.08608420
H  -0.07968836 0.00655241 -0.07108947
H  -0.50482394 0.01134118 0.01288770
H  0.51195794 0.87871349 -0.13267114
H  -1.02813842 1.37544616 0.17332469
H  -0.23160479 0.13286128 -0.19991215
12
MD Step 450.0 Units = [eV / Ang.]
C  1.61104501 2.20618957 -1.33590255
C  -2.74709460 0.78551531 0.68352235
C  -0.04791885 0.33420771 -0.27302028
C  -0.95094680 -1.40003731 0.74287871
C  2.57469533 -1.32752399 -1.24524573
C  1.12042564 -2.37377767 1.55449759
H  -0.04909430 -0.17805107 0.07791869
H  -0.00737473 -0.00197387 -0.06151520
H  -0.24667085 0.03837687 0.01911879
H  0.25100329 0.47556421 -0.12393438
H  -1.01304320 1.32214228 0.15153809
H  -0.49502593 0.11936794 -0.18985608
12
MD Step 450.5 Units = [eV / Ang.]
C  1.53311321 1.94659442 -1.29684748
C  -2.83882286 0.74479376 0.64294376
C  -0.44046734 0.27297424 -0.21474447
C  -0.54479574 -1.00331835 0.59977160
C  2.44707938 -0.94684820 -1.07707782
C  1.27377068 -2.43755357 1.46701827
H  0.13050010 0.09727730 0.06899711
H  0.05370688 0.00388125 -0.05215898
H  0.03830964 0.06404573 0.02004143
H  -0.02667599 0.04577920 -0.11007027
H  -0.91060292 1.10640888 0.13070555
H  -0.71511502 0.10596535 -0.17857869
12
MD Step 451.0 Units = [eV / Ang.]
C  1.42476486 1.66115075 -1.24613465
C  -2.86579329 0.69286362 0.59551942
C  -0.83356131 0.19865898 -0.14976492
C  -0.13542045 -0.60501555 0.44680821
C  2.21910026 -0.46485898 -0.90220767
C  1.35903917 -2.45034570 1.37204952
H  0.30360832 0.36283676 0.06054310
H  0.10243303 0.02598806 -0.04281230
H  0.32508104 0.08714587 0.01666049
H  -0.29387747 -0.36496661 -0.08971226
H  -0.73894627 0.76239443 0.10622047
H  -0.86642788 0.09414837 -0.16716940
12
MD Step 451.5 Units = [eV / Ang.]
C  1.29951323 1.37144095 -1.18499769
C  -2.82753538 0.63041356 0.54109868
C  -1.19939699 0.11216261 -0.08043809
C  0.25649608 -0.23847148 0.28567781
C  1.91309882 0.06479375 -0.71871809
C  1.36081451 -2.40954089 1.27074144
H  0.45659338 0.59585774 0.05335944
H  0.13894030 0.06417220 -0.03316886
H  0.58459731 0.10665523 0.01105038
H  -0.52960317 -0.72242953 -0.06295619
H  -0.52342989 0.34026813 0.07459060
H  -0.93008821 0.08467774 -0.15623945
12
MD Step 452.0 Units = [eV / Ang.]
C  1.16803817 1.09386544 -1.11453900
C  -2.72539573 0.55963435 0.47958336
C  -1.50921142 0.01477194 -0.01001783
C  0.61614363 0.07415806 0.11899718
C  1.55409539 0.58629675 -0.52651221
C  1.27335043 -2.31274174 1.16353686
H  0.57932346 0.77930930 0.04790670
H  0.16447315 0.11621376 -0.02289718
H  0.78719682 0.12185145 0.00624769
H  -0.71970250 -1.00439203 -0.03092715
H  -0.29068927 -0.10631075 0.03437793
H  -0.89762212 0.07734348 -0.14575635
12
MD Step 452.5 Units = [eV / Ang.]
C  1.03836184 0.83987534 -1.03581939
C  -2.56241427 0.48389590 0.41101194
C  -1.73784232 -0.09187901 0.05772918
C  0.93319299 0.31973035 -0.05021847
C  1.16560481 1.05192628 -0.32727831
C  1.10220431 -2.15796132 1.05019775
H  0.66502062 0.90167828 0.04440996
H  0.18111242 0.17812748 -0.01171718
H  0.90738765 0.13237412 0.00583054
H  -0.85577818 -1.19839139 0.00469764
H  -0.06399841 -0.53039135 -0.01376297
H  -0.77285148 0.07101533 -0.13508068
12
MD Step 453.0 Units = [eV / Ang.]
C  0.91638934 0.61693668 -0.94993951
C  -2.34313663 0.40723357 0.33563720
C  -1.86858143 -0.20579488 0.11917579
C  1.19998198 0.49105241 -0.21894321
C  0.76757151 1.42732889 -0.12386810
C  0.86331934 -1.94418392 0.93005593
H  0.70970049 0.95606817 0.04295702
H  0.19144101 0.24466588 0.00053597
H  0.92886507 0.13820431 0.01321843
H  -0.93343503 -1.29850634 0.04204053
H  0.13901924 -0.89698423 -0.06767046
H  -0.57113489 0.06397949 -0.12319959
12
MD Step 453.5 Units = [eV / Ang.]
C  0.80643279 0.42957743 -0.85809070
C  -2.07340394 0.33375251 0.25398124
C  -1.89669411 -0.32454481 0.17157749
C  1.41006724 0.58423313 -0.38434562
C  0.37621759 1.69201094 0.08044411
C  0.57987742 -1.67210299 0.80239783
H  0.71158762 0.93925801 0.04356810
H  0.19820764 0.30994156 0.01387260
H  0.84811277 0.13956989 0.03087586
H  -0.95069060 -1.30256112 0.07921416
H  0.30652269 -1.18357171 -0.12443130
H  -0.31623710 0.05443717 -0.10906377
12
MD Step 454.0 Units = [eV / Ang.]
C  0.71147588 0.28009776 -0.76156855
C  -1.76013450 0.26706330 0.16686306
C  -1.83029994 -0.44518143 0.21365924
C  1.55756036 0.59710615 -0.54385394
C  0.00496796 1.83690051 0.28250336
C  0.27802458 -1.34483764 0.66684243
H  0.67076017 0.85114158 0.04622717
H  0.20403424 0.36806266 0.02813711
H  0.67525719 0.13682012 0.05968188
H  -0.90700210 -1.21044226 0.11439034
H  0.43129382 -1.37771119 -0.18098049
H  -0.03593768 0.04098044 -0.09190162
12
MD Step 454.5 Units = [eV / Ang.]
C  0.63308860 0.16869975 -0.66174651
C  -1.41112925 0.20981181 0.07538815
C  -1.68825351 -0.56418609 0.24582392
C  1.63735143 0.52895419 -0.69516326
C  -0.33438721 1.86093932 0.47950526
C  -0.01716580 -0.96838527 0.52360421
H  0.58914576 0.69475241 0.05087934
H  0.21119192 0.41369630 0.04302498
H  0.43182973 0.13032462 0.09869538
H  -0.80309987 -1.02378259 0.14582977
H  0.50918464 -1.47372445 -0.23443146
H  0.24224356 0.02290000 -0.07140976
12
MD Step 455.0 Units = [eV / Ang.]
C  0.57100183 0.09299162 -0.56000799
C  -1.03488681 0.16336204 -0.01909032
C  -1.49588046 -0.67749995 0.26993009
C  1.64619863 0.38159373 -0.83626335
C  -0.63085144 1.76808476 0.66898517
C  -0.28450865 -0.55171283 0.37359837
H  0.47086391 0.47687861 0.05739067
H  0.22145025 0.44250757 0.05811942
H  0.14630545 0.12042788 0.14537419
H  -0.64166820 -0.74705102 0.17194630
H  0.53779492 -1.46985758 -0.28218720
H  0.49418058 0.00027517 -0.04779536
12
MD Step 455.5 Units = [eV / Ang.]
C  0.52248853 0.04703155 -0.45764075
C  -0.64043097 0.12760949 -0.11503885
C  -1.28009740 -0.78064127 0.28876296
C  1.58450896 0.16172465 -0.96556160
C  -0.87395873 1.56539396 0.84869733
C  -0.50797582 -0.10647580 0.21841188
H  0.32278595 0.20906570 0.06547793
H  0.23598765 0.45146566 0.07294211
H  -0.15100308 0.10745694 0.19612548
H  -0.42877479 -0.38990767 0.19147495
H  0.51570851 -1.36660875 -0.32194792
H  0.70076120 -0.02611448 -0.02170352
12
MD Step 456.0 Units = [eV / Ang.]
C  0.48179610 0.02028405 -0.35570604
C  -0.23712592 0.10092542 -0.21082316
C  -1.06538589 -0.86889622 0.30541567
C  1.45846230 -0.11587568 -1.08213583
C  -1.05418882 1.26240521 1.01652289
C  -0.67666906 0.35358611 0.06019005
H  0.15505316 -0.09140947 0.07461766
H  0.25534779 0.43902417 0.08700845
H  -0.43220456 0.09175505 0.24696240
H  -0.17572942 0.02963345 0.20377257
H  0.44243216 -1.16645675 -0.35173437
H  0.84821215 -0.05497532 0.00590970
12
MD Step 456.5 Units = [eV / Ang.]
C  0.44000589 -0.00289336 -0.25490739
C  0.16551750 0.08019500 -0.30479756
C  -0.87139242 -0.93757266 0.32277683
C  1.28177729 -0.42528849 -1.18608095
C  -1.16408823 0.87183652 1.17052370
C  -0.78403501 0.81347066 -0.09851210
H  -0.01882538 -0.40122158 0.08395996
H  0.27942591 0.40520340 0.09988374
H  -0.67442246 0.07371410 0.29406424
H  0.09930726 0.48225596 0.20920747
H  0.31909357 -0.87499207 -0.37002774
H  0.92763607 -0.08470748 0.03390980
12
MD Step 457.0 Units = [eV / Ang.]
C  0.38570358 -0.04252085 -0.15550319
C  0.55807626 0.06096323 -0.39539084
C  -0.71219637 -0.98231572 0.34322284
C  1.07609262 -0.72821935 -1.27880260
C  -1.20007201 0.41139605 1.30922179
C  -0.82690989 1.25787717 -0.25489253
H  -0.18270483 -0.69204741 0.09228783
H  0.30747951 0.35158552 0.11123293
H  -0.86068829 0.05379283 0.33413309
H  0.37102715 0.92631466 0.20948021
H  0.14986308 -0.50323419 -0.37608497
H  0.93432922 -0.11359192 0.06109544
12
MD Step 457.5 Units = [eV / Ang.]
C  0.30670526 -0.12052072 -0.05731750
C  0.93146061 0.03767356 -0.48118771
C  -0.59670557 -0.99946293 0.36850594
C  0.86884237 -0.97660370 -1.36299893
C  -1.16469468 -0.09374996 1.43209495
C  -0.80482866 1.67221016 -0.40607087
H  -0.31961362 -0.93347174 0.09807359
H  0.33816427 0.28123031 0.12086269
H  -0.97964408 0.03251995 0.36455120
H  0.60913048 1.31072375 0.20761267
H  -0.05611644 -0.07060133 -0.37041706
H  0.86730006 -0.13994734 0.08629103
12
MD Step 458.0 Units = [eV / Ang.]
C  0.19268738 -0.25656887 0.04010838
C  1.27717849 0.00402110 -0.56099241
C  -0.52956287 -0.98641501 0.39976682
C  0.68823032 -1.12022477 -1.44209910
C  -1.06884107 -0.60888767 1.54015365
C  -0.71986214 2.04352831 -0.54927180
H  -0.41449296 -1.09761431 0.09966965
H  0.36960210 0.19850304 0.12874746
H  -1.02470781 0.01048904 0.38340388
H  0.78340153 1.58287183 0.20737143
H  -0.28286738 0.39256550 -0.35529188
H  0.72923440 -0.16226820 0.10843391
12
MD Step 458.5 Units = [eV / Ang.]
C  0.03806265 -0.46321812 0.13723237
C  1.58759007 -0.04658095 -0.63387614
C  -0.51198882 -0.94195835 0.43758317
C  0.55636410 -1.11822088 -1.51915905
C  -0.93282886 -1.08961597 1.63629192
C  -0.57704896 2.36132314 -0.68202970
H  -0.45720755 -1.16447032 0.09562309
H  0.39949397 0.10879664 0.13503790
H  -0.99329504 -0.01165163 0.38946054
H  0.87069546 1.70036556 0.21213385
H  -0.50679303 0.84459183 -0.33497402
H  0.52695602 -0.17936094 0.12667609
12
MD Step 459.0 Units = [eV / Ang.]
C  -0.15588539 -0.74192705 0.23416730
C  1.85611461 -0.12043548 -0.69919810
C  -0.54222999 -0.86643834 0.48198246
C  0.48312849 -0.95058647 -1.59561918
C  -0.78511798 -1.48534085 1.72501921
C  -0.38530213 2.61801825 -0.80240614
H  -0.44481640 -1.12626956 0.08503615
H  0.42528479 0.01813831 0.14004431
H  -0.88646133 -0.03321607 0.38218702
H  0.86126681 1.64260611 0.22360644
H  -0.69821135 1.23593513 -0.31532940
H  0.27222986 -0.19048398 0.14050991
12
MD Step 459.5 Units = [eV / Ang.]
C  -0.38049493 -1.08154311 0.33040567
C  2.07737438 -0.22293983 -0.75659743
C  -0.61548154 -0.76171839 0.53238220
C  0.46368495 -0.62455658 -1.67056395
C  -0.65778808 -1.74712737 1.81132244
C  -0.15841092 2.80911365 -0.90920025
H  -0.38221669 -0.98922861 0.06784637
H  0.44438103 -0.06731016 0.14419421
H  -0.70911837 -0.05351367 0.36183208
H  0.76151196 1.41705351 0.24104599
H  -0.82597531 1.51724473 -0.30257412
H  -0.01746648 -0.19547418 0.14990680
12
MD Step 460.0 Units = [eV / Ang.]
C  -0.62109957 -1.45992722 0.42472187
C  2.24726947 -0.35796021 -0.80595660
C  -0.72333966 -0.63090465 0.58745395
C  0.48089487 -0.17276449 -1.74093280
C  -0.57932034 -1.83835099 1.89886052
C  0.08441674 2.93294474 -1.00209524
H  -0.28088863 -0.77200291 0.04491381
H  0.45440840 -0.14182475 0.14796573
H  -0.47075843 -0.07190558 0.32959173
H  0.59173419 1.05706443 0.26144054
H  -0.86455482 1.65044374 -0.30139357
H  -0.31876222 -0.19481211 0.15543006
12
MD Step 460.5 Units = [eV / Ang.]
C  -0.85976170 -1.84807564 0.51529360
C  2.36297489 -0.52728990 -0.84734127
C  -0.85304810 -0.47787517 0.64495694
C  0.51140957 0.35581251 -1.80258081
C  -0.56701812 -1.74435110 1.98824469
C  0.31918194 2.99010374 -1.08167882
H  -0.15624756 -0.50147686 0.01787854
H  0.45348095 -0.20069762 0.15180592
H  -0.18638115 -0.08788997 0.28780335
H  0.38008171 0.61240178 0.28055227
H  -0.80122437 1.61890151 -0.31319110
H  -0.60344804 -0.18956328 0.15825670
12
MD Step 461.0 Units = [eV / Ang.]
C  -1.07837869 -2.21518714 0.59998217
C  2.42292205 -0.73025108 -0.88092889
C  -0.98697969 -0.30678325 0.70162682
C  0.53248380 0.90774485 -1.85160990
C  -0.62231507 -1.47663329 2.07633476
C  0.51940061 2.98264041 -1.14927760
H  -0.02460252 -0.20750676 -0.01114670
H  0.44044201 -0.24073233 0.15604736
H  0.12289441 -0.10120273 0.24007144
H  0.15551415 0.13693144 0.29425457
H  -0.64016289 1.43212792 -0.33539430
H  -0.84121817 -0.18114803 0.16004028
12
MD Step 461.5 Units = [eV / Ang.]
C  -1.26119102 -2.53305353 0.67665502
C  2.42676212 -0.96350565 -0.90693674
C  -1.10300826 -0.12162678 0.75324802
C  0.52687479 1.43502801 -1.88535387
C  -0.73116703 -1.06948221 2.15700464
C  0.66007983 2.91323269 -1.20658863
H  0.09933341 0.08169669 -0.03993138
H  0.41503745 -0.26057931 0.16083955
H  0.43022329 -0.11190268 0.19118906
H  -0.05750462 -0.32156179 0.29954725
H  -0.40142999 1.12271285 -0.36225852
H  -1.00400998 -0.17095830 0.16258559
12
MD Step 462.0 Units = [eV / Ang.]
C  -1.39620852 -2.77879703 0.74344406
C  2.37536798 -1.22110882 -0.92556991
C  -1.17636070 0.07395207 0.79502730
C  0.48469273 1.90037138 -1.90273363
C  -0.86913551 -0.57057334 2.22299222
C  0.72255351 2.78452813 -1.25517938
H  0.20387880 0.34251195 -0.06641784
H  0.37798086 -0.26083628 0.16611140
H  0.70505278 -0.12039191 0.14673013
H  -0.24141251 -0.72677145 0.29496765
H  -0.11532471 0.73704406 -0.38676318
H  -1.07108471 -0.15992875 0.16739119
12
MD Step 462.5 Units = [eV / Ang.]
C  -1.47555637 -2.93585118 0.79888621
C  2.27086366 -1.49478985 -0.93699293
C  -1.18317603 0.27659833 0.82231264
C  0.40271957 2.27798127 -1.90407420
C  -1.00857550 -0.02986955 2.26788696
C  0.69869536 2.59885368 -1.29600551
H  0.28077429 0.55702009 -0.08889336
H  0.33090145 -0.24390964 0.17157102
H  0.91696753 -0.12732534 0.11227258
H  -0.38541818 -1.05457425 0.28048018
H  0.18516131 0.32410211 -0.40264601
H  -1.03335708 -0.14823565 0.17520243
12
MD Step 463.0 Units = [eV / Ang.]
C  -1.49508774 -2.99367824 0.84194963
C  2.11667712 -1.77442638 -0.94133055
C  -1.10525669 0.48291558 0.83153818
C  0.28238473 2.55155171 -1.89065939
C  -1.12488312 0.50900040 2.28743780
C  0.59297798 2.35839236 -1.32912660
H  0.32486668 0.71277166 -0.10604787
H  0.27617946 -0.21366036 0.17674409
H  1.04080462 -0.13340166 0.09237569
H  -0.48395044 -1.29078460 0.25711092
H  0.47073459 -0.07341228 -0.40574387
H  -0.89544719 -0.13526819 0.18575197
12
MD Step 463.5 Units = [eV / Ang.]
C  -1.45367108 -2.94692121 0.87198925
C  1.91757522 -2.04864340 -0.93869134
C  -0.93470869 0.68899308 0.82112428
C  0.12753902 2.71134356 -1.86428557
C  -1.20003027 1.01289104 2.27991137
C  0.42155261 2.06576273 -1.35372897
H  0.33349912 0.80190825 -0.11695807
H  0.21669978 -0.17490489 0.18104090
H  1.06168409 -0.13908840 0.08959598
H  -0.53476445 -1.42791159 0.22657121
H  0.71928680 -0.42352980 -0.39437002
H  -0.67466216 -0.11989936 0.19780099
12
MD Step 464.0 Units = [eV / Ang.]
C  -1.35252889 -2.79458276 0.88868304
C  1.67965514 -2.30547376 -0.92920313
C  -0.67680192 0.88997618 0.79199068
C  -0.05726965 2.75169210 -1.82695276
C  -1.22331903 1.45921137 2.24574942
C  0.20873503 1.72478894 -1.36843657
H  0.30594902 0.82027391 -0.12104974
H  0.15556797 -0.13286312 0.18383681
H  0.97824706 -0.14438920 0.10389307
H  -0.53739478 -1.46233117 0.19099826
H  0.91646044 -0.70536366 -0.36897191
H  -0.39730039 -0.10093884 0.20946282
12
MD Step 464.5 Units = [eV / Ang.]
C  -1.19481131 -2.53962622 0.89199525
C  1.41023009 -2.53303107 -0.91304917
C  -0.34985699 1.07986684 0.74745930
C  -0.26775113 2.66961289 -1.78073272
C  -1.19028347 1.83361287 2.18694646
C  -0.01779300 1.34117910 -1.37176779
H  0.24311133 0.76694129 -0.11807979
H  0.09583028 -0.09262965 0.18455283
H  0.80288204 -0.14875758 0.13266156
H  -0.49226347 -1.39261168 0.15283662
H  1.05432788 -0.90698011 -0.33149480
H  -0.09362224 -0.07757668 0.21867226
12
MD Step 465.0 Units = [eV / Ang.]
C  -0.98549840 -2.18915635 0.88219055
C  1.11759698 -2.72017021 -0.89049118
C  0.01791275 1.25165287 0.69256137
C  -0.49999165 2.46479383 -1.72776148
C  -1.10091130 2.12704362 2.10648148
C  -0.23148631 0.92288744 -1.36256138
H  0.14750485 0.64436378 -0.10816164
H  0.04022925 -0.05872527 0.18272220
H  0.55885556 -0.15120170 0.17137810
H  -0.40053439 -1.21931213 0.11480711
H  1.12941359 -1.02251454 -0.28479177
H  0.20690907 -0.04966134 0.22362663
12
MD Step 465.5 Units = [eV / Ang.]
C  -0.73161361 -1.75515065 0.85990981
C  0.81068174 -2.85711941 -0.86187588
C  0.39348677 1.39776914 0.63300987
C  -0.74979251 2.14103191 -1.67026385
C  -0.95797485 2.33332770 2.00795693
C  -0.41004411 0.48007612 -1.34025318
H  0.02356995 0.45915254 -0.09183853
H  -0.00898389 -0.03476197 0.17803762
H  0.27545899 -0.15053270 0.21460928
H  -0.26471292 -0.94633338 0.07986375
H  1.14093490 -1.04969925 -0.23223301
H  0.47898955 -0.01776006 0.22307718
12
MD Step 466.0 Units = [eV / Ang.]
C  -0.44261482 -1.25550251 0.82628110
C  0.49859582 -2.93607506 -0.82762222
C  0.74437089 1.51076369 0.57418938
C  -1.01133914 1.70899178 -1.61047237
C  -0.76592756 2.44785504 1.89543861
C  -0.53678157 0.02471894 -1.30496821
H  -0.12187202 0.22325589 -0.07018293
H  -0.05018130 -0.02321521 0.17037604
H  -0.01715208 -0.14565309 0.25702747
H  -0.08990809 -0.58368179 0.05100914
H  1.08973331 -0.98841196 -0.17751437
H  0.70307656 0.01695428 0.21643835
12
MD Step 466.5 Units = [eV / Ang.]
C  -0.13073807 -0.71490135 0.78302233
C  0.19016026 -2.95172098 -0.78819572
C  1.04273158 1.58403372 0.52044044
C  -1.27545027 1.18976056 -1.55029434
C  -0.53050952 2.46753472 1.77340342
C  -0.60061265 -0.43003286 -1.25747535
H  -0.27922965 -0.04494695 -0.04487625
H  -0.08243535 -0.02530102 0.15980268
H  -0.29199284 -0.13578648 0.29415726
H  0.11447909 -0.15110180 0.03082906
H  0.97804773 -0.84044144 -0.12457003
H  0.86554970 0.05290389 0.20375649
12
MD Step 467.0 Units = [eV / Ang.]
C  0.18901020 -0.16483386 0.73245761
C  -0.10651279 -2.90163751 -0.74407698
C  1.26766333 1.61249410 0.47474075
C  -1.52794406 0.61795888 -1.49063424
C  -0.25909700 2.39198110 1.64665259
C  -0.59525229 -0.87058903 -1.19907397
H  -0.43614190 -0.32037841 -0.01819717
H  -0.10555556 -0.04092815 0.14655769
H  -0.52750995 -0.12059781 0.32274546
H  0.33319165 0.31869321 0.02067111
H  0.81010839 -0.61048076 -0.07744777
H  0.95803999 0.08831825 0.18560491
12
MD Step 467.5 Units = [eV / Ang.]
C  0.49954775 0.35808231 0.67737399
C  -0.38432346 -2.78651540 -0.69573340
C  1.40568788 1.59307366 0.43872658
C  -1.74902278 0.04236443 -1.43045675
C  0.03830579 2.22574946 1.52002254
C  -0.51827570 -1.28366609 -1.13147251
H  -0.57819493 -0.57265152 0.00715119
H  -0.12008381 -0.06872937 0.13102772
H  -0.70818195 -0.10021219 0.34080447
H  0.54459830 0.77926712 0.01957647
H  0.59338460 -0.30818044 -0.03998363
H  0.97655829 0.12141803 0.16296332
12
MD Step 468.0 Units = [eV / Ang.]
C  0.78325222 0.81591366 0.62067977
C  -0.63731437 -2.61014628 -0.64359836
C  1.45007317 1.52498492 0.41290851
C  -1.91470820 -0.47819651 -1.36597492
C  0.34771661 1.98113933 1.39773772
C  -0.37046995 -1.65697764 -1.05668583
H  -0.69052782 -0.76963000 0.02840846
H  -0.12725392 -0.10615899 0.11370527
H  -0.82404029 -0.07516800 0.34745959
H  0.72229107 1.17446371 0.02338060
H  0.34010402 0.04920949 -0.01513069
H  0.92087744 0.15056632 0.13710988
12
MD Step 468.5 Units = [eV / Ang.]
C  1.02420523 1.17505480 0.56491764
C  -0.86063385 -2.37915078 -0.58806470
C  1.39965711 1.40974185 0.39694176
C  -2.00089858 -0.88468367 -1.29061254
C  0.65009452 1.68063137 1.28236248
C  -0.15572185 -1.97983388 -0.97695044
H  -0.76016544 -0.88287830 0.04326543
H  -0.12890848 -0.14966737 0.09513948
H  -0.86978283 -0.04634478 0.34273097
H  0.83937719 1.44816604 0.02465292
H  0.06836877 0.43456368 -0.00390877
H  0.79440822 0.17440104 0.10952575
12
MD Step 469.0 Units = [eV / Ang.]
C  1.21060464 1.41237481 0.51177144
C  -1.05039570 -2.10246569 -0.52948454
C  1.25773532 1.25095693 0.38984248
C  -1.98935592 -1.13145416 -1.19629047
C  0.92144167 1.35749169 1.17353804
C  0.11855160 -2.24365278 -0.89463063
H  -0.77851159 -0.89366668 0.05037012
H  -0.12736272 -0.19496553 0.07588057
H  -0.84400613 -0.01488892 0.32734448
H  0.87475779 1.55785384 0.01403957
H  -0.19805713 0.81045400 -0.00417322
H  0.60459818 0.19196250 0.08179218
12
MD Step 469.5 Units = [eV / Ang.]
C  1.33654944 1.51980604 0.46176211
C  -1.20349699 -1.79063089 -0.46817790
C  1.03137016 1.05395585 0.39011529
C  -1.87344515 -1.19856779 -1.07593949
C  1.13498852 1.05296997 1.06703043
C  0.44059273 -2.44238168 -0.81206847
H  -0.74318177 -0.79747330 0.04963797
H  -0.12521219 -0.23737794 0.05642385
H  -0.74887878 0.01786024 0.30261029
H  0.81917368 1.48685213 -0.01709844
H  -0.43213585 1.13217095 -0.00974131
H  0.36367620 0.20281640 0.05544565
12
MD Step 470.0 Units = [eV / Ang.]
C  1.40256789 1.50561138 0.41426285
C  -1.31750301 -1.45496023 -0.40444134
C  0.73122828 0.82529503 0.39579810
C  -1.66094317 -1.09702038 -0.92625383
C  1.26569146 0.80937553 0.95484208
C  0.79349701 -2.57278916 -0.73135642
H  -0.65849127 -0.60520011 0.04223637
H  -0.12508406 -0.27227528 0.03716086
H  -0.59032950 0.05045834 0.27036492
H  0.67825050 1.24946685 -0.07376620
H  -0.60824302 1.35489116 -0.01062011
H  0.08935889 0.20714689 0.03177272
12
MD Step 470.5 Units = [eV / Ang.]
C  1.41469911 1.39180925 0.36782981
C  -1.39063483 -1.10668610 -0.33855459
C  0.37188159 0.57224693 0.40448002
C  -1.37240085 -0.86425879 -0.74930463
C  1.29598412 0.66030532 0.82692941
C  1.15498318 -2.63456716 -0.65403199
H  -0.53441188 -0.34057852 0.03024683
H  -0.12935293 -0.29554588 0.01834418
H  -0.37864874 0.08147593 0.23293757
H  0.47097947 0.88633656 -0.15555461
H  -0.70801941 1.44369124 0.00513150
H  -0.19505882 0.20577123 0.01154650
12
MD Step 471.0 Units = [eV / Ang.]
C  1.38255855 1.20881734 0.32070995
C  -1.42187699 -0.75615449 -0.27078799
C  -0.02771676 0.30227796 0.41335732
C  -1.03587666 -0.55237753 -0.55220198
C  1.22059799 0.62144024 0.67429412
C  1.49835970 -2.63013653 -0.58075561
H  -0.38442098 -0.03483481 0.01614644
H  -0.13984593 -0.30405877 0.00007569
H  -0.12917592 0.10966022 0.19307899
H  0.22439726 0.45242120 -0.25683900
H  -0.72515181 1.38292716 0.04816257
H  -0.46184844 0.20001801 -0.00524052
12
MD Step 471.5 Units = [eV / Ang.]
C  1.31713739 0.98933513 0.27132832
C  -1.41115076 -0.41217687 -0.20140978
C  -0.44405440 0.02255487 0.41940263
C  -0.68053470 -0.21468848 -0.34513355
C  1.04819496 0.68602073 0.49226851
C  1.79511405 -2.56411936 -0.51109013
H  -0.22303123 0.27935303 0.00230255
H  -0.15758945 -0.29603624 -0.01768105
H  0.13742378 0.13412521 0.15378662
H  -0.03299996 0.00335925 -0.36864879
H  -0.66686930 1.18082904 0.12442067
H  -0.68164038 0.19144370 -0.01954601
12
MD Step 472.0 Units = [eV / Ang.]
C  1.22902601 0.76332400 0.21861163
C  -1.35949574 -0.08159117 -0.13069680
C  -0.84974248 -0.26047465 0.41968064
C  -0.33170286 0.10413836 -0.13889270
C  0.79903501 0.82719019 0.28245381
C  2.01901577 -2.44251286 -0.44351757
H  -0.06373792 0.57273389 -0.00937277
H  -0.18263562 -0.27128273 -0.03506242
H  0.39587417 0.15452229 0.11798578
H  -0.27648868 -0.41455587 -0.48110199
H  -0.55142039 0.86708190 0.23313937
H  -0.82772728 0.18142666 -0.03322696
12
MD Step 472.5 Units = [eV / Ang.]
C  1.12742784 0.55508311 0.16210319
C  -1.26919776 0.23090113 -0.05894806
C  -1.21554477 -0.54134237 0.41179147
C  -0.00859188 0.37228278 0.05705283
C  0.49985441 1.00603782 0.05243290
C  2.15084810 -2.27178226 -0.37577442
H  0.08220938 0.82222276 -0.01756516
H  -0.21400943 -0.23121996 -0.05225064
H  0.61846017 0.17111517 0.08808424
H  -0.48770032 -0.76865110 -0.58534005
H  -0.40277872 0.48459013 0.36711090
H  -0.88097704 0.17076280 -0.04869722
12
MD Step 473.0 Units = [eV / Ang.]
C  1.01992406 0.38238445 0.10190674
C  -1.14381823 0.52262530 0.01349974
C  -1.51381959 -0.81557967 0.39434546
C  0.27556574 0.57019690 0.23547365
C  0.17827995 1.18158392 -0.18638837
C  2.18232450 -2.05812703 -0.30545955
H  0.20620436 1.01156898 -0.02153451
H  -0.24978852 -0.17872230 -0.06941347
H  0.77868735 0.18468960 0.06549722
H  -0.65472956 -1.03926712 -0.67448304
H  -0.24495219 0.07921884 0.51489288
H  -0.83387788 0.15942812 -0.06833674
12
MD Step 473.5 Units = [eV / Ang.]
C  0.91272565 0.25702168 0.03854039
C  -0.98811555 0.79258721 0.08625946
C  -1.72279540 -1.07946568 0.36730240
C  0.51203082 0.68751916 0.39140286
C  -0.14125362 1.31883152 -0.42160413
C  2.11776244 -1.80713144 -0.23073318
H  0.30209597 1.13064370 -0.02100240
H  -0.28730198 -0.11778839 -0.08665146
H  0.85580033 0.19627408 0.05030921
H  -0.77077561 -1.21655532 -0.74371661
H  -0.09790910 -0.30856168 0.66372397
H  -0.69226394 0.14662518 -0.09383051
12
MD Step 474.0 Units = [eV / Ang.]
C  0.81107438 0.18596098 -0.02723104
C  -0.80785778 1.04097039 0.15888518
C  -1.83049019 -1.32958297 0.33202679
C  0.69478490 0.71951637 0.52165860
C  -0.43932529 1.39287439 -0.64208676
C  1.97285279 -1.52385056 -0.15085609
H  0.36574611 1.17419312 -0.01601935
H  -0.32341665 -0.05310189 -0.10396170
H  0.83891987 0.20674339 0.04122980
H  -0.83236013 -1.29676676 -0.78989429
H  0.02412252 -0.64806317 0.80192351
H  -0.47405053 0.13110671 -0.12567465
12
MD Step 474.5 Units = [eV / Ang.]
C  0.71953301 0.17244936 -0.09453127
C  -0.60956318 1.26857659 0.23087220
C  -1.83691878 -1.56234841 0.29099269
C  0.81917503 0.66432421 0.62426401
C  -0.70149067 1.38925869 -0.83914863
C  1.77099795 -1.21320992 -0.06639043
H  0.39461543 1.14071861 -0.00685833
H  -0.35485933 0.01044021 -0.12122477
H  0.72940809 0.21644836 0.03590754
H  -0.83784714 -1.27934385 -0.81104537
H  0.11240038 -0.91895314 0.92018335
H  -0.20545078 0.11163930 -0.16302099
12
MD Step 475.0 Units = [eV / Ang.]
C  0.64200140 0.21663766 -0.16245767
C  -0.40019198 1.47629371 0.30166571
C  -1.75371548 -1.77370461 0.24722216
C  0.88130295 0.52150761 0.69803320
C  -0.91727809 1.30201621 -1.00666805
C  1.53856777 -0.88047064 0.02096405
H  0.38757838 1.03189292 0.00604861
H  -0.37853605 0.06817894 -0.13821186
H  0.54057531 0.22502597 0.03151896
H  -0.78662812 -1.16537039 -0.80605205
H  0.16237474 -1.10942823 1.01181737
H  0.08394916 0.08742086 -0.20388042
12
MD Step 475.5 Units = [eV / Ang.]
C  0.58135270 0.31560068 -0.23010986
C  -0.18679732 1.66467963 0.37067870
C  -1.60130207 -1.95909907 0.20365484
C  0.87822767 0.29209763 0.74248550
C  -1.07897545 1.13096699 -1.14060711
C  1.30057546 -0.53162456 0.10877757
H  0.34506789 0.85264225 0.02212679
H  -0.39180736 0.11606887 -0.15461220
H  0.29484973 0.23146335 0.02542852
H  -0.67912144 -0.95753710 -0.77464988
H  0.17219972 -1.21357550 1.07238650
H  0.36573048 0.05831683 -0.24555936
12
MD Step 476.0 Units = [eV / Ang.]
C  0.53877909 0.46273115 -0.29657634
C  0.02376971 1.83364153 0.43731609
C  -1.40458791 -2.11368178 0.16264281
C  0.80900301 -0.01994120 0.75814875
C  -1.18074485 0.87937652 -1.23838593
C  1.07778502 -0.17353120 0.19435081
H  0.26956439 0.61182475 0.04064385
H  -0.39270528 0.15096829 -0.17006826
H  0.01943492 0.23437406 0.01571268
H  -0.51761169 -0.66157750 -0.71780013
H  0.14156840 -1.22906911 1.09916263
H  0.61574520 0.02488449 -0.28514696
12
MD Step 476.5 Units = [eV / Ang.]
C  0.51287582 0.64682036 -0.36089367
C  0.22516417 1.98225338 0.50100135
C  -1.18862927 -2.23265868 0.12569790
C  0.67639310 -0.40496793 0.74722520
C  -1.21819446 0.55257487 -1.29845833
C  0.88549683 0.18611674 0.27509037
H  0.16633134 0.32321801 0.06067697
H  -0.38008659 0.17083913 -0.18421720
H  -0.25812245 0.23235898 0.00141691
H  -0.30784504 -0.28897638 -0.63839584
H  0.07109680 -1.15581939 1.09076600
H  0.81551976 -0.01175907 -0.31990964
12
MD Step 477.0 Units = [eV / Ang.]
C  0.49876362 0.85126660 -0.42200440
C  0.41178576 2.10866611 0.56120366
C  -0.97532779 -2.31163996 0.09347991
C  0.48896043 -0.84420394 0.71443090
C  -1.18849520 0.15773581 -1.32028608
C  0.73366230 0.53901214 0.34872741
H  0.04415371 0.00630787 0.08108818
H  -0.35372169 0.17486526 -0.19672981
H  -0.51333372 0.22432188 -0.01745086
H  -0.06105411 0.13963057 -0.54209632
H  -0.03768864 -0.99582547 1.04717021
H  0.95229533 -0.05013685 -0.34753279
12
MD Step 477.5 Units = [eV / Ang.]
C  0.48761818 1.05408906 -0.47874178
C  0.57897332 2.21009577 0.61746055
C  -0.78165897 -2.34692761 0.06593784
C  0.26282115 -1.30672383 0.66760332
C  -1.09102313 -0.29517965 -1.30478765
C  0.62771227 0.87656869 0.41340527
H  -0.08431784 -0.31379463 0.10053273
H  -0.31432888 0.16350789 -0.20734368
H  -0.72664312 0.20966207 -0.04010505
H  0.20430331 0.59157357 -0.43787284
H  -0.18178351 -0.75426212 0.97013985
H  1.01832721 -0.08860921 -0.36622856
12
MD Step 478.0 Units = [eV / Ang.]
C  0.46709220 1.22939503 -0.52986420
C  0.72313379 2.28290252 0.66938964
C  -0.61928849 -2.33573479 0.04250345
C  0.02197219 -1.74882746 0.61748221
C  -0.92849501 -0.79146795 -1.25520080
C  0.56950757 1.19034420 0.46768999
H  -0.20309824 -0.60797075 0.11752370
H  -0.26354572 0.13848993 -0.21588640
H  -0.88391744 0.18833760 -0.06523581
H  0.46223947 1.02170585 -0.33766573
H  -0.35564090 -0.44164029 0.86402954
H  1.01004059 -0.12553389 -0.37476559
12
MD Step 478.5 Units = [eV / Ang.]
C  0.42297198 1.35063545 -0.57415112
C  0.84180771 2.32273725 0.71669378
C  -0.49506026 -2.27636789 0.02225976
C  -0.20399661 -2.11785433 0.57612815
C  -0.70841780 -1.30919886 -1.17809187
C  0.55797784 1.47250768 0.51057640
H  -0.29463214 -0.84655110 0.13056202
H  -0.20384105 0.10271620 -0.22228753
H  -0.97605391 0.16083627 -0.09124804
H  0.68159220 1.37645590 -0.25463283
H  -0.54982844 -0.07652721 0.73667790
H  0.92748048 -0.15938937 -0.37248661
12
MD Step 479.0 Units = [eV / Ang.]
C  0.34203165 1.39523571 -0.61055396
C  0.93364613 2.32480117 0.75915244
C  -0.41182262 -2.16840924 0.00407052
C  -0.38522439 -2.36129938 0.55400062
C  -0.44446411 -1.81718385 -1.08400175
C  0.58925254 1.71632171 0.54153939
H  -0.34273253 -1.00417874 0.13832104
H  -0.13835311 0.06010263 -0.22657496
H  -0.99826004 0.12810151 -0.11645162
H  0.83151231 1.60318108 -0.20003928
H  -0.74984449 0.31220392 0.59989372
H  0.77425866 -0.18887653 -0.35935617
12
MD Step 479.5 Units = [eV / Ang.]
C  0.21540976 1.34938592 -0.63836571
C  0.99829645 2.28419771 0.79660562
C  -0.36913964 -2.01286173 -0.01331547
C  -0.49877375 -2.43938457 0.55663463
C  -0.15702900 -2.27489755 -0.98702591
C  0.65624194 1.91655710 0.56065377
H  -0.33602606 -1.06480397 0.13984733
H  -0.07065645 0.01530710 -0.22885695
H  -0.94946062 0.09144545 -0.13920474
H  0.88892251 1.66289763 -0.17977159
H  -0.93580831 0.68517652 0.46885522
H  0.55802317 -0.21301961 -0.33605619
12
MD Step 480.0 Units = [eV / Ang.]
C  0.04138848 1.21133531 -0.65736367
C  1.03619359 2.19640078 0.82892893
C  -0.36365943 -1.81220854 -0.03114737
C  -0.53489290 -2.33640027 0.58252820
C  0.12789264 -2.63595344 -0.90275882
C  0.74786469 2.06977546 0.56875978
H  -0.27077496 -1.02511281 0.13472675
H  -0.00445805 -0.02665343 -0.22928842
H  -0.83208578 0.05245851 -0.15803645
H  0.84511918 1.54162094 -0.19213034
H  -1.08383880 0.99600599 0.35988648
H  0.29125133 -0.23126850 -0.30410507
12
MD Step 480.5 Units = [eV / Ang.]
C  -0.17351810 0.99189106 -0.66787503
C  1.04827946 2.05779510 0.85600633
C  -0.38906862 -1.57030967 -0.05051960
C  -0.49933409 -2.06552938 0.62353200
C  0.38209419 -2.85571895 -0.84468582
C  0.84828466 2.17439603 0.56761026
H  -0.15197439 -0.89505804 0.12316314
H  0.05674761 -0.06087739 -0.22802771
H  -0.65230537 0.01290278 -0.17177698
H  0.70840348 1.25498356 -0.22821707
H  -1.16958498 1.19910927 0.28673147
H  -0.00802386 -0.24358437 -0.26594100
12
MD Step 481.0 Units = [eV / Ang.]
C  -0.41563788 0.71194753 -0.67074579
C  1.03570149 1.86625557 0.87770645
C  -0.43574869 -1.29210507 -0.07217262
C  -0.41051376 -1.66472516 0.66767464
C  0.58045105 -2.90160786 -0.82013731
C  0.93675803 2.23051146 0.55989859
H  0.00772573 -0.69529793 0.10594585
H  0.11002749 -0.08310689 -0.22519084
H  -0.42057800 -0.02543256 -0.17971518
H  0.50139848 0.84371887 -0.27485593
H  -1.17344455 1.26030384 0.25646912
H  -0.31613939 -0.25046180 -0.22487697
12
MD Step 481.5 Units = [eV / Ang.]
C  -0.66690414 0.39806506 -0.66721692
C  0.99955387 1.62169224 0.89386726
C  -0.49039294 -0.98316564 -0.09627408
C  -0.29300432 -1.18581548 0.70299323
C  0.70650924 -2.76232101 -0.82766250
C  0.98870211 2.23946932 0.54905548
H  0.19080599 -0.45259281 0.08431721
H  0.15331047 -0.09023872 -0.22081377
H  -0.15220872 -0.06093087 -0.18177800
H  0.25445188 0.36227621 -0.31858957
H  -1.08583167 1.16639447 0.26693639
H  -0.60499179 -0.25283276 -0.18483471
12
MD Step 482.0 Units = [eV / Ang.]
C  -0.90822372 0.07772549 -0.65875308
C  0.94072630 1.32648355 0.90429968
C  -0.53599038 -0.64920265 -0.12222680
C  -0.17053601 -0.68201818 0.72058270
C  0.75615353 -2.45183188 -0.85731994
C  0.97840565 2.20329722 0.53876632
H  0.37828451 -0.19483035 0.05978388
H  0.18558316 -0.08072991 -0.21483413
H  0.13254465 -0.09239221 -0.17869491
H  -0.00175299 -0.13411301 -0.34892953
H  -0.91030035 0.92942991 0.30714338
H  -0.84489436 -0.25181799 -0.14981755
12
MD Step 482.5 Units = [eV / Ang.]
C  -1.12234836 -0.22435727 -0.64686819
C  0.85990967 0.98574099 0.90880880
C  -0.55266621 -0.29567758 -0.14858428
C  -0.06121100 -0.19865785 0.71589357
C  0.73769822 -2.00601950 -0.89391531
C  0.88323152 2.12412378 0.53226438
H  0.55263664 0.05287224 0.03392709
H  0.20694982 -0.05482673 -0.20709769
H  0.40933094 -0.11927419 -0.17207622
H  -0.24158509 -0.59902100 -0.35984114
H  -0.66301331 0.58345861 0.36067581
H  -1.00893283 -0.24836150 -0.12318681
12
MD Step 483.0 Units = [eV / Ang.]
C  -1.29559506 -0.48822074 -0.63299348
C  0.75775063 0.60735642 0.90723747
C  -0.51972627 0.07234452 -0.17314974
C  0.02406616 0.23093365 0.68840001
C  0.66850268 -1.47352428 -0.92161386
C  0.68840630 2.00375178 0.53159054
H  0.69958014 0.27030700 0.00825774
H  0.21854281 -0.01456657 -0.19739160
H  0.65188393 -0.14183822 -0.16432191
H  -0.44674120 -0.99900900 -0.34955853
H  -0.36876928 0.17533075 0.41047748
H  -1.07790083 -0.24286531 -0.10693412
12
MD Step 483.5 Units = [eV / Ang.]
C  -1.41837557 -0.69908886 -0.61840075
C  0.63513498 0.20182990 0.89951887
C  -0.41887954 0.44999155 -0.19330780
C  0.08060330 0.58509259 0.64040682
C  0.56976513 -0.90496241 -0.92786181
C  0.39090956 1.84355352 0.53708530
H  0.80867577 0.44267763 -0.01586656
H  0.22230553 0.03645108 -0.18549600
H  0.83546538 -0.16110420 -0.15830496
H  -0.60590324 -1.31317037 -0.31947933
H  -0.05537700 -0.24628295 0.44291451
H  -1.04432429 -0.23498748 -0.10120829
12
MD Step 484.0 Units = [eV / Ang.]
C  -1.48488383 -0.84684102 -0.60417426
C  0.49352499 -0.21810146 0.88573244
C  -0.23805562 0.83203913 -0.20656144
C  0.10770248 0.85111341 0.57576047
C  0.46168408 -0.34459119 -0.90533034
C  0.00101908 1.64475623 0.54731813
H  0.87309439 0.56004697 -0.03726889
H  0.22069334 0.09348039 -0.17124322
H  0.94095055 -0.17856123 -0.15684729
H  -0.71299422 -1.53012474 -0.27290651
H  0.25139497 -0.63949640 0.44981651
H  -0.91413020 -0.22372009 -0.10429560
12
MD Step 484.5 Units = [eV / Ang.]
C  -1.49242234 -0.92516796 -0.59121435
C  0.33527923 -0.63797846 0.86615010
C  0.02529361 1.21214342 -0.21114218
C  0.10636869 1.02206468 0.49890243
C  0.36043347 0.17365385 -0.85186078
C  -0.45912809 1.40904308 0.55948969
H  0.88902117 0.61639445 -0.05494695
H  0.21634865 0.15115552 -0.15457039
H  0.95842194 -0.19568479 -0.16211136
H  -0.76515976 -1.64446124 -0.21408895
H  0.53086237 -0.97342497 0.42847118
H  -0.70531895 -0.20773760 -0.11307843
12
MD Step 485.0 Units = [eV / Ang.]
C  -1.44078807 -0.93091969 -0.58024096
C  0.16386270 -1.04226549 0.84126407
C  0.36256822 1.58215265 -0.20650550
C  0.07765605 1.09428849 0.41438003
C  0.27721987 0.62617430 -0.76921340
C  -0.95944884 1.13923698 0.57013497
H  0.85511217 0.60882833 -0.06806597
H  0.21179923 0.20404779 -0.13555616
H  0.88909305 -0.21341598 -0.17509510
H  -0.76117218 -1.65390339 -0.14768683
H  0.76824130 -1.22835353 0.38038079
H  -0.44414350 -0.18587046 -0.12379595
12
MD Step 485.5 Units = [eV / Ang.]
C  -1.33196042 -0.86395020 -0.57177505
C  -0.01609319 -1.41507888 0.81178824
C  0.75473734 1.93176166 -0.19353801
C  0.02192256 1.06612575 0.32672126
C  0.21886228 0.99745174 -0.66154186
C  -1.46694465 0.83985145 0.57586523
H  0.77224866 0.53727044 -0.07597650
H  0.20921419 0.24718054 -0.11443305
H  0.74488408 -0.23179701 -0.19540329
H  -0.70058521 -1.55780783 -0.07858061
H  0.95387743 -1.39349200 0.30970868
H  -0.16016307 -0.15751567 -0.13283505
12
MD Step 486.0 Units = [eV / Ang.]
C  -1.17020542 -0.72755955 -0.56607993
C  -0.19892721 -1.74101722 0.77863806
C  1.17525593 2.24875414 -0.17441510
C  -0.06095063 0.93803084 0.24049831
C  0.18907738 1.27725581 -0.53417351
C  -1.95029363 0.51730446 0.57391582
H  0.64369257 0.40476006 -0.07828353
H  0.21023051 0.27645750 -0.09157788
H  0.54581025 -0.24989658 -0.22136570
H  -0.58374856 -1.35721121 -0.01185356
H  1.08178345 -1.46403048 0.22201398
H  0.11827536 -0.12284777 -0.13731696
12
MD Step 486.5 Units = [eV / Ang.]
C  -0.96252169 -0.52945955 -0.56304641
C  -0.37826015 -2.00606991 0.74288027
C  1.59421955 2.51983602 -0.15217863
C  -0.17041892 0.71412029 0.16036688
C  0.18979948 1.45846355 -0.39290854
C  -2.38300756 0.17978278 0.56240675
H  0.47557662 0.21831531 -0.07497565
H  0.21584529 0.28898737 -0.06747950
H  0.31613206 -0.26602836 -0.25043313
H  -0.41271044 -1.05645878 0.04726217
H  1.14822826 -1.43868052 0.12348263
H  0.36711750 -0.08280821 -0.13537683
12
MD Step 487.0 Units = [eV / Ang.]
C  -0.71924029 -0.28297589 -0.56203349
C  -0.54743669 -2.19857077 0.70566370
C  1.98255071 2.73191010 -0.13020175
C  -0.30332068 0.40500759 0.09085528
C  0.22208481 1.53600439 -0.24375995
C  -2.74486356 -0.16317955 0.54035198
H  0.27751999 -0.00989838 -0.06660727
H  0.22636133 0.28330425 -0.04269145
H  0.08046392 -0.27814922 -0.27969405
H  -0.19293635 -0.66623313 0.09370189
H  1.15084311 -1.31828194 0.02058658
H  0.56797372 -0.03893746 -0.12617148
12
MD Step 487.5 Units = [eV / Ang.]
C  -0.45439000 -0.00798760 -0.56170172
C  -0.70002443 -2.31012571 0.66812992
C  2.31523214 2.87351028 -0.11170413
C  -0.45144221 0.03138161 0.03570103
C  0.28634408 1.50705907 -0.09294635
C  -3.02197260 -0.50125479 0.50752685
H  0.06299364 -0.26160906 -0.05448920
H  0.24137109 0.25949508 -0.01777229
H  -0.13920090 -0.28428253 -0.30634645
H  0.06444986 -0.20736763 0.12334591
H  1.08849845 -1.10567283 -0.08002460
H  0.70814086 0.00685410 -0.10971898
12
MD Step 488.0 Units = [eV / Ang.]
C  -0.18539509 0.26913861 -0.55991141
C  -0.83026896 -2.33639345 0.63131170
C  2.57315526 2.93612093 -0.09941991
C  -0.59931137 -0.37300910 -0.00333056
C  0.38173459 1.37241080 0.05311808
C  -3.20606493 -0.82391247 0.46430296
H  -0.15103042 -0.51241368 -0.04080697
H  0.25976820 0.21923763 0.00677876
H  -0.32516515 -0.28284839 -0.32802654
H  0.34063004 0.28595136 0.13431515
H  0.96206308 -0.80678680 -0.17164862
H  0.77988476 0.05250456 -0.08668263
12
MD Step 488.5 Units = [eV / Ang.]
C  0.06830971 0.51734331 -0.55379644
C  -0.93343780 -2.27757862 0.59603121
C  2.74366633 2.91512780 -0.09543977
C  -0.72345691 -0.76108134 -0.02790013
C  0.50466844 1.13868096 0.18809220
C  -3.29357211 -1.12093192 0.41152090
H  -0.34554487 -0.73344776 -0.02855380
H  0.27979292 0.16573388 0.03058643
H  -0.46451658 -0.27285436 -0.34296783
H  0.60849163 0.76579301 0.12852070
H  0.77601879 -0.43276044 -0.24792113
H  0.77958045 0.09597548 -0.05817234
12
MD Step 489.0 Units = [eV / Ang.]
C  0.28777991 0.70477303 -0.54009895
C  -1.00598788 -2.13853443 0.56280527
C  2.82021967 2.81029410 -0.10117308
C  -0.79448897 -1.07712385 -0.04412814
C  0.64664544 0.82094110 0.30646123
C  -3.28490998 -1.38285532 0.35042617
H  -0.50214747 -0.89511855 -0.02118706
H  0.29911424 0.10353048 0.05345585
H  -0.54886754 -0.25396316 -0.35003485
H  0.83486173 1.17518860 0.11274745
H  0.54064845 -0.00252223 -0.30367726
H  0.70713241 0.13539021 -0.02559663
12
MD Step 489.5 Units = [eV / Ang.]
C  0.45773356 0.80429220 -0.51577011
C  -1.04558243 -1.92838825 0.53178051
C  2.80161454 2.62571204 -0.11737081
C  -0.78269684 -1.26720810 -0.06224076
C  0.79209261 0.44471581 0.40483827
C  -3.18418262 -1.60135303 0.28264477
H  -0.60636379 -0.97245013 -0.02200508
H  0.31496797 0.03819178 0.07541032
H  -0.57381240 -0.22648013 -0.34868946
H  0.98625420 1.45867099 0.09828369
H  0.27408449 0.45513702 -0.33632207
H  0.56589070 0.16915980 0.00944072
12
MD Step 490.0 Units = [eV / Ang.]
C  0.56937014 0.79917956 -0.47870234
C  -1.05098569 -1.65969980 0.50271130
C  2.69121075 2.36931375 -0.14414777
C  -0.66606922 -1.29289021 -0.09422409
C  0.91743978 0.04602964 0.48354407
C  -2.99935473 -1.76959932 0.21016225
H  -0.65063370 -0.95059329 -0.03338505
H  0.32436532 -0.02418285 0.09669952
H  -0.53847994 -0.19130168 -0.33894489
H  1.03702672 1.57616903 0.09848039
H  0.00302658 0.90145606 -0.34741877
H  0.36308400 0.19611910 0.04522540
12
MD Step 490.5 Units = [eV / Ang.]
C  0.62179206 0.68702127 -0.42834552
C  -1.02193949 -1.34724840 0.47499940
C  2.49637903 2.05208031 -0.18097741
C  -0.43770705 -1.14271600 -0.14998864
C  0.99287687 -0.33190807 0.54776626
C  -2.74277593 -1.88267281 0.13525247
H  -0.63584432 -0.82853911 -0.05614058
H  0.32437083 -0.07757576 0.11776832
H  -0.44539501 -0.14984484 -0.32134028
H  0.97689291 1.51470477 0.12475182
H  -0.23924622 1.29101845 -0.34377761
H  0.11059632 0.21568019 0.08003175
12
MD Step 491.0 Units = [eV / Ang.]
C  0.62142843 0.48027867 -0.36595889
C  -0.95908186 -1.00660745 0.44779527
C  2.22827261 1.68710718 -0.22666717
C  -0.10914048 -0.83589571 -0.23372946
C  0.98764622 -0.64579064 0.60733909
C  -2.43176822 -1.93799065 0.06032531
H  -0.57078411 -0.61952986 -0.08925435
H  0.31243617 -0.11674367 0.13918237
H  -0.30068240 -0.10395705 -0.29693884
H  0.81423516 1.29218261 0.18273597
H  -0.41828468 1.57896806 -0.33709231
H  -0.17427685 0.22797848 0.11226302
12
MD Step 491.5 Units = [eV / Ang.]
C  0.57974051 0.20333636 -0.29439108
C  -0.86395527 -0.65271165 0.42015342
C  1.90182778 1.28866094 -0.27935044
C  0.29218137 -0.41621256 -0.34234875
C  0.87800179 -0.86159904 0.67452662
C  -2.08877517 -1.93571671 -0.01232156
H  -0.46976339 -0.34799056 -0.13009706
H  0.28675013 -0.13788400 0.16151693
H  -0.11448250 -0.05578807 -0.26732829
H  0.57350070 0.95129338 0.27052836
H  -0.50637979 1.73065935 -0.34152761
H  -0.46864615 0.23395256 0.14063947
12
MD Step 492.0 Units = [eV / Ang.]
C  0.51017726 -0.11275031 -0.21748982
C  -0.73909452 -0.29862584 0.39121356
C  1.53577997 0.87127853 -0.33654004
C  0.72983832 0.06064461 -0.46663577
C  0.65504333 -0.96296289 0.76021620
C  -1.74047949 -1.87896292 -0.08080287
H  -0.34936472 -0.04423651 -0.17502882
H  0.24655106 -0.13915786 0.18522557
H  0.09871095 -0.00760519 -0.23458369
H  0.28806402 0.54676199 0.37972786
H  -0.49019042 1.73033680 -0.36970399
H  -0.74503575 0.23527960 0.16440179
12
MD Step 492.5 Units = [eV / Ang.]
C  0.42548398 -0.43586723 -0.13938769
C  -0.58812439 0.04530744 0.36037197
C  1.15233034 0.44894797 -0.39529524
C  1.16644591 0.54031596 -0.59429990
C  0.32889254 -0.95484547 0.87007631
C  -1.41542212 -1.77358943 -0.14391284
H  -0.22545755 0.26108035 -0.22013580
H  0.19233471 -0.12095309 0.21051774
H  0.32018657 0.03844816 -0.20114168
H  -0.00799704 0.13198708 0.49841718
H  -0.37465858 1.58506674 -0.42867663
H  -0.97401438 0.23410154 0.18346658
12
MD Step 493.0 Units = [eV / Ang.]
C  0.33607809 -0.73719935 -0.06388828
C  -0.41580942 0.37185689 0.32740322
C  0.77606845 0.03438699 -0.45251640
C  1.56961407 0.97874753 -0.71318501
C  -0.07285376 -0.86087531 1.00251860
C  -1.14014650 -1.62752069 -0.20125157
H  -0.11122859 0.54117374 -0.26185793
H  0.12591264 -0.08583679 0.23727042
H  0.52804819 0.08062183 -0.16955641
H  -0.28601841 -0.25002742 0.61440853
H  -0.18129821 1.32212129 -0.51779048
H  -1.12836653 0.23255128 0.19844530
12
MD Step 493.5 Units = [eV / Ang.]
C  0.24961290 -0.99360067 0.00589837
C  -0.22800904 0.67681046 0.29251180
C  0.43191923 -0.36150102 -0.50535071
C  1.91458364 1.34539229 -0.81339889
C  -0.51157493 -0.71572655 1.14934375
C  -0.93461467 -1.44968760 -0.25313088
H  -0.01640632 0.77527032 -0.29736556
H  0.05029874 -0.03820216 0.26499713
H  0.69936629 0.11778664 -0.14214445
H  -0.52541832 -0.56990564 0.71747190
H  0.05822185 0.98117591 -0.62930932
H  -1.18797937 0.23218801 0.21047686
12
MD Step 494.0 Units = [eV / Ang.]
C  0.17137533 -1.18816299 0.06768262
C  -0.03150119 0.95849264 0.25630310
C  0.14218639 -0.72990157 -0.55162943
C  2.18410227 1.62194447 -0.88802349
C  -0.94595315 -0.55606098 1.29843935
C  -0.80825633 -1.24890267 -0.30027194
H  0.05259898 0.94893542 -0.32468393
H  -0.03055950 0.01631020 0.29288062
H  0.81332983 0.14953667 -0.12058515
H  -0.71341942 -0.81061278 0.80018182
H  0.31011862 0.60488284 -0.75118649
H  -1.14402183 0.23353876 0.22089294
12
MD Step 494.5 Units = [eV / Ang.]
C  0.10506355 -1.30964605 0.11995628
C  0.16629037 1.21703742 0.21969041
C  -0.07671786 -1.06404346 -0.59021790
C  2.36688848 1.79894316 -0.93277454
C  -1.33897069 -0.41340204 1.43700910
C  -0.75811387 -1.03301354 -0.34340321
H  0.09207959 1.05328272 -0.34264325
H  -0.11215663 0.07149715 0.31985929
H  0.85476121 0.17610706 -0.10559406
H  -0.84317358 -0.96400703 0.85772282
H  0.54498818 0.23130654 -0.87042884
H  -1.00093875 0.23593808 0.23082392
12
MD Step 495.0 Units = [eV / Ang.]
C  0.05349746 -1.35149153 0.16188841
C  0.35763653 1.45356899 0.18376036
C  -0.21694467 -1.35885680 -0.62116456
C  2.45589614 1.87219475 -0.94520609
C  -1.66186168 -0.31057064 1.55399676
C  -0.76980952 -0.80856342 -0.38291411
H  0.10034300 1.08384717 -0.35075870
H  -0.18984848 0.12126719 0.34474992
H  0.81703003 0.19811731 -0.09678762
H  -0.91156125 -1.02721103 0.88722499
H  0.74113175 -0.11004187 -0.97567980
H  -0.77550929 0.23773989 0.24089043
12
MD Step 495.5 Units = [eV / Ang.]
C  0.01901002 -1.31101369 0.19323347
C  0.53487835 1.66944037 0.14962808
C  -0.28037173 -1.61046683 -0.64558779
C  2.44710487 1.84011486 -0.92395247
C  -1.89510357 -0.26142110 1.64118619
C  -0.82100509 -0.58090308 -0.41868600
H  0.07721849 1.03970210 -0.34912208
H  -0.25925461 0.16020692 0.36638082
H  0.70341736 0.21622946 -0.09280421
H  -0.91746886 -0.99992328 0.88710271
H  0.88489622 -0.39877868 -1.05846553
H  -0.49332145 0.23681297 0.25108679
12
MD Step 496.0 Units = [eV / Ang.]
C  0.00342146 -1.18908429 0.21429416
C  0.69079393 1.86561909 0.11830385
C  -0.27779611 -1.81570389 -0.66533976
C  2.33908435 1.70242238 -0.86829489
C  -2.02750355 -0.27256932 1.69320474
C  -0.88609439 -0.35458328 -0.45012565
H  0.02388811 0.92314283 -0.33835027
H  -0.31660308 0.18400043 0.38371611
H  0.52644782 0.23085192 -0.09164994
H  -0.86090963 -0.88310528 0.85667867
H  0.96921161 -0.62210892 -1.11330512
H  -0.18394052 0.23111832 0.26086810
12
MD Step 496.5 Units = [eV / Ang.]
C  0.00759772 -0.99044162 0.22594236
C  0.81895070 2.04225121 0.09058518
C  -0.22641028 -1.97179471 -0.68255997
C  2.13336974 1.46031669 -0.77819544
C  -2.05456362 -0.34574622 1.70697107
C  -0.94062231 -0.13376465 -0.47633571
H  -0.05692689 0.74002863 -0.31959636
H  -0.35899976 0.18970091 0.39595886
H  0.30543860 0.24199463 -0.09115254
H  -0.74311515 -0.67914089 0.79622831
H  0.99159064 -0.77256845 -1.13721447
H  0.12369060 0.21916447 0.26936871
12
MD Step 497.0 Units = [eV / Ang.]
C  0.03068628 -0.72449688 0.22967465
C  0.91402683 2.19841095 0.06697854
C  -0.14638996 -2.07627709 -0.69925830
C  1.83557877 1.11808876 -0.65481568
C  -1.97692272 -0.47980351 1.68108930
C  -0.96435911 0.07749362 -0.49632956
H  -0.16048596 0.50064047 -0.29459440
H  -0.38461919 0.17587530 0.40262609
H  0.06308629 0.24930314 -0.08938170
H  -0.56758721 -0.39341772 0.70746745
H  0.95245703 -0.84604950 -1.12910581
H  0.40452895 0.20023244 0.27564943
12
MD Step 497.5 Units = [eV / Ang.]
C  0.06922548 -0.40632182 0.22763816
C  0.97209507 2.33198950 0.04765005
C  -0.05757573 -2.12712661 -0.71702303
C  1.45709576 0.68602068 -0.50143463
C  -1.79928031 -0.67185996 1.61550194
C  -0.94270307 0.27513074 -0.50921166
H  -0.27941234 0.22069879 -0.26567362
H  -0.39283166 0.14266784 0.40359592
H  -0.17790208 0.25222294 -0.08493236
H  -0.34196588 -0.03713393 0.59439689
H  0.85421499 -0.84066686 -1.08940265
H  0.63903979 0.17437869 0.27889499
12
MD Step 498.0 Units = [eV / Ang.]
C  0.11640856 -0.05721483 0.22254436
C  0.99086810 2.43970750 0.03240392
C  0.02296951 -2.12299109 -0.73688319
C  1.01691559 0.18398206 -0.32448810
C  -1.52990228 -0.91739833 1.51151559
C  -0.86668535 0.45512695 -0.51429379
H  -0.40322089 -0.07806503 -0.23565775
H  -0.38426765 0.09179914 0.39912569
H  -0.39736360 0.25020722 -0.07703641
H  -0.08026579 0.36925426 0.46423585
H  0.70113972 -0.75670054 -1.01999682
H  0.81340408 0.14229270 0.27853064
12
MD Step 498.5 Units = [eV / Ang.]
C  0.16192649 0.29587258 0.21739429
C  0.96987217 2.51722745 0.02068889
C  0.08225537 -2.06347326 -0.75929023
C  0.54278176 -0.35552336 -0.13422239
C  -1.18067280 -1.20926808 1.37217103
C  -0.73217470 0.61364117 -0.51116128
H  -0.51837757 -0.36852309 -0.20757193
H  -0.36081834 0.02651340 0.38984057
H  -0.57912337 0.24289402 -0.06553335
H  0.19543705 0.79320634 0.32793914
H  0.49997675 -0.59767289 -0.92452398
H  0.91891718 0.10510571 0.27426924
12
MD Step 499.0 Units = [eV / Ang.]
C  0.19276373 0.62266190 0.21498851
C  0.91053449 2.55937484 0.01164018
C  0.11162435 -1.94939396 -0.78416815
C  0.07036776 -0.88687005 0.05572786
C  -0.76751223 -1.53575733 1.20277235
C  -0.53887966 0.74719304 -0.49970613
H  -0.60927551 -0.62056486 -0.18413854
H  -0.32555501 -0.04854565 0.37668737
H  -0.71143699 0.23021495 -0.05075672
H  0.45523710 1.18986940 0.19962641
H  0.26096135 -0.37239686 -0.80878710
H  0.95117062 0.06421457 0.26611397
12
MD Step 499.5 Units = [eV / Ang.]
C  0.19515786 0.89372685 0.21730821
C  0.81613304 2.56048623 0.00416133
C  0.10636600 -1.78303003 -0.81098356
C  -0.36068839 -1.35547631 0.23035954
C  -0.31080978 -1.87820466 1.01125949
C  -0.28960191 0.85285694 -0.48015330
H  -0.66031006 -0.80539429 -0.16715339
H  -0.28253954 -0.12756360 0.36084906
H  -0.78679720 0.21243351 -0.03339424
H  0.66484645 1.50651002 0.09441704
H  -0.00122188 -0.09749714 -0.68101364
H  0.90946541 0.02115249 0.25434345
12
MD Step 500.0 Units = [eV / Ang.]
C  0.15746036 1.08572715 0.22497056
C  0.69157353 2.51489376 -0.00295127
C  0.06509629 -1.56829436 -0.83881751
C  -0.71396393 -1.70734325 0.37673927
C  0.16471088 -2.20914053 0.80798871
C  0.01000533 0.92844800 -0.45308209
H  -0.65877759 -0.90088963 -0.15695255
H  -0.23650928 -0.20391858 0.34362072
H  -0.80150111 0.19013128 -0.01435427
H  0.79243647 1.69225979 0.02487191
H  -0.26722190 0.20062659 -0.55152414
H  0.79669094 -0.02250022 0.23949068
12
MD Step 500.5 Units = [eV / Ang.]
C  0.07311184 1.18613189 0.23700328
C  0.54298509 2.41755996 -0.01084448
C  -0.01077255 -1.31082415 -0.86644570
C  -0.96472776 -1.90182363 0.48766954
C  0.63132168 -2.49238882 0.60454952
C  0.35112931 0.97265539 -0.41942997
H  -0.59782214 -0.89640965 -0.15221877
H  -0.19242959 -0.27070493 0.32625217
H  -0.75529689 0.16416075 0.00534532
H  0.81703664 1.71094946 -0.00274133
H  -0.51424640 0.48587901 -0.43145094
H  0.61971077 -0.06518527 0.22231135
12
MD Step 501.0 Units = [eV / Ang.]
C  -0.05730759 1.19565874 0.25109039
C  0.37714308 2.26481248 -0.02043036
C  -0.11730899 -1.01790053 -0.89244323
C  -1.10621656 -1.92268708 0.56380038
C  1.06123554 -2.68660678 0.41157989
C  0.72107928 0.98512922 -0.38045560
H  -0.47837318 -0.79524319 -0.15027241
H  -0.15494878 -0.32139335 0.30977790
H  -0.65127879 0.13557687 0.02467212
H  0.73497796 1.55202374 0.00944353
H  -0.71909808 0.71607080 -0.33048779
H  0.39009613 -0.10544093 0.20372519
12
MD Step 501.5 Units = [eV / Ang.]
C  -0.22579186 1.12746017 0.26422602
C  0.20082027 2.05510207 -0.03222386
C  -0.24804080 -0.69817660 -0.91532479
C  -1.15052717 -1.78223543 0.61296630
C  1.43076066 -2.75262059 0.23616660
C  1.10254534 0.96649960 -0.33763056
H  -0.30928570 -0.61370311 -0.14777809
H  -0.12782981 -0.35055780 0.29486545
H  -0.49606371 0.10554859 0.04266678
H  0.56112936 1.23427501 0.05163594
H  -0.86255063 0.85040497 -0.25427828
H  0.12483404 -0.14199689 0.18470851
12
MD Step 502.0 Units = [eV / Ang.]
C  -0.41847609 1.00343258 0.27352828
C  0.02016084 1.78967509 -0.04623725
C  -0.39377291 -0.36122232 -0.93371661
C  -1.12355501 -1.51643680 0.64705152
C  1.72440307 -2.66297887 0.07995836
C  1.47337410 0.91835009 -0.29244818
H  -0.10559959 -0.37724106 -0.14160142
H  -0.11345157 -0.35456780 0.28171479
H  -0.30010500 0.07524719 0.05853229
H  0.32422447 0.80041572 0.10967471
H  -0.93367744 0.85920690 -0.20258052
H  -0.15352486 -0.17388071 0.16612404
12
MD Step 502.5 Units = [eV / Ang.]
C  -0.61842737 0.84912953 0.27690504
C  -0.15976744 1.47301896 -0.06196040
C  -0.54245922 -0.01696571 -0.94653346
C  -1.05650105 -1.17372658 0.67801990
C  1.93718988 -2.41016804 -0.06093356
C  1.80751174 0.84316355 -0.24616671
H  0.11440243 -0.11510890 -0.12950530
H  -0.11249269 -0.33210398 0.27003770
H  -0.07788958 0.04571084 0.07172762
H  0.05866857 0.30525475 0.16918974
H  -0.93232883 0.73230128 -0.16928540
H  -0.41790643 -0.20050568 0.14850482
12
MD Step 503.0 Units = [eV / Ang.]
C  -0.80859819 0.68906819 0.27338818
C  -0.33517534 1.11298173 -0.07844009
C  -0.67944667 0.32486048 -0.95313077
C  -0.97780135 -0.80284873 0.71490215
C  2.07413238 -2.00978064 -0.19400985
C  2.07752364 0.74424309 -0.19954643
H  0.33228201 0.14459872 -0.11049215
H  -0.12386499 -0.28439059 0.25912730
H  0.15233488 0.01770001 0.08205079
H  -0.20341930 -0.19701807 0.21881363
H  -0.86861978 0.48227846 -0.14450847
H  -0.63934729 -0.22169265 0.13184569
12
MD Step 503.5 Units = [eV / Ang.]
C  -0.97409255 0.54361430 0.26312368
C  -0.50346114 0.72052942 -0.09444226
C  -0.78841128 0.65514674 -0.95338424
C  -0.90822360 -0.44428916 0.76259050
C  2.14706925 -1.49705683 -0.32731853
C  2.25861391 0.62558945 -0.15268205
H  0.53179762 0.37827805 -0.08478743
H  -0.14491499 -0.21508859 0.24800340
H  0.36963420 -0.00842415 0.08968724
H  -0.43718951 -0.66177020 0.25155452
H  -0.75968977 0.14106329 -0.11783753
H  -0.79113213 -0.23759233 0.11549268
12
MD Step 504.0 Units = [eV / Ang.]
C  -1.10333118 0.42773865 0.24713983
C  -0.66290697 0.30915273 -0.10866220
C  -0.85316615 0.96564402 -0.94766890
C  -0.85971249 -0.12693406 0.82220923
C  2.17036893 -0.91847007 -0.46669075
C  2.33329880 0.49173321 -0.10502395
H  0.70013747 0.56819597 -0.05358826
H  -0.17184301 -0.12986919 0.23560161
H  0.55243878 -0.03274742 0.09519116
H  -0.62644940 -1.05740503 0.26453927
H  -0.62523322 -0.24852205 -0.08126328
H  -0.85360156 -0.24851675 0.09821624
12
MD Step 504.5 Units = [eV / Ang.]
C  -1.18825834 0.35122480 0.22704310
C  -0.81223805 -0.10596438 -0.11993647
C  -0.86019899 1.24896374 -0.93672236
C  -0.83688450 0.13107925 0.89227358
C  2.15717817 -0.32208589 -0.61432483
C  2.29533286 0.34751811 -0.05562170
H  0.82814256 0.70233887 -0.01873589
H  -0.20024481 -0.03575795 0.22096354
H  0.68139506 -0.05573443 0.09937912
H  -0.76245784 -1.36441674 0.25790191
H  -0.48355491 -0.64242426 -0.03071692
H  -0.81821122 -0.25474112 0.07849693
12
MD Step 505.0 Units = [eV / Ang.]
C  -1.22394502 0.31961855 0.20475027
C  -0.95019654 -0.50890680 -0.12741496
C  -0.80141188 1.49838453 -0.92141442
C  -0.83962319 0.31942418 0.96991573
C  2.11726972 0.24984702 -0.76886733
C  2.15145970 0.19788638 -0.00352814
H  0.90990955 0.77345285 0.01757611
H  -0.22566409 0.05962041 0.20339138
H  0.74246036 -0.07803275 0.10314608
H  -0.84161192 -1.57217702 0.23354925
H  -0.34922633 -1.00275226 0.03394238
H  -0.68942037 -0.25636511 0.05495365
12
MD Step 505.5 Units = [eV / Ang.]
C  -1.20803273 0.33526681 0.18229593
C  -1.07521434 -0.88399414 -0.13067258
C  -0.67626623 1.70757850 -0.90248072
C  -0.86555495 0.43238136 1.05177940
C  2.05656086 0.76451916 -0.92642935
C  1.92029274 0.04771101 0.05179033
H  0.94220646 0.77795815 0.05301510
H  -0.24406528 0.14877305 0.18254380
H  0.72940489 -0.10019590 0.10724463
H  -0.86318309 -1.67538355 0.19421601
H  -0.23246203 -1.30131880 0.10993022
H  -0.48368630 -0.25329563 0.02676723
12
MD Step 506.0 Units = [eV / Ang.]
C  -1.14033539 0.39800052 0.16170273
C  -1.18525685 -1.21668590 -0.12975039
C  -0.49257846 1.87041719 -0.88029950
C  -0.91179024 0.46646958 1.13449383
C  1.97780053 1.19883534 -1.08182347
C  1.62870720 -0.09833373 0.11018073
H  0.92404324 0.71521210 0.08526099
H  -0.25217402 0.22495532 0.15846785
H  0.64494332 -0.12241604 0.11209856
H  -0.82772052 -1.67135733 0.14292446
H  -0.13968674 -1.51974850 0.19279802
H  -0.22595205 -0.24534855 -0.00605380
12
MD Step 506.5 Units = [eV / Ang.]
C  -1.02277281 0.50522845 0.14486453
C  -1.27784429 -1.49438245 -0.12513674
C  -0.26562048 1.98100916 -0.85477736
C  -0.97573155 0.41937568 1.21480255
C  1.88177202 1.53776960 -1.22953838
C  1.30702484 -0.23589344 0.17075715
H  0.85659171 0.58736795 0.11214193
H  -0.24767919 0.28263111 0.13157492
H  0.50012221 -0.14436735 0.11770832
H  -0.73633421 -1.55874368 0.08278887
H  -0.07461816 -1.64758820 0.27745725
H  0.05508991 -0.23240683 -0.04264302
12
MD Step 507.0 Units = [eV / Ang.]
C  -0.85968277 0.65139912 0.13338982
C  -1.35020566 -1.70712078 -0.11770612
C  -0.01575760 2.03402080 -0.82536888
C  -1.05495385 0.29036429 1.28948023
C  1.76850717 1.77226661 -1.36430038
C  0.98447484 -0.36108160 0.23204430
H  0.74350397 0.39987378 0.13181587
H  -0.22932132 0.31778839 0.10257624
H  0.31218370 -0.16521375 0.12367325
H  -0.59087905 -1.33783049 0.01704419
H  -0.03933521 -1.67990970 0.35880368
H  0.33146577 -0.21455668 -0.08145220
12
MD Step 507.5 Units = [eV / Ang.]
C  -0.65838915 0.82696452 0.12835767
C  -1.39953664 -1.84816394 -0.10862500
C  0.23466855 2.02525298 -0.79120929
C  -1.14624355 0.08221278 1.35518604
C  1.63825317 1.89765663 -1.48130505
C  0.68598395 -0.47065959 0.29221801
H  0.59152991 0.16247899 0.14303981
H  -0.19690132 0.32813226 0.07239177
H  0.10159710 -0.18376894 0.12930977
H  -0.39498513 -1.01253619 -0.05084295
H  -0.03504123 -1.61541828 0.43201447
H  0.57906434 -0.19215125 -0.12053524
12
MD Step 508.0 Units = [eV / Ang.]
C  -0.42977177 1.01719644 0.12997722
C  -1.42326597 -1.91447804 -0.09923716
C  0.46435230 1.95232689 -0.75130484
C  -1.24394355 -0.19545285 1.40839118
C  1.49203033 1.91306485 -1.57629315
C  0.43061019 -0.56219640 0.34933817
H  0.41115852 -0.10962028 0.14553489
H  -0.15125063 0.31320438 0.04204324
H  -0.11089558 -0.19873947 0.13381430
H  -0.15578125 -0.59390405 -0.11712530
H  -0.06238331 -1.45560410 0.49269239
H  0.77914072 -0.16579735 -0.15783093
12
MD Step 508.5 Units = [eV / Ang.]
C  -0.18842619 1.20145032 0.13721336
C  -1.41928604 -1.90704509 -0.09093568
C  0.65526702 1.81530452 -0.70472220
C  -1.33797197 -0.52204712 1.44552196
C  1.33168664 1.82189384 -1.64566131
C  0.23134975 -0.63414876 0.40150959
H  0.21685498 -0.39508888 0.14038423
H  -0.09417736 0.27443905 0.01253915
H  -0.30657195 -0.20896747 0.13641741
H  0.11407852 -0.10441662 -0.17793323
H  -0.12127963 -1.20508247 0.53704506
H  0.91847623 -0.13629134 -0.19137835
12
MD Step 509.0 Units = [eV / Ang.]
C  0.04806600 1.35363537 0.14751703
C  -1.38609819 -1.83095956 -0.08502164
C  0.79387689 1.61707822 -0.65073786
C  -1.41226895 -0.86262229 1.46340636
C  1.15935872 1.63323475 -1.68675998
C  0.09575199 -0.68579281 0.44696634
H  0.02638659 -0.66698700 0.13031395
H  -0.02839520 0.21516293 -0.01524499
H  -0.47009044 -0.21361194 0.13649601
H  0.39486743 0.41843147 -0.22973355
H  -0.21023332 -0.87302799 0.56224853
H  0.98877848 -0.10454114 -0.21945019
12
MD Step 509.5 Units = [eV / Ang.]
C  0.26106900 1.44455612 0.15687082
C  -1.32285599 -1.69521433 -0.08255952
C  0.87139923 1.36342827 -0.58893211
C  -1.44477146 -1.16761031 1.45997969
C  0.97628673 1.36378023 -1.69845069
C  0.02678664 -0.71701063 0.48411070
H  -0.14111250 -0.89518104 0.11964563
H  0.04258751 0.14049276 -0.04068418
H  -0.59000394 -0.21224746 0.13363294
H  0.65988381 0.92179741 -0.27004836
H  -0.32518030 -0.47529487 0.56706409
H  0.98591127 -0.07149614 -0.24062902
12
MD Step 510.0 Units = [eV / Ang.]
C  0.43391024 1.44625556 0.16032481
C  -1.22932530 -1.51214999 -0.08424256
C  0.88344349 1.06273896 -0.51923503
C  -1.41002357 -1.37822992 1.43499283
C  0.78116325 1.03949333 -1.68186406
C  0.02351925 -0.72798256 0.51155364
H  -0.26823680 -1.05074903 0.11374043
H  0.11463735 0.05709276 -0.06350638
H  -0.65871150 -0.20488824 0.12763660
H  0.87831008 1.34294296 -0.29817195
H  -0.45808224 -0.03642912 0.55263660
H  0.90939574 -0.03809471 -0.25386494
12
MD Step 510.5 Units = [eV / Ang.]
C  0.55523875 1.33757584 0.15302854
C  -1.10581711 -1.29652443 -0.09028689
C  0.82940023 0.72541762 -0.44193805
C  -1.28464538 -1.43829649 1.39030311
C  0.56848791 0.69586682 -1.64109648
C  0.08139549 -0.71888197 0.52820140
H  -0.34282394 -1.11155860 0.11792931
H  0.18325566 -0.02727175 -0.08386162
H  -0.67219149 -0.19196289 0.11853477
H  1.02104383 1.62121201 -0.31545964
H  -0.59574063 0.40964649 0.52319920
H  0.76239668 -0.00522265 -0.25855365
12
MD Step 511.0 Units = [eV / Ang.]
C  0.62153129 1.10927192 0.13151203
C  -0.95315111 -1.06427655 -0.10038778
C  0.71189197 0.36315771 -0.35768357
C  -1.05424520 -1.30956499 1.32943169
C  0.32782236 0.37551276 -1.58339193
C  0.19205271 -0.68970364 0.53340097
H  -0.36067856 -1.06732340 0.13618919
H  0.24393280 -0.10440031 -0.10233473
H  -0.62978687 -0.17425958 0.10655803
H  1.06802132 1.71360483 -0.32485958
H  -0.71961912 0.82165297 0.48621713
H  0.55222841 0.02632828 -0.25465145
12
MD Step 511.5 Units = [eV / Ang.]
C  0.63769207 0.76677955 0.09474726
C  -0.77271036 -0.83108876 -0.11375177
C  0.53646605 -0.01182787 -0.26744213
C  -0.71894813 -0.98433233 1.25648317
C  0.04495412 0.12235992 -1.51833709
C  0.34280576 -0.64029978 0.52713907
H  -0.32639580 -0.92223331 0.17003669
H  0.29258040 -0.16651261 -0.11988390
H  -0.53419564 -0.15285517 0.09212023
H  1.01408136 1.60762205 -0.32977753
H  -0.80751094 1.15647856 0.45148734
H  0.29118112 0.05590975 -0.24282133
12
MD Step 512.0 Units = [eV / Ang.]
C  0.61541270 0.32954329 0.04456647
C  -0.56659162 -0.61095342 -0.12922474
C  0.31157230 -0.38746457 -0.17247139
C  -0.29479518 -0.48902846 1.17497528
C  -0.29452008 -0.02677087 -1.45591635
C  0.51614675 -0.57065532 0.51023262
H  -0.25191796 -0.69407038 0.21807989
H  0.32598743 -0.20718871 -0.13769749
H  -0.39168245 -0.12902818 0.07579475
H  0.87051496 1.32503959 -0.33283141
H  -0.83739506 1.37750480 0.42905584
H  -0.00273179 0.08307221 -0.22456346
12
MD Step 512.5 Units = [eV / Ang.]
C  0.56997616 -0.17279356 -0.01471996
C  -0.33781966 -0.41494701 -0.14549410
C  0.04872395 -0.75233478 -0.07425256
C  0.18967623 0.12314429 1.08720873
C  -0.69979023 -0.05067141 -1.40392311
C  0.68979027 -0.48131825 0.48442881
H  -0.15343796 -0.41017213 0.27638758
H  0.34222305 -0.22222787 -0.15698530
H  -0.21238498 -0.10415099 0.05828028
H  0.66150097 0.91465477 -0.33514364
H  -0.79275741 1.46320810 0.42646704
H  -0.30570038 0.10760885 -0.20225378
12
MD Step 513.0 Units = [eV / Ang.]
C  0.51673537 -0.70578499 -0.07729342
C  -0.09053882 -0.25041661 -0.16133400
C  -0.23739628 -1.09604132 0.02560694
C  0.69989065 0.78667114 0.99439381
C  -1.16954869 0.05112288 -1.36578219
C  0.83787752 -0.37385781 0.45230983
H  -0.04787179 -0.10184855 0.33946607
H  0.34090195 -0.21024996 -0.17874209
H  -0.01045261 -0.07956023 0.04034814
H  0.41725460 0.43785703 -0.33642606
H  -0.66749864 1.41255021 0.44645144
H  -0.58935327 0.12955821 -0.17899846
12
MD Step 513.5 Units = [eV / Ang.]
C  0.46843320 -1.23529364 -0.13696864
C  0.16989164 -0.12070482 -0.17583250
C  -0.52919486 -1.40947316 0.12549977
C  1.20169509 1.43849595 0.89725063
C  -1.68917004 0.25892919 -1.33983979
C  0.93376298 -0.25116486 0.41693883
H  0.04994874 0.20081880 0.40141847
H  0.32325119 -0.17289611 -0.20353518
H  0.19631097 -0.05641268 0.02276671
H  0.16704333 -0.04613816 -0.33560224
H  -0.46826751 1.24470289 0.48614703
H  -0.82370473 0.14913659 -0.15824310
12
MD Step 514.0 Units = [eV / Ang.]
C  0.43390140 -1.73102180 -0.18812057
C  0.43696089 -0.02542417 -0.18855510
C  -0.80711854 -1.68498440 0.22395892
C  1.66558687 2.02779289 0.79660353
C  -2.23174354 0.53897556 -1.32043041
C  0.95424106 -0.11748619 0.38126585
H  0.12878625 0.47247259 0.45689403
H  0.29195857 -0.11458392 -0.23136422
H  0.38761944 -0.03555375 0.00621020
H  -0.06547336 -0.49005499 -0.33150453
H  -0.21309342 0.99327425 0.53820399
H  -0.98162561 0.16659394 -0.14316168
12
MD Step 514.5 Units = [eV / Ang.]
C  0.41805388 -2.16810411 -0.22620831
C  0.70322802 0.03879770 -0.19960678
C  -1.05146818 -1.91647608 0.31978253
C  2.06818179 2.51924009 0.69366138
C  -2.76247070 0.85214981 -1.30009239
C  0.88429089 0.02182408 0.34744046
H  0.18126588 0.69392507 0.50163193
H  0.25083366 -0.04187244 -0.26162487
H  0.54281906 -0.01743408 -0.00883044
H  -0.26386030 -0.86180075 -0.32332797
H  0.07299892 0.69772091 0.59314581
H  -1.04387292 0.18202982 -0.13597134
12
MD Step 515.0 Units = [eV / Ang.]
C  0.42268522 -2.52719035 -0.24792166
C  0.96065933 0.07729609 -0.20958989
C  -1.24492483 -2.09936221 0.41210829
C  2.39174033 2.89139519 0.58995344
C  -3.24453760 1.16198135 -1.27182352
C  0.72086271 0.16074925 0.31625972
H  0.20334152 0.85200095 0.53262014
H  0.20435386 0.03740824 -0.29317679
H  0.64375031 -0.00210997 -0.02210644
H  -0.41819468 -1.14278610 -0.31078136
H  0.36341417 0.39537547 0.64185736
H  -1.00315033 0.19524209 -0.13739927
12
MD Step 515.5 Units = [eV / Ang.]
C  0.44753886 -2.79376567 -0.25108919
C  1.20103121 0.09626426 -0.21947979
C  -1.37524984 -2.23040940 0.50041278
C  2.62297331 3.13281442 0.48707094
C  -3.64436906 1.43957507 -1.23052064
C  0.47423450 0.29311007 0.28696781
H  0.19346278 0.93854992 0.54800870
H  0.15718066 0.11508747 -0.32449280
H  0.67776060 0.01066172 -0.03361630
H  -0.52324865 -1.32398099 -0.29404212
H  0.63441936 0.11641057 0.67729322
H  -0.86573372 0.20568256 -0.14651260
12
MD Step 516.0 Units = [eV / Ang.]
C  0.49124687 -2.95738869 -0.23450829
C  1.41632840 0.10174981 -0.23045728
C  -1.43740065 -2.30748987 0.58443619
C  2.75202036 3.23807729 0.38638569
C  -3.93505048 1.66508182 -1.17337000
C  0.16635162 0.41299510 0.25748344
H  0.15182218 0.94935841 0.54694190
H  0.11372047 0.18348717 -0.35385109
H  0.64006247 0.02125940 -0.04355048
H  -0.57658540 -1.40187919 -0.27364728
H  0.86753021 -0.11780202 0.69511947
H  -0.65004603 0.21255078 -0.16098227
12
MD Step 516.5 Units = [eV / Ang.]
C  0.55190650 -3.01136702 -0.19783046
C  1.59911616 0.09885935 -0.24372901
C  -1.43431062 -2.32933394 0.66405393
C  2.77200605 3.20492212 0.28887100
C  -4.09779550 1.82669150 -1.09948174
C  -0.17331588 0.51509775 0.22495646
H  0.07989903 0.88347983 0.52943814
H  0.07777595 0.23606654 -0.37953430
H  0.53467580 0.03002232 -0.05219287
H  -0.57715517 -1.37557531 -0.25040940
H  1.04992644 -0.29385195 0.69353095
H  -0.38272876 0.21498880 -0.17767270
12
MD Step 517.0 Units = [eV / Ang.]
C  0.62722992 -2.95309733 -0.14156330
C  1.74286670 0.09123266 -0.26036893
C  -1.37605894 -2.29536055 0.73914120
C  2.67922975 3.03296807 0.19507048
C  -4.12198112 1.91849553 -1.00923460
C  -0.51295670 0.59498145 0.18643184
H  -0.01963438 0.74324548 0.49638189
H  0.05230405 0.26784665 -0.40000639
H  0.37365016 0.03712900 -0.05981487
H  -0.52464156 -1.24543446 -0.22538483
H  1.17362666 -0.40430130 0.67267881
H  -0.09363454 0.21229480 -0.19333128
12
MD Step 517.5 Units = [eV / Ang.]
C  0.71429415 -2.78512226 -0.06720551
C  1.84224147 0.08075081 -0.28118837
C  -1.27766812 -2.20564725 0.80947268
C  2.47389740 2.72415272 0.10519674
C  -4.00445112 1.93836310 -0.90371094
C  -0.82310088 0.64931976 0.13940913
H  -0.14266122 0.53501407 0.44963704
H  0.03926500 0.27565559 -0.41405733
H  0.17482657 0.04256759 -0.06659820
H  -0.41963873 -1.01346592 -0.19987652
H  1.23427691 -0.44566639 0.63408005
H  0.18871858 0.20407820 -0.20515876
12
MD Step 518.0 Units = [eV / Ang.]
C  0.80897896 -2.51667123 0.02254406
C  1.89334247 0.06745667 -0.30663589
C  -1.15625412 -2.06101451 0.87467596
C  2.16130644 2.28485200 0.01929799
C  -3.74861206 1.88647469 -0.78441051
C  -1.07975321 0.67610688 0.08217567
H  -0.28313175 0.27046412 0.39222231
H  0.03954471 0.25823354 -0.42091136
H  -0.04114976 0.04619238 -0.07260564
H  -0.26467339 -0.68538270 -0.17541900
H  1.23018948 -0.41702844 0.58020525
H  0.44021225 0.19031659 -0.21113883
12
MD Step 518.5 Units = [eV / Ang.]
C  0.90528916 -2.16520006 0.12362057
C  1.89394225 0.04962252 -0.33672442
C  -1.02833001 -1.86319775 0.93424487
C  1.75334834 1.72945174 -0.06262393
C  -3.36368786 1.76477910 -0.65325561
C  -1.26573845 0.67482974 0.01391583
H  -0.43252620 -0.03203498 0.32842979
H  0.05292212 0.21626045 -0.42030380
H  -0.25374153 0.04783101 -0.07779821
H  -0.06596899 -0.27409630 -0.15366231
H  1.16199740 -0.31957210 0.51428447
H  0.64249378 0.17132664 -0.21012726
12
MD Step 519.0 Units = [eV / Ang.]
C  0.99484831 -1.75712349 0.23064368
C  1.84367944 0.02394477 -0.37098030
C  -0.90788386 -1.61501707 0.98758902
C  1.27004046 1.08458200 -0.14066346
C  -2.86431606 1.57744422 -0.51278161
C  -1.37061051 0.64653411 -0.06533451
H  -0.57956643 -0.34675607 0.26371775
H  0.07807823 0.15232218 -0.41252675
H  -0.44473180 0.04739338 -0.08208031
H  0.16440640 0.19610786 -0.13606845
H  1.03304550 -0.15711812 0.44025954
H  0.78301031 0.14768621 -0.20177461
12
MD Step 519.5 Units = [eV / Ang.]
C  1.06693694 -1.32679537 0.33735244
C  1.74421770 -0.01413021 -0.40842516
C  -0.80543060 -1.32052645 1.03410534
C  0.74036829 0.39236976 -0.21531519
C  -2.27053332 1.33216592 -0.36633366
C  -1.38975277 0.59378150 -0.15479842
H  -0.71053479 -0.64160205 0.20421695
H  0.11264842 0.07081336 -0.39843869
H  -0.59951145 0.04494896 -0.08535163
H  0.40683021 0.68636322 -0.12337635
H  0.85042090 0.06246243 0.36274001
H  0.85434046 0.12014891 -0.18637564
12
MD Step 520.0 Units = [eV / Ang.]
C  1.10940757 -0.91298601 0.43748918
C  1.59933023 -0.06995308 -0.44759947
C  -0.72793219 -0.98510759 1.07325301
C  0.20135740 -0.28981286 -0.28796855
C  -1.60800003 1.04202414 -0.21804509
C  -1.32328435 0.52046756 -0.25307045
H  -0.81050529 -0.88149486 0.15579638
H  0.15333760 -0.02225427 -0.37942891
H  -0.70752584 0.04075724 -0.08755110
H  0.63412939 1.14348594 -0.11493518
H  0.62627211 0.32529704 0.28677581
H  0.85341340 0.08957676 -0.16471564
12
MD Step 520.5 Units = [eV / Ang.]
C  1.11055291 -0.55296033 0.52598298
C  1.41486719 -0.14906198 -0.48664689
C  -0.67922457 -0.61551931 1.10462400
C  -0.30574556 -0.89552871 -0.36131270
C  -0.90800157 0.72721114 -0.07240082
C  -1.17521228 0.43153403 -0.35820291
H  -0.86552190 -1.03409549 0.12285054
H  0.19612245 -0.11959074 -0.35732274
H  -0.76218747 0.03525591 -0.08868456
H  0.81457518 1.50612457 -0.10821039
H  0.37875711 0.60973249 0.21727267
H  0.78101851 0.05689842 -0.13794918
12
MD Step 521.0 Units = [eV / Ang.]
C  1.06159123 -0.27544207 0.60005222
C  1.19856650 -0.25642013 -0.52347683
C  -0.66061321 -0.21991208 1.12800663
C  -0.74229522 -1.36176672 -0.43922076
C  -0.20648671 0.41555729 0.06669235
C  -0.95307335 0.33260265 -0.46777606
H  -0.86532457 -1.07658105 0.10719907
H  0.23655725 -0.21314945 -0.33421880
H  -0.76057516 0.02901766 -0.08883702
H  0.91814810 1.71717038 -0.09890423
H  0.13171619 0.88584129 0.15799493
H  0.64178894 0.02308224 -0.10751150
12
MD Step 521.5 Units = [eV / Ang.]
C  0.95898778 -0.09477349 0.65976159
C  0.95966563 -0.39556370 -0.55599910
C  -0.67132530 0.19222717 1.14343633
C  -1.08041527 -1.64440688 -0.52582184
C  0.45864255 0.14063808 0.19713214
C  -0.66808209 0.22957971 -0.57897908
H  -0.80579176 -1.00119259 0.10756961
H  0.27017729 -0.29483148 -0.31226514
H  -0.70318615 0.02268948 -0.08817038
H  0.92445348 1.73906615 -0.08197052
H  -0.08774833 1.11746060 0.11034959
H  0.44462218 -0.01089305 -0.07504318
12
MD Step 522.0 Units = [eV / Ang.]
C  0.80573304 -0.00851050 0.70775206
C  0.70831693 -0.56773393 -0.58241234
C  -0.70869773 0.61023317 1.15122676
C  -1.30923685 -1.73020833 -0.62396983
C  1.05216870 -0.06323440 0.31963806
C  -0.33559896 0.12825478 -0.68874156
H  -0.69018625 -0.81731860 0.11994321
H  0.29297016 -0.35732925 -0.29339490
H  -0.59386840 0.01692538 -0.08690757
H  0.82900697 1.56554544 -0.05329374
H  -0.25391525 1.26746255 0.07245649
H  0.20330764 -0.04408633 -0.04229665
12
MD Step 522.5 Units = [eV / Ang.]
C  0.61102277 0.00061300 0.74823429
C  0.45487863 -0.77116026 -0.60149209
C  -0.76809134 1.02258149 1.15196986
C  -1.43619358 -1.63939439 -0.73384095
C  1.54719998 -0.16849678 0.43790095
C  0.02450498 0.03396973 -0.79393831
H  -0.52866993 -0.54919488 0.13865757
H  0.30184328 -0.39498111 -0.27906801
H  -0.43993565 0.01232036 -0.08530108
H  0.64475349 1.22385903 -0.01126292
H  -0.34824138 1.30555244 0.03914132
H  -0.06307125 -0.07566864 -0.01100063
12
MD Step 523.0 Units = [eV / Ang.]
C  0.38847772 -0.04070277 0.78567989
C  0.20917870 -1.00061956 -0.61281968
C  -0.84265844 1.41735000 1.14649669
C  -1.48269860 -1.41757638 -0.85245921
C  1.92979213 -0.16191132 0.55748637
C  0.38814222 -0.04862884 -0.89166756
H  -0.33626575 -0.23019055 0.15782072
H  0.29501102 -0.40449345 -0.27006866
H  -0.25232992 0.00935413 -0.08358533
H  0.39801250 0.76626693 0.04258480
H  -0.36414794 1.21616202 0.00320729
H  -0.33051363 -0.10501022 0.01732469
12
MD Step 523.5 Units = [eV / Ang.]
C  0.15362876 -0.10289013 0.82370857
C  -0.02012584 -1.24741352 -0.61689415
C  -0.92318357 1.78277547 1.13579056
C  -1.47645403 -1.12138073 -0.97439508
C  2.20046583 -0.04907330 0.68377950
C  0.72849889 -0.11571644 -0.97955982
H  -0.13005060 0.10404095 0.17251371
H  0.27221921 -0.38537245 -0.26640539
H  -0.04559045 0.00835243 -0.08190979
H  0.12097932 0.25523041 0.10412614
H  -0.30862160 1.00319469 -0.04232951
H  -0.57176593 -0.13174738 0.04157526
12
MD Step 524.0 Units = [eV / Ang.]
C  -0.07843645 -0.15900925 0.86448292
C  -0.22600263 -1.49979842 -0.61509222
C  -0.99828607 2.10779349 1.12085746
C  -1.44393507 -0.80451399 -1.09318386
C  2.37182807 0.14636119 0.81987403
C  1.01895471 -0.16434201 -1.05603593
H  0.07347129 0.42126574 0.17946013
H  0.23476151 -0.33996720 -0.26733870
H  0.16266854 0.00947462 -0.08026169
H  -0.15573217 -0.25087570 0.16798232
H  -0.19981310 0.68939837 -0.10197772
H  -0.75947863 -0.15578682 0.06123325
12
MD Step 524.5 Units = [eV / Ang.]
C  -0.29464595 -0.18793774 0.90863252
C  -0.40327569 -1.74384228 -0.60948773
C  -1.05521632 2.38247719 1.10257663
C  -1.40565889 -0.50906654 -1.20272884
C  2.46339606 0.38844589 0.96537644
C  1.23708066 -0.19243365 -1.12042418
H  0.26015124 0.69596373 0.17713511
H  0.18528651 -0.27311701 -0.27152428
H  0.35301030 0.01273563 -0.07839366
H  -0.40788472 -0.70663460 0.22888401
H  -0.06177124 0.31063065 -0.17647437
H  -0.87047197 -0.17722127 0.07642836
12
MD Step 525.0 Units = [eV / Ang.]
C  -0.48455891 -0.17521341 0.95553240
C  -0.54865688 -1.96456273 -0.60256364
C  -1.08137553 2.59832468 1.08156387
C  -1.37483261 -0.26307451 -1.29816831
C  2.49591146 0.63717809 1.11653318
C  1.36869623 -0.19882129 -1.17287589
H  0.41895065 0.91017947 0.16549323
H  0.12744384 -0.19148709 -0.27724176
H  0.50622457 0.01805993 -0.07578568
H  -0.61908652 -1.08200903 0.28254674
H  0.08135508 -0.09240471 -0.26287539
H  -0.89007140 -0.19616941 0.08784124
12
MD Step 525.5 Units = [eV / Ang.]
C  -0.64026140 -0.11229384 1.00370636
C  -0.66063189 -2.14719525 -0.59688027
C  -1.06636392 2.74840803 1.05809345
C  -1.35845353 -0.08249057 -1.37611705
C  2.48715497 0.85597559 1.26734849
C  1.41067489 -0.18326189 -1.21410039
H  0.54188318 1.05271066 0.14554932
H  0.06544375 -0.10273388 -0.28264891
H  0.60593870 0.02535427 -0.07166738
H  -0.77979961 -1.36015951 0.32594728
H  0.20956904 -0.48171401 -0.35569741
H  -0.81515417 -0.21259961 0.09646651
12
MD Step 526.0 Units = [eV / Ang.]
C  -0.75590351 0.00483831 1.05119679
C  -0.73927773 -2.27839488 -0.59475620
C  -1.00408667 2.82744383 1.03210035
C  -1.35945622 0.02501556 -1.43446700
C  2.45009273 1.01629459 1.41100136
C  1.37141783 -0.14644439 -1.24500508
H  0.62352580 1.11760364 0.11898284
H  0.00361665 -0.01466730 -0.28601922
H  0.64124004 0.03457277 -0.06512147
H  -0.88524694 -1.53332605 0.35717837
H  0.30887667 -0.82672065 -0.44840247
H  -0.65479865 -0.22621544 0.10331172
12
MD Step 526.5 Units = [eV / Ang.]
C  -0.82725795 0.17696499 1.09582760
C  -0.78605152 -2.34725222 -0.59801305
C  -0.89427356 2.83186305 1.00327151
C  -1.37880199 0.05639610 -1.47201865
C  2.39300069 1.09900702 1.54096447
C  1.26879492 -0.08994862 -1.26637230
H  0.66048387 1.10275976 0.08784713
H  -0.05396630 0.06547147 -0.28592203
H  0.60860620 0.04574521 -0.05525663
H  -0.93330995 -1.59883352 0.37513606
H  0.37108020 -1.10571796 -0.53460630
H  -0.42830460 -0.23645528 0.10914219
12
MD Step 527.0 Units = [eV / Ang.]
C  -0.85153811 0.40235976 1.13536029
C  -0.80358380 -2.34605763 -0.60779972
C  -0.74284544 2.75994454 0.97118694
C  -1.41692464 0.01072599 -1.48815093
C  2.32067648 1.09345169 1.65159277
C  1.12626936 -0.01616142 -1.27866121
H  0.65108676 1.00912971 0.05438596
H  -0.10378268 0.13155171 -0.28133781
H  0.51253950 0.05895086 -0.04141047
H  -0.92303628 -1.55633507 0.37924202
H  0.39244446 -1.30495658 -0.60875641
H  -0.16130561 -0.24260356 0.11434855
12
MD Step 527.5 Units = [eV / Ang.]
C  -0.82762614 0.67676058 1.16758652
C  -0.79545892 -2.27076826 -0.62450757
C  -0.56096533 2.61199869 0.93546498
C  -1.47430634 -0.11178867 -1.48264829
C  2.23587297 0.99543572 1.73825270
C  0.96854095 0.07182884 -1.28196305
H  0.59548113 0.84070364 0.02091470
H  -0.14305166 0.17890175 -0.27170752
H  0.36470791 0.07424491 -0.02332317
H  -0.85400814 -1.40669594 0.36931513
H  0.37212299 -1.41666324 -0.66633657
H  0.11869059 -0.24395802 0.11895213
12
MD Step 528.0 Units = [eV / Ang.]
C  -0.75671992 0.99260142 1.19042095
C  -0.76597680 -2.12122804 -0.64776589
C  -0.36303728 2.39058436 0.89586258
C  -1.55112944 -0.30922486 -1.45574290
C  2.14045258 0.80528213 1.79721711
C  0.81790600 0.17032290 -1.27607311
H  0.49616733 0.60527311 -0.01029594
H  -0.16985628 0.20450570 -0.25693188
H  0.18186067 0.09156569 -0.00123060
H  -0.72666146 -1.15260360 0.34564510
H  0.31090596 -1.43709230 -0.70381343
H  0.38608865 -0.23998652 0.12270799
12
MD Step 528.5 Units = [eV / Ang.]
C  -0.64330120 1.33773460 1.20205193
C  -0.71986201 -1.90114195 -0.67650057
C  -0.16428379 2.10067507 0.85231098
C  -1.64602181 -0.57584333 -1.40836914
C  2.03603204 0.52656173 1.82555328
C  0.69205179 0.27509592 -1.26061280
H  0.35888182 0.31571576 -0.03719526
H  -0.18321892 0.20709023 -0.23733701
H  -0.01684532 0.11065718 0.02414473
H  -0.54355819 -0.80082294 0.30926645
H  0.21053314 -1.36529757 -0.71855388
H  0.61959245 -0.23042472 0.12524130
12
MD Step 529.0 Units = [eV / Ang.]
C  -0.49613542 1.69411340 1.20118434
C  -0.66192018 -1.61784848 -0.70904631
C  0.02142963 1.74969688 0.80490323
C  -1.75400201 -0.89872183 -1.34257732
C  1.92407397 0.16584685 1.82118969
C  0.60329598 0.38150261 -1.23514951
H  0.19355241 -0.00870184 -0.05822128
H  -0.18315447 0.18714741 -0.21361597
H  -0.21240607 0.13103342 0.05168959
H  -0.31149422 -0.36578316 0.26237110
H  0.07361847 -1.20297948 -0.70889605
H  0.80314191 -0.21530577 0.12616851
12
MD Step 529.5 Units = [eV / Ang.]
C  -0.32882654 2.03721052 1.18736037
C  -0.59665461 -1.28190094 -0.74329468
C  0.18305140 1.34738349 0.75385849
C  -1.86404642 -1.25393527 -1.26193479
C  1.80546158 -0.26647108 1.78326143
C  0.55887840 0.48464333 -1.19928932
H  0.01483317 -0.34179606 -0.07264662
H  -0.17070371 0.14690529 -0.18675337
H  -0.38790888 0.15199016 0.08004532
H  -0.04399349 0.12638989 0.20869185
H  -0.09587878 -0.95547895 -0.67447799
H  0.92578788 -0.19494039 0.12517930
12
MD Step 530.0 Units = [eV / Ang.]
C  -0.15934946 2.33703596 1.16126369
C  -0.52786371 -0.90647551 -0.77687190
C  0.31294269 0.90542916 0.69949930
C  -1.95720133 -1.60395139 -1.17164398
C  1.67961543 -0.75444145 1.71274686
C  0.56175309 0.57962401 -1.15274014
H  -0.15838415 -0.65160401 -0.08090495
H  -0.14794134 0.09024219 -0.15793347
H  -0.52965856 0.17265320 0.10775855
H  0.23678742 0.63513424 0.15357835
H  -0.29175850 -0.63377198 -0.61683448
H  0.98105842 -0.16987443 0.12208215
12
MD Step 530.5 Units = [eV / Ang.]
C  -0.00806228 2.56142850 1.12484502
C  -0.45829463 -0.50660281 -0.80733372
C  0.40675957 0.43692625 0.64225004
C  -2.00665689 -1.89862927 -1.07804648
C  1.54331439 -1.27439504 1.61326506
C  0.61138099 0.66189803 -1.09535644
H  -0.30498190 -0.90384592 -0.08473214
H  -0.11792194 0.02250336 -0.12843082
H  -0.62758116 0.19204709 0.13341002
H  0.50022512 1.10646517 0.10344146
H  -0.50449380 -0.25694904 -0.54013375
H  0.96631253 -0.14084633 0.11682176
12
MD Step 531.0 Units = [eV / Ang.]
C  0.10575864 2.68143303 1.08110925
C  -0.38941014 -0.09825641 -0.83236945
C  0.46292577 -0.04434514 0.58265132
C  -1.98117680 -2.08194145 -0.98736487
C  1.38960678 -1.79332589 1.49171396
C  0.70420563 0.72765132 -1.02718030
H  -0.40512342 -1.06752014 -0.08695452
H  -0.08453486 -0.04981590 -0.09948689
H  -0.67516077 0.20917000 0.15570887
H  0.71087192 1.47985944 0.06442273
H  -0.72036213 0.14584179 -0.45173347
H  0.88239939 -0.10875065 0.10948337
12
MD Step 531.5 Units = [eV / Ang.]
C  0.16804905 2.67751680 1.03350744
C  -0.32134590 0.30267003 -0.84999703
C  0.48202043 -0.52468880 0.52136169
C  -1.85206782 -2.10432719 -0.90396575
C  1.20739709 -2.26922661 1.35825759
C  0.83368244 0.77411802 -0.94848314
H  -0.44445591 -1.12130913 -0.09086790
H  -0.05222893 -0.11955924 -0.07218064
H  -0.66919853 0.22306723 0.17356569
H  0.83574892 1.70087964 0.04059122
H  -0.92136580 0.53545987 -0.36207639
H  0.73376495 -0.07460064 0.10028722
12
MD Step 532.0 Units = [eV / Ang.]
C  0.17334625 2.54446378 0.98509067
C  -0.25311261 0.68142822 -0.85873126
C  0.46632528 -0.99122542 0.45912570
C  -1.60175644 -1.93700170 -0.82892874
C  0.98242347 -2.65478275 1.22518643
C  0.98989329 0.79973662 -0.85980118
H  -0.41757049 -1.05860409 -0.09936151
H  -0.02560140 -0.17956392 -0.04730953
H  -0.60961817 0.23290563 0.18615509
H  0.85327164 1.73579581 0.03246070
H  -1.08655191 0.86632060 -0.28345757
H  0.52895111 -0.03947276 0.08957118
12
MD Step 532.5 Units = [eV / Ang.]
C  0.12603391 2.29298486 0.93773898
C  -0.18303476 1.02541705 -0.85769653
C  0.41966864 -1.43245968 0.39668614
C  -1.23027977 -1.58196683 -0.75976761
C  0.70004384 -2.90485927 1.10453586
C  1.15899400 0.80405419 -0.76194949
H  -0.32931617 -0.88912744 -0.11410900
H  -0.00887929 -0.22342647 -0.02530490
H  -0.49945477 0.23804720 0.19298827
H  0.75999977 1.58185381 0.03669387
H  -1.19501668 1.09389885 -0.22756935
H  0.28124129 -0.00441625 0.07775376
12
MD Step 533.0 Units = [eV / Ang.]
C  0.03891157 1.94733595 0.89178135
C  -0.10935543 1.32501568 -0.84666746
C  0.34756278 -1.83860910 0.33464167
C  -0.75640579 -1.07258250 -0.69158714
C  0.34951421 -2.98628233 1.00504407
C  1.32287235 0.78739052 -0.65599509
H  -0.19341096 -0.63645444 -0.13515203
H  -0.00536242 -0.24627505 -0.00619978
H  -0.34502617 0.23811974 0.19400377
H  0.57180270 1.26798334 0.04728271
H  -1.23014889 1.18468017 -0.20242120
H  0.00904605 0.02967802 0.06526913
12
MD Step 533.5 Units = [eV / Ang.]
C  -0.07024894 1.53999084 0.84612689
C  -0.03089853 1.57411643 -0.82602408
C  0.25754064 -2.20168862 0.27327022
C  -0.21282194 -0.46430758 -0.61907895
C  -0.07152248 -2.88649160 0.92966557
C  1.45956234 0.75034666 -0.54317852
H  -0.02898512 -0.33249389 -0.16100830
H  -0.01693149 -0.24540440 0.01033677
H  -0.15618334 0.23307089 0.18966654
H  0.31882017 0.84555876 0.05761250
H  -1.18382033 1.12507113 -0.20986396
H  -0.26451097 0.06223138 0.05247531
12
MD Step 534.0 Units = [eV / Ang.]
C  -0.18275732 1.10544944 0.79877558
C  0.05239810 1.77028106 -0.79662481
C  0.15946980 -2.51537604 0.21235447
C  0.36195517 0.17964014 -0.53831560
C  -0.55406643 -2.61723099 0.87484913
C  1.54485984 0.69332935 -0.42479400
H  0.14352578 -0.01108813 -0.18918264
H  -0.04372991 -0.22064220 0.02490328
H  0.05358798 0.22317873 0.18105352
H  0.03687901 0.37398587 0.06236876
H  -1.05884783 0.92537041 -0.24494016
H  -0.51327418 0.09310235 0.03955247
12
MD Step 534.5 Units = [eV / Ang.]
C  -0.28225154 0.67521537 0.74744438
C  0.13915528 1.91447135 -0.75963026
C  0.06557918 -2.77474252 0.15107322
C  0.93112582 0.80134627 -0.44760637
C  -1.07766196 -2.21143457 0.83199049
C  1.55532632 0.61627902 -0.30206944
H  0.30574510 0.29718545 -0.21681276
H  -0.08409537 -0.17436001 0.03822874
H  0.26749672 0.20899549 0.16987822
H  -0.24067397 -0.09242898 0.05853232
H  -0.86858805 0.61686034 -0.29745605
H  -0.71115754 0.12261279 0.02642753
12
MD Step 535.0 Units = [eV / Ang.]
C  -0.35645918 0.27496951 0.69006528
C  0.22654143 2.01042566 -0.71630485
C  -0.01013558 -2.97591417 0.08801909
C  1.46404615 1.35581830 -0.34734372
C  -1.61321805 -1.71471450 0.79031189
C  1.47226752 0.51870755 -0.17609220
H  0.44324630 0.56794175 -0.24120605
H  -0.13475746 -0.11113502 0.05102377
H  0.46649145 0.19120594 0.15840046
H  -0.48795265 -0.51212062 0.04537404
H  -0.63381754 0.24339959 -0.35501742
H  -0.83625239 0.15141600 0.01276972
12
MD Step 535.5 Units = [eV / Ang.]
C  -0.39747670 -0.07611784 0.62505671
C  0.31050621 2.06377605 -0.66784321
C  -0.05328264 -3.11571550 0.02139137
C  1.93721695 1.81266001 -0.23926462
C  -2.12756022 -1.17519350 0.73982165
C  1.28570028 0.40005123 -0.04782202
H  0.54599123 0.78368359 -0.26015078
H  -0.19125862 -0.03713653 0.06385357
H  0.63114090 0.17041719 0.14918433
H  -0.68780707 -0.85788902 0.02384475
H  -0.37823886 -0.14874479 -0.40615167
H  -0.87493147 0.18020913 -0.00192009
12
MD Step 536.0 Units = [eV / Ang.]
C  -0.40112094 -0.36464954 0.55138112
C  0.38622345 2.08107086 -0.61524229
C  -0.05113378 -3.19136915 -0.05064356
C  2.33309405 2.15375691 -0.12562670
C  -2.58808838 -0.63542511 0.67324885
C  0.99701791 0.26020082 0.08181615
H  0.60780120 0.93300432 -0.27201210
H  -0.24850606 0.04063137 0.07705288
H  0.74419010 0.14693577 0.14470807
H  -0.83051098 -1.11447899 -0.00416182
H  -0.12432495 -0.51904722 -0.44238422
H  -0.82464162 0.20936995 -0.01813639
12
MD Step 536.5 Units = [eV / Ang.]
C  -0.36591958 -0.58173311 0.46848369
C  0.44860173 2.06886713 -0.55923953
C  0.00504453 -3.20033696 -0.12948273
C  2.63823170 2.36943392 -0.00861996
C  -2.96628965 -0.12828975 0.58663066
C  0.61935363 0.10002574 0.21180504
H  0.62545776 1.00920842 -0.27569646
H  -0.30134303 0.11508412 0.09069424
H  0.79331159 0.12061750 0.14689385
H  -0.91139500 -1.27460691 -0.03637743
H  0.10933386 -0.83692895 -0.45891724
H  -0.69438754 0.23865886 -0.03617412
12
MD Step 537.0 Units = [eV / Ang.]
C  -0.29224788 -0.72185972 0.37620437
C  0.49279717 2.03299253 -0.50030889
C  0.11807746 -3.14038007 -0.21564342
C  2.84186584 2.45491288 0.10989888
C  -3.23972443 0.32336611 0.47888968
C  0.17548674 -0.07830207 0.34094681
H  0.59789519 1.00906969 -0.27057560
H  -0.34505896 0.17971283 0.10460258
H  0.77332472 0.09087228 0.15667988
H  -0.92860783 -1.33527895 -0.07047268
H  0.30892979 -1.08221159 -0.45423519
H  -0.50273781 0.26710609 -0.05598642
12
MD Step 537.5 Units = [eV / Ang.]
C  -0.18186396 -0.78236496 0.27473287
C  0.51465407 1.97805760 -0.43870670
C  0.28403979 -3.00987087 -0.30847836
C  2.93536658 2.40797566 0.22839504
C  -3.39271920 0.70480104 0.35098731
C  -0.30599213 -0.27125210 0.46786688
H  0.52575940 0.93217398 -0.25644009
H  -0.37578086 0.22907907 0.11840547
H  0.68720781 0.05685026 0.17377202
H  -0.88161623 -1.29532538 -0.10416483
H  0.46502810 -1.24325022 -0.42922192
H  -0.27408338 0.29312594 -0.07714768
12
MD Step 538.0 Units = [eV / Ang.]
C  -0.03794464 -0.76366429 0.16464034
C  0.51104573 1.90722009 -0.37454595
C  0.49281288 -2.80829697 -0.40614713
C  2.91263398 2.22818070 0.34548548
C  -3.41626313 1.00674538 0.20513359
C  -0.79500874 -0.47410969 0.59110948
H  0.41144690 0.78105082 -0.23351870
H  -0.39073368 0.25914455 0.13160209
H  0.54556133 0.01776240 0.19666148
H  -0.77068580 -1.15450559 -0.13521940
H  0.57154182 -1.31432377 -0.38627716
H  -0.03440665 0.31479636 -0.09892412
12
MD Step 538.5 Units = [eV / Ang.]
C  0.13441039 -0.67024777 0.04699340
C  0.48011025 1.82215338 -0.30788483
C  0.72987477 -2.53681182 -0.50583946
C  2.77131056 1.91771728 0.45974087
C  -3.30752402 1.22319350 0.04428183
C  -1.26366730 -0.68128010 0.70928595
H  0.25960262 0.56208296 -0.20257122
H  -0.38838783 0.26746867 0.14363978
H  0.36469591 -0.02677369 0.22290217
H  -0.59739144 -0.91427880 -0.16145308
H  0.62469249 -1.29341343 -0.32868238
H  0.19227360 0.33018981 -0.12041305
12
MD Step 539.0 Units = [eV / Ang.]
C  0.32734145 -0.51220779 -0.07648831
C  0.42141811 1.72317371 -0.23881361
C  0.97874477 -2.19869513 -0.60417205
C  2.51466908 1.48388983 0.56959627
C  -3.06931158 1.35021883 -0.12806381
C  -1.68859605 -0.88661639 0.82122107
H  0.07793074 0.28696834 -0.16502286
H  -0.36852049 0.25331485 0.15398855
H  0.16393157 -0.07647896 0.24955671
H  -0.36611660 -0.58023630 -0.18084063
H  0.62237484 -1.18098167 -0.26026756
H  0.38613417 0.33765069 -0.14069376
12
MD Step 539.5 Units = [eV / Ang.]
C  0.52939224 -0.30679137 -0.20329376
C  0.33604651 1.60947824 -0.16753038
C  1.22335205 -1.79961305 -0.69762923
C  2.15389568 0.94298137 0.67348603
C  -2.70966762 1.38601047 -0.30783014
C  -2.05193941 -1.08370172 0.92605013
H  -0.12198736 -0.02578238 -0.12307928
H  -0.33220522 0.21768635 0.16220885
H  -0.03713385 -0.13031850 0.27367319
H  -0.08633155 -0.16595205 -0.19180838
H  0.56414963 -0.97996567 -0.18529911
H  0.53242891 0.33596830 -0.15894791
12
MD Step 540.0 Units = [eV / Ang.]
C  0.72510915 -0.07913546 -0.33010460
C  0.22660807 1.47944889 -0.09439931
C  1.44975342 -1.34763547 -0.78294054
C  1.71022297 0.32460979 0.77025573
C  -2.24178992 1.33210762 -0.49030629
C  -2.34133709 -1.26607945 1.02325276
H  -0.32434173 -0.35014552 -0.07972457
H  -0.28174536 0.16330965 0.16800926
H  -0.22079438 -0.18657109 0.29267651
H  0.22494869 0.30261474 -0.19373812
H  0.45197270 -0.69697420 -0.10844755
H  0.62139348 0.32445050 -0.17453328
12
MD Step 540.5 Units = [eV / Ang.]
C  0.89564494 0.13879813 -0.45299587
C  0.09721858 1.33102539 -0.01998850
C  1.64695435 -0.85306030 -0.85733587
C  1.21583364 -0.32527578 0.85976058
C  -1.68435909 1.19556502 -0.67021344
C  -2.54940254 -1.42744080 1.11262666
H  -0.50976868 -0.65367790 -0.03850855
H  -0.22053771 0.09454173 0.17129005
H  -0.37255344 -0.24301289 0.30461090
H  0.54167717 0.78402139 -0.18757230
H  0.29159556 -0.34441808 -0.03465785
H  0.64769720 0.30293410 -0.18701582
12
MD Step 541.0 Units = [eV / Ang.]
C  1.02077143 0.31184159 -0.56790365
C  -0.04661909 1.16215223 0.05492215
C  1.80695228 -0.32811897 -0.91868499
C  0.71211576 -0.94548996 0.94335124
C  -1.06221340 0.99144418 -0.84208171
C  -2.67310531 -1.56179690 1.19422528
H  -0.65746015 -0.90114450 -0.00307689
H  -0.15284721 0.01716063 0.17216721
H  -0.48164542 -0.29715106 0.30823653
H  0.82983363 1.22229106 -0.17622598
H  0.09433392 0.05703849 0.03124725
H  0.60988356 0.27177321 -0.19617643
12
MD Step 541.5 Units = [eV / Ang.]
C  1.08220315 0.40762811 -0.67128551
C  -0.19821485 0.97130935 0.12935753
C  1.92426571 0.21338661 -0.96554712
C  0.24421922 -1.46722609 1.02381404
C  -0.40689594 0.74453557 -1.00102836
C  -2.71335381 -1.66365333 1.26828074
H  -0.74861042 -1.06051243 0.02348612
H  -0.08347969 -0.06200140 0.17097201
H  -0.54098666 -0.34645499 0.30301575
H  1.05224687 1.55433830 -0.16438705
H  -0.12148563 0.47682191 0.08532950
H  0.51009204 0.23182840 -0.20200765
12
MD Step 542.0 Units = [eV / Ang.]
C  1.06746585 0.40354951 -0.76078482
C  -0.35001420 0.75811297 0.20220079
C  1.99534735 0.75647062 -0.99717857
C  -0.14758209 -1.82807775 1.10445942
C  0.24381158 0.48886182 -1.14383698
C  -2.67489521 -1.72820764 1.33513314
H  -0.77039058 -1.10986650 0.03930961
H  -0.01735583 -0.13560092 0.16821965
H  -0.54688855 -0.38856167 0.28904549
H  1.17680512 1.72378150 -0.15743310
H  -0.33045217 0.87508138 0.12557064
H  0.35414873 0.18445666 -0.20470528
12
MD Step 542.5 Units = [eV / Ang.]
C  0.97295577 0.29225187 -0.83564687
C  -0.49404854 0.52393027 0.27227408
C  2.01814701 1.28544503 -1.01352338
C  -0.43699676 -1.98827595 1.18754992
C  0.84844874 0.26365309 -1.26996247
C  -2.56649195 -1.75157860 1.39517328
H  -0.71908554 -1.04281462 0.04413430
H  0.04098384 -0.19649362 0.16454821
H  -0.49877922 -0.42145588 0.26697428
H  1.18536465 1.69692707 -0.15968579
H  -0.50245032 1.20693385 0.15281499
H  0.15195232 0.13147749 -0.20465056
12
MD Step 543.0 Units = [eV / Ang.]
C  0.80496704 0.08342949 -0.89672103
C  -0.62249172 0.27241821 0.33844256
C  1.99201698 1.78451614 -1.01519685
C  -0.61727661 -1.94199267 1.27282763
C  1.36698399 0.10573581 -1.38189016
C  -2.40117851 -1.73104941 1.44879381
H  -0.60112251 -0.87015466 0.03928966
H  0.08787522 -0.23852799 0.16063292
H  -0.39911589 -0.44363398 0.23792792
H  1.07930424 1.47377734 -0.17278733
H  -0.60784847 1.43040045 0.17104661
H  -0.08211377 0.07508128 -0.20236574
12
MD Step 543.5 Units = [eV / Ang.]
C  0.57822926 -0.19883098 -0.94606567
C  -0.72826902 0.00984278 0.39973063
C  1.91801435 2.23856958 -1.00345729
C  -0.70052205 -1.71796401 1.35702238
C  1.76764191 0.04026371 -1.48439180
C  -2.19626892 -1.66529862 1.49632677
H  -0.43153497 -0.61706476 0.02726730
H  0.12094740 -0.25730757 0.15708914
H  -0.25353635 -0.45426068 0.20344327
H  0.87884905 1.08830576 -0.19508824
H  -0.62442324 1.51609610 0.18654630
H  -0.32912739 0.01764870 -0.19842281
12
MD Step 544.0 Units = [eV / Ang.]
C  0.31260847 -0.52194516 -0.98633977
C  -0.80562150 -0.25492418 0.45542465
C  1.79950151 2.63406816 -0.98014045
C  -0.71122257 -1.36921678 1.43465526
C  2.03306336 0.07337890 -1.58274974
C  -1.97266743 -1.55454433 1.53795015
H  -0.23051995 -0.31705525 0.01108087
H  0.13937488 -0.25077031 0.15438379
H  -0.07116977 -0.45330619 0.16539007
H  0.61655617 0.59782838 -0.22236749
H  -0.54350525 1.45500498 0.20600709
H  -0.56639792 -0.03851823 -0.19329444
12
MD Step 544.5 Units = [eV / Ang.]
C  0.02928408 -0.85159204 -1.02022128
C  -0.85053610 -0.51082200 0.50514733
C  1.64285420 2.95994441 -0.94752761
C  -0.67748908 -0.95738441 1.49964553
C  2.16313780 0.19022801 -1.68067737
C  -1.75313549 -1.40054883 1.57355962
H  -0.01943668 -0.00509501 -0.00634273
H  0.14391344 -0.21946107 0.15277117
H  0.13509029 -0.44162943 0.12585163
H  0.32832322 0.06702747 -0.24939550
H  -0.37260038 1.26084125 0.23435260
H  -0.76940530 -0.09150834 -0.18716339
12
MD Step 545.0 Units = [eV / Ang.]
C  -0.25232322 -1.15709967 -1.05001759
C  -0.86098608 -0.74539340 0.54888865
C  1.45793430 3.20827454 -0.90812793
C  -0.62382813 -0.53871316 1.54685992
C  2.17316452 0.35936461 -1.77891818
C  -1.55946878 -1.20650159 1.60263864
H  0.18244639 0.28783275 -0.02256926
H  0.13671645 -0.16644063 0.15226690
H  0.34865492 -0.42095083 0.08693757
H  0.04581634 -0.44618363 -0.27147847
H  -0.13322183 0.96587403 0.27326368
H  -0.91490485 -0.14006300 -0.17974394
12
MD Step 545.5 Units = [eV / Ang.]
C  -0.51624443 -1.41436905 -1.07750690
C  -0.83696312 -0.94586619 0.58698516
C  1.25796357 3.37457856 -0.86437540
C  -0.56757878 -0.15617217 1.57298983
C  2.08832690 0.54146552 -1.87509775
C  -1.40902938 -0.97684058 1.62419289
H  0.35977894 0.53764793 -0.03581591
H  0.12097588 -0.09685010 0.15266186
H  0.54998003 -0.39365853 0.05052523
H  -0.20749342 -0.89849844 -0.28536917
H  0.14497826 0.61224520 0.32100810
H  -0.98469444 -0.18368217 -0.17019795
12
MD Step 546.0 Units = [eV / Ang.]
C  -0.75031514 -1.60646686 -1.10395787
C  -0.78034712 -1.10033495 0.62005650
C  1.05846786 3.45763757 -0.81828009
C  -0.51883460 0.16204756 1.57667246
C  1.93704459 0.69857406 -1.96466896
C  -1.31156270 -0.71711483 1.63681697
H  0.50156642 0.72771371 -0.04491829
H  0.10046746 -0.01723140 0.15357088
H  0.71822520 -0.36242072 0.01796268
H  -0.41675132 -1.26246698 -0.28944781
H  0.43109980 0.24257427 0.37341226
H  -0.96906045 -0.22251143 -0.15721872
12
MD Step 546.5 Units = [eV / Ang.]
C  -0.94568586 -1.72270582 -1.13023806
C  -0.69466268 -1.19887287 0.64891374
C  0.87525843 3.45891509 -0.77111744
C  -0.48241438 0.39990812 1.55812144
C  1.74567185 0.80068452 -2.04227690
C  -1.26734684 -0.43393103 1.63892054
H  0.60067984 0.84785162 -0.04919932
H  0.07908890 0.06525600 0.15450001
H  0.83380282 -0.32965298 -0.01019056
H  -0.57395142 -1.52349296 -0.28343193
H  0.69835789 -0.10691889 0.42529955
H  -0.86879856 -0.25704081 -0.13930107
12
MD Step 547.0 Units = [eV / Ang.]
C  -1.09603823 -1.75720228 -1.15693256
C  -0.58478427 -1.23441320 0.67445409
C  0.72178428 3.38176202 -0.72325286
C  -0.46037419 0.54947140 1.51860997
C  1.53574211 0.82843929 -2.10290875
C  -1.26737722 -0.13491165 1.62906112
H  0.65301548 0.89282807 -0.04832089
H  0.06045987 0.14358971 0.15492074
H  0.88142593 -0.29697332 -0.03428638
H  -0.67547197 -1.67537031 -0.26794002
H  0.92670886 -0.40948898 0.47172438
H  -0.69509067 -0.28773076 -0.11512884
12
MD Step 547.5 Units = [eV / Ang.]
C  -1.19695435 -1.70762748 -1.18442845
C  -0.45660655 -1.20331308 0.69755795
C  0.60653268 3.23068888 -0.67418198
C  -0.45405434 0.60726356 1.46003430
C  1.32354218 0.77257780 -2.14251756
C  -1.29555050 0.17141553 1.60627718
H  0.65675339 0.86105669 -0.04217096
H  0.04762105 0.21151392 0.15433769
H  0.85291909 -0.26482922 -0.05549937
H  -0.71991963 -1.71631858 -0.24412956
H  1.10298818 -0.64771271 0.50867427
H  -0.46727120 -0.31471532 -0.08395351
12
MD Step 548.0 Units = [eV / Ang.]
C  -1.24569722 -1.57459595 -1.21294312
C  -0.31670837 -1.10560291 0.71900270
C  0.53134329 3.01094531 -0.62279671
C  -0.46525578 0.57195076 1.38465374
C  1.12107570 0.63158844 -2.15816868
C  -1.33207895 0.47588499 1.57030897
H  0.61199782 0.75395190 -0.03081115
H  0.04283802 0.26400564 0.15234270
H  0.74894054 -0.23245277 -0.07552112
H  -0.70675543 -1.64647116 -0.21349464
H  1.21956830 -0.81152289 0.53326477
H  -0.20926791 -0.33768135 -0.04583746
12
MD Step 548.5 Units = [eV / Ang.]
C  -1.24148458 -1.36185524 -1.24248747
C  -0.17199853 -0.94492440 0.73939526
C  0.49118955 2.72849792 -0.56779917
C  -0.49642702 0.44358722 1.29500304
C  0.93742115 0.40897927 -2.14791957
C  -1.35706534 0.76911001 1.52164785
H  0.52090986 0.57608950 -0.01449343
H  0.04749765 0.29756872 0.14865369
H  0.57903531 -0.19818304 -0.09611832
H  -0.63586366 -1.46712467 -0.17781606
H  1.27260995 -0.89581266 0.54363355
H  0.05417567 -0.35593262 -0.00169938
12
MD Step 549.0 Units = [eV / Ang.]
C  -1.18622568 -1.07720502 -1.27277460
C  -0.02933918 -0.72825607 0.75912922
C  0.47550917 2.39031339 -0.50813105
C  -0.54988979 0.22449500 1.19391994
C  0.77981832 0.11107710 -2.11065413
C  -1.35330743 1.04196461 1.46143503
H  0.38830508 0.33610550 0.00625919
H  0.06206312 0.31040330 0.14313995
H  0.35998363 -0.16004207 -0.11869407
H  -0.50809799 -1.18176856 -0.13920106
H  1.26064577 -0.89851488 0.53875399
H  0.30053498 -0.36857230 0.04681761
12
MD Step 549.5 Units = [eV / Ang.]
C  -1.08550987 -0.73389221 -1.30308010
C  0.10483357 -0.46545776 0.77836401
C  0.47059116 2.00474016 -0.44328594
C  -0.62612670 -0.07831212 1.08458428
C  0.65410373 -0.25419901 -2.04601323
C  -1.30789562 1.28608077 1.39127649
H  0.22253258 0.04804442 0.03051900
H  0.08607462 0.30246272 0.13583443
H  0.11296345 -0.11636137 -0.14398457
H  -0.32679382 -0.79876348 -0.10011654
H  1.18389350 -0.81962716 0.51832391
H  0.51133340 -0.37471496 0.09757826
12
MD Step 550.0 Units = [eV / Ang.]
C  -0.94949962 -0.35189904 -1.33209273
C  0.22489017 -0.16871111 0.79702637
C  0.46220662 1.58176265 -0.37344516
C  -0.72132423 -0.44953062 0.97044190
C  0.56439243 -0.67743223 -1.95449279
C  -1.21265259 1.49427418 1.31304865
H  0.03626206 -0.26741690 0.05680334
H  0.11817841 0.27543622 0.12693612
H  -0.13961257 -0.06625635 -0.17195416
H  -0.10007994 -0.33521571 -0.06328468
H  1.04443236 -0.66134992 0.48280616
H  0.67280690 -0.37366118 0.14820699
12
MD Step 550.5 Units = [eV / Ang.]
C  -0.79314837 0.04169695 -1.35780318
C  0.32634119 0.14813854 0.81482770
C  0.43774993 1.13294792 -0.29943903
C  -0.82467467 -0.86178221 0.85486701
C  0.51199023 -1.14668263 -1.83770002
C  -1.06378952 1.66088701 1.22873783
H  -0.15337642 -0.58270876 0.08296307
H  0.15619130 0.23264381 0.11680101
H  -0.37680380 -0.00984285 -0.20187578
H  0.15654378 0.17905205 -0.03130717
H  0.84721212 -0.42934152 0.43362473
H  0.77576423 -0.36500830 0.19630383
12
MD Step 551.0 Units = [eV / Ang.]
C  -0.63518979 0.41420217 -1.37751456
C  0.40610319 0.47031225 0.83129915
C  0.38748511 0.67107163 -0.22260225
C  -0.91657596 -1.27359773 0.74049453
C  0.49374791 -1.64556399 -1.69868243
C  -0.86122608 1.78205273 1.14032393
H  -0.32589117 -0.86497932 0.10619305
H  0.19721177 0.17883192 0.10592021
H  -0.58092883 0.05179571 -0.23252597
H  0.41850146 0.69945410 -0.00595628
H  0.60165741 -0.13487389 0.37344008
H  0.81510497 -0.34870560 0.23961052
12
MD Step 551.5 Units = [eV / Ang.]
C  -0.49555229 0.73117236 -1.38804931
C  0.46264130 0.78289070 0.84583564
C  0.30489260 0.20947421 -0.14458812
C  -0.96930593 -1.63166271 0.62834506
C  0.50033210 -2.15094013 -1.54216247
C  -0.60797164 1.85587183 1.04968262
H  -0.46009396 -1.08011191 0.12324781
H  0.23779855 0.11983720 0.09488467
H  -0.73837157 0.11680911 -0.26241265
H  0.65291809 1.16906381 0.01272922
H  0.32333992 0.20266739 0.30634248
H  0.78937282 -0.32507186 0.27614506
12
MD Step 552.0 Units = [eV / Ang.]
C  -0.39152793 0.96229198 -1.38619133
C  0.49597007 1.07166705 0.85775188
C  0.18639538 -0.23873923 -0.06719169
C  -0.95152589 -1.87908889 0.51716159
C  0.51528113 -2.63127564 -1.37443023
C  -0.30980995 1.88247052 0.95847505
H  -0.53801422 -1.19874255 0.13089641
H  0.27422789 0.06210197 0.08433351
H  -0.83964663 0.18284722 -0.28998047
H  0.82324082 1.52724147 0.02711296
H  0.03482075 0.55401680 0.23772378
H  0.70058858 -0.29479070 0.30433853
12
MD Step 552.5 Units = [eV / Ang.]
C  -0.33378307 1.08769799 -1.36930006
C  0.50747919 1.32400645 0.86634573
C  0.03085122 -0.66150421 0.00779956
C  -0.83640698 -1.96870812 0.40352250
C  0.51596162 -3.04709711 -1.20267378
C  0.02462673 1.86389677 0.86799316
H  -0.54895838 -1.20267155 0.12655097
H  0.30282603 0.01205275 0.07489172
H  -0.87907649 0.24732170 -0.31376793
H  0.89749448 1.72338325 0.04182444
H  -0.23544323 0.88050510 0.17360991
H  0.55442887 -0.25888301 0.32320379
12
MD Step 553.0 Units = [eV / Ang.]
C  -0.32372005 1.10248905 -1.33592482
C  0.49960456 1.52964890 0.87096424
C  -0.16085210 -1.04849284 0.07873682
C  -0.61078034 -1.87674627 0.28303768
C  0.47726895 -3.35492730 -1.03370557
C  0.38347461 1.80379407 0.77895520
H  -0.49219642 -1.08936428 0.10888970
H  0.32034906 -0.02460590 0.06710215
H  -0.85443059 0.30763231 -0.33252599
H  0.85754851 1.73103902 0.06250701
H  -0.45691621 1.13817579 0.11941726
H  0.36065002 -0.21864255 0.33254632
12
MD Step 553.5 Units = [eV / Ang.]
C  -0.35333347 1.01756937 -1.28620014
C  0.47537453 1.68136311 0.87107141
C  -0.38588580 -1.39159792 0.14423136
C  -0.28113503 -1.61048142 0.15226251
C  0.37779867 -3.51491198 -0.87241813
C  0.75121300 1.70685295 0.69127843
H  -0.37711582 -0.87266509 0.07824503
H  0.32436292 -0.04358835 0.06136162
H  -0.76677019 0.36136167 -0.34531386
H  0.70518576 1.55587467 0.09382845
H  -0.60318981 1.28573587 0.07846110
H  0.13349524 -0.17551289 0.33319223
12
MD Step 554.0 Units = [eV / Ang.]
C  -0.40763657 0.85648422 -1.22186101
C  0.43793036 1.77534413 0.86630411
C  -0.63920737 -1.68517062 0.20327898
C  0.12673301 -1.20583256 0.01036580
C  0.20663967 -3.50032390 -0.72061419
C  1.10859900 1.57810604 0.60389864
H  -0.22076181 -0.57940201 0.03659760
H  0.31355330 -0.04258711 0.05787386
H  -0.62059934 0.40646195 -0.35159445
H  0.46177661 1.23335068 0.13772636
H  -0.65870524 1.29446303 0.05086565
H  -0.10832163 -0.13089383 0.32715866
12
MD Step 554.5 Units = [eV / Ang.]
C  -0.46859211 0.64966475 -1.14588686
C  0.39009381 1.81128563 0.85651171
C  -0.91296955 -1.92601426 0.25538765
C  0.57425807 -0.71620464 -0.14033622
C  -0.03206887 -3.30531806 -0.57686051
C  1.43342250 1.42219891 0.51474617
H  -0.04382321 -0.24333053 -0.01281519
H  0.28791041 -0.02159026 0.05662674
H  -0.42430041 0.44144506 -0.35133618
H  0.16171960 0.81741361 0.19279323
H  -0.62316472 1.15634497 0.03350995
H  -0.34248554 -0.08589518 0.31765951
12
MD Step 555.0 Units = [eV / Ang.]
C  -0.51902983 0.42829988 -1.06192086
C  0.33407982 1.79210707 0.84176532
C  -1.19584603 -2.11320815 0.30068505
C  1.01949060 -0.19824530 -0.29514075
C  -0.31909931 -2.94730921 -0.43751370
C  1.70242273 1.24282804 0.42098679
H  0.13340693 0.10128340 -0.06611409
H  0.24874741 0.01711304 0.05739934
H  -0.19063725 0.46557023 -0.34510606
H  -0.15695616 0.36592695 0.25497671
H  -0.51146022 0.88673440 0.02115411
H  -0.54511869 -0.04110035 0.30882813
12
MD Step 555.5 Units = [eV / Ang.]
C  -0.54535006 0.21974200 -0.97368629
C  0.27138605 1.72336555 0.82233831
C  -1.47257652 -2.24780764 0.33997304
C  1.42519743 0.29945302 -0.44842026
C  -0.62470323 -2.46272126 -0.29841719
C  1.89430439 1.04251965 0.31957536
H  0.29388933 0.42448117 -0.11938763
H  0.19854772 0.06924158 0.05979680
H  0.06299405 0.47898279 -0.33412008
H  -0.46066195 -0.07102525 0.31901089
H  -0.34911678 0.52020841 0.00822650
H  -0.69391044 0.00355997 0.30511055
12
MD Step 556.0 Units = [eV / Ang.]
C  -0.53861822 0.04522979 -0.88456305
C  0.20285099 1.61245525 0.79866127
C  -1.72418735 -2.33242505 0.37467733
C  1.76331489 0.74170554 -0.59498582
C  -0.91569286 -1.89806033 -0.15643943
C  1.99330802 0.82281637 0.20805022
H  0.42509474 0.70300629 -0.16913131
H  0.14067456 0.12907415 0.06330384
H  0.31501223 0.48273261 -0.32019367
H  -0.72456791 -0.45686655 0.37978592
H  -0.16540998 0.10160002 -0.00956778
H  -0.77177910 0.04873191 0.31040249
12
MD Step 556.5 Units = [eV / Ang.]
C  -0.49432887 -0.08035784 -0.79737538
C  0.12882409 1.46772225 0.77125678
C  -1.92926723 -2.37068193 0.40664969
C  2.01570040 1.10664356 -0.73086611
C  -1.16209917 -1.30024325 -0.01026561
C  1.99233067 0.58484378 0.08535049
H  0.51893059 0.92055073 -0.21245657
H  0.07900034 0.19013225 0.06734812
H  0.54117516 0.47859683 -0.30554595
H  -0.93313043 -0.76870474 0.43317165
H  0.01293349 -0.32383468 -0.03442144
H  -0.77006904 0.09533302 0.32715433
12
MD Step 557.0 Units = [eV / Ang.]
C  -0.41145233 -0.14752484 -0.71436719
C  0.04938511 1.29761695 0.74067544
C  -2.06645457 -2.36650744 0.43781408
C  2.17258356 1.38249184 -0.85346493
C  -1.34142194 -0.70956523 0.13963379
C  1.89457446 0.33007527 -0.04762354
H  0.57092414 1.06669193 -0.24711031
H  0.01751965 0.24587218 0.07136117
H  0.71730940 0.46867930 -0.29244136
H  -1.07824978 -0.99426167 0.47624468
H  0.16553148 -0.71766696 -0.06645969
H  -0.69024917 0.14409866 0.35573785
12
MD Step 557.5 Units = [eV / Ang.]
C  -0.29133843 -0.15084438 -0.63727228
C  -0.03543614 1.10999489 0.70743510
C  -2.11784075 -2.32338119 0.46970907
C  2.23025985 1.56357037 -0.96130399
C  -1.44004490 -0.15668090 0.29152652
C  1.71311322 0.06105362 -0.18793219
H  0.57923452 1.13543324 -0.27139510
H  -0.04000137 0.29029109 0.07482943
H  0.82292440 0.45485495 -0.28272424
H  -1.15667137 -1.12791020 0.50712903
H  0.27931495 -1.05152596 -0.10430790
H  -0.54351398 0.19514445 0.39430655
12
MD Step 558.0 Units = [eV / Ang.]
C  -0.13687169 -0.08792638 -0.56740462
C  -0.12548263 0.91160681 0.67197838
C  -2.07247144 -2.24368535 0.50305233
C  2.18903772 1.64701040 -1.05363086
C  -1.45255901 0.33701643 0.44303666
C  1.46853581 -0.21816778 -0.33103512
H  0.54388559 1.12402575 -0.28407957
H  -0.09030655 0.31839418 0.07733254
H  0.84487914 0.43822738 -0.27737371
H  -1.16773160 -1.16733230 0.52470763
H  0.34752248 -1.30688370 -0.14578053
H  -0.34843783 0.24771455 0.43919687
12
MD Step 558.5 Units = [eV / Ang.]
C  0.04792680 0.04094835 -0.50568844
C  -0.22032843 0.70781152 0.63465198
C  -1.92889044 -2.12840067 0.53747525
C  2.05191679 1.63084124 -1.13008249
C  -1.38007518 0.75716352 0.59160726
C  1.18546934 -0.50195592 -0.47158715
H  0.46641922 1.03247498 -0.28437678
H  -0.13085151 0.32651202 0.07856591
H  0.78002333 0.41881135 -0.27623505
H  -1.11198309 -1.11149091 0.52839059
H  0.36787535 -1.47291110 -0.18842901
H  -0.12750216 0.30019564 0.48570794
12
MD Step 559.0 Units = [eV / Ang.]
C  0.25781937 0.23240031 -0.45259029
C  -0.31916679 0.50247525 0.59570476
C  -1.69582646 -1.97729455 0.57153784
C  1.82410759 1.51365147 -1.19053152
C  -1.22836067 1.09385494 0.73473939
C  0.88903865 -0.78338229 -0.60431293
H  0.35001619 0.86388953 -0.27203573
H  -0.15993673 0.31249289 0.07835367
H  0.63590641 0.39558327 -0.27803889
H  -0.99085824 -0.96013014 0.51804957
H  0.34082624 -1.54390318 -0.22986243
H  0.09643444 0.35036251 0.52898656
12
MD Step 559.5 Units = [eV / Ang.]
C  0.48585098 0.47876806 -0.40792296
C  -0.42070731 0.29801986 0.55530159
C  -1.39076895 -1.78956198 0.60302564
C  1.51339300 1.29584844 -1.23516747
C  -1.00624568 1.33973308 0.87006412
C  0.60209281 -1.05472275 -0.72471232
H  0.20002150 0.62563067 -0.24756344
H  -0.17678429 0.27579699 0.07665196
H  0.42930122 0.36688848 -0.28071210
H  -0.80736765 -0.71486296 0.49415797
H  0.26833886 -1.51727453 -0.26788759
H  0.30287552 0.39573666 0.56476459
12
MD Step 560.0 Units = [eV / Ang.]
C  0.72263274 0.76645064 -0.37055028
C  -0.52307834 0.09557195 0.51354414
C  -1.03692715 -1.56475050 0.62942318
C  1.13123844 0.98249659 -1.26480929
C  -0.72448478 1.48924717 0.99535276
C  0.34356353 -1.30801917 -0.82946896
H  0.02468756 0.33097202 -0.21254606
H  -0.18157505 0.21752479 0.07354708
H  0.18304688 0.33104050 -0.28186879
H  -0.56771416 -0.38181764 0.45812180
H  0.15334468 -1.39265306 -0.30056043
H  0.47526565 0.43393671 0.58981487
12
MD Step 560.5 Units = [eV / Ang.]
C  0.95570847 1.07437437 -0.33807700
C  -0.62372683 -0.10481565 0.47049762
C  -0.65959586 -1.30368204 0.64840320
C  0.69439016 0.58742088 -1.28135375
C  -0.39510837 1.53925206 1.10856022
C  0.12786440 -1.53558850 -0.91656190
H  -0.16419247 0.00065667 -0.16997516
H  -0.17544560 0.14037980 0.06924588
H  -0.07775745 0.28688431 -0.27931402
H  -0.28348671 0.02444771 0.41269345
H  -0.00015906 -1.17226981 -0.32624200
H  0.60150931 0.46294022 0.60212344
12
MD Step 561.0 Units = [eV / Ang.]
C  1.16946831 1.37350720 -0.30668766
C  -0.71933328 -0.30388845 0.42620816
C  -0.28295306 -1.00915500 0.65819938
C  0.22631605 0.13762612 -1.28813683
C  -0.03127327 1.49091770 1.20797495
C  -0.03503440 -1.73043164 -0.98517621
H  -0.35122355 -0.33659338 -0.12440331
H  -0.16044168 0.04855951 0.06406220
H  -0.32915988 0.23415014 -0.27141922
H  0.02630561 0.47670554 0.36224506
H  -0.18647522 -0.86264005 -0.34372745
H  0.67380439 0.48124231 0.60086092
12
MD Step 561.5 Units = [eV / Ang.]
C  1.34606190 1.62847600 -0.27134812
C  -0.80576271 -0.50285627 0.38071874
C  0.07205899 -0.68632930 0.65780219
C  -0.24262050 -0.32392136 -1.28985291
C  0.35240109 1.35262503 1.29250230
C  -0.13923691 -1.88651135 -1.03551874
H  -0.51839459 -0.64568244 -0.08171844
H  -0.13940776 -0.05245231 0.05839306
H  -0.55068742 0.17354369 -0.25730665
H  0.33459677 0.93243676 0.31255480
H  -0.39722153 -0.47726459 -0.35248017
H  0.68821266 0.48793615 0.58625393
12
MD Step 562.0 Units = [eV / Ang.]
C  1.46755974 1.80193785 -0.22651881
C  -0.87808180 -0.70297732 0.33407493
C  0.38862306 -0.34279561 0.64699635
C  -0.67754176 -0.73988547 -1.29169805
C  0.73919226 1.14312392 1.36203277
C  -0.18260771 -1.99892887 -1.06863668
H  -0.64735238 -0.88952184 -0.04837957
H  -0.11579465 -0.15621953 0.05268578
H  -0.72644255 0.10662281 -0.23686056
H  0.60842534 1.33552745 0.26979768
H  -0.62030179 -0.03963675 -0.35293226
H  0.64432225 0.48275336 0.55943843
12
MD Step 562.5 Units = [eV / Ang.]
C  1.51908776 1.86131594 -0.16735199
C  -0.93069197 -0.90506344 0.28633397
C  0.65399491 0.01161494 0.62628827
C  -1.04457439 -1.04671592 -1.29772717
C  1.10968212 0.89359887 1.41775275
C  -0.16667563 -2.06403871 -1.08627596
H  -0.72267922 -1.03576760 -0.03015975
H  -0.09336886 -0.25583351 0.04739524
H  -0.84522113 0.03556195 -0.21062550
H  0.81457900 1.62444622 0.23876551
H  -0.83932203 0.41478913 -0.34672321
H  0.54518944 0.46609213 0.52232785
12
MD Step 563.0 Units = [eV / Ang.]
C  1.49205489 1.78608222 -0.09103895
C  -0.95760321 -1.10895705 0.23757530
C  0.85895420 0.36526370 0.59678419
C  -1.31834417 -1.18884790 -1.30900380
C  1.44180126 0.64680892 1.46216493
C  -0.09680283 -2.07952003 -1.09077445
H  -0.73525846 -1.06408731 -0.03073600
H  -0.07583955 -0.34451082 0.04293309
H  -0.90009259 -0.03710624 -0.17965926
H  0.92760171 1.74633156 0.22093676
H  -1.03406777 0.83950890 -0.33666603
H  0.39759652 0.43903404 0.47748422
12
MD Step 563.5 Units = [eV / Ang.]
C  1.38627554 1.57296173 0.00220676
C  -0.95286735 -1.31303612 0.18791907
C  0.99719759 0.70534524 0.56005309
C  -1.48847302 -1.13437434 -1.32259483
C  1.71216286 0.45175243 1.49861140
C  0.01750590 -2.04444567 -1.08494416
H  -0.68449478 -0.97128730 -0.05065377
H  -0.06643074 -0.41626229 0.03961761
H  -0.88786879 -0.10872040 -0.14538420
H  0.93707647 1.67240229 0.21346334
H  -1.18255709 1.18234382 -0.32624170
H  0.21247339 0.40332062 0.42794738
12
MD Step 564.0 Units = [eV / Ang.]
C  1.21009416 1.23688236 0.10898103
C  -0.91115585 -1.51388585 0.13755230
C  1.06501011 1.01875569 0.51799027
C  -1.56168505 -0.88512226 -1.33221659
C  1.89889538 0.35385450 1.53027699
C  0.16241785 -1.95931973 -1.07186315
H  -0.57845425 -0.77212483 -0.08712935
H  -0.06746562 -0.46653205 0.03762963
H  -0.80878469 -0.17668324 -0.10945309
H  0.85061422 1.40763169 0.20988276
H  -1.26466986 1.39530132 -0.31861067
H  0.00518359 0.36124240 0.37695986
12
MD Step 564.5 Units = [eV / Ang.]
C  0.97846262 0.80731164 0.22343093
C  -0.82841422 -1.70622241 0.08675590
C  1.06138595 1.29312598 0.47267424
C  -1.55819751 -0.47597288 -1.33038526
C  1.98544714 0.38326465 1.55900378
C  0.32009261 -1.82604784 -1.05452656
H  -0.43186097 -0.49546285 -0.13478300
H  -0.08003153 -0.49270477 0.03698497
H  -0.66654616 -0.23863505 -0.07361862
H  0.69094293 0.98958740 0.20237478
H  -1.26652832 1.44636173 -0.31545985
H  -0.20475253 0.31539440 0.32754871
12
MD Step 565.0 Units = [eV / Ang.]
C  0.70979762 0.32161259 0.33858140
C  -0.70247501 -1.88315009 0.03592066
C  0.98861290 1.51791232 0.42619784
C  -1.50421446 0.03608520 -1.31095034
C  1.96405202 0.54585727 1.58448799
C  0.46990178 -1.64777219 -1.03535586
H  -0.26278850 -0.17744825 -0.18697661
H  -0.10380293 -0.49437093 0.03753033
H  -0.46873362 -0.29263478 -0.03958103
H  0.48866973 0.47703462 0.18440405
H  -1.18410243 1.32858299 -0.31624521
H  -0.39491710 0.26829124 0.28198679
12
MD Step 565.5 Units = [eV / Ang.]
C  0.42282249 -0.18196329 0.44771005
C  -0.53353713 -2.03671498 -0.01445235
C  0.85317906 1.68537886 0.38045654
C  -1.42416992 0.58743278 -1.27076734
C  1.83735545 0.82119267 1.60433292
C  0.59076080 -1.42858408 -1.01566707
H  -0.08928709 0.14561708 -0.23721278
H  -0.13704982 -0.47331432 0.03896302
H  -0.22740181 -0.33735726 -0.00879091
H  0.27428474 -0.06585414 0.15247017
H  -1.02450641 1.06226195 -0.31828954
H  -0.54245037 0.22190473 0.24124729
12
MD Step 566.0 Units = [eV / Ang.]
C  0.13433158 -0.66947988 0.54533121
C  -0.32440825 -2.15868599 -0.06377377
C  0.66661826 1.79130744 0.33688335
C  -1.33577664 1.12101415 -1.20998973
C  1.61747018 1.16848641 1.61496143
C  0.66438541 -1.17318407 -0.99528723
H  0.07306389 0.44251510 -0.28014814
H  -0.17684153 -0.43321377 0.04087267
H  0.04048490 -0.37228578 0.01780313
H  0.07253171 -0.58279148 0.10643174
H  -0.80437160 0.68905538 -0.31773133
H  -0.62748791 0.17726249 0.20464667
12
MD Step 566.5 Units = [eV / Ang.]
C  -0.14178736 -1.11386366 0.62762215
C  -0.08050582 -2.24139256 -0.11140358
C  0.44580224 1.83528641 0.29616273
C  -1.24877105 1.59338002 -1.13131206
C  1.32291619 1.53776046 1.61289317
C  0.67875953 -0.88666317 -0.97251760
H  0.21230696 0.68960110 -0.31205166
H  -0.21939471 -0.37913846 0.04279484
H  0.31322459 -0.39783619 0.04002860
H  -0.09972801 -1.03229092 0.04874370
H  -0.54599355 0.26088047 -0.31083675
H  -0.63682901 0.13427649 0.16987647
12
MD Step 567.0 Units = [eV / Ang.]
C  -0.39451715 -1.49514635 0.69238177
C  0.19039547 -2.27849650 -0.15669662
C  0.21211764 1.82049382 0.25799397
C  -1.16643829 1.97565998 -1.03886270
C  0.97483022 1.88128848 1.59577210
C  0.63078235 -0.57450967 -0.94455201
H  0.32015255 0.87092329 -0.33079332
H  -0.26050241 -0.31693043 0.04426753
H  0.56564472 -0.41532384 0.05871062
H  -0.23286305 -1.38830969 -0.01667742
H  -0.27284716 -0.17155732 -0.29505785
H  -0.56675488 0.09190823 0.13351392
12
MD Step 567.5 Units = [eV / Ang.]
C  -0.61512436 -1.79936815 0.73873230
C  0.47859183 -2.26558041 -0.19904881
C  -0.01075222 1.75296517 0.22101650
C  -1.08834869 2.25081885 -0.93729023
C  0.59384338 2.16146493 1.56279302
C  0.52713686 -0.24286458 -0.90825827
H  0.39138405 0.97696801 -0.33557152
H  -0.29597086 -0.25258054 0.04488119
H  0.77169843 -0.42670121 0.07572398
H  -0.32244530 -1.63704037 -0.08539734
H  -0.00600245 -0.56672521 -0.26948747
H  -0.42401068 0.04864351 0.09190664
12
MD Step 568.0 Units = [eV / Ang.]
C  -0.79650475 -2.01712095 0.76676401
C  0.77301175 -2.20049695 -0.23792872
C  -0.20030518 1.64047334 0.18299673
C  -1.01301457 2.40975596 -0.83125192
C  0.19837085 2.35378597 1.51456963
C  0.38302034 0.10111412 -0.86106717
H  0.42309672 1.00304871 -0.32657993
H  -0.32200279 -0.19168421 0.04431590
H  0.90818984 -0.43406620 0.09377231
H  -0.36705899 -1.77252970 -0.15299681
H  0.23776985 -0.89538751 -0.23474609
H  -0.22457309 0.00310742 0.04215205
12
MD Step 568.5 Units = [eV / Ang.]
C  -0.93277039 -2.14246390 0.77726343
C  1.06184295 -2.08351808 -0.27289924
C  -0.33917501 1.49127203 0.14131179
C  -0.93981600 2.44797486 -0.72525551
C  -0.19571500 2.44592708 1.45271660
C  0.21914234 0.44900526 -0.80166178
H  0.41411518 0.94806479 -0.30474686
H  -0.33550310 -0.13900875 0.04236410
H  0.95884362 -0.43905616 0.11586570
H  -0.36661624 -1.79294059 -0.21524020
H  0.44627701 -1.13984743 -0.19256642
H  0.00937464 -0.04540912 -0.01715161
12
MD Step 569.0 Units = [eV / Ang.]
C  -1.01925799 -2.17257009 0.77157150
C  1.33319588 -1.91729693 -0.30362682
C  -0.41839430 1.31300435 0.09363613
C  -0.86997937 2.36361038 -0.62369556
C  -0.57454877 2.43481097 1.37942260
C  0.05799183 0.79114203 -0.73026766
H  0.36477789 0.81401109 -0.27159695
H  -0.33429006 -0.09819164 0.03894014
H  0.91753285 -0.44233617 0.14460053
H  -0.32141725 -1.69832769 -0.26804818
H  0.61114096 -1.29117859 -0.14534603
H  0.25324836 -0.09667771 -0.08558971
12
MD Step 569.5 Units = [eV / Ang.]
C  -1.05298888 -2.10825944 0.75157212
C  1.57576073 -1.70673412 -0.32988030
C  -0.43886427 1.11207904 0.03861917
C  -0.80661860 2.15706859 -0.53089803
C  -0.92545502 2.32335992 1.29717215
C  -0.07956006 1.11696359 -0.64853985
H  0.27716183 0.60635806 -0.22922889
H  -0.31722951 -0.07154222 0.03407739
H  0.78957985 -0.44338789 0.18146019
H  -0.23198937 -1.49021331 -0.30746772
H  0.72665742 -1.34613681 -0.09582352
H  0.48354587 -0.14955542 -0.16106273
12
MD Step 570.0 Units = [eV / Ang.]
C  -1.03351488 -1.95528275 0.71975314
C  1.77942157 -1.45877718 -0.35153098
C  -0.41053429 0.89362295 -0.02366944
C  -0.75389360 1.83230901 -0.45099107
C  -1.23631594 2.11795856 1.20864235
C  -0.17658640 1.41560160 -0.55918324
H  0.15570072 0.33517928 -0.18035209
H  -0.28430204 -0.05992523 0.02791776
H  0.59064971 -0.44069008 0.22637688
H  -0.09968690 -1.17299008 -0.32983285
H  0.78879616 -1.30478430 -0.04690981
H  0.68026589 -0.20222177 -0.24022065
12
MD Step 570.5 Units = [eV / Ang.]
C  -0.96398809 -1.72600703 0.67924716
C  1.93581945 -1.18217532 -0.36855150
C  -0.34967353 0.66191700 -0.09167304
C  -0.71533360 1.39967215 -0.38743205
C  -1.49541495 1.82705283 1.11671610
C  -0.22119527 1.67658745 -0.46549864
H  0.00802776 0.01665835 -0.12829021
H  -0.23661365 -0.06271029 0.02069372
H  0.34363953 -0.43221050 0.27769804
H  0.07197975 -0.75699504 -0.33228591
H  0.79467230 -1.16928451 -0.00162053
H  0.82808029 -0.25250509 -0.31900313
12
MD Step 571.0 Units = [eV / Ang.]
C  -0.85207171 -1.44081214 0.63373374
C  2.03878718 -0.88717679 -0.38101569
C  -0.27525000 0.42104961 -0.16263528
C  -0.69151724 0.87975779 -0.34207793
C  -1.69194838 1.46095332 1.02450756
C  -0.20659286 1.89057281 -0.37099656
H  -0.15430376 -0.32571246 -0.07683844
H  -0.17634742 -0.07778366 0.01270400
H  0.07462527 -0.41600505 0.33253100
H  0.27543816 -0.26268388 -0.31376418
H  0.74268448 -0.94396913 0.03698519
H  0.91649629 -0.29819041 -0.39313339
12
MD Step 571.5 Units = [eV / Ang.]
C  -0.71023387 -1.12823539 0.58710953
C  2.08465046 -0.58515075 -0.38909962
C  -0.20558167 0.17551684 -0.23309623
C  -0.67755057 0.30709585 -0.31386873
C  -1.81730518 1.03275576 0.93527239
C  -0.13057842 2.04996165 -0.27913256
H  -0.31571949 -0.66118378 -0.02988175
H  -0.10664427 -0.10164181 0.00428448
H  -0.19094042 -0.39071183 0.38730652
H  0.49701995 0.27543477 -0.27636509
H  0.63341571 -0.63658321 0.06597403
H  0.93946777 -0.33725810 -0.45850297
12
MD Step 572.0 Units = [eV / Ang.]
C  -0.55485188 -0.82288807 0.54289501
C  2.07233635 -0.28808789 -0.39307471
C  -0.15603361 -0.06945983 -0.29941608
C  -0.66131534 -0.26861553 -0.29753618
C  -1.86709582 0.56008165 0.85208198
C  0.00511121 2.14944981 -0.19313673
H  -0.45768619 -0.95402188 0.00923992
H  -0.03139524 -0.12960030 -0.00422619
H  -0.43094984 -0.35581735 0.43836072
H  0.71572567 0.80742206 -0.22665258
H  0.47125509 -0.26041262 0.08292703
H  0.89489960 -0.36805005 -0.51146218
12
MD Step 572.5 Units = [eV / Ang.]
C  -0.40387187 -0.56071655 0.50351293
C  2.00328752 -0.00796237 -0.39329209
C  -0.13800185 -0.30796010 -0.35819783
C  -0.62378909 -0.78637065 -0.28315100
C  -1.84363206 0.06709140 0.77717737
C  0.19528096 2.18643769 -0.11586227
H  -0.56120383 -1.16839954 0.03848048
H  0.04506417 -0.15614933 -0.01252320
H  -0.62801182 -0.31168693 0.48238821
H  0.90407491 1.27179066 -0.17606822
H  0.26643946 0.16331720 0.08661194
H  0.78436350 -0.38939146 -0.54907634
12
MD Step 573.0 Units = [eV / Ang.]
C  -0.27333573 -0.37228446 0.46970576
C  1.88117302 0.24401239 -0.39015641
C  -0.15889167 -0.53367648 -0.40656683
C  -0.54250961 -1.18419968 -0.25742726
C  -1.75812023 -0.41420624 0.71105402
C  0.43143566 2.16126762 -0.04957587
H  -0.61040502 -1.27518216 0.05767060
H  0.11834616 -0.17546610 -0.02036990
H  -0.76971468 -0.25943383 0.51671726
H  1.03206399 1.60603024 -0.13951939
H  0.03679790 0.60383425 0.07788123
H  0.61316022 -0.40069556 -0.56941321
12
MD Step 573.5 Units = [eV / Ang.]
C  -0.17377564 -0.27607567 0.44039871
C  1.71142511 0.45819543 -0.38409139
C  -0.22264401 -0.74040934 -0.44232861
C  -0.39798609 -1.41406271 -0.20708804
C  -1.63134603 -0.84469687 0.65153728
C  0.70161325 2.07726338 0.00436649
H  -0.59622296 -1.25859618 0.06862441
H  0.18445337 -0.18206316 -0.02762396
H  -0.84822452 -0.20071867 0.53942773
H  1.07396263 1.76179693 -0.13185273
H  -0.19194677 1.02143238 0.06052632
H  0.39069167 -0.40206552 -0.57189620
12
MD Step 574.0 Units = [eV / Ang.]
C  -0.10786456 -0.27431810 0.41315048
C  1.50067193 0.62727514 -0.37550746
C  -0.33032188 -0.92258201 -0.46405890
C  -0.18092115 -1.45561585 -0.12331118
C  -1.49153753 -1.18211160 0.59335528
C  0.99008789 1.94048797 0.04593689
H  -0.51873863 -1.12023691 0.07463487
H  0.24020485 -0.17149219 -0.03424897
H  -0.85971490 -0.13754970 0.54938392
H  1.01575451 1.71898017 -0.16322516
H  -0.38853202 1.37153925 0.04158894
H  0.13091148 -0.39437614 -0.55769871
12
MD Step 574.5 Units = [eV / Ang.]
C  -0.07028835 -0.35306613 0.38504090
C  1.25612747 0.74686362 -0.36478059
C  -0.48045655 -1.07564878 -0.47116680
C  0.10307151 -1.32215273 -0.00517840
C  -1.36885234 -1.38825767 0.52875970
C  1.27728117 1.75918601 0.07684888
H  -0.38720309 -0.87869218 0.07951730
H  0.28357184 -0.14099683 -0.04030732
H  -0.80397129 -0.07211338 0.54624210
H  0.85986127 1.49183867 -0.23549641
H  -0.52162506 1.61232880 0.03059540
H  -0.14751659 -0.37928940 -0.53007476
12
MD Step 575.0 Units = [eV / Ang.]
C  -0.04987069 -0.48642794 0.35362348
C  0.98506812 0.81580928 -0.35224530
C  -0.66899937 -1.19632281 -0.46395727
C  0.43374726 -1.05553853 0.13974501
C  -1.28762311 -1.43776842 0.44940382
C  1.54034129 1.54293218 0.10077613
H  -0.21772615 -0.56493527 0.08658770
H  0.31385018 -0.08997558 -0.04593547
H  -0.68436622 -0.00663120 0.53047793
H  0.62469565 1.12394335 -0.34155169
H  -0.56729204 1.71405218 0.03752181
H  -0.42182493 -0.35913724 -0.49444616
12
MD Step 575.5 Units = [eV / Ang.]
C  -0.03294085 -0.64304525 0.31757458
C  0.69443635 0.83617280 -0.33820793
C  -0.88890061 -1.28263803 -0.44368222
C  0.78132276 -0.71287519 0.29794612
C  -1.25918776 -1.32505531 0.34899248
C  1.75478620 1.30157756 0.12315153
H  -0.02963014 -0.21543889 0.09795840
H  0.33164257 -0.02016147 -0.05130565
H  -0.50820582 0.05678049 0.50343487
H  0.33928539 0.67467066 -0.46782553
H  -0.51572418 1.66663663 0.07000507
H  -0.66688392 -0.33662400 -0.45804172
12
MD Step 576.0 Units = [eV / Ang.]
C  -0.00663373 -0.79237259 0.27687471
C  0.39066212 0.81286690 -0.32296661
C  -1.12948233 -1.33389912 -0.41255351
C  1.11377393 -0.35152127 0.45411086
C  -1.27856500 -1.06627004 0.22558979
C  1.89733986 1.04419193 0.15039164
H  0.15815302 0.13445051 0.11431989
H  0.33865440 0.06453327 -0.05658407
H  -0.28728059 0.11626880 0.46735824
H  0.03571513 0.20391548 -0.59851330
H  -0.37416722 1.48219467 0.13093249
H  -0.85816960 -0.31435854 -0.42896013
12
MD Step 576.5 Units = [eV / Ang.]
C  0.03892751 -0.90895300 0.23259387
C  0.07963571 0.75303452 -0.30683351
C  -1.37592426 -1.35061968 -0.37365811
C  1.40310351 -0.01835547 0.59482960
C  -1.32651303 -0.69526502 0.08248776
C  1.94956085 0.77823247 0.18859497
H  0.32959400 0.45502477 0.13513506
H  0.33736397 0.15846510 -0.06189392
H  -0.03827046 0.17042353 0.42534684
H  -0.25733846 -0.23895576 -0.71939623
H  -0.16462424 1.19128631 0.21752595
H  -0.97551510 -0.29431776 -0.41473229
12
MD Step 577.0 Units = [eV / Ang.]
C  0.10984551 -0.97418532 0.18649173
C  -0.23318612 0.66526587 -0.29014476
C  -1.60931741 -1.33446387 -0.33071448
C  1.62875535 0.25444597 0.71060401
C  -1.37585311 -0.25540312 -0.07270604
C  1.90137245 0.50915405 0.24201864
H  0.47264826 0.72407653 0.15903694
H  0.33063311 0.25491485 -0.06729171
H  0.21745618 0.21844634 0.38113938
H  -0.51809225 -0.61957498 -0.81999455
H  0.08247547 0.83473974 0.32227177
H  -1.00673744 -0.27741606 -0.42071094
12
MD Step 577.5 Units = [eV / Ang.]
C  0.20877997 -0.97611807 0.14061907
C  -0.54264071 0.55878295 -0.27325474
C  -1.80774873 -1.28816259 -0.28762917
C  1.77811069 0.44832417 0.79609482
C  -1.39904356 0.20927516 -0.23017083
C  1.75336000 0.24057013 0.31183610
H  0.57917326 0.92665486 0.18423349
H  0.32133734 0.34681738 -0.07275856
H  0.45512035 0.26024570 0.33868282
H  -0.73213513 -0.91761357 -0.89395459
H  0.33569329 0.45457732 0.43509709
H  -0.95000676 -0.26335343 -0.44879551
12
MD Step 578.0 Units = [eV / Ang.]
C  0.33584359 -0.90820281 0.09702860
C  -0.84373604 0.44269346 -0.25651437
C  -1.94866162 -1.21533691 -0.24787389
C  1.84514585 0.55460759 0.84927536
C  -1.37411759 0.66049199 -0.38011080
C  1.51699331 -0.02509563 0.39563352
H  0.64420459 1.05369255 0.20881142
H  0.31206663 0.42744696 -0.07820654
H  0.64912025 0.29638186 0.30150215
H  -0.89100836 -1.12304812 -0.93832097
H  0.56828443 0.08718410 0.54572450
H  -0.81413503 -0.25081503 -0.49694898
12
MD Step 578.5 Units = [eV / Ang.]
C  0.48955802 -0.76791507 0.05761412
C  -1.13158932 0.32536840 -0.24024352
C  -2.01230418 -1.12015426 -0.21380905
C  1.82844302 0.57041686 0.87026363
C  -1.28756842 1.06857551 -0.51430550
C  1.21264703 -0.28568274 0.48782991
H  0.66510888 1.10044839 0.23092013
H  0.30491517 0.49098696 -0.08349459
H  0.77671359 0.32782012 0.27200297
H  -0.99014641 -1.23198489 -0.95245506
H  0.76090210 -0.23993241 0.64535600
H  -0.61667948 -0.23794688 -0.55967904
12
MD Step 579.0 Units = [eV / Ang.]
C  0.66750850 -0.55580332 0.02403208
C  -1.40142590 0.21397061 -0.22469684
C  -1.98549094 -1.00685866 -0.18616261
C  1.72940794 0.49555698 0.86035621
C  -1.13442902 1.41224580 -0.62671362
C  0.86609150 -0.53840285 0.58083645
H  0.64096862 1.06539123 0.24887255
H  0.30136113 0.53294423 -0.08845162
H  0.82199974 0.35553200 0.25092570
H  -1.02708171 -1.24342727 -0.93712509
H  0.90162480 -0.50822900 0.72740575
H  -0.38053465 -0.22291976 -0.62927894
12
MD Step 579.5 Units = [eV / Ang.]
C  0.86651656 -0.27526853 -0.00234424
C  -1.64861937 0.11411866 -0.21004081
C  -1.86455560 -0.87928065 -0.16386949
C  1.55113385 0.33088015 0.82149905
C  -0.91661171 1.67673099 -0.71333118
C  0.50455193 -0.77926310 0.66650289
H  0.57239616 0.94986934 0.26122046
H  0.30220976 0.55042480 -0.09290053
H  0.77904832 0.38007235 0.23717148
H  -1.00038450 -1.15753329 -0.89400897
H  0.98443010 -0.70636345 0.78746821
H  -0.13011549 -0.20438728 -0.69736687
12
MD Step 580.0 Units = [eV / Ang.]
C  1.08228349 0.06683584 -0.02050231
C  -1.86874041 0.02967079 -0.19634032
C  -1.65643810 -0.74050097 -0.14437258
C  1.29810470 0.07824175 0.75624476
C  -0.64065735 1.85154984 -0.77169500
C  0.15335095 -1.00291969 0.73739903
H  0.46184050 0.75866220 0.26685871
H  0.30757893 0.54229259 -0.09668161
H  0.65310689 0.40129914 0.22810276
H  -0.90954822 -0.97550583 -0.82566023
H  1.00726065 -0.82790186 0.82289893
H  0.11185797 -0.18172381 -0.75625214
12
MD Step 580.5 Units = [eV / Ang.]
C  1.30857134 0.45892641 -0.02993004
C  -2.05758512 -0.03739348 -0.18356051
C  -1.37750572 -0.59277845 -0.12429827
C  0.97684099 -0.25798684 0.66812232
C  -0.31567993 1.92887163 -0.80038003
C  -0.16628467 -1.20297742 0.78764249
H  0.31432909 0.50129092 0.26519115
H  0.31690174 0.50924392 -0.09967326
H  0.45946240 0.41835228 0.22023112
H  -0.75589697 -0.70110034 -0.73586475
H  0.97044464 -0.86941098 0.83235454
H  0.32640220 -0.15503765 -0.79983475
12
MD Step 581.0 Units = [eV / Ang.]
C  1.53613031 0.88309578 -0.03082324
C  -2.21115896 -0.08699156 -0.17157931
C  -1.05050214 -0.43776135 -0.10027881
C  0.59745119 -0.66794380 0.56224910
C  0.04808427 1.90285288 -0.79871490
C  -0.43820178 -1.37257329 0.81323058
H  0.13843892 0.19369476 0.25635789
H  0.32893933 0.45380363 -0.10180874
H  0.22036240 0.42988986 0.21005470
H  -0.54447186 -0.34362524 -0.63021219
H  0.87582481 -0.82941003 0.81551286
H  0.49910351 -0.12503165 -0.82398795
12
MD Step 581.5 Units = [eV / Ang.]
C  1.75176387 1.31392483 -0.02430322
C  -2.32561685 -0.12085731 -0.16021092
C  -0.70067344 -0.27685704 -0.06966231
C  0.17581699 -1.13231681 0.44586445
C  0.43995167 1.77010344 -0.76682590
C  -0.65137100 -1.50510106 0.81200092
H  -0.05290300 -0.14046107 0.24146763
H  0.34180507 0.38023089 -0.10308736
H  -0.03894679 0.43446852 0.19477530
H  -0.28657772 0.07806273 -0.51655513
H  0.72669141 -0.70839841 0.77308210
H  0.62005980 -0.09279872 -0.82654557
12
MD Step 582.0 Units = [eV / Ang.]
C  1.93810800 1.71868033 -0.01253641
C  -2.39717590 -0.14230694 -0.14923249
C  -0.35222052 -0.11164230 -0.03094198
C  -0.26438578 -1.61860327 0.32829571
C  0.84866731 1.53122811 -0.70601639
C  -0.79944840 -1.59488954 0.78340915
H  -0.24236082 -0.46987290 0.22272117
H  0.35302161 0.29429567 -0.10357837
H  -0.29389876 0.43091444 0.17271886
H  -0.00214852 0.53182352 -0.40486656
H  0.52845297 -0.51000293 0.70710800
H  0.68338882 -0.05962419 -0.80708071
12
MD Step 582.5 Units = [eV / Ang.]
C  2.07472017 2.05989006 0.00139552
C  -2.42203274 -0.15583069 -0.13841238
C  -0.02584472 0.05580241 0.01612367
C  -0.69121941 -2.07974813 0.21984129
C  1.26157436 1.19325134 -0.61939132
C  -0.88022715 -1.63773443 0.72828601
H  -0.40946594 -0.75809878 0.20327643
H  0.35963254 0.20288920 -0.10341539
H  -0.52320816 0.41856985 0.14343060
H  0.27951927 0.97094591 -0.30598718
H  0.28984588 -0.24311390 0.62148873
H  0.68670591 -0.02682283 -0.76663598
12
MD Step 583.0 Units = [eV / Ang.]
C  2.14075050 2.30065755 0.01397518
C  -2.39634214 -0.16649142 -0.12753940
C  0.26238752 0.22267303 0.07062867
C  -1.06716359 -2.45775990 0.12938981
C  1.66337535 0.77242101 -0.51249517
C  -0.89523626 -1.63122500 0.64866301
H  -0.53348332 -0.96884251 0.18675419
H  0.35839830 0.11344392 -0.10277936
H  -0.71015084 0.39737909 0.10752863
H  0.52234119 1.33791140 -0.22910742
H  0.02428514 0.07544861 0.52247809
H  0.63083816 0.00438420 -0.70749621
12
MD Step 583.5 Units = [eV / Ang.]
C  2.11882473 2.41183683 0.02203551
C  -2.31632834 -0.17915337 -0.11644675
C  0.50110822 0.38532969 0.13076404
C  -1.35567175 -2.69368811 0.06141121
C  2.03509810 0.29642026 -0.39358812
C  -0.84961151 -1.57487063 0.54768608
H  -0.59744093 -1.07314107 0.17642851
H  0.34609030 0.03318267 -0.10187222
H  -0.84276069 0.36784517 0.06643828
H  0.69009784 1.57455797 -0.17864880
H  -0.24929413 0.41871153 0.41881526
H  0.51988817 0.03296907 -0.63302300
12
MD Step 584.0 Units = [eV / Ang.]
C  1.99896162 2.37885639 0.02361295
C  -2.17857164 -0.19765093 -0.10503480
C  0.68309753 0.53930402 0.19410676
C  -1.53016481 -2.74213961 0.01379538
C  2.35411042 -0.19549913 -0.27310725
C  -0.75220424 -1.47007714 0.42955253
H  -0.59210762 -1.05621354 0.17434790
H  0.31987116 -0.03171887 -0.10088146
H  -0.91339941 0.33091790 0.02211207
H  0.75576024 1.63674306 -0.15206096
H  -0.50694520 0.74928792 0.32105865
H  0.36159195 0.05818993 -0.54750175
12
MD Step 584.5 Units = [eV / Ang.]
C  1.78105623 2.20553585 0.01851432
C  -1.98050120 -0.22403541 -0.09328275
C  0.80456359 0.67945574 0.25789907
C  -1.58181101 -2.58484115 -0.02190524
C  2.59601290 -0.65597145 -0.16204191
C  -0.61578471 -1.32005492 0.29938393
H  -0.51838976 -0.92128350 0.18074101
H  0.27772104 -0.07692548 -0.09994494
H  -0.91815706 0.28786946 -0.02321231
H  0.70976882 1.50791173 -0.14010151
H  -0.72225376 1.02265529 0.23987266
H  0.16777492 0.07968384 -0.45592233
12
MD Step 585.0 Units = [eV / Ang.]
C  1.47489415 1.91323569 0.00833449
C  -1.72104128 -0.25808040 -0.08125218
C  0.86461392 0.80031236 0.31930689
C  -1.52203010 -2.23665982 -0.05750209
C  2.73854863 -1.03714521 -0.06943894
C  -0.45702818 -1.12971079 0.16292075
H  -0.38710967 -0.68868789 0.19397750
H  0.21883830 -0.10052888 -0.09912138
H  -0.85644491 0.24018921 -0.06720906
H  0.56310951 1.20492104 -0.12992456
H  -0.87090321 1.19460420 0.18350923
H  -0.04544716 0.09755048 -0.36360066
12
MD Step 585.5 Units = [eV / Ang.]
C  1.09781589 1.53572202 -0.00407591
C  -1.40130387 -0.29715995 -0.06907435
C  0.86509219 0.89657301 0.37565670
C  -1.37820733 -1.74088513 -0.10387660
C  2.76657991 -1.30100983 0.00009343
C  -0.29593008 -0.90551569 0.02597720
H  -0.21628100 -0.39068113 0.21108751
H  0.14392674 -0.10329344 -0.09837601
H  -0.73094620 0.18950033 -0.10763974
H  0.34350517 0.77293142 -0.10953254
H  -0.93611595 1.23141853 0.15535863
H  -0.25813546 0.11239986 -0.27559831
12
MD Step 586.0 Units = [eV / Ang.]
C  0.67112595 1.11193241 -0.01543829
C  -1.02518924 -0.33655627 -0.05692448
C  0.81086553 0.96369549 0.42466389
C  -1.18480639 -1.15634278 -0.16756910
C  2.67618170 -1.42885140 0.04769717
C  -0.15429467 -0.65530196 -0.10630604
H  -0.02704852 -0.06414025 0.22858500
H  0.05529953 -0.08849784 -0.09758400
H  -0.54795746 0.13748391 -0.14254300
H  0.08679718 0.27204802 -0.07134452
H  -0.91294110 1.11920881 0.15274912
H  -0.44803250 0.12532187 -0.19598574
12
MD Step 586.5 Units = [eV / Ang.]
C  0.21671074 0.67929383 -0.02282330
C  -0.59975807 -0.37010974 -0.04498415
C  0.71042344 0.99845327 0.46466650
C  -0.97423176 -0.54278364 -0.24963940
C  2.47597503 -1.42573309 0.07962193
C  -0.05319377 -0.38790744 -0.23024962
H  0.16017863 0.25612758 0.24325214
H  -0.04323508 -0.06141356 -0.09655129
H  -0.31796548 0.08578297 -0.17046452
H  -0.17221965 -0.23771918 -0.01345807
H  -0.80948030 0.86826494 0.16774394
H  -0.59320373 0.13774407 -0.12711416
12
MD Step 587.0 Units = [eV / Ang.]
C  -0.24514186 0.26935894 -0.02414132
C  -0.13530369 -0.39106323 -0.03340109
C  0.57650881 0.99935059 0.49486346
C  -0.77092322 0.04966543 -0.34663256
C  2.18502254 -1.31790339 0.10487947
C  -0.00972546 -0.11265675 -0.34419639
H  0.32832476 0.54168591 0.25264401
H  -0.14669111 -0.02853955 -0.09504829
H  -0.05615794 0.03587145 -0.19072576
H  -0.40598103 -0.70725769 0.06125393
H  -0.64447604 0.51031054 0.18965367
H  -0.67545577 0.15117775 -0.06914913
12
MD Step 587.5 Units = [eV / Ang.]
C  -0.69649893 -0.09384792 -0.01828874
C  0.35488862 -0.39292953 -0.02225213
C  0.42631921 0.96684845 0.51552395
C  -0.58973057 0.58474067 -0.45251612
C  1.82833087 -1.14447666 0.13233311
C  -0.03385680 0.16126909 -0.44860491
H  0.46468273 0.77199036 0.25526125
H  -0.24936387 0.00324102 -0.09284691
H  0.21757351 -0.01111103 -0.20368537
H  -0.59623795 -1.10261360 0.14707216
H  -0.44239827 0.08999171 0.20809866
H  -0.68370855 0.16689744 -0.02009494
12
MD Step 588.0 Units = [eV / Ang.]
C  -1.12150875 -0.39343935 -0.00504476
C  0.85505794 -0.37022051 -0.01151993
C  0.28078866 0.90336058 0.52809817
C  -0.43746340 1.03913492 -0.56046826
C  1.43191477 -0.94724246 0.16847366
C  -0.12633807 0.42542934 -0.54557331
H  0.56072840 0.93382540 0.25047546
H  -0.34534984 0.02743237 -0.08975415
H  0.47958874 -0.05451849 -0.21089996
H  -0.73300442 -1.40388786 0.23725211
H  -0.22812587 -0.34552019 0.21534495
H  -0.61628816 0.18564626 0.02361601
12
MD Step 588.5 Units = [eV / Ang.]
C  -1.50574602 -0.61827018 0.01515058
C  1.34770300 -0.31897165 -0.00108948
C  0.16261164 0.81302746 0.53512478
C  -0.31582727 1.39901957 -0.66396531
C  1.01914475 -0.76249130 0.21651013
C  -0.27845584 0.67254695 -0.63793690
H  0.61131958 1.01973860 0.23834168
H  -0.42904772 0.03852609 -0.08563658
H  0.70472248 -0.09428775 -0.21506543
H  -0.81206545 -1.60140805 0.32516911
H  -0.02302169 -0.75489065 0.20727312
H  -0.48133746 0.20746090 0.06612428
12
MD Step 589.0 Units = [eV / Ang.]
C  -1.83570778 -0.76145184 0.04142065
C  1.81447363 -0.23704551 0.00924065
C  0.09309180 0.70128237 0.53985638
C  -0.22431264 1.65622520 -0.75716072
C  0.60908114 -0.61681501 0.27662957
C  -0.47376895 0.89665457 -0.72825532
H  0.61382272 1.02641298 0.21940681
H  -0.49559099 0.03239699 -0.08043442
H  0.86965895 -0.13088837 -0.21965120
H  -0.83242287 -1.69151028 0.40476113
H  0.15686786 -1.10693471 0.18312389
H  -0.29519287 0.23167360 0.11106258
12
MD Step 589.5 Units = [eV / Ang.]
C  -2.09882597 -0.81935945 0.07261214
C  2.23718070 -0.12426978 0.01972864
C  0.08843815 0.57424818 0.54561279
C  -0.16226619 1.80538677 -0.83481145
C  0.21649890 -0.52667278 0.34686198
C  -0.69123732 1.09298095 -0.81802825
H  0.56754002 0.95358487 0.19457388
H  -0.54119398 0.00652380 -0.07416501
H  0.95681963 -0.16510257 -0.22823643
H  -0.79443071 -1.67331668 0.47051763
H  0.30077995 -1.38107813 0.14459447
H  -0.07930319 0.25707482 0.16073960
12
MD Step 590.0 Units = [eV / Ang.]
C  -2.28412549 -0.79143012 0.10737719
C  2.59888564 0.01752001 0.03065335
C  0.15656389 0.43808167 0.55499760
C  -0.12992242 1.84253749 -0.89205414
C  -0.14712613 -0.50026133 0.42400123
C  -0.90876788 1.25767245 -0.90733970
H  0.47362414 0.80380333 0.16503408
H  -0.56342380 -0.03990632 -0.06691838
H  0.95769179 -0.19768182 -0.24369772
H  -0.69886994 -1.54706933 0.51731985
H  0.40215486 -1.56543241 0.09484536
H  0.14331534 0.28216639 0.21578127
12
MD Step 590.5 Units = [eV / Ang.]
C  -2.38349386 -0.68082352 0.14418887
C  2.88500458 0.18448323 0.04227838
C  0.29548049 0.29840654 0.56922049
C  -0.12838481 1.76528001 -0.92430528
C  -0.47240561 -0.54009487 0.50427365
C  -1.10623124 1.38748509 -0.99492762
H  0.33551891 0.58307718 0.13224707
H  -0.56141102 -0.10595789 -0.05884601
H  0.87450115 -0.22899587 -0.26750070
H  -0.54699142 -1.31416824 0.54040442
H  0.45728303 -1.65410673 0.03774231
H  0.35112980 0.30541506 0.27522442
12
MD Step 591.0 Units = [eV / Ang.]
C  -2.39337831 -0.49580337 0.18133825
C  3.08435938 0.37080210 0.05482122
C  0.49384490 0.15997200 0.58775084
C  -0.15860573 1.57455056 -0.92750771
C  -0.75108022 -0.64519246 0.58368548
C  -1.26740622 1.47955634 -1.07853292
H  0.15982823 0.30225003 0.09792540
H  -0.53601468 -0.18892857 -0.05014398
H  0.71965190 -0.25880793 -0.29933728
H  -0.34149552 -0.97891787 0.53568439
H  0.46420526 -1.64492124 -0.02258936
H  0.52609100 0.32544042 0.33690567
12
MD Step 591.5 Units = [eV / Ang.]
C  -2.31652403 -0.25142896 0.21696623
C  3.19004984 0.56874163 0.06843205
C  0.73344685 0.02661423 0.60840841
C  -0.21944716 1.27784554 -0.89891197
C  -0.97559055 -0.81229069 0.65813663
C  -1.38079510 1.53132393 -1.15534187
H  -0.04266439 -0.02134049 0.06396769
H  -0.48992740 -0.28434956 -0.04103033
H  0.51314163 -0.28625782 -0.33721999
H  -0.08835333 -0.55182054 0.50060888
H  0.42214499 -1.53815138 -0.08197120
H  0.65451863 0.34111411 0.39795547
12
MD Step 592.0 Units = [eV / Ang.]
C  -2.16320795 0.02919979 0.24919210
C  3.20002458 0.76880598 0.08317856
C  0.99274644 -0.09854676 0.62782306
C  -0.30512800 0.89342207 -0.83844618
C  -1.13928552 -1.03588944 0.72344802
C  -1.43957423 1.54059257 -1.22238628
H  -0.25631105 -0.36268905 0.03228886
H  -0.42767053 -0.38604917 -0.03171592
H  0.27885549 -0.31004048 -0.37796311
H  0.20081825 -0.05384781 0.43560963
H  0.33158790 -1.33654133 -0.13628117
H  0.72714462 0.35158365 0.45525243
12
MD Step 592.5 Units = [eV / Ang.]
C  -1.95125175 0.31517923 0.27635836
C  3.11723032 0.96006137 0.09903738
C  1.25032247 -0.21280248 0.64207074
C  -0.40273111 0.45411316 -0.75044596
C  -1.23733511 -1.30717500 0.77547188
C  -1.44110017 1.50574291 -1.27684467
H  -0.46090229 -0.68948092 0.00453074
H  -0.35541375 -0.48634117 -0.02237160
H  0.04087727 -0.32869004 -0.41784665
H  0.50654254 0.47971151 0.34588340
H  0.19502160 -1.04657394 -0.18162211
H  0.73873998 0.35625538 0.50577849
12
MD Step 593.0 Units = [eV / Ang.]
C  -1.70419638 0.57051092 0.29735660
C  2.94923756 1.13071031 0.11588695
C  1.48738865 -0.31360133 0.64728204
C  -0.49105174 0.00840823 -0.64503407
C  -1.26827271 -1.61204417 0.81042784
C  -1.38633837 1.42601720 -1.31625798
H  -0.63354992 -0.96495747 -0.01829651
H  -0.28054350 -0.57642748 -0.01309409
H  -0.17930976 -0.34085952 -0.45324520
H  0.80069222 0.99821188 0.24277770
H  0.01824142 -0.68074180 -0.21468627
H  0.68770253 0.35477323 0.54688298
12
MD Step 593.5 Units = [eV / Ang.]
C  -1.44756791 0.75955993 0.31190552
C  2.70735110 1.26894429 0.13350216
C  1.68907977 -0.39845789 0.64009868
C  -0.54228842 -0.38386091 -0.53801774
C  -1.23591377 -1.92884155 0.82555314
C  -1.27947404 1.30183119 -1.33870283
H  -0.75226277 -1.15353160 -0.03611126
H  -0.21094312 -0.64707128 -0.00387937
H  -0.36438971 -0.34551981 -0.48107895
H  1.04862080 1.44010364 0.14362667
H  -0.18807716 -0.26017387 -0.23339264
H  0.57586524 0.34701787 0.57649661
12
MD Step 594.0 Units = [eV / Ang.]
C  -1.20398316 0.85424166 0.32062575
C  2.40529896 1.36406358 0.15155892
C  1.84463518 -0.46505450 0.61794043
C  -0.52742676 -0.66247920 -0.44829409
C  -1.15104016 -2.22686441 0.82000437
C  -1.12780995 1.13501379 -1.34297126
H  -0.80050123 -1.22808675 -0.04982929
H  -0.15402934 -0.68953878 0.00538685
H  -0.50166096 -0.34205365 -0.49904812
H  1.21503674 1.74408030 0.06901769
H  -0.40713981 0.18354113 -0.23773290
H  0.40862049 0.33313685 0.59334164
12
MD Step 594.5 Units = [eV / Ang.]
C  -0.98867261 0.84061154 0.32481565
C  2.05769038 1.40772233 0.16965260
C  1.94695561 -0.51147456 0.57913018
C  -0.42435245 -0.78212630 -0.39284398
C  -1.03189902 -2.46715248 0.79573267
C  -0.94191081 0.92890913 -1.32878192
H  -0.77119804 -1.17658307 -0.06111054
H  -0.11568411 -0.69671573 0.01491395
H  -0.58278662 -0.33026627 -0.50569873
H  1.27258764 1.86455210 0.03758287
H  -0.61603050 0.60892882 -0.23054864
H  0.19530053 0.31359448 0.59715589
12
MD Step 595.0 Units = [eV / Ang.]
C  -0.80710039 0.72222308 0.32598045
C  1.67852521 1.39509897 0.18733925
C  1.99196429 -0.53647664 0.52293203
C  -0.22559843 -0.72591906 -0.38110741
C  -0.90248303 -2.60686721 0.75783860
C  -0.73582409 0.68828197 -1.29699816
H  -0.66860675 -1.00530401 -0.07184234
H  -0.09930859 -0.66420675 0.02496320
H  -0.60328501 -0.31035169 -0.50039450
H  1.20996012 1.78532008 0.06014346
H  -0.78784127 0.96898773 -0.21776082
H  -0.05040205 0.28921354 0.58890623
12
MD Step 595.5 Units = [eV / Ang.]
C  -0.65555071 0.51879797 0.32531661
C  1.28003219 1.32573479 0.20419958
C  1.97815515 -0.53967326 0.44955287
C  0.05805901 -0.51053777 -0.41152197
C  -0.78818898 -2.60738064 0.71390057
C  -0.52703736 0.41906781 -1.24978133
H  -0.50715182 -0.73730069 -0.08357082
H  -0.10524362 -0.59117256 0.03578250
H  -0.56213648 -0.28285272 -0.48326833
H  1.03563043 1.52468739 0.13604668
H  -0.89622612 1.21946572 -0.20757086
H  -0.31034169 0.26116396 0.57091450
12
MD Step 596.0 Units = [eV / Ang.]
C  -0.52418418 0.26086447 0.32337431
C  0.87204381 1.20383392 0.21990877
C  1.90650423 -0.52156213 0.36012858
C  0.40008397 -0.18020103 -0.47211724
C  -0.70970537 -2.44409560 0.67214921
C  -0.33580259 0.12804645 -1.19056848
H  -0.30779716 -0.40672049 -0.09711301
H  -0.13072453 -0.48068292 0.04753657
H  -0.46169505 -0.24863507 -0.45519063
H  0.77528070 1.12925762 0.25363988
H  -0.92144318 1.32903439 -0.20853297
H  -0.56256064 0.23086038 0.54678502
12
MD Step 596.5 Units = [eV / Ang.]
C  -0.40107762 -0.01733227 0.32000168
C  0.46196083 1.03793223 0.23429940
C  1.78080989 -0.48340669 0.25668989
C  0.76542433 0.20718626 -0.54470490
C  -0.67735452 -2.11425841 0.63902240
C  -0.18346140 -0.17741518 -1.12375627
H  -0.09345582 -0.05140579 -0.11246778
H  -0.17039044 -0.33947841 0.06024901
H  -0.30796098 -0.20887947 -0.41775989
H  0.46425936 0.65977768 0.39445731
H  -0.85573062 1.28753227 -0.22705606
H  -0.78302302 0.19974779 0.52102520
12
MD Step 597.0 Units = [eV / Ang.]
C  -0.27563952 -0.28405279 0.31452816
C  0.05520796 0.84001171 0.24739524
C  1.60831740 -0.42705203 0.14208790
C  1.11890334 0.59488733 -0.61029969
C  -0.68836978 -1.63917408 0.61715600
C  -0.08973542 -0.48946880 -1.05405824
H  0.11492779 0.29358404 -0.12898262
H  -0.21720670 -0.17718838 0.07377460
H  -0.11107217 -0.16507645 -0.37328179
H  0.13878593 0.17594293 0.53874434
H  -0.70564636 1.10857879 -0.26539723
H  -0.94847246 0.16900773 0.49833332
12
MD Step 597.5 Units = [eV / Ang.]
C  -0.14049223 -0.51384950 0.30604888
C  -0.34405509 0.62425972 0.25940568
C  1.40034364 -0.35475337 0.01984478
C  1.43140649 0.93746889 -0.65329960
C  -0.72838002 -1.05966472 0.60474508
C  -0.06935463 -0.79974534 -0.98562627
H  0.30068181 0.59991242 -0.14563802
H  -0.26355587 -0.00519321 0.08780636
H  0.11426905 -0.11899774 -0.32468152
H  -0.17061012 -0.27402995 0.66980775
H  -0.49024741 0.82532537 -0.32107550
H  -1.04000563 0.13926744 0.48266238
12
MD Step 598.0 Units = [eV / Ang.]
C  0.00820851 -0.68872635 0.29367525
C  -0.73221142 0.40571607 0.27068600
C  1.17249474 -0.26907843 -0.10610620
C  1.68247318 1.20438970 -0.66330577
C  -0.77628546 -0.42686171 0.59646049
C  -0.12887761 -1.09928484 -0.92117289
H  0.45203041 0.84716815 -0.16131485
H  -0.30224497 0.16461492 0.10191256
H  0.34884436 -0.07261723 -0.27529080
H  -0.44194457 -0.65716070 0.77601867
H  -0.23599891 0.48141673 -0.38787806
H  -1.04648826 0.11042369 0.47631560
12
MD Step 598.5 Units = [eV / Ang.]
C  0.17149266 -0.79742884 0.27669554
C  -1.10563731 0.19904601 0.28167074
C  0.94398275 -0.17290429 -0.23181560
C  1.85986919 1.37850680 -0.63489273
C  -0.81023042 0.20771527 0.58529217
C  -0.26473297 -1.37858063 -0.86139696
H  0.56154682 1.02211298 -0.17497542
H  -0.32725326 0.32094207 0.11559231
H  0.56989520 -0.02796553 -0.22847373
H  -0.66145328 -0.95424663 0.85073286
H  0.02929016 0.12113451 -0.45781224
H  -0.96676955 0.08166829 0.47938306
12
MD Step 599.0 Units = [eV / Ang.]
C  0.34866473 -0.83391319 0.25463662
C  -1.46042060 0.01755533 0.29280076
C  0.73574779 -0.06946729 -0.35381439
C  1.95759261 1.45221076 -0.56632636
C  -0.81238631 0.79945486 0.56439338
C  -0.46324429 -1.62785529 -0.80492463
H  0.62510943 1.11706573 -0.18575210
H  -0.33415422 0.45392822 0.12833393
H  0.75330205 0.01307320 -0.18712237
H  -0.82154913 -1.15591528 0.89109435
H  0.28127173 -0.21786249 -0.52305592
H  -0.80993380 0.05172545 0.48973673
12
MD Step 599.5 Units = [eV / Ang.]
C  0.53822329 -0.79586300 0.22726478
C  -1.79231194 -0.12751546 0.30445264
C  0.56745355 0.03758345 -0.46961573
C  1.97362612 1.42340452 -0.45813375
C  -0.77137791 1.31400940 0.52827510
C  -0.70271603 -1.83756573 -0.74877923
H  0.64090631 1.12833218 -0.19297471
H  -0.32025249 0.55568475 0.13966783
H  0.87686601 0.04898207 -0.15313064
H  -0.91842050 -1.25845475 0.89662736
H  0.50150071 -0.50781977 -0.57724104
H  -0.59349712 0.01922234 0.50358740
12
MD Step 600.0 Units = [eV / Ang.]
C  0.73833260 -0.68379956 0.19456836
C  -2.09684979 -0.22749525 0.31688438
C  0.45396332 0.14421371 -0.57806398
C  1.90819808 1.29255786 -0.31205880
C  -0.68242666 1.72733917 0.47321301
C  -0.95695769 -1.99905000 -0.68918506
H  0.60882290 1.05525738 -0.19617883
H  -0.28453006 0.62059177 0.14920734
H  0.92407133 0.07878842 -0.12701654
H  -0.95012546 -1.26070207 0.86816203
H  0.67767364 -0.73076548 -0.61592019
H  -0.34017219 -0.01693596 0.51638827
12
MD Step 600.5 Units = [eV / Ang.]
C  0.94672312 -0.50103372 0.15675738
C  -2.36955490 -0.27663840 0.33019609
C  0.40229424 0.24616093 -0.67939315
C  1.76289776 1.06125451 -0.13058469
C  -0.54603616 2.02396629 0.39708942
C  -1.19921149 -2.10520015 -0.62241571
H  0.53036609 0.90016902 -0.19512454
H  -0.22750145 0.64545024 0.15667910
H  0.88729466 0.10214061 -0.10785009
H  -0.91557853 -1.16247777 0.80730608
H  0.80252047 -0.87648966 -0.63643608
H  -0.07421381 -0.05730191 0.52377620
12
MD Step 601.0 Units = [eV / Ang.]
C  1.16001547 -0.25450308 0.11429174
C  -2.60610102 -0.27243182 0.34431072
C  0.41010407 0.33924361 -0.77493438
C  1.54075063 0.73233053 0.08297285
C  -0.36614886 2.19485996 0.29901016
C  -1.40548735 -2.15105155 -0.54543747
H  0.40914790 0.66924984 -0.18984415
H  -0.15106308 0.62959480 0.16194424
H  0.76940240 0.11925955 -0.09354616
H  -0.81458720 -0.96469595 0.71648133
H  0.87227852 -0.94007387 -0.63753313
H  0.18168852 -0.10178202 0.52228424
12
MD Step 601.5 Units = [eV / Ang.]
C  1.37263046 0.04370722 0.06794134
C  -2.80241343 -0.21585981 0.35896885
C  0.46624437 0.41975245 -0.86656701
C  1.24728582 0.31160141 0.32390521
C  -0.14845976 2.23585355 0.17896083
C  -1.55674548 -2.13421425 -0.45625328
H  0.25180311 0.37412095 -0.18071258
H  -0.05837328 0.57502013 0.16501384
H  0.58317300 0.13078858 -0.08143584
H  -0.64899342 -0.67115638 0.59944533
H  0.88541449 -0.91993740 -0.61898123
H  0.40843413 -0.14967645 0.50971455
12
MD Step 602.0 Units = [eV / Ang.]
C  1.57554784 0.37465827 0.01884894
C  -2.95467772 -0.11161091 0.37373583
C  0.55318016 0.48485453 -0.95609514
C  0.89253019 -0.18895472 0.58526570
C  0.10068477 2.14698213 0.03765762
C  -1.63981931 -2.05511031 -0.35397713
H  0.06905466 0.03362302 -0.16851451
H  0.04624093 0.48651316 0.16605709
H  0.34875309 0.13759859 -0.06892031
H  -0.42484379 -0.29187355 0.46211472
H  0.84196023 -0.81687588 -0.58137042
H  0.59138894 -0.19980433 0.48519762
12
MD Step 602.5 Units = [eV / Ang.]
C  1.75544293 0.71152748 -0.03145794
C  -3.05927905 0.03187447 0.38801936
C  0.65040632 0.53289462 -1.04474281
C  0.49354625 -0.74707438 0.85708399
C  0.37462371 1.93280619 -0.12337158
C  -1.64735187 -1.91698978 -0.23874377
H  -0.12359742 -0.32510249 -0.15445385
H  0.15738736 0.37171343 0.16539946
H  0.09002006 0.14060711 -0.05400231
H  -0.15519868 0.15262880 0.31334697
H  0.74359986 -0.63423169 -0.52612481
H  0.72040053 -0.25065376 0.44904730
12
MD Step 603.0 Units = [eV / Ang.]
C  1.89483622 1.02037161 -0.08116826
C  -3.11271205 0.20264747 0.40110648
C  0.73777358 0.56351212 -1.13288505
C  0.07657642 -1.32653426 1.12617693
C  0.66584742 1.60359399 -0.30150233
C  -1.57714149 -1.72568266 -0.11156176
H  -0.30623271 -0.66737049 -0.14004726
H  0.26878400 0.24096763 0.16350279
H  -0.16902852 0.14065231 -0.03556985
H  0.13742001 0.62750422 0.16512726
H  0.59450267 -0.37914226 -0.45570895
H  0.78937445 -0.30051968 0.40252999
12
MD Step 603.5 Units = [eV / Ang.]
C  1.97386781 1.26362264 -0.12843415
C  -3.11155136 0.38594150 0.41221684
C  0.79791716 0.57754276 -1.22001207
C  -0.32282334 -1.87629537 1.37717414
C  0.96473258 1.17705882 -0.49264599
C  -1.43130307 -1.48910696 0.02582202
H  -0.45650661 -0.95449983 -0.12686728
H  0.37356879 0.10680907 0.16092131
H  -0.40701366 0.13842738 -0.01342488
H  0.42060175 1.08268549 0.03153845
H  0.40271893 -0.06456689 -0.37391841
H  0.79579102 -0.34761861 0.34763004
12
MD Step 604.0 Units = [eV / Ang.]
C  1.97375123 1.40634631 -0.17173042
C  -3.05253669 0.56539958 0.42057836
C  0.81749167 0.57670481 -1.30485430
C  -0.66337458 -2.33514612 1.59506154
C  1.25790461 0.68005583 -0.69098355
C  -1.21554036 -1.21656213 0.17103107
H  -0.55334646 -1.15018242 -0.11617366
H  0.46477961 -0.01704602 0.15823056
H  -0.60669007 0.13446271 0.01186770
H  0.65543186 1.45762105 -0.07379832
H  0.18170526 0.28853984 -0.28607151
H  0.74042391 -0.39019342 0.28684254
12
MD Step 604.5 Units = [eV / Ang.]
C  1.88116951 1.42383817 -0.21020698
C  -2.93285582 0.72479704 0.42552155
C  0.78737703 0.56315359 -1.38558007
C  -0.90591849 -2.64295112 1.76872136
C  1.52696605 0.14923134 -0.88905271
C  -0.93869464 -0.91788628 0.32116385
H  -0.58153709 -1.22822617 -0.10855554
H  0.53599179 -0.11718772 0.15593514
H  -0.75536558 0.12913516 0.03920982
H  0.80427673 1.69273049 -0.14128168
H  -0.04877457 0.64999350 -0.19885976
H  0.62736507 -0.42662799 0.22298503
12
MD Step 605.0 Units = [eV / Ang.]
C  1.69204635 1.30792972 -0.24386896
C  -2.75060020 0.85005883 0.42657415
C  0.70227638 0.53898973 -1.46000394
C  -1.02355340 -2.75596678 1.89399829
C  1.74867502 -0.37061034 -1.07840798
C  -0.61262070 -0.60266004 0.47293979
H  -0.53561306 -1.17899034 -0.10375081
H  0.58203711 -0.18230280 0.15437412
H  -0.84462935 0.12268902 0.06719960
H  0.84101497 1.74498006 -0.16840045
H  -0.26335700 0.98146912 -0.11964496
H  0.46432388 -0.45558616 0.15899115
12
MD Step 605.5 Units = [eV / Ang.]
C  1.41314777 1.06933131 -0.27348459
C  -2.50537151 0.93115769 0.42353435
C  0.56014240 0.50589127 -1.52578247
C  -1.00973197 -2.66003203 1.97460093
C  1.89745078 -0.83141360 -1.25089195
C  -0.25227943 -0.27954421 0.62293082
H  -0.42141857 -1.01182461 -0.10074443
H  0.59967139 -0.20490711 0.15364816
H  -0.86983755 0.11526041 0.09432078
H  0.75936502 1.60126211 -0.16060055
H  -0.43415420 1.24099146 -0.05518168
H  0.26301587 -0.47617269 0.09765062
12
MD Step 606.0 Units = [eV / Ang.]
C  1.06077350 0.73496507 -0.30025170
C  -2.19888667 0.96346647 0.41650099
C  0.36176364 0.46496434 -1.58060559
C  -0.88007486 -2.37501104 2.02017830
C  1.95027550 -1.18981496 -1.40021195
C  0.12422451 0.04410033 0.76789520
H  -0.25461692 -0.75242614 -0.09811367
H  0.58804054 -0.18259323 0.15359325
H  -0.82972577 0.10690210 0.11908919
H  0.57498231 1.28285367 -0.12927509
H  -0.53608741 1.39067699 -0.01007652
H  0.03933164 -0.48808360 0.04127760
12
MD Step 606.5 Units = [eV / Ang.]
C  0.65720393 0.34147761 -0.32537912
C  -1.83544440 0.94818587 0.40584133
C  0.11071217 0.41683191 -1.62238710
C  -0.66683200 -1.94806348 2.04257141
C  1.89266409 -1.41609227 -1.52322983
C  0.49600570 0.36227516 0.90518612
H  -0.05681514 -0.43631653 -0.09446080
H  0.54882281 -0.11843296 0.15381448
H  -0.72635421 0.09760862 0.14017480
H  0.32014327 0.83852482 -0.08788255
H  -0.55302156 1.40568778 0.01441247
H  -0.18708467 -0.49168653 -0.00866122
12
MD Step 607.0 Units = [eV / Ang.]
C  0.22645737 -0.07237365 -0.34975231
C  -1.42213661 0.89177941 0.39210706
C  -0.18630466 0.36188227 -1.64945531
C  -0.40893885 -1.43942260 2.05217507
C  1.72329493 -1.50077990 -1.62035303
C  0.84056324 0.67011989 1.03313903
H  0.14907682 -0.10115991 -0.08875837
H  0.48601234 -0.02042929 0.15377175
H  -0.56543964 0.08734171 0.15651889
H  0.03390555 0.33001958 -0.04816011
H  -0.48229592 1.28098769 0.02064094
H  -0.39419457 -0.48796519 -0.05187359
12
MD Step 607.5 Units = [eV / Ang.]
C  -0.20909385 -0.47185907 -0.37378633
C  -0.96874594 0.80456949 0.37592284
C  -0.51878865 0.30056497 -1.66074036
C  -0.14247331 -0.90761567 2.05589007
C  1.45513971 -1.45601155 -1.69482969
C  1.13588069 0.96347492 1.15130368
H  0.34263553 0.21944261 -0.08050700
H  0.40538836 0.09983258 0.15289401
H  -0.35695122 0.07605312 0.16746332
H  -0.24748470 -0.18303315 -0.01794545
H  -0.33555447 1.03286588 0.01372611
H  -0.55995216 -0.47828413 -0.08939120
12
MD Step 608.0 Units = [eV / Ang.]
C  -0.63047161 -0.82960475 -0.39744548
C  -0.48737701 0.69892469 0.35786675
C  -0.87177643 0.23359786 -1.65592442
C  0.10507400 -0.39965308 2.05690554
C  1.11252034 -1.31095230 -1.75130201
C  1.36329340 1.23836540 1.26038730
H  0.50800605 0.49931842 -0.06971541
H  0.31380647 0.22894587 0.15069239
H  -0.11567648 0.06370584 0.17288298
H  -0.49647973 -0.65313900 -0.00088926
H  -0.13545675 0.69449342 -0.00003939
H  -0.66546226 -0.46400237 -0.12341899
12
MD Step 608.5 Units = [eV / Ang.]
C  -1.02229245 -1.12620620 -0.42035977
C  0.00808985 0.58746145 0.33838056
C  -1.22560631 0.16205586 -1.63553867
C  0.31607957 0.05218459 2.05564982
C  0.72554205 -1.10343011 -1.79430157
C  1.51044834 1.49052755 1.36185500
H  0.63431218 0.72035178 -0.05677819
H  0.21845845 0.35343263 0.14684414
H  0.13868637 0.05029194 0.17329035
H  -0.69569595 -1.04822262 0.00260298
H  0.09017239 0.30759705 -0.01480006
H  -0.69819448 -0.44604392 -0.15684459
12
MD Step 609.0 Units = [eV / Ang.]
C  -1.37202691 -1.34909494 -0.44195874
C  0.50261036 0.48160135 0.31771499
C  -1.55662176 0.08733041 -1.60095038
C  0.48101957 0.42862442 2.05103531
C  0.32429516 -0.87124635 -1.82724547
C  1.57348502 1.71514278 1.45727451
H  0.71497580 0.87133567 -0.04232942
H  0.12623270 0.46114116 0.14123706
H  0.38239521 0.03584985 0.16985570
H  -0.83629766 -1.34982546 -0.00593160
H  0.31428473 -0.08627214 -0.02619967
H  -0.65435221 -0.42458677 -0.19250230
12
MD Step 609.5 Units = [eV / Ang.]
C  -1.66904287 -1.49076067 -0.46157153
C  0.98061602 0.39061612 0.29591440
C  -1.83920546 0.01100926 -1.55420527
C  0.59556930 0.71943051 2.04145690
C  -0.06524045 -0.64601270 -1.85211190
C  1.55765047 1.90687134 1.54761559
H  0.74663701 0.94617244 -0.02712470
H  0.04323995 0.54215354 0.13397389
H  0.58985138 0.02048367 0.16428560
H  -0.91516070 -1.54897134 -0.02410474
H  0.51468998 -0.45198830 -0.03171317
H  -0.53960463 -0.39900386 -0.23241506
12
MD Step 610.0 Units = [eV / Ang.]
C  -1.90391671 -1.54716320 -0.47847855
C  1.42662059 0.32113810 0.27283021
C  -2.04909205 -0.06527359 -1.49770858
C  0.65796903 0.91938140 2.02536108
C  -0.42294749 -0.45051016 -1.86962882
C  1.47610705 2.06015665 1.63274283
H  0.72819870 0.94227213 -0.01196377
H  -0.02548562 0.58921345 0.12534826
H  0.73704669 0.00438621 0.15853344
H  -0.93220651 -1.64195436 -0.04935985
H  0.67565460 -0.76356231 -0.03041932
H  -0.36794828 -0.36808433 -0.27725694
12
MD Step 610.5 Units = [eV / Ang.]
C  -2.06833601 -1.51684805 -0.49193052
C  1.82585604 0.27698511 0.24815601
C  -2.16735195 -0.13995200 -1.43379319
C  0.66727544 1.02533165 2.00145477
C  -0.73440341 -0.29897759 -1.87968726
C  1.34730311 2.16971674 1.71126189
H  0.66030391 0.85965729 0.00235518
H  -0.07615517 0.59782403 0.11580249
H  0.80564338 -0.01213975 0.15438497
H  -0.88857394 -1.62726434 -0.07928699
H  0.78751837 -1.00388447 -0.02251985
H  -0.15907977 -0.33044861 -0.32619748
12
MD Step 611.0 Units = [eV / Ang.]
C  -2.15562588 -1.40096568 -0.50115334
C  2.16492542 0.25915511 0.22147265
C  -2.18395733 -0.21159303 -1.36429044
C  0.62269023 1.03482397 1.96869338
C  -0.98973781 -0.19897795 -1.88174612
C  1.19172915 2.23104154 1.78072422
H  0.54535356 0.70097453 0.01507064
H  -0.10632344 0.56617872 0.10587844
H  0.78658404 -0.02866886 0.15303269
H  -0.78582284 -1.50413600 -0.11169783
H  0.84530309 -1.16283657 -0.00885662
H  0.06488182 -0.28499579 -0.37712768
12
MD Step 611.5 Units = [eV / Ang.]
C  -2.16185560 -1.20422925 -0.50537145
C  2.43251044 0.26586673 0.19230345
C  -2.09973210 -0.27887872 -1.29024504
C  0.52386827 0.94634821 1.92617910
C  -1.18230417 -0.15357146 -1.87511821
C  1.02895091 2.24077462 1.83806132
H  0.38804154 0.47242853 0.02550744
H  -0.11497559 0.49506744 0.09616280
H  0.68202552 -0.04466457 0.15478721
H  -0.62614274 -1.27284374 -0.14458187
H  0.84718818 -1.23505761 0.00944766
H  0.28242535 -0.23124018 -0.42713239
12
MD Step 612.0 Units = [eV / Ang.]
C  -2.08728281 -0.93661541 -0.50387112
C  2.62009691 0.29259224 0.16017709
C  -1.92601328 -0.34053326 -1.21187246
C  0.37212559 0.76132988 1.87306932
C  -1.30769726 -0.16296847 -1.85912848
C  0.87549905 2.19693104 1.88008118
H  0.19623956 0.18542927 0.03315945
H  -0.10263446 0.38783631 0.08722739
H  0.50491320 -0.05951898 0.15903115
H  -0.41348583 -0.93678089 -0.17604360
H  0.79340329 -1.21823275 0.03119944
H  0.47483604 -0.16946897 -0.47302935
12
MD Step 612.5 Units = [eV / Ang.]
C  -1.93776604 -0.61533124 -0.49611125
C  2.72266243 0.33210817 0.12470215
C  -1.68216372 -0.39521546 -1.12875894
C  0.17235370 0.48775450 1.80855900
C  -1.36334496 -0.22525413 -1.83317570
C  0.74381836 2.09898258 1.90388661
H  -0.01810404 -0.14153763 0.03780877
H  -0.07148421 0.25039278 0.07956033
H  0.27634494 -0.07261792 0.16442185
H  -0.15545209 -0.50618944 -0.20428861
H  0.68578076 -1.11236107 0.05522334
H  0.62735487 -0.10073113 -0.51182755
12
MD Step 613.0 Units = [eV / Ang.]
C  -1.72553984 -0.26617409 -0.48186761
C  2.73921418 0.37464466 0.08565235
C  -1.39185441 -0.44144558 -1.04020835
C  -0.06476103 0.14489453 1.73196968
C  -1.34872037 -0.33604625 -1.79674568
C  0.64207652 1.94788126 1.90716196
H  -0.23858385 -0.48170010 0.03966239
H  -0.02546220 0.09118202 0.07348748
H  0.02165809 -0.08341461 0.16925220
H  0.13448125 -0.00293473 -0.22769812
H  0.52800255 -0.92017115 0.08037558
H  0.72948912 -0.02671597 -0.54104188
12
MD Step 613.5 Units = [eV / Ang.]
C  -1.46873580 0.07688627 -0.46135431
C  2.67305864 0.40827055 0.04305672
C  -1.07932660 -0.47760323 -0.94559635
C  -0.32102384 -0.23239633 1.64292476
C  -1.26612666 -0.48715177 -1.74940860
C  0.57452862 1.74607345 1.88833496
H  -0.44508845 -0.80059585 0.03945032
H  0.02977108 -0.07900813 0.06908927
H  -0.23353278 -0.09149088 0.17183189
H  0.43523658 0.53524616 -0.24498285
H  0.32643326 -0.64864643 0.10552180
H  0.77480595 0.05041620 -0.55886760
12
MD Step 614.0 Units = [eV / Ang.]
C  -1.18919246 0.37495277 -0.43524795
C  2.53167689 0.41965040 -0.00271969
C  -0.76656775 -0.50204430 -0.84462440
C  -0.57077591 -0.59247968 1.54153489
C  -1.12184529 -0.66452255 -1.69081681
C  0.54206563 1.49752008 1.84666026
H  -0.61611873 -1.05949935 0.03840998
H  0.08709047 -0.24756289 0.06612683
H  -0.46637834 -0.09659138 0.17077722
H  0.71820806 1.05370668 -0.25534729
H  0.09126218 -0.31134391 0.12950948
H  0.76057525 0.12821411 -0.56426251
12
MD Step 614.5 Units = [eV / Ang.]
C  -0.90873627 0.59044267 -0.40454997
C  2.32614597 0.39525251 -0.05092891
C  -0.47179746 -0.51331443 -0.73743314
C  -0.78389214 -0.87186271 1.42846328
C  -0.92725088 -0.84616736 -1.62070697
C  0.54269055 1.20768788 1.78227261
H  -0.73251759 -1.22180649 0.03809651
H  0.13847827 -0.40098869 0.06400162
H  -0.65850167 -0.09862860 0.16516512
H  0.95039134 1.48606751 -0.25854710
H  -0.16252205 0.06920185 0.15115215
H  0.68751193 0.20411587 -0.55698522
12
MD Step 615.0 Units = [eV / Ang.]
C  -0.64491330 0.69499754 -0.37029259
C  2.07009575 0.32298683 -0.10045350
C  -0.20913622 -0.51041751 -0.62459115
C  -0.93193382 -1.00755574 1.30478932
C  -0.69924118 -1.00119403 -1.53889935
C  0.57179391 0.88344543 1.69623594
H  -0.78163670 -1.26099472 0.04002669
H  0.17592540 -0.52629481 0.06177377
H  -0.79649462 -0.09766385 0.15456174
H  1.10080820 1.76682920 -0.25475827
H  -0.41501187 0.46021889 0.16922956
H  0.55974445 0.27564277 -0.53762216
12
MD Step 615.5 Units = [eV / Ang.]
C  -0.40774893 0.67637369 -0.33318920
C  1.77834889 0.19405188 -0.14990076
C  0.01098563 -0.49305221 -0.50701193
C  -0.99574934 -0.95407928 1.17171944
C  -0.45927419 -1.09142949 -1.44529125
C  0.62221696 0.53279048 1.59058413
H  -0.76040337 -1.16742701 0.04526603
H  0.19255497 -0.61263568 0.05826036
H  -0.87164001 -0.09387758 0.13897404
H  1.14853040 1.84855917 -0.24431177
H  -0.64281748 0.82010531 0.18250424
H  0.38499648 0.34062072 -0.50760333
12
MD Step 616.0 Units = [eV / Ang.]
C  -0.19882001 0.54147685 -0.29338510
C  1.46544083 0.00462524 -0.19777850
C  0.18117422 -0.46173635 -0.38584758
C  -0.97126453 -0.69819630 1.03035170
C  -0.23057428 -1.07669539 -1.33985845
C  0.68423486 0.16440289 1.46831236
H  -0.67596324 -0.95115773 0.05412501
H  0.18374504 -0.65289059 0.05220854
H  -0.87936309 -0.08753946 0.11877179
H  1.08894514 1.71665968 -0.22748227
H  -0.82237313 1.10362273 0.18975893
H  0.17481821 0.39742844 -0.46917643
12
MD Step 616.5 Units = [eV / Ang.]
C  -0.01295157 0.31423273 -0.25043289
C  1.14433819 -0.24301176 -0.24272817
C  0.29657423 -0.41777471 -0.26238536
C  -0.87044356 -0.26395975 0.88167255
C  -0.03390260 -0.92340564 -1.22270519
C  0.74567523 -0.21291254 1.33327221
H  -0.54360569 -0.63946082 0.06609533
H  0.14796730 -0.64479030 0.04251866
H  -0.81880989 -0.07898451 0.09461265
H  0.93511345 1.39427691 -0.20450956
H  -0.93457695 1.27054982 0.18987879
H  -0.05537815 0.44524058 -0.42528902
12
MD Step 617.0 Units = [eV / Ang.]
C  0.15840105 0.02934143 -0.20349699
C  0.82561652 -0.54025155 -0.28375505
C  0.35478201 -0.36309083 -0.13795912
C  -0.71684114 0.29464699 0.72677466
C  0.11674432 -0.61410021 -1.09418709
C  0.79248355 -0.59073632 1.18990380
H  -0.38290369 -0.27020119 0.08003731
H  0.08709689 -0.59126972 0.02845932
H  -0.69278213 -0.06859635 0.06738069
H  0.71349604 0.93467634 -0.17583159
H  -0.96927739 1.29538749 0.18200117
H  -0.28681604 0.48419392 -0.37932710
12
MD Step 617.5 Units = [eV / Ang.]
C  0.32362274 -0.27540295 -0.15167432
C  0.51721887 -0.87292579 -0.32040643
C  0.35626598 -0.29999982 -0.01386609
C  -0.53809956 0.90941718 0.56708066
C  0.21672242 -0.15416019 -0.95510781
C  0.80995935 -0.96131853 1.04278969
H  -0.21362554 0.11618151 0.09451086
H  0.00610539 -0.49994590 0.00982330
H  -0.50807124 -0.05679518 0.03813465
H  0.45630275 0.40524453 -0.14232179
H  -0.92776161 1.17432050 0.16572958
H  -0.49863957 0.51538464 -0.33469230
12
MD Step 618.0 Units = [eV / Ang.]
C  0.48851653 -0.56550553 -0.09429532
C  0.22475456 -1.22287798 -0.35284613
C  0.30518394 -0.23102274 0.10871980
C  -0.35890731 1.51429256 0.40437497
C  0.27040206 0.42741223 -0.80690128
C  0.78474735 -1.31749799 0.89607561
H  -0.05272815 0.48327617 0.10810370
H  -0.08777117 -0.38186770 -0.01301798
H  -0.27604412 -0.04402342 0.00804689
H  0.19401994 -0.12908477 -0.10533524
H  -0.82210403 0.92627764 0.14134183
H  -0.67006960 0.54062152 -0.29426685
12
MD Step 618.5 Units = [eV / Ang.]
C  0.65544902 -0.81341538 -0.03110224
C  -0.04786331 -1.56995316 -0.38182022
C  0.21026132 -0.15880020 0.22884352
C  -0.19694272 2.05625596 0.24062736
C  0.28819048 1.08364082 -0.65168557
C  0.70731828 -1.65227339 0.75287197
H  0.08704883 0.80238773 0.11965264
H  -0.18614429 -0.24988461 -0.03916553
H  -0.01314521 -0.03072249 -0.02168086
H  -0.04929229 -0.61676938 -0.06654096
H  -0.67168913 0.58760366 0.10988423
H  -0.78319099 0.56193043 -0.25988433
12
MD Step 619.0 Units = [eV / Ang.]
C  0.82381396 -0.99945306 0.03770917
C  -0.29773934 -1.89399656 -0.40853150
C  0.08523694 -0.08607414 0.34586763
C  -0.06220144 2.49897882 0.07774031
C  0.28235587 1.75913635 -0.49211223
C  0.57435940 -1.95817424 0.61481463
H  0.19720302 1.05333998 0.12833278
H  -0.28058087 -0.11702930 -0.06732433
H  0.25915537 -0.01729941 -0.04993429
H  -0.25735813 -1.02319427 -0.02766638
H  -0.49846682 0.20284877 0.07308005
H  -0.82577798 0.58091704 -0.23197585
12
MD Step 619.5 Units = [eV / Ang.]
C  0.99117057 -1.11094667 0.11154587
C  -0.52246198 -2.17652974 -0.43446643
C  -0.05169946 -0.01572735 0.45956038
C  0.04131045 2.82105991 -0.08263444
C  0.26348243 2.39978707 -0.33104536
C  0.39032056 -2.22676564 0.48193401
H  0.27268437 1.22337516 0.13364812
H  -0.36349096 0.00479327 -0.09597275
H  0.51548487 -0.00408533 -0.07582134
H  -0.42063378 -1.32866105 0.00970553
H  -0.32276302 -0.18448581 0.03307620
H  -0.79340406 0.59818618 -0.20952976
12
MD Step 620.0 Units = [eV / Ang.]
C  1.15446475 -1.14068137 0.18951651
C  -0.71983210 -2.40195288 -0.46120618
C  -0.17985604 0.04920345 0.57013224
C  0.11302200 3.01183809 -0.23914400
C  0.23859227 2.95963828 -0.17118567
C  0.16751553 -2.44856927 0.35288291
H  0.31088322 1.30533389 0.13537383
H  -0.42869182 0.10566315 -0.12353071
H  0.72906835 0.00870033 -0.09878757
H  -0.53421351 -1.52389325 0.04422230
H  -0.16076728 -0.53831020 -0.00787115
H  -0.69018538 0.61302978 -0.19040251
12
MD Step 620.5 Units = [eV / Ang.]
C  1.31092605 -1.08555107 0.27052821
C  -0.88784150 -2.55828767 -0.49025772
C  -0.27929577 0.10559282 0.67819000
C  0.15342505 3.06715753 -0.39066147
C  0.21109508 3.40403904 -0.01477767
C  -0.07540550 -2.61356520 0.22545579
H  0.31080366 1.29606409 0.13349671
H  -0.47166750 0.17807758 -0.14850232
H  0.87547683 0.02096218 -0.11866718
H  -0.59575048 -1.60550901 0.07474394
H  -0.02384043 -0.83248313 -0.04765803
H  -0.52792551 0.62350283 -0.17189026
12
MD Step 621.0 Units = [eV / Ang.]
C  1.45844166 -0.94589380 0.35335227
C  -1.02480240 -2.63757300 -0.52290792
C  -0.33469782 0.15039320 0.78457652
C  0.16247573 2.98634698 -0.53615662
C  0.18194292 3.70978109 0.13652374
C  -0.31624007 -2.71221078 0.09722448
H  0.27263914 1.19561133 0.12817955
H  -0.48961573 0.21708127 -0.16958489
H  0.93686153 0.03270568 -0.13563005
H  -0.60395801 -1.57278571 0.10027552
H  0.08090205 -1.05031243 -0.08447920
H  -0.32394901 0.62685617 -0.15137340
12
MD Step 621.5 Units = [eV / Ang.]
C  1.59534652 -0.72574307 0.43665258
C  -1.12950982 -2.63604219 -0.56010371
C  -0.33866726 0.18089838 0.89012173
C  0.13892578 2.77086586 -0.67457669
C  0.15126801 3.86364376 0.28161961
C  -0.53252528 -2.73673039 -0.03388669
H  0.19784086 1.00743557 0.11975883
H  -0.48139107 0.22024497 -0.18575448
H  0.90548000 0.04397890 -0.15003369
H  -0.55791903 -1.42621932 0.11991260
H  0.14944962 -1.18249191 -0.11686303
H  -0.09829830 0.62015944 -0.12684705
12
MD Step 622.0 Units = [eV / Ang.]
C  1.71967502 -0.43396762 0.51898430
C  -1.20132645 -2.55420150 -0.60234469
C  -0.29331421 0.19506167 0.99536412
C  0.08064868 2.42470058 -0.80480383
C  0.11984668 3.86059026 0.41981737
C  -0.70453578 -2.68234867 -0.16920707
H  0.08967004 0.73962547 0.10876930
H  -0.44744156 0.18762680 -0.19634147
H  0.78531080 0.05479997 -0.16223223
H  -0.45728039 -1.16797578 0.13285486
H  0.17977642 -1.22482118 -0.14363927
H  0.12897075 0.60091001 -0.09722138
12
MD Step 622.5 Units = [eV / Ang.]
C  1.82800781 -0.08600699 0.59878081
C  -1.24013155 -2.39683907 -0.64958896
C  -0.20953309 0.19180119 1.10033653
C  -0.01403968 1.95648680 -0.92574669
C  0.09001646 3.70236044 0.55063899
C  -0.81738183 -2.54818055 -0.30913253
H  -0.04587890 0.40679189 0.09597522
H  -0.38978199 0.12177850 -0.20110611
H  0.59117503 0.06509949 -0.17241999
H  -0.30337880 -0.80420292 0.13853618
H  0.17107796 -1.17656076 -0.16389568
H  0.33984856 0.56747197 -0.06237777
12
MD Step 623.0 Units = [eV / Ang.]
C  1.91420468 0.29445246 0.67436358
C  -1.24611700 -2.17295083 -0.70116610
C  -0.10429475 0.17122582 1.20447976
C  -0.14413201 1.38313542 -1.03660087
C  0.06585189 3.39678962 0.67366471
C  -0.86198927 -2.33760091 -0.45311231
H  -0.19906036 0.03193257 0.08237698
H  -0.31200395 0.02779495 -0.20031950
H  0.34569194 0.07470013 -0.18056796
H  -0.10125354 -0.34893365 0.13689781
H  0.12351942 -1.03983169 -0.17697397
H  0.51958294 0.51928612 -0.02304214
12
MD Step 623.5 Units = [eV / Ang.]
C  1.96850115 0.67493786 0.74400714
C  -1.21949515 -1.89549927 -0.75571517
C  0.00302363 0.13474349 1.30669911
C  -0.30306735 0.73416124 -1.13725620
C  0.05252994 2.95791472 0.78847912
C  -0.83507048 -2.05807586 -0.59974258
H  -0.35574615 -0.35284593 0.06915606
H  -0.21926421 -0.08667536 -0.19483342
H  0.07512986 0.08333808 -0.18646265
H  0.13777327 0.17127102 0.12877417
H  0.03854278 -0.82014869 -0.18254008
H  0.65714271 0.45687869 0.01943450
12
MD Step 624.0 Units = [eV / Ang.]
C  1.97761857 1.01602279 0.80608311
C  -1.16021884 -1.58086603 -0.81117242
C  0.09406292 0.08501010 1.40553016
C  -0.47612455 0.05494553 -1.22871926
C  0.05493071 2.40672559 0.89476055
C  -0.73839157 -1.72049588 -0.74692263
H  -0.49781881 -0.70804886 0.05753447
H  -0.11815912 -0.21160075 -0.18611325
H  -0.19458012 0.09071153 -0.18981293
H  0.39380429 0.71378316 0.11625662
H  -0.08030159 -0.52792529 -0.18074067
H  0.74517811 0.38173810 0.06331624
12
MD Step 624.5 Units = [eV / Ang.]
C  1.92643372 1.27635374 0.85927149
C  -1.06784727 -1.24789856 -0.86484165
C  0.15382508 0.02570247 1.49934622
C  -0.63955093 -0.59381976 -1.31328116
C  0.07564385 1.77219954 0.99250131
C  -0.57771291 -1.33814928 -0.89204567
H  -0.60512685 -0.99179247 0.04855904
H  -0.01639023 -0.33506192 -0.17619536
H  -0.44075096 0.09653333 -0.19036986
H  0.63784564 1.22030539 0.10277465
H  -0.22614340 -0.18049910 -0.17241961
H  0.77977428 0.29612662 0.10670062
12
MD Step 625.0 Units = [eV / Ang.]
C  1.80126015 1.42039059 0.90277817
C  -0.94168410 -0.91647475 -0.91358322
C  0.17168182 -0.03885865 1.58655636
C  -0.76306059 -1.14318064 -1.39412271
C  0.11280040 1.09192088 1.08227862
C  -0.36172678 -0.92551251 -1.03221571
H  -0.65902331 -1.16761004 0.04287180
H  0.07784945 -0.44419467 -0.16753242
H  -0.64544655 0.10056949 -0.18802195
H  0.83469603 1.62389713 0.09260109
H  -0.38755700 0.19618050 -0.15931510
H  0.76021049 0.20287268 0.14770506
12
MD Step 625.5 Units = [eV / Ang.]
C  1.59396752 1.42669723 0.93647022
C  -0.78126609 -0.60566126 -0.95413189
C  0.14132889 -0.10421534 1.66575092
C  -0.81636520 -1.52973481 -1.47424195
C  0.15845181 0.41123066 1.16541933
C  -0.10121923 -0.49703278 -1.16449492
H  -0.64666078 -1.21286987 0.04056012
H  0.15675842 -0.52657456 -0.16271164
H  -0.79579661 0.10265926 -0.18284697
H  0.94986028 1.86292129 0.08969309
H  -0.54790865 0.56742681 -0.14409845
H  0.68884964 0.10515338 0.18463213
12
MD Step 626.0 Units = [eV / Ang.]
C  1.30542423 1.29358563 0.96085757
C  -0.58712020 -0.33170313 -0.98351428
C  0.06016758 -0.16630743 1.73579008
C  -0.77812849 -1.71230195 -1.55504192
C  0.19842962 -0.22020584 1.24387073
C  0.19144637 -0.06606994 -1.28616903
H  -0.56450829 -1.12456887 0.04116061
H  0.21395053 -0.57186529 -0.16407431
H  -0.88359699 0.10271891 -0.17512812
H  0.95884467 1.89793229 0.09622435
H  -0.68607086 0.89252645 -0.13009999
H  0.57116183 0.00625916 0.21612432
12
MD Step 626.5 Units = [eV / Ang.]
C  0.94676868 1.03960248 0.97692126
C  -0.36163981 -0.10622696 -0.99949348
C  -0.07139729 -0.22191504 1.79583570
C  -0.64356327 -1.68415204 -1.63531519
C  0.21443607 -0.75481841 1.31967185
C  0.50257916 0.35586610 -1.39501759
H  -0.41957149 -0.91993172 0.04382413
H  0.24540952 -0.57340367 -0.17330578
H  -0.90469545 0.10074082 -0.16534294
H  0.85497197 1.72410513 0.11155529
H  -0.77908129 1.13080398 -0.12064854
H  0.41578319 -0.09067065 0.24131528
12
MD Step 627.0 Units = [eV / Ang.]
C  0.53791484 0.69860574 0.98586052
C  -0.10979183 0.06494728 -1.00093556
C  -0.25042182 -0.26890490 1.84535032
C  -0.42674669 -1.47442640 -1.71129209
C  0.18837114 -1.15549463 1.39413263
C  0.81727745 0.75954702 -1.48954689
H  -0.22774907 -0.63155219 0.04756622
H  0.25012377 -0.52932347 -0.19110061
H  -0.85855165 0.09679500 -0.15413702
H  0.65173601 1.37273610 0.13229404
H  -0.80661068 1.25001094 -0.11815361
H  0.23444854 -0.18294048 0.25996205
12
MD Step 627.5 Units = [eV / Ang.]
C  0.10395637 0.31163782 0.98885798
C  0.16059237 0.18206763 -0.98799395
C  -0.47146529 -0.30621500 1.88406527
C  -0.15639930 -1.13797073 -1.77778834
C  0.10768021 -1.40321866 1.46705263
C  1.11968010 1.13811863 -1.56914546
H  -0.01006399 -0.29926574 0.05150165
H  0.23021485 -0.44289215 -0.21699764
H  -0.74817286 0.09103528 -0.14227739
H  0.37842630 0.90097888 0.15347203
H  -0.75602910 1.23430488 -0.12327558
H  0.04158032 -0.26858085 0.27252880
12
MD Step 628.0 Units = [eV / Ang.]
C  -0.32900433 -0.08116879 0.98693206
C  0.43906858 0.25076749 -0.96206799
C  -0.72621835 -0.33365673 1.91192500
C  0.13250546 -0.73897836 -1.82981324
C  -0.03032932 -1.50082160 1.53640057
C  1.39357141 1.48693428 -1.63411008
H  0.21165230 0.03797675 0.05498792
H  0.19052644 -0.32197067 -0.24943314
H  -0.58044326 0.08370832 -0.13057756
H  0.07142389 0.37526378 0.17017874
H  -0.62612324 1.08850072 -0.13459809
H  -0.14662959 -0.34655521 0.28017580
12
MD Step 628.5 Units = [eV / Ang.]
C  -0.73720240 -0.44616549 0.98088433
C  0.71334481 0.28062517 -0.92554363
C  -1.00285523 -0.35159888 1.92898600
C  0.40716412 -0.33604172 -1.86382632
C  -0.21707232 -1.47100871 1.59866732
C  1.62346809 1.80316025 -1.68551162
H  0.41814630 0.34773001 0.05766308
H  0.13778712 -0.17774621 -0.28599564
H  -0.36669115 0.07515430 -0.11977696
H  -0.23460007 -0.14392618 0.17884320
H  -0.42779604 0.83662251 -0.14900767
H  -0.31369325 -0.41680506 0.28461792
12
MD Step 629.0 Units = [eV / Ang.]
C  -1.10102891 -0.75844832 0.97131206
C  0.97033598 0.28337744 -0.88139968
C  -1.28545051 -0.36065672 1.93526217
C  0.64225546 0.02644756 -1.87822179
C  -0.43469652 -1.34946420 1.64975058
C  1.79613144 2.08521432 -1.72490006
H  0.59449215 0.60635595 0.05940826
H  0.07958571 -0.02310086 -0.32380315
H  -0.12313868 0.06578897 -0.11036803
H  -0.51234587 -0.61086480 0.17774047
H  -0.18142034 0.51542406 -0.16262240
H  -0.44471991 -0.48007342 0.28784156
12
MD Step 629.5 Units = [eV / Ang.]
C  -1.40544799 -1.00146182 0.95864270
C  1.19729474 0.27119841 -0.83278371
C  -1.55393685 -0.36143259 1.93052526
C  0.82139766 0.31996991 -1.87312681
C  -0.66041099 -1.17593502 1.68594884
C  1.90218428 2.33208625 -1.75390242
H  0.73031931 0.79864772 0.06027973
H  0.02339647 0.12899409 -0.35990349
H  0.12923004 0.05605700 -0.10238154
H  -0.74358357 -0.99635254 0.16681715
H  0.08793402 0.16574085 -0.17184198
H  -0.52837712 -0.53751226 0.29172628
12
MD Step 630.0 Units = [eV / Ang.]
C  -1.63955261 -1.16518064 0.94316274
C  1.38279307 0.25531915 -0.78264052
C  -1.78511518 -0.35432915 1.91409877
C  0.93586405 0.52899926 -1.84986893
C  -0.87122121 -0.98656864 1.70466734
C  1.93741442 2.54262558 -1.77380210
H  0.81909915 0.91602978 0.06044249
H  -0.02417336 0.26676283 -0.39161338
H  0.36588295 0.04635879 -0.09517968
H  -0.91795008 -1.28479536 0.14718886
H  0.35543249 -0.17505624 -0.17410938
H  -0.55847369 -0.59016538 0.29765378
12
MD Step 630.5 Units = [eV / Ang.]
C  -1.79583892 -1.24405688 0.92502922
C  1.51743337 0.24512486 -0.73344561
C  -1.95499582 -0.33944047 1.88473195
C  0.98215628 0.64648059 -1.81043603
C  -1.04744145 -0.80943806 1.70466072
C  1.90333757 2.71494460 -1.78521443
H  0.85713815 0.95450308 0.06012162
H  -0.05784735 0.38045310 -0.41675205
H  0.56129738 0.03696532 -0.08734054
H  -1.03048108 -1.46954081 0.12063503
H  0.59998643 -0.47751371 -0.16820599
H  -0.53474457 -0.63848162 0.30621611
12
MD Step 631.0 Units = [eV / Ang.]
C  -1.86966160 -1.23548054 0.90426999
C  1.59430701 0.24767727 -0.68705355
C  -2.04231688 -0.31652008 1.84064841
C  0.95970472 0.66972610 -1.75710304
C  -1.17437305 -0.66340783 1.68588756
C  1.80682160 2.84606793 -1.78794222
H  0.84276284 0.91309993 0.05957389
H  -0.07388950 0.46274679 -0.43376561
H  0.69267414 0.02795189 -0.07673140
H  -1.07917215 -1.54858582 0.08926135
H  0.80578180 -0.72125996 -0.15415029
H  -0.46263891 -0.68201569 0.31710493
12
MD Step 631.5 Units = [eV / Ang.]
C  -1.85907540 -1.13914868 0.88077490
C  1.60920725 0.26753137 -0.64463222
C  -2.03244833 -0.28502755 1.77983305
C  0.86929600 0.59768203 -1.69225644
C  -1.24238701 -0.55930336 1.64918371
C  1.65885349 2.93191646 -1.78103530
H  0.77597877 0.79323165 0.05907315
H  -0.07013908 0.50887805 -0.44176925
H  0.74401097 0.01918559 -0.06083187
H  -1.06325544 -1.52166989 0.05535179
H  0.96215674 -0.89387171 -0.13289641
H  -0.35219797 -0.71940396 0.32920486
12
MD Step 632.0 Units = [eV / Ang.]
C  -1.76515911 -0.95747760 0.85429737
C  1.56069786 0.30670401 -0.60666263
C  -1.92051188 -0.24426401 1.70053114
C  0.71246106 0.42987148 -1.61836862
C  -1.24611745 -0.50204668 1.59593474
C  1.47276972 2.96763091 -1.76301847
H  0.65871725 0.59904630 0.05890212
H  -0.04596947 0.51662266 -0.44054089
H  0.70933985 0.01038489 -0.03727082
H  -0.98246664 -1.38909053 0.02135699
H  1.06259113 -0.98877859 -0.10601042
H  -0.21635231 -0.74860284 0.34084949
12
MD Step 632.5 Units = [eV / Ang.]
C  -1.59277895 -0.69697898 0.82446742
C  1.45008271 0.36468818 -0.57296917
C  -1.71261384 -0.19355654 1.60182186
C  0.49184918 0.16701336 -1.53803551
C  -1.18342706 -0.49270814 1.52785626
C  1.26239779 2.94812951 -1.73220179
H  0.49563822 0.33871342 0.05934213
H  -0.00223753 0.48627815 -0.43049403
H  0.59400815 0.00123850 -0.00443288
H  -0.83737051 -1.15227789 -0.01007812
H  1.10353208 -1.00325154 -0.07542795
H  -0.06908024 -0.76728805 0.35015178
12
MD Step 633.0 Units = [eV / Ang.]
C  -1.35161204 -0.37029389 0.79082873
C  1.28132085 0.43845675 -0.54277372
C  -1.42470780 -0.13246063 1.48407534
C  0.21256941 -0.18666921 -1.45396533
C  -1.05462430 -0.52988607 1.44689679
C  1.04048439 2.86878322 -1.68699045
H  0.29528977 0.02632403 0.06065342
H  0.05874080 0.42070250 -0.41264150
H  0.41352584 -0.00845900 0.03806721
H  -0.63075333 -0.81611263 -0.03616503
H  1.08356697 -0.93709944 -0.04330641
H  0.07619946 -0.77328561 0.35532096
12
MD Step 633.5 Units = [eV / Ang.]
C  -1.05702290 0.00177030 0.75289926
C  1.06088508 0.52247808 -0.51476819
C  -1.07950872 -0.06092727 1.34913209
C  -0.11562253 -0.61965236 -1.36878164
C  -0.86219574 -0.61016278 1.35522875
C  0.81761379 2.72609712 -1.62613267
H  0.07119213 -0.31625176 0.06303803
H  0.13320249 0.32539068 -0.38854371
H  0.19039782 -0.01870463 0.08920343
H  -0.36994823 -0.39276633 -0.05423971
H  1.00321663 -0.79234274 -0.01193781
H  0.20779019 -0.76492831 0.35490217
12
MD Step 634.0 Units = [eV / Ang.]
C  -0.73018687 0.38927188 0.71025012
C  0.79754117 0.60883824 -0.48722622
C  -0.70253696 0.02058780 1.20016618
C  -0.47575233 -1.10853875 -1.28451029
C  -0.61115148 -0.72761998 1.25524747
C  0.60168726 2.51830788 -1.54888383
H  -0.15782286 -0.65859447 0.06658918
H  0.21598864 0.20849080 -0.36021799
H  -0.04996091 -0.02925223 0.14668943
H  -0.06961936 0.09368701 -0.06236916
H  0.86543199 -0.57389758 0.01634924
H  0.31638172 -0.74128059 0.34791590
12
MD Step 634.5 Units = [eV / Ang.]
C  -0.39675275 0.75448482 0.66259664
C  0.50202331 0.68760516 -0.45817283
C  -0.31849152 0.11104601 1.04131064
C  -0.84169633 -1.61440151 -1.20172024
C  -0.30996369 -0.87256822 1.14948074
C  0.39783850 2.24587970 -1.45509982
H  -0.36876740 -0.96329171 0.07123243
H  0.30070783 0.08060887 -0.32998252
H  -0.28301091 -0.03964678 0.20737248
H  0.24608082 0.60363645 -0.06030777
H  0.67670896 -0.29112337 0.03938217
H  0.39532317 -0.70222943 0.33390808
12
MD Step 635.0 Units = [eV / Ang.]
C  -0.08366996 1.05646309 0.60986832
C  0.18656183 0.74756829 -0.42562128
C  0.05123663 0.20875022 0.87718983
C  -1.17852065 -2.08275569 -1.11853937
C  0.02816207 -1.02987118 1.04032481
C  0.20866772 1.91184771 -1.34526785
H  -0.53758224 -1.19065918 0.07668145
H  0.38008926 -0.04576151 -0.30021905
H  -0.48773396 -0.04930397 0.26771350
H  0.54365450 1.08200874 -0.05055783
H  0.44850380 0.04018003 0.05549614
H  0.44063100 -0.64846655 0.31293131
12
MD Step 635.5 Units = [eV / Ang.]
C  0.18543767 1.25847184 0.55224276
C  -0.13575527 0.77744032 -0.38787100
C  0.38969237 0.31124581 0.71248680
C  -1.44661615 -2.44986102 -1.03010102
C  0.38420344 -1.17759778 0.92957456
C  0.03462261 1.52199481 -1.22050176
H  -0.64377622 -1.30624406 0.08243148
H  0.44657000 -0.15729532 -0.27306363
H  -0.64791039 -0.05760315 0.32421156
H  0.78431505 1.46474654 -0.03895355
H  0.19833598 0.39609849 0.06405807
H  0.45088090 -0.58139647 0.28548575
12
MD Step 636.0 Units = [eV / Ang.]
C  0.39497247 1.33625492 0.49011959
C  -0.45178253 0.76746672 -0.34383154
C  0.68438950 0.41521180 0.55161473
C  -1.60980559 -2.65584116 -0.92912887
C  0.73326760 -1.28707577 0.81782479
C  -0.12554961 1.08481883 -1.08250481
H  -0.67523243 -1.28903600 0.08781471
H  0.49309512 -0.24135526 -0.25006865
H  -0.75226955 -0.06396909 0.37370456
H  0.93215041 1.69213093 -0.03404184
H  -0.05029176 0.74439169 0.06606108
H  0.42705638 -0.50299761 0.25243626
12
MD Step 636.5 Units = [eV / Ang.]
C  0.54029296 1.28403541 0.42403864
C  -0.74919551 0.71119076 -0.29328764
C  0.92673154 0.51641760 0.39849901
C  -1.64507057 -2.66100871 -0.80798498
C  1.04644202 -1.32546156 0.70399856
C  -0.27435820 0.61125632 -0.93349190
H  -0.63128478 -1.13725973 0.09211322
H  0.51401450 -0.28774919 -0.23192327
H  -0.79401164 -0.06793233 0.41353985
H  0.96405401 1.72524153 -0.04494499
H  -0.27000646 1.04692192 0.06453051
H  0.37239214 -0.41565203 0.21491297
12
MD Step 637.0 Units = [eV / Ang.]
C  0.62757240 1.11564757 0.35457236
C  -1.01734809 0.60699936 -0.23703361
C  1.11129607 0.60982967 0.25643306
C  -1.54958940 -2.45830164 -0.66157900
C  1.29489230 -1.26131691 0.58535058
C  -0.41513284 0.11416871 -0.77607106
H  -0.52268688 -0.86916660 0.09470145
H  0.50590372 -0.29036674 -0.21831400
H  -0.77017508 -0.06916850 0.44166685
H  0.87704465 1.55837898 -0.07832891
H  -0.43396253 1.26524901 0.06440202
H  0.29218567 -0.32195292 0.17420027
12
MD Step 637.5 Units = [eV / Ang.]
C  0.67066842 0.86036260 0.28223172
C  -1.24793304 0.45900489 -0.17681246
C  1.23535454 0.68993325 0.12796516
C  -1.34139096 -2.07544613 -0.48971599
C  1.45546036 -1.07228903 0.45819735
C  -0.55155977 -0.39234782 -0.61307117
H  -0.36850796 -0.51843781 0.09517319
H  0.46810191 -0.24825130 -0.20799041
H  -0.68121898 -0.06752543 0.45671292
H  0.68916478 1.22100695 -0.13592991
H  -0.52164506 1.36848735 0.07162588
H  0.19350577 -0.22449752 0.13161372
12
MD Step 638.0 Units = [eV / Ang.]
C  0.68646254 0.55536999 0.20742010
C  -1.43532234 0.27697503 -0.11505842
C  1.29880099 0.75123942 0.01477052
C  -1.05321374 -1.56572466 -0.29760820
C  1.51582306 -0.75241978 0.31930215
C  -0.68718238 -0.89373061 -0.44733096
H  -0.19137156 -0.12624109 0.09341005
H  0.40282695 -0.16580407 -0.19903222
H  -0.53097587 -0.06304481 0.45809059
H  0.43347221 0.76814016 -0.21395020
H  -0.52406512 1.34092475 0.09161341
H  0.08474527 -0.12568434 0.08837318
12
MD Step 638.5 Units = [eV / Ang.]
C  0.69053975 0.23800989 0.13044418
C  -1.57651972 0.07527925 -0.05450978
C  1.30454903 0.78888396 -0.08251513
C  -0.72285438 -0.99241917 -0.09437082
C  1.47699162 -0.31602968 0.16737736
C  -0.82483947 -1.37565736 -0.28147265
H  -0.01292662 0.26687339 0.08958254
H  0.31483754 -0.05205245 -0.18924968
H  -0.32699622 -0.05598398 0.44616261
H  0.14836189 0.26433934 -0.30450659
H  -0.44611439 1.18629808 0.12756985
H  -0.02502904 -0.02754128 0.04548810
12
MD Step 639.0 Units = [eV / Ang.]
C  0.69450101 -0.05977993 0.05156201
C  -1.67078149 -0.12890745 0.00221335
C  1.25924619 0.79917098 -0.16448498
C  -0.38449454 -0.41427075 0.10950326
C  1.35200224 0.20372916 0.00400908
C  -0.96607523 -1.82459393 -0.11769876
H  0.14911965 0.62671520 0.08409649
H  0.21073768 0.08080718 -0.17660983
H  -0.08110124 -0.04683228 0.42244014
H  -0.13127703 -0.23119935 -0.39814604
H  -0.30496741 0.92678594 0.17944171
H  -0.12690984 0.06837523 0.00367356
12
MD Step 639.5 Units = [eV / Ang.]
C  0.70520191 -0.31391847 -0.02896011
C  -1.71906111 -0.31769509 0.05295817
C  1.17397502 0.77995119 -0.23312146
C  -0.06386137 0.12308835 0.30441326
C  1.16148602 0.76116268 -0.16643978
C  -1.11060890 -2.22816031 0.04234188
H  0.28207194 0.92793136 0.07751972
H  0.09811140 0.21918383 -0.15958205
H  0.19018254 -0.03631195 0.38974622
H  -0.37913091 -0.67340915 -0.48612783
H  -0.12529232 0.59719292 0.24393143
H  -0.21307424 0.16098464 -0.03667944
12
MD Step 640.0 Units = [eV / Ang.]
C  0.72540602 -0.50808838 -0.11080481
C  -1.72343018 -0.47444360 0.09625733
C  1.06446745 0.73079065 -0.29181533
C  0.22251211 0.58902263 0.48290072
C  0.92821455 1.30660278 -0.33783650
C  -1.25601293 -2.57535234 0.19759338
H  0.37787446 1.15378447 0.07051508
H  -0.01532377 0.34977984 -0.13734076
H  0.46575703 -0.02534623 0.35222816
H  -0.57842730 -1.03323616 -0.56170240
H  0.06660270 0.23690648 0.31547460
H  -0.27764015 0.24957984 -0.07546947
12
MD Step 640.5 Units = [eV / Ang.]
C  0.75511033 -0.63226748 -0.19359017
C  -1.68662636 -0.58526497 0.13140398
C  0.95032223 0.65290789 -0.34512075
C  0.46538407 0.96533249 0.63986643
C  0.67273117 1.79418358 -0.50365222
C  -1.39770093 -2.85668864 0.34752401
H  0.43203022 1.29445683 0.06379724
H  -0.12239609 0.46088427 -0.10981502
H  0.72111583 -0.01497993 0.31509029
H  -0.72020021 -1.29488925 -0.62035593
H  0.24752762 -0.11731826 0.38764264
H  -0.31729787 0.33364347 -0.11279050
12
MD Step 641.0 Units = [eV / Ang.]
C  0.79288361 -0.68099382 -0.27687927
C  -1.61178456 -0.63997677 0.15841329
C  0.85292725 0.54895106 -0.39815701
C  0.66000942 1.24205717 0.77215090
C  0.41119939 2.18687150 -0.65811633
C  -1.52932746 -3.06438916 0.49197233
H  0.44245251 1.34506288 0.05811136
H  -0.21693528 0.54317272 -0.07761764
H  0.93079618 -0.00624987 0.28396240
H  -0.80058839 -1.45135174 -0.65941576
H  0.39993214 -0.43579157 0.45437758
H  -0.33156482 0.41263760 -0.14880185
12
MD Step 641.5 Units = [eV / Ang.]
C  0.83681357 -0.65211231 -0.36020565
C  -1.50233738 -0.63253481 0.17790947
C  0.79222626 0.42267100 -0.45568885
C  0.80366647 1.41366619 0.87792319
C  0.15535015 2.45838642 -0.79682935
C  -1.64353841 -3.19262288 0.63094756
H  0.40865508 1.30418630 0.05422439
H  -0.29401922 0.59005745 -0.04190003
H  1.07193647 -0.00002434 0.26395024
H  -0.81839693 -1.50025713 -0.67746373
H  0.51227178 -0.69724405 0.51072981
H  -0.32262784 0.48582815 -0.18359706
12
MD Step 642.0 Units = [eV / Ang.]
C  0.88487896 -0.54638380 -0.44309188
C  -1.36201096 -0.56109697 0.19098258
C  0.78302122 0.27858031 -0.52108221
C  0.89407764 1.47660791 0.95618620
C  -0.08630202 2.59282237 -0.91683311
C  -1.73294935 -3.23782324 0.76442795
H  0.33147473 1.17336572 0.05290772
H  -0.35008376 0.59773907 -0.00417824
H  1.12821621 0.00314702 0.25857244
H  -0.77351419 -1.44117511 -0.67387037
H  0.57801516 -0.88797964 0.55308289
H  -0.29482366 0.55219636 -0.21710398
12
MD Step 642.5 Units = [eV / Ang.]
C  0.93468330 -0.36806836 -0.52504322
C  -1.19481732 -0.42786514 0.19903090
C  0.83191945 0.12167608 -0.59545670
C  0.92889456 1.42851665 1.00655664
C  -0.30689751 2.58312998 -1.01633653
C  -1.79117322 -3.19903024 0.89220178
H  0.21337927 0.95765488 0.05488773
H  -0.38297232 0.56511656 0.03384582
H  1.09304316 0.00312444 0.26891910
H  -0.66637139 -1.27465888 -0.64861191
H  0.59419284 -1.00005120 0.57904482
H  -0.25388082 0.61045523 -0.24903843
12
MD Step 643.0 Units = [eV / Ang.]
C  0.98263118 -0.12634921 -0.60549202
C  -1.00499079 -0.23881757 0.20360054
C  0.93597854 -0.04274373 -0.67734535
C  0.90624680 1.26914116 1.02938243
C  -0.50001008 2.42941149 -1.09434480
C  -1.81367432 -3.07816239 1.01377526
H  0.05930312 0.66712183 0.06073790
H  -0.39199133 0.49367436 0.07045869
H  0.97092251 0.00017826 0.29334321
H  -0.49846685 -1.00311973 -0.60243092
H  0.56014913 -1.02949231 0.58723019
H  -0.20609791 0.65915784 -0.27891513
12
MD Step 643.5 Units = [eV / Ang.]
C  1.02270421 0.16278943 -0.68367157
C  -0.79678698 -0.00337597 0.20621601
C  1.08353414 -0.20916876 -0.76299882
C  0.82633296 1.00294683 1.02618729
C  -0.65911537 2.13763759 -1.15038408
C  -1.79833320 -2.88014007 1.12835147
H  -0.12218585 0.31885119 0.07069316
H  -0.37800261 0.38740027 0.10410830
H  0.77650980 -0.00510144 0.32781723
H  -0.27390960 -0.63346875 -0.53731914
H  0.47683787 -0.97523133 0.57710410
H  -0.15758537 0.69686100 -0.30610395
12
MD Step 644.0 Units = [eV / Ang.]
C  1.04528041 0.47504733 -0.75842265
C  -0.57418996 0.26600476 0.20820298
C  1.25687542 -0.37193628 -0.84722043
C  0.69385120 0.64313153 1.00033462
C  -0.77785793 1.71907908 -1.18444510
C  -1.74563370 -2.61277233 1.23487678
H  -0.31779988 -0.06140874 0.08439044
H  -0.34353532 0.25271224 0.13358009
H  0.53169244 -0.01194916 0.36682698
H  -0.00179144 -0.18120318 -0.45719955
H  0.34678406 -0.83900723 0.54898867
H  -0.11367530 0.72230198 -0.32991283
12
MD Step 644.5 Units = [eV / Ang.]
C  1.03659822 0.77780690 -0.82797661
C  -0.34055953 0.55438235 0.21050931
C  1.43578720 -0.52531997 -0.92443067
C  0.52073915 0.21612527 0.95762992
C  -0.85106611 1.19055037 -1.19718147
C  -1.65851081 -2.28638265 1.33213986
H  -0.50916238 -0.43916747 0.10058833
H  -0.29285814 0.09831290 0.15816932
H  0.26170432 -0.01957351 0.40448405
H  0.30117987 0.32504658 -0.36850707
H  0.17466425 -0.62633544 0.50425241
H  -0.07851602 0.73455467 -0.34967740
12
MD Step 645.0 Units = [eV / Ang.]
C  0.97966109 1.03285313 -0.88981869
C  -0.09837452 0.84509353 0.21354822
C  1.60084517 -0.66371217 -0.98963039
C  0.32807155 -0.23537996 0.90638313
C  -0.87630913 0.57535780 -1.19030325
C  -1.54193004 -1.91319238 1.41889643
H  -0.67390165 -0.77392666 0.11698175
H  -0.23190899 -0.06515006 0.17782901
H  -0.00857663 -0.02727084 0.43551445
H  0.60894045 0.84052814 -0.28018136
H  -0.03166328 -0.34834397 0.44562194
H  -0.05485402 0.73314344 -0.36484122
12
MD Step 645.5 Units = [eV / Ang.]
C  0.85702922 1.20229427 -0.94078118
C  0.15081925 1.12079620 0.21710188
C  1.73567297 -0.78190504 -1.03904624
C  0.14548767 -0.65377601 0.85639513
C  -0.85565003 -0.09548043 -1.16700804
C  -1.40230240 -1.50650854 1.49400460
H  -0.78866012 -1.02521950 0.13027232
H  -0.16798115 -0.22571997 0.19325404
H  -0.25731210 -0.03448571 0.45590173
H  0.88688647 1.30584852 -0.20253980
H  -0.26003357 -0.02395012 0.37746373
H  -0.04395622 0.71810633 -0.37501816
12
MD Step 646.0 Units = [eV / Ang.]
C  0.65523344 1.25664925 -0.97748305
C  0.40610632 1.36479919 0.22033010
C  1.82794082 -0.87545051 -1.07040425
C  0.00675648 -0.97467014 0.81668538
C  -0.79696689 -0.78258422 -1.13216997
C  -1.24685960 -1.07985051 1.55654645
H  -0.83369712 -1.16090022 0.13661845
H  -0.10908673 -0.37112095 0.20585478
H  -0.46709529 -0.04082182 0.46314109
H  1.09663335 1.65532932 -0.14487558
H  -0.49332519 0.31861448 0.30578815
H  -0.04563960 0.69000613 -0.38003154
12
MD Step 646.5 Units = [eV / Ang.]
C  0.36952146 1.18245404 -0.99709300
C  0.66651598 1.56256802 0.22192428
C  1.86934232 -0.94103136 -1.08290506
C  -0.05831523 -1.14147021 0.79258763
C  -0.71410716 -1.43936601 -1.09198535
C  -1.08307427 -0.64613332 1.60591698
H  -0.79776016 -1.16498768 0.13244036
H  -0.06301901 -0.49002802 0.21758612
H  -0.62524646 -0.04601952 0.45619145
H  1.20451779 1.83183582 -0.11244515
H  -0.70999493 0.64228564 0.23770948
H  -0.05838034 0.64989261 -0.37992773
12
MD Step 647.0 Units = [eV / Ang.]
C  0.00700714 0.98621275 -0.99818875
C  0.93005880 1.70318202 0.22040176
C  1.85501512 -0.97673092 -1.07702191
C  -0.03300024 -1.12171577 0.78363097
C  -0.62518030 -2.01614136 -1.05290288
C  -0.91818043 -0.21705169 1.64187331
H  -0.68131155 -1.04181434 0.11534347
H  -0.03624030 -0.57343127 0.23063211
H  -0.72344970 -0.04991902 0.43526563
H  1.19114467 1.80328134 -0.10430125
H  -0.88637513 0.90490926 0.18023076
H  -0.07948809 0.59921901 -0.37496322
12
MD Step 647.5 Units = [eV / Ang.]
C  -0.41321889 0.69282848 -0.98136601
C  1.19272424 1.78047072 0.21449844
C  1.78288204 -0.98214725 -1.05423705
C  0.08045846 -0.91761005 0.78358221
C  -0.54891336 -2.46737697 -1.02001181
C  -0.75881741 0.19728246 1.66452999
H  -0.49666170 -0.81458036 0.08480019
H  -0.03283157 -0.61581040 0.24699565
H  -0.75720335 -0.05242198 0.40157983
H  1.05763474 1.57318972 -0.11336790
H  -1.00069951 1.06645344 0.13856229
H  -0.10535368 0.53972219 -0.36556582
12
MD Step 648.0 Units = [eV / Ang.]
C  -0.86318623 0.33922285 -0.94932880
C  1.44778560 1.79354028 0.20356157
C  1.65324224 -0.95826292 -1.01679266
C  0.26138414 -0.56514260 0.78284781
C  -0.49992546 -2.76053625 -0.99548095
C  -0.61077530 0.58843427 1.67431052
H  -0.26492681 -0.51898681 0.04230763
H  -0.05377559 -0.61583419 0.26808828
H  -0.72543116 -0.05346464 0.35713497
H  0.82527236 1.17964680 -0.12894855
H  -1.03789289 1.09810480 0.11457339
H  -0.13177090 0.47327841 -0.35227320
12
MD Step 648.5 Units = [eV / Ang.]
C  -1.31102223 -0.03405418 -0.90643359
C  1.68568004 1.74656183 0.18783453
C  1.46881930 -0.90714144 -0.96748447
C  0.47736466 -0.12229171 0.77195751
C  -0.48463977 -2.88337188 -0.97781046
C  -0.47880526 0.94954806 1.67185590
H  -0.01117153 -0.19477057 -0.00900576
H  -0.09677446 -0.57640503 0.29442566
H  -0.63046053 -0.05300619 0.30454243
H  0.52874786 0.68318592 -0.14036035
H  -0.99339650 0.98999076 0.10613302
H  -0.15434158 0.40175443 -0.33565441
12
MD Step 649.0 Units = [eV / Ang.]
C  -1.72595978 -0.39007918 -0.85791028
C  1.89461082 1.64786288 0.16854917
C  1.23525561 -0.83152716 -0.90948507
C  0.69361944 0.34747208 0.74434743
C  -0.49957496 -2.84645656 -0.96235440
C  -0.36644945 1.27516986 1.65791638
H  0.24034858 0.12167402 -0.06510211
H  -0.15665805 -0.50404680 0.32550995
H  -0.47837785 -0.05103532 0.24686548
H  0.20651461 0.14992146 -0.13987099
H  -0.87438673 0.75416750 0.10776294
H  -0.16894224 0.32687723 -0.31622849
12
MD Step 649.5 Units = [eV / Ang.]
C  -2.08191937 -0.69976647 -0.80906754
C  2.06173663 1.50855202 0.14780550
C  0.96191679 -0.73445795 -0.84615132
C  0.88080192 0.78896989 0.69741876
C  -0.53271732 -2.67962114 -0.94290690
C  -0.27587469 1.56105919 1.63324243
H  0.46941228 0.40164496 -0.12177014
H  -0.22625586 -0.40781571 0.35991668
H  -0.27962914 -0.04759430 0.18741996
H  -0.10743829 -0.36255344 -0.12387868
H  -0.69782064 0.42143794 0.11236403
H  -0.17221230 0.25014502 -0.29439278
12
MD Step 650.0 Units = [eV / Ang.]
C  -2.35921535 -0.94290075 -0.76470954
C  2.17468761 1.34099872 0.12828110
C  0.66263996 -0.61897114 -0.78075725
C  1.01889093 1.16231072 0.63202798
C  -0.56722195 -2.42382910 -0.91360069
C  -0.20774519 1.80402704 1.59850278
H  0.66111036 0.62527292 -0.17514723
H  -0.29749690 -0.29801180 0.39554603
H  -0.04953163 -0.04281204 0.12947667
H  -0.38793604 -0.81235566 -0.09247329
H  -0.48619490 0.03347586 0.11323207
H  -0.16198689 0.17279523 -0.27037865
12
MD Step 650.5 Units = [eV / Ang.]
C  -2.54472195 -1.10698285 -0.72883401
C  2.22307202 1.15745962 0.11285492
C  0.35594086 -0.48793840 -0.71612225
C  1.09727832 1.44331926 0.55123828
C  -0.58576893 -2.12189348 -0.87032267
C  -0.16116880 2.00179808 1.55424426
H  0.80558367 0.78043206 -0.22196029
H  -0.36247886 -0.18496263 0.42995715
H  0.19175960 -0.03693551 0.07584129
H  -0.61909867 -1.17378206 -0.04820156
H  -0.26278521 -0.36634282 0.10555011
H  -0.13761206 0.09582874 -0.24424523
12
MD Step 651.0 Units = [eV / Ang.]
C  -2.63117376 -1.18518725 -0.70456006
C  2.19967191 0.96904650 0.10423626
C  0.06416281 -0.34401033 -0.65416144
C  1.11257652 1.62004530 0.45910428
C  -0.57398387 -1.81123508 -0.81126566
C  -0.13378250 2.15285175 1.50089846
H  0.89697492 0.86071821 -0.25954313
H  -0.41431123 -0.07807514 0.46070175
H  0.42032153 -0.03033956 0.02835361
H  -0.79242447 -1.43374506 0.00517720
H  -0.04796682 -0.74014868 0.08697183
H  -0.10006504 0.02007933 -0.21591309
12
MD Step 651.5 Units = [eV / Ang.]
C  -2.61621966 -1.17446584 -0.69418209
C  2.10118502 0.78509353 0.10466259
C  -0.18874439 -0.18968601 -0.59547260
C  1.06578135 1.68819080 0.35988165
C  -0.52217686 -1.52021512 -0.73672421
C  -0.12199720 2.25625111 1.43883159
H  0.93228593 0.86352392 -0.28574657
H  -0.44765743 0.01478798 0.48559902
H  0.61087138 -0.02349991 -0.01256510
H  -0.90410609 -1.58703393 0.06353768
H  0.14264313 -1.05924799 0.05740974
H  -0.05186518 -0.05369854 -0.18523171
12
MD Step 652.0 Units = [eV / Ang.]
C  -2.50165064 -1.07437293 -0.69923861
C  1.92846532 0.61287300 0.11569743
C  -0.38068662 -0.02744872 -0.53914115
C  0.95984820 1.64724102 0.25769605
C  -0.42548416 -1.26778047 -0.64850508
C  -0.12139509 2.31146070 1.36841585
H  0.91060211 0.78881298 -0.29885766
H  -0.45898801 0.08763399 0.50292783
H  0.74036664 -0.01692157 -0.04812550
H  -0.95267263 -1.63226601 0.12278525
H  0.29837078 -1.30448273 0.01841023
H  0.00322409 -0.12474926 -0.15206463
12
MD Step 652.5 Units = [eV / Ang.]
C  -2.29302276 -0.88688165 -0.72051043
C  1.68633573 0.45755587 0.13812480
C  -0.49539561 0.14005206 -0.48292741
C  0.79814086 1.49808903 0.15652298
C  -0.28302052 -1.06511089 -0.54930638
C  -0.12721735 2.31820361 1.29010736
H  0.83292186 0.63885872 -0.29762269
H  -0.44662407 0.13646583 0.51154076
H  0.79206785 -0.01103390 -0.08097549
H  -0.93747068 -1.56935588 0.17893650
H  0.41265190 -1.46457690 -0.02751827
H  0.06063278 -0.19226589 -0.11637171
12
MD Step 653.0 Units = [eV / Ang.]
C  -1.99975326 -0.61720303 -0.75788545
C  1.38307342 0.32228764 0.17192518
C  -0.52573946 0.30985631 -0.42387697
C  0.58389439 1.24233027 0.06029519
C  -0.09667065 -0.91791129 -0.44226252
C  -0.13487950 2.27638369 1.20450878
H  0.70264707 0.41897802 -0.28143766
H  -0.41065704 0.15930680 0.51092022
H  0.75888632 -0.00608280 -0.11456244
H  -0.85815265 -1.39872944 0.22806644
H  0.48185607 -1.53383710 -0.07741847
H  0.11549528 -0.25537907 -0.07827230
12
MD Step 653.5 Units = [eV / Ang.]
C  -1.63563841 -0.27545262 -0.81005386
C  1.02970476 0.20830509 0.21630793
C  -0.47524644 0.47861623 -0.35920764
C  0.32070608 0.88324038 -0.02705254
C  0.12999121 -0.82834159 -0.33069598
C  -0.14042539 2.18611000 1.11240628
H  0.52662742 0.13910632 -0.25073361
H  -0.35281243 0.15620245 0.50119589
H  0.64488077 -0.00205907 -0.15220923
H  -0.71522344 -1.12230578 0.26631232
H  0.50428586 -1.51023782 -0.12819274
H  0.16315001 -0.31318361 -0.03807681
12
MD Step 654.0 Units = [eV / Ang.]
C  -1.21952768 0.12126769 -0.87407011
C  0.63920297 0.11503931 0.26978941
C  -0.35728888 0.64264305 -0.28717916
C  0.01406745 0.42839769 -0.10177396
C  0.39239108 -0.79607898 -0.21801011
C  -0.14087773 2.04783440 1.01477464
H  0.31642406 -0.18421779 -0.20751087
H  -0.27628440 0.12922230 0.48313174
H  0.46434893 0.00130859 -0.19621123
H  -0.51165618 -0.74620217 0.29010953
H  0.47962782 -1.39442353 -0.17676579
H  0.19957254 -0.36479055 0.00371591
12
MD Step 654.5 Units = [eV / Ang.]
C  -0.77562438 0.54717570 -0.94491525
C  0.22567122 0.04020856 0.33030779
C  -0.19227801 0.79807028 -0.20765507
C  -0.32618979 -0.10632371 -0.16088646
C  0.68510506 -0.81832030 -0.10762382
C  -0.13444588 1.86259634 0.91275450
H  0.08918802 -0.52625553 -0.15587128
H  -0.18554130 0.08244923 0.45808185
H  0.23886195 0.00449307 -0.24725467
H  -0.25543919 -0.28486828 0.29681380
H  0.40898906 -1.18983590 -0.22020279
H  0.22170323 -0.40938944 0.04645142
12
MD Step 655.0 Units = [eV / Ang.]
C  -0.33268127 0.96766749 -1.01532204
C  -0.19643733 -0.02002416 0.39537900
C  -0.00388071 0.94107750 -0.12220736
C  -0.68303581 -0.69226841 -0.20318599
C  1.00140870 -0.88878506 -0.00283444
C  -0.12059353 1.63235220 0.80760366
H  -0.13267251 -0.85402465 -0.10226597
H  -0.08606152 0.02187389 0.42789764
H  -0.00672356 0.00806436 -0.30430746
H  0.03748453 0.23428275 0.28575478
H  0.29553052 -0.90391030 -0.25588748
H  0.22766250 -0.44630562 0.08937564
12
MD Step 655.5 Units = [eV / Ang.]
C  0.07859420 1.34192493 -1.07619758
C  -0.61302553 -0.07077546 0.46229001
C  0.18454861 1.06811117 -0.03381327
C  -1.03016347 -1.28495586 -0.23050471
C  1.33227551 -0.99602864 0.09347693
C  -0.09998350 1.36035871 0.70063314
H  -0.32377576 -1.12898834 -0.05511055
H  0.01602348 -0.04487956 0.39477619
H  -0.24805163 0.01257464 -0.36492753
H  0.34110386 0.76773161 0.25951655
H  0.14558865 -0.55002970 -0.28184229
H  0.21686559 -0.47504350 0.13170311
12
MD Step 656.0 Units = [eV / Ang.]
C  0.42999120 1.62874342 -1.11786562
C  -1.01096092 -0.11792818 0.52833226
C  0.35249051 1.17599914 0.05367809
C  -1.33245984 -1.82530345 -0.24864289
C  1.66503311 -1.12166518 0.17932789
C  -0.07431465 1.05154046 0.59313239
H  -0.46010802 -1.31294079 -0.02353808
H  0.11440369 -0.10909002 0.36103910
H  -0.46398341 0.01846509 -0.42580044
H  0.61987809 1.25707230 0.22485805
H  -0.03001028 -0.14958247 -0.29720971
H  0.19004052 -0.49531032 0.17268895
12
MD Step 656.5 Units = [eV / Ang.]
C  0.70111591 1.79460450 -1.13200841
C  -1.37858395 -0.16738465 0.59105376
C  0.48351094 1.26195342 0.13611145
C  -1.55064393 -2.24753433 -0.26711595
C  1.98220437 -1.23953296 0.25422125
C  -0.04607731 0.71274461 0.48629231
H  -0.52443112 -1.37606303 -0.01541817
H  0.20315513 -0.16176113 0.32886063
H  -0.63796433 0.02600637 -0.48329783
H  0.83355934 1.63702585 0.19240585
H  -0.21501590 0.26696185 -0.30280141
H  0.14917085 -0.50702051 0.21169651
12
MD Step 657.0 Units = [eV / Ang.]
C  0.88364156 1.82140602 -1.11372088
C  -1.70608987 -0.22412147 0.64850039
C  0.56546390 1.32346032 0.20949471
C  -1.65000488 -2.49346777 -0.29708704
C  2.26133279 -1.31703121 0.31960126
C  -0.01823321 0.35278713 0.38113685
H  -0.51078378 -1.30453035 -0.03524965
H  0.27732717 -0.19467013 0.29998348
H  -0.75825618 0.03527283 -0.53392277
H  0.94622884 1.84992245 0.17449043
H  -0.38798697 0.66125902 -0.30147951
H  0.09736062 -0.51028683 0.24825272
12
MD Step 657.5 Units = [eV / Ang.]
C  0.98257895 1.71071467 -1.06283506
C  -1.98579238 -0.29121045 0.69940722
C  0.59012265 1.35815124 0.27032363
C  -1.61048166 -2.52864679 -0.34781243
C  2.47662468 -1.31953238 0.37885088
C  0.00615650 -0.01776437 0.27846863
H  -0.42607216 -1.10452627 -0.08279085
H  0.33345290 -0.20149173 0.27547981
H  -0.81750294 0.04614059 -0.57460146
H  0.93671515 1.86203315 0.18146669
H  -0.52442265 0.99153296 -0.29804137
H  0.03862096 -0.50540061 0.28208432
12
MD Step 658.0 Units = [eV / Ang.]
C  1.01385644 1.48270831 -0.98390828
C  -2.21224238 -0.36905017 0.74329356
C  0.55268468 1.36377545 0.31578986
C  -1.43339440 -2.35293750 -0.42312762
C  2.60273894 -1.21758823 0.43656692
C  0.02433582 -0.38711074 0.17883892
H  -0.28796697 -0.80082356 -0.15305779
H  0.36987118 -0.17875849 0.25562023
H  -0.81212593 0.05829897 -0.60285868
H  0.80560704 1.67428386 0.21807516
H  -0.60093776 1.22000848 -0.29836082
H  -0.02242668 -0.49280638 0.31312854
12
MD Step 658.5 Units = [eV / Ang.]
C  0.99925538 1.17035086 -0.88488783
C  -2.38219431 -0.45501202 0.78043651
C  0.45147493 1.33834893 0.34392348
C  -1.14118873 -2.00004199 -0.51986556
C  2.61996757 -0.99498333 0.49717294
C  0.03424372 -0.74294275 0.08254331
H  -0.12007155 -0.43055910 -0.23767743
H  0.38679424 -0.12643663 0.23988578
H  -0.74190708 0.07126838 -0.61694200
H  0.57511943 1.32172076 0.28176247
H  -0.60057390 1.32136068 -0.30786556
H  -0.08091970 -0.47307380 0.34151390
12
MD Step 659.0 Units = [eV / Ang.]
C  0.96083451 0.81146723 -0.77509524
C  -2.49441578 -0.54363207 0.81172450
C  0.28802166 1.28046653 0.35372255
C  -0.77032193 -1.52626671 -0.62904545
C  2.51901650 -0.65449322 0.56335492
C  0.03484969 -1.07327146 -0.01035006
H  0.05353460 -0.03493221 -0.32694976
H  0.38611246 -0.04796901 0.22712332
H  -0.60996308 0.08442461 -0.61595780
H  0.28188402 0.86206751 0.36382671
H  -0.51737138 1.28900529 -0.32986347
H  -0.13218127 -0.44686650 0.36750978
12
MD Step 659.5 Units = [eV / Ang.]
C  0.91676476 0.44171982 -0.66334772
C  -2.54935992 -0.62732191 0.83842159
C  0.06754024 1.18966834 0.34530859
C  -0.36110717 -0.99450360 -0.73899933
C  2.30336241 -0.21866464 0.63503629
C  0.02638563 -1.36722912 -0.09994502
H  0.21244863 0.34808509 -0.41178045
H  0.37099091 0.05022854 0.21580271
H  -0.42313159 0.09703179 -0.60005286
H  -0.03350001 0.35941144 0.45255928
H  -0.35823265 1.13648608 -0.36445422
H  -0.17216126 -0.41491182 0.39145114
12
MD Step 660.0 Units = [eV / Ang.]
C  0.87944332 0.09035485 -0.55677435
C  -2.54878243 -0.69743247 0.86189726
C  -0.20032071 1.06674417 0.32009994
C  0.05083649 -0.46062075 -0.83867942
C  1.98816150 0.27488957 0.70938071
C  0.01044263 -1.61570210 -0.18643782
H  0.34191365 0.68810906 -0.48491092
H  0.34536392 0.15967828 0.20431073
H  -0.19261040 0.10828973 -0.57062591
H  -0.33540882 -0.12968598 0.53662011
H  -0.14120382 0.89334921 -0.40852888
H  -0.19783533 -0.37797357 0.41364855
12
MD Step 660.5 Units = [eV / Ang.]
C  0.85559577 -0.22105638 -0.46043383
C  -2.49534445 -0.74542357 0.88337998
C  -0.50078428 0.91385361 0.28095321
C  0.43888859 0.03367212 -0.91977701
C  1.59636945 0.78171979 0.78176154
C  -0.01010185 -1.81176872 -0.27002166
H  0.43283537 0.96355315 -0.54132878
H  0.31342943 0.27094657 0.19121368
H  0.06547923 0.11739920 -0.53050011
H  -0.59788438 -0.56349064 0.60725080
H  0.10902428 0.59742652 -0.45679825
H  -0.20750717 -0.33683167 0.43430044
12
MD Step 661.0 Units = [eV / Ang.]
C  0.84755469 -0.47778410 -0.37751189
C  -2.39230416 -0.76391926 0.90377426
C  -0.81378996 0.73444960 0.23215732
C  0.78559697 0.46155357 -0.97731165
C  1.15388190 1.25899963 0.84715713
C  -0.03132514 -1.95089350 -0.35079359
H  0.48065934 1.16062159 -0.57807767
H  0.27922798 0.37471738 0.17544608
H  0.33008749 0.12364264 -0.48393236
H  -0.80507868 -0.91584826 0.65896040
H  0.36645064 0.28673247 -0.50329312
H  -0.20096108 -0.29227176 0.45342509
12
MD Step 661.5 Units = [eV / Ang.]
C  0.85486008 -0.67023747 -0.30977265
C  -2.24330840 -0.74749608 0.92356092
C  -1.11491407 0.53305478 0.17915401
C  1.08042509 0.80791172 -1.00913860
C  0.68554524 1.67161171 0.90133910
C  -0.04866538 -2.03092317 -0.42867331
H  0.48393419 1.27135323 -0.59379887
H  0.24634033 0.46267208 0.15640577
H  0.57629986 0.12646690 -0.43632333
H  -0.94910961 -1.17292223 0.68911355
H  0.60803907 -0.00640664 -0.54269176
H  -0.17944640 -0.24508483 0.47082517
12
MD Step 662.0 Units = [eV / Ang.]
C  0.87562009 -0.79234749 -0.25799697
C  -2.05230839 -0.69316748 0.94277817
C  -1.37770595 0.31495125 0.12788949
C  1.31687580 1.06499392 -1.01504121
C  0.21297907 1.99483488 0.94149639
C  -0.05743100 -2.05193901 -0.50335319
H  0.44312515 1.29176268 -0.58828030
H  0.21770250 0.52810423 0.13396575
H  0.77780118 0.12554836 -0.39353901
H  -1.02714021 -1.32868078 0.69707778
H  0.81597363 -0.25798852 -0.57109079
H  -0.14549185 -0.19607206 0.48609389
12
MD Step 662.5 Units = [eV / Ang.]
C  0.90734847 -0.84065133 -0.22225062
C  -1.82355590 -0.60058663 0.96106772
C  -1.57733990 0.08589379 0.08383755
C  1.49017419 1.22864591 -0.99590010
C  -0.24584996 2.21416835 0.96628868
C  -0.05335058 -2.01601097 -0.57428191
H  0.35994553 1.22072539 -0.56217883
H  0.19551132 0.56627406 0.10842372
H  0.91060985 0.12081645 -0.36089670
H  -1.03889167 -1.38098842 0.68342597
H  0.97798835 -0.45223597 -0.58619505
H  -0.10258970 -0.14605063 0.49865955
12
MD Step 663.0 Units = [eV / Ang.]
C  0.94722658 -0.81434051 -0.20192245
C  -1.56165304 -0.47207368 0.97776420
C  -1.69483801 -0.14809920 0.05091645
C  1.59599086 1.29595573 -0.95317432
C  -0.67599315 2.32351775 0.97554163
C  -0.03308193 -1.92690702 -0.64068377
H  0.23727064 1.05991130 -0.51697799
H  0.18117589 0.57457506 0.08041562
H  0.95733236 0.11242511 -0.34204845
H  -0.98512287 -1.32914711 0.64943770
H  1.08649115 -0.57996383 -0.58712810
H  -0.05479847 -0.09585360 0.50785949
12
MD Step 663.5 Units = [eV / Ang.]
C  0.99180237 -0.71633652 -0.19554254
C  -1.27158843 -0.31250311 0.99201294
C  -1.72066404 -0.38086755 0.03064125
C  1.63030094 1.26453135 -0.88875179
C  -1.06459381 2.32292528 0.96984430
C  0.00538481 -1.78978050 -0.70161164
H  0.07958085 0.81482676 -0.45516527
H  0.17529276 0.55256329 0.05081153
H  0.91072080 0.10068237 -0.33812126
H  -0.86721301 -1.17314980 0.59695958
H  1.13729132 -0.63657116 -0.57410700
H  -0.00631456 -0.04632040 0.51302989
12
MD Step 664.0 Units = [eV / Ang.]
C  1.03627637 -0.55521325 -0.20046662
C  -0.95873611 -0.12912572 1.00289831
C  -1.65647162 -0.60616921 0.02184375
C  1.59030751 1.13347454 -0.80512200
C  -1.40023927 2.21664853 0.95022919
C  0.06249655 -1.61085739 -0.75602041
H  -0.10621424 0.49677092 -0.38053704
H  0.17761826 0.50191844 0.02060704
H  0.77531555 0.08596663 -0.34744576
H  -0.68781482 -0.91469440 0.52858001
H  1.12854049 -0.62044179 -0.54815946
H  0.03892135 0.00172269 0.51359298
12
MD Step 664.5 Units = [eV / Ang.]
C  1.07359586 -0.34746789 -0.21258169
C  -0.62877741 0.06870433 1.00957091
C  -1.51439550 -0.81774484 0.02107610
C  1.47630155 0.90605604 -0.70576319
C  -1.67290700 2.01202212 0.91802062
C  0.13708072 -1.39712878 -0.80285508
H  -0.30983901 0.12516222 -0.29846252
H  0.18704679 0.42633655 -0.00918509
H  0.56656367 0.06866322 -0.36599133
H  -0.45246959 -0.55993094 0.44800352
H  1.06023675 -0.53216145 -0.51096316
H  0.07756317 0.04748942 0.50913092
12
MD Step 665.0 Units = [eV / Ang.]
C  1.09377418 -0.11915874 -0.22627238
C  -0.28755410 0.26990863 1.01135984
C  -1.31419237 -1.00943120 0.02354669
C  1.29412346 0.59386987 -0.59554418
C  -1.87458668 1.71924110 0.87485480
C  0.22646757 -1.15605115 -0.84114622
H  -0.51703158 -0.27077681 -0.21585974
H  0.20161144 0.33134233 -0.03763840
H  0.30773417 0.04913727 -0.38834423
H  -0.17188647 -0.12365431 0.36041354
H  0.93442652 -0.37469208 -0.46480488
H  0.10711387 0.09026509 0.49943515
12
MD Step 665.5 Units = [eV / Ang.]
C  1.08398371 0.09444839 -0.23490510
C  0.05910962 0.46223385 1.00785989
C  -1.07927968 -1.17536793 0.02424376
C  1.05755053 0.22156412 -0.48082406
C  -2.00054448 1.35206115 0.82279966
C  0.32676029 -0.89524772 -0.87010360
H  -0.70979557 -0.65238356 -0.14062647
H  0.21854671 0.22396814 -0.06400674
H  0.02571181 0.02774154 -0.40887225
H  0.13579920 0.36602213 0.27249978
H  0.75606997 -0.15447814 -0.41259198
H  0.12608791 0.12943803 0.48452712
12
MD Step 666.0 Units = [eV / Ang.]
C  1.02991303 0.25252436 -0.23195750
C  0.40557901 0.63298621 0.99897979
C  -0.83294202 -1.31027722 0.01889402
C  0.78936352 -0.16987640 -0.36887173
C  -2.05094904 0.92919186 0.76444773
C  0.43320151 -0.62222381 -0.88919777
H  -0.86801606 -0.97527387 -0.08040794
H  0.23444685 0.11226314 -0.08779887
H  -0.25303686 0.00483865 -0.42271151
H  0.44401675 0.86457007 0.19177089
H  0.53433593 0.11674988 -0.35779648
H  0.13408739 0.16452714 0.46464938
12
MD Step 666.5 Units = [eV / Ang.]
C  0.91853411 0.31589033 -0.21261393
C  0.74649386 0.76996679 0.98494681
C  -0.59560708 -1.40979788 0.00454651
C  0.51964251 -0.52426575 -0.26638710
C  -2.03240741 0.47588741 0.70281477
C  0.54059058 -0.34411513 -0.89822062
H  -0.97253798 -1.19670032 -0.04090135
H  0.24555167 0.00461167 -0.10882108
H  -0.50539357 -0.01917739 -0.42636368
H  0.71950767 1.31248882 0.12495436
H  0.28383644 0.42000794 -0.30418542
H  0.13178920 0.19520350 0.44023073
12
MD Step 667.0 Units = [eV / Ang.]
C  0.74169728 0.25626749 -0.17526976
C  1.07672338 0.86253563 0.96626494
C  -0.38350008 -1.47082687 -0.02024879
C  0.28040728 -0.77830401 -0.17741620
C  -1.95864995 0.02482451 0.64089436
C  0.64370846 -0.06750864 -0.89730866
H  -1.00908810 -1.28497676 -0.02427795
H  0.24815721 -0.09109746 -0.12717520
H  -0.71308618 -0.04386852 -0.41788013
H  0.92775272 1.64377236 0.07580792
H  0.02502779 0.72788103 -0.25521989
H  0.12085018 0.22130124 0.41182938
12
MD Step 667.5 Units = [eV / Ang.]
C  0.49933061 0.06427325 -0.12223209
C  1.39117416 0.90266542 0.94363233
C  -0.20846323 -1.49176661 -0.05556208
C  0.09754971 -0.87632409 -0.10162229
C  -1.84950401 -0.38492567 0.58085151
C  0.73768880 0.20163347 -0.88692346
H  -0.97174947 -1.22765360 -0.02845447
H  0.23910689 -0.16834169 -0.14320637
H  -0.86297940 -0.06874854 -0.39674784
H  1.04120930 1.80098563 0.04334238
H  -0.21709798 1.00538606 -0.21314110
H  0.10373461 0.24281638 0.38006348
12
MD Step 668.0 Units = [eV / Ang.]
C  0.20087189 -0.24728733 -0.05917941
C  1.68448115 0.88580996 0.91783260
C  -0.07846365 -1.47263852 -0.10036517
C  -0.01684671 -0.78686812 -0.03410415
C  -1.72766786 -0.71185888 0.52308462
C  0.81833291 0.45793097 -0.86778514
H  -0.86457181 -1.03492722 -0.04765816
H  0.21628286 -0.22272637 -0.15740544
H  -0.94664585 -0.09328116 -0.36362954
H  1.04728468 1.75203788 0.02167602
H  -0.41653019 1.21391776 -0.17800209
H  0.08347257 0.25989102 0.34553586
12
MD Step 668.5 Units = [eV / Ang.]
C  -0.13578255 -0.64641306 0.00644352
C  1.95068132 0.81138681 0.88961778
C  0.00172374 -1.41496980 -0.15284666
C  -0.06797324 -0.51342948 0.03275057
C  -1.61364834 -0.91892773 0.46563355
C  0.88235188 0.69645507 -0.84077017
H  -0.70059036 -0.73668309 -0.07409909
H  0.17899412 -0.25247736 -0.17028651
H  -0.95975036 -0.11688054 -0.32008283
H  0.95215396 1.50088078 0.00200593
H  -0.55151637 1.31827423 -0.14713102
H  0.06335618 0.27278417 0.30876494
12
MD Step 669.0 Units = [eV / Ang.]
C  -0.48742481 -1.08979547 0.06739320
C  2.18302663 0.68277256 0.85960245
C  0.03004528 -1.32148750 -0.21068806
C  -0.07558030 -0.09362275 0.10621506
C  -1.52046329 -0.98168406 0.40443163
C  0.92753246 0.91258784 -0.80679573
H  -0.49867989 -0.37456456 -0.10002161
H  0.12816875 -0.25856039 -0.18226611
H  -0.90163415 -0.13891747 -0.26832422
H  0.77834231 1.08640285 -0.02416665
H  -0.60993834 1.29503633 -0.11551155
H  0.04660532 0.28183261 0.27013160
12
MD Step 669.5 Units = [eV / Ang.]
C  -0.82951667 -1.53214634 0.11817619
C  2.37406074 0.50678713 0.82818255
C  0.00715703 -1.19569685 -0.27127336
C  -0.06654111 0.41270430 0.19061214
C  -1.45032498 -0.89466191 0.33454439
C  0.95285805 1.10195144 -0.76671464
H  -0.27956729 0.00745994 -0.11932926
H  0.06629803 -0.24439651 -0.19357357
H  -0.77531475 -0.15873916 -0.21104496
H  0.55740505 0.57012718 -0.06224787
H  -0.59253773 1.13920228 -0.07718336
H  0.03602365 0.28740851 0.22985174
12
MD Step 670.0 Units = [eV / Ang.]
C  -1.13964651 -1.93363520 0.15575514
C  2.51602212 0.29280821 0.79549303
C  -0.06308788 -1.04145462 -0.33185227
C  -0.06648341 0.94006530 0.28634687
C  -1.39487824 -0.67309687 0.25195193
C  0.95857824 1.26047456 -0.72124721
H  -0.06241826 0.37064001 -0.12834549
H  -0.00285182 -0.21525875 -0.20420974
H  -0.58791422 -0.17571164 -0.15124409
H  0.32142516 0.01917926 -0.11345162
H  -0.51243121 0.86610931 -0.02717815
H  0.03368603 0.28988043 0.18798161
12
MD Step 670.5 Units = [eV / Ang.]
C  -1.39966149 -2.26375380 0.17947103
C  2.60153331 0.05169398 0.76140365
C  -0.17281124 -0.86265386 -0.38970248
C  -0.09394536 1.43121683 0.39059347
C  -1.33885939 -0.34907173 0.15505962
C  0.94621448 1.38459010 -0.67096507
H  0.13717420 0.68538211 -0.12576101
H  -0.07469911 -0.17748083 -0.21395859
H  -0.35133637 -0.18928447 -0.09202562
H  0.09680592 -0.50790662 -0.17543196
H  -0.39111566 0.50768504 0.03686071
H  0.04070072 0.28958326 0.14445624
12
MD Step 671.0 Units = [eV / Ang.]
C  -1.59638792 -2.50181679 0.19050604
C  2.62443496 -0.20526630 0.72554939
C  -0.30933754 -0.66305600 -0.44234685
C  -0.15837725 1.84421210 0.49877832
C  -1.26539049 0.03621501 0.04527620
C  0.91849450 1.47151478 -0.61632580
H  0.30773384 0.93177144 -0.11210425
H  -0.14437587 -0.13764568 -0.22244035
H  -0.08281738 -0.19907153 -0.03631072
H  -0.09824382 -0.96838094 -0.24379302
H  -0.25280522 0.10472383 0.11405360
H  0.05707220 0.28680007 0.09915744
12
MD Step 671.5 Units = [eV / Ang.]
C  -1.72134080 -2.63538861 0.19123862
C  2.58061092 -0.46721661 0.68738942
C  -0.45503335 -0.44630138 -0.48785187
C  -0.26125101 2.15288969 0.60594871
C  -1.16065451 0.44086806 -0.07343535
C  0.87916719 1.51952509 -0.55774626
H  0.44142438 1.09795342 -0.08909771
H  -0.20723539 -0.10187529 -0.22918852
H  0.19517614 -0.20491875 0.01354272
H  -0.25317328 -1.33571969 -0.31354394
H  -0.11938372 -0.30157175 0.20074701
H  0.08169344 0.28175583 0.05199718
12
MD Step 672.0 Units = [eV / Ang.]
C  -1.76994808 -2.65803576 0.18470836
C  2.46863819 -0.72434183 0.64627983
C  -0.58831548 -0.21607857 -0.52516848
C  -0.39871924 2.34348410 0.70756453
C  -1.01651154 0.82854774 -0.19561577
C  0.83271877 1.52816635 -0.49569125
H  0.53313777 1.17779771 -0.05912819
H  -0.25927061 -0.07529786 -0.23373120
H  0.45623663 -0.20692658 0.05616036
H  -0.36299606 -1.59602872 -0.38000713
H  -0.00743458 -0.67590632 0.29162642
H  0.11246422 0.27461973 0.00300252
12
MD Step 672.5 Units = [eV / Ang.]
C  -1.74074560 -2.56742832 0.17426464
C  2.29018642 -0.96820950 0.60155374
C  -0.68617389 0.02359367 -0.55440626
C  -0.56443072 2.41015635 0.79971852
C  -0.83089106 1.17141359 -0.31541148
C  0.78399408 1.49832065 -0.43075049
H  0.57963021 1.16888806 -0.02491054
H  -0.29741192 -0.06170686 -0.23566231
H  0.67279645 -0.20539572 0.09148168
H  -0.42595099 -1.74329577 -0.43915196
H  0.07247430 -0.99185023 0.38089075
H  0.14652272 0.26551409 -0.04761629
12
MD Step 673.0 Units = [eV / Ang.]
C  -1.63479729 -2.36432017 0.16336857
C  2.05010804 -1.19191036 0.55260081
C  -0.72798209 0.26801518 -0.57688382
C  -0.75178252 2.35127795 0.87901004
C  -0.60663534 1.45015243 -0.42733656
C  0.73777416 1.43214327 -0.36368942
H  0.57901339 1.07139632 0.01068607
H  -0.31971009 -0.06337801 -0.23469588
H  0.82017320 -0.20069261 0.12083842
H  -0.44165517 -1.77537668 -0.48756008
H  0.11494149 -1.23183382 0.46308770
H  0.18055221 0.25452649 -0.09942585
12
MD Step 673.5 Units = [eV / Ang.]
C  -1.45554201 -2.05262225 0.15547490
C  1.75623978 -1.39006357 0.49894080
C  -0.69972723 0.51149819 -0.59484185
C  -0.95529520 2.16725559 0.94232867
C  -0.34974653 1.65235635 -0.52661067
C  0.69837074 1.33287268 -0.29545949
H  0.53077988 0.88807653 0.04472895
H  -0.32541968 -0.08100861 -0.23070016
H  0.88099532 -0.19307449 0.14666521
H  -0.41002337 -1.69158405 -0.52226968
H  0.11824759 -1.38542912 0.53351012
H  0.21112071 0.24172276 -0.15176680
12
MD Step 674.0 Units = [eV / Ang.]
C  -1.20914690 -1.64052981 0.15389992
C  1.41897246 -1.55877336 0.44028293
C  -0.59735130 0.74721162 -0.61083572
C  -1.17109406 1.86013882 0.98675484
C  -0.06769201 1.77049991 -0.60918391
C  0.66927248 1.20454723 -0.22717387
H  0.43642566 0.62536602 0.07433356
H  -0.31501202 -0.11372737 -0.22371484
H  0.84868511 -0.18254641 0.17186508
H  -0.33100756 -1.49215717 -0.54070398
H  0.08293520 -1.44718869 0.58826276
H  0.23501295 0.22715923 -0.20378675
12
MD Step 674.5 Units = [eV / Ang.]
C  -0.90532397 -1.14249446 0.16157531
C  1.05061241 -1.69557047 0.37656360
C  -0.42800963 0.96730611 -0.62698196
C  -1.39644944 1.43501170 1.00971504
C  0.23182306 1.80036586 -0.67163457
C  0.65289168 1.05171565 -0.16006054
H  0.30061797 0.29536891 0.09689808
H  -0.29012386 -0.15916605 -0.21394824
H  0.72878821 -0.16882007 0.19901761
H  -0.20516535 -1.17966949 -0.54083689
H  0.01081988 -1.41494142 0.62419534
H  0.24951905 0.21089374 -0.25450278
12
MD Step 675.0 Units = [eV / Ang.]
C  -0.55845802 -0.58144470 0.18062867
C  0.66466018 -1.79936186 0.30795385
C  -0.20874300 1.16332421 -0.64432370
C  -1.62839833 0.90315064 1.00950356
C  0.54153321 1.74042083 -0.71113149
C  0.65042651 0.87913511 -0.09539824
H  0.13264371 -0.08185148 0.11053085
H  -0.25344907 -0.21358821 -0.20176181
H  0.53765566 -0.15140238 0.22969991
H  -0.03507869 -0.76231981 -0.52169870
H  -0.09544775 -1.28905690 0.63888246
H  0.25265560 0.19299455 -0.30288535
12
MD Step 675.5 Units = [eV / Ang.]
C  -0.18846407 0.00971660 0.21178585
C  0.27500761 -1.87036274 0.23483273
C  0.03690235 1.32687559 -0.66252785
C  -1.86148777 0.28648363 0.98615616
C  0.85471071 1.59227188 -0.72558853
C  0.66182806 0.69155278 -0.03445538
H  -0.05241981 -0.47668870 0.11466498
H  -0.20855865 -0.27210040 -0.18763599
H  0.29899102 -0.12977546 0.26414619
H  0.17246938 -0.25865942 -0.48422264
H  -0.23229507 -1.07286195 0.63079442
H  0.24331624 0.17354821 -0.34794994
12
MD Step 676.0 Units = [eV / Ang.]
C  0.17939276 0.58874081 0.25374633
C  -0.10483979 -1.90997029 0.15772909
C  0.28312071 1.45041634 -0.67997681
C  -2.08505163 -0.37784308 0.94249391
C  1.16471084 1.36218338 -0.71410119
C  0.68586834 0.49357780 0.02156918
H  -0.23366701 -0.85052690 0.11070537
H  -0.15963763 -0.32897720 -0.17212232
H  0.03947377 -0.10359543 0.30130451
H  0.40397664 0.29752317 -0.43223701
H  -0.39468873 -0.77419556 0.59973528
H  0.22134173 0.15266695 -0.38884635
12
MD Step 676.5 Units = [eV / Ang.]
C  0.51656245 1.10800048 0.30282896
C  -0.46248122 -1.92052731 0.07724450
C  0.50566909 1.52796896 -0.69415563
C  -2.28102003 -1.03524733 0.88484586
C  1.46404002 1.06332746 -0.67765002
C  0.72027898 0.28968449 0.07160218
H  -0.38631003 -1.15963846 0.10239285
H  -0.11113371 -0.37811947 -0.15578378
H  -0.21522753 -0.07283824 0.33919154
H  0.63737898 0.85468038 -0.37310936
H  -0.57528279 -0.40778668 0.54752983
H  0.18752577 0.13049573 -0.42493692
12
MD Step 677.0 Units = [eV / Ang.]
C  0.79543544 1.52199260 0.35326747
C  -0.78721398 -1.90495702 -0.00602928
C  0.68442682 1.55563398 -0.70215528
C  -2.42379802 -1.61702677 0.82273002
C  1.74311988 0.71806812 -0.61991152
C  0.76194982 0.08431357 0.11474690
H  -0.48589888 -1.36263486 0.09550280
H  -0.06733653 -0.41363317 -0.13913130
H  -0.44318944 -0.03786098 0.37536270
H  0.84244023 1.34660637 -0.31732137
H  -0.76348959 0.00228027 0.47879247
H  0.14355423 0.10721789 -0.45585361
12
MD Step 677.5 Units = [eV / Ang.]
C  0.99488783 1.79667481 0.39833656
C  -1.07047169 -1.86628071 -0.09157190
C  0.80450735 1.53180637 -0.70113469
C  -2.48369111 -2.05135930 0.76693221
C  1.98913352 0.35904628 -0.54781643
C  0.80717100 -0.11796223 0.15033609
H  -0.51394746 -1.42976931 0.09668474
H  -0.03193103 -0.43048298 -0.12256715
H  -0.62749872 0.00061446 0.40733949
H  0.98482425 1.70336077 -0.27642489
H  -0.94487156 0.42129412 0.40141501
H  0.09188762 0.08305772 -0.48152902
12
MD Step 678.0 Units = [eV / Ang.]
C  1.10518065 1.91733868 0.43208383
C  -1.30609620 -1.80711684 -0.17896451
C  0.85626074 1.45711676 -0.68865332
C  -2.43400543 -2.28044155 0.72622505
C  2.18557725 0.02752480 -0.47134364
C  0.85190590 -0.31230632 0.17798142
H  -0.46297003 -1.35074411 0.11168186
H  -0.00759003 -0.42512488 -0.10634734
H  -0.75635492 0.04156182 0.43291087
H  1.03388349 1.86846902 -0.25964053
H  -1.10139152 0.80544675 0.32626440
H  0.03560009 0.05827586 -0.50219808
12
MD Step 678.5 Units = [eV / Ang.]
C  1.13005660 1.89164394 0.45100559
C  -1.49044758 -1.72925957 -0.26788307
C  0.83466960 1.33416074 -0.66286202
C  -2.25957016 -2.27744562 0.70408401
C  2.31321373 -0.23215616 -0.40210666
C  0.89210593 -0.49360413 0.19760392
H  -0.33871222 -1.13761022 0.14361010
H  0.00432093 -0.39600735 -0.09057222
H  -0.82253129 0.08372661 0.45030534
H  0.97177067 1.81602320 -0.27048474
H  -1.21304237 1.10737179 0.26566505
H  -0.02183385 0.03315675 -0.51836528
12
MD Step 679.0 Units = [eV / Ang.]
C  1.08499175 1.74644399 0.45492387
C  -1.62235082 -1.63346654 -0.35805670
C  0.73863598 1.16715504 -0.62259440
C  -1.96268979 -2.05499345 0.69723507
C  2.35278389 -0.38161927 -0.35076420
C  0.92402649 -0.65662559 0.20943784
H  -0.15850746 -0.82138137 0.19205708
H  0.00386768 -0.34383544 -0.07520685
H  -0.82270597 0.12570228 0.45827635
H  0.79972268 1.55929193 -0.30527762
H  -1.26098975 1.28534148 0.23071026
H  -0.07678468 0.00798694 -0.53074070
12
MD Step 679.5 Units = [eV / Ang.]
C  0.99246139 1.51998068 0.44673877
C  -1.70289713 -1.51949522 -0.44921275
C  0.57049628 0.96159824 -0.56740480
C  -1.56328907 -1.66047029 0.69698200
C  2.28908571 -0.39843646 -0.32400115
C  0.94452383 -0.79633915 0.21399230
H  0.05342290 -0.44396828 0.25334396
H  -0.00752005 -0.27153749 -0.06012654
H  -0.75702842 0.16600787 0.45615432
H  0.53813981 1.14607621 -0.35449330
H  -1.23165057 1.31355522 0.22817526
H  -0.12574467 -0.01697131 -0.54014806
12
MD Step 680.0 Units = [eV / Ang.]
C  0.87630499 1.25285985 0.43130574
C  -1.73508794 -1.38638563 -0.54101495
C  0.33593268 0.72397839 -0.49760320
C  -1.09317805 -1.16075809 0.69254856
C  2.11510489 -0.28300720 -0.32237057
C  0.95129059 -0.90831173 0.21197109
H  0.27161487 -0.04890561 0.32169663
H  -0.02729289 -0.18393543 -0.04517472
H  -0.62909696 0.20317943 0.44390481
H  0.22039455 0.64337533 -0.40618522
H  -1.12037601 1.18941682 0.25833768
H  -0.16561073 -0.04150613 -0.54741585
12
MD Step 680.5 Units = [eV / Ang.]
C  0.75729246 0.98099756 0.41405597
C  -1.72337160 -1.23288238 -0.63301452
C  0.04430336 0.46146796 -0.41429923
C  -0.58765431 -0.62422600 0.67457851
C  1.83456438 -0.05900555 -0.34009180
C  0.94300020 -0.98908177 0.20415979
H  0.47385422 0.32586071 0.39069892
H  -0.05214182 -0.08719174 -0.03021983
H  -0.44634410 0.23588930 0.42220597
H  -0.11634152 0.11925302 -0.44961165
H  -0.93320490 0.93439206 0.31480078
H  -0.19395637 -0.06547315 -0.55326290
12
MD Step 681.0 Units = [eV / Ang.]
C  0.65088177 0.73205099 0.39990694
C  -1.67309885 -1.05789491 -0.72461727
C  -0.29078295 0.18157501 -0.31944772
C  -0.07840872 -0.10748904 0.63724611
C  1.46178074 0.23299245 -0.36693449
C  0.91934857 -1.03642753 0.19130381
H  0.64347139 0.65158490 0.45445705
H  -0.07840920 0.01186598 -0.01519784
H  -0.22064280 0.26309397 0.39252440
H  -0.43905809 -0.37051319 -0.47749303
H  -0.68583279 0.58796088 0.38645011
H  -0.20924906 -0.08879953 -0.55819809
12
MD Step 681.5 Units = [eV / Ang.]
C  0.56704144 0.52502684 0.39270577
C  -1.58999343 -0.86088958 -0.81506925
C  -0.65098248 -0.10826713 -0.21584672
C  0.40995665 0.35000933 0.57860427
C  1.01902858 0.54581836 -0.39125440
C  0.88099003 -1.04948323 0.17400191
H  0.76957124 0.90902693 0.50821703
H  -0.10247685 0.10642085 -0.00013618
H  0.03122436 0.28419260 0.35713541
H  -0.72316140 -0.78786375 -0.48649681
H  -0.40020423 0.19748077 0.46058751
H  -0.21099389 -0.11147201 -0.56244854
12
MD Step 682.0 Units = [eV / Ang.]
C  0.51130977 0.37180514 0.39514708
C  -1.47968990 -0.64216224 -0.90346228
C  -1.01331479 -0.40109842 -0.10702816
C  0.85989607 0.72489462 0.49974033
C  0.53266817 0.83569976 -0.40282633
C  0.82938504 -1.02871255 0.15263494
H  0.84600001 1.08675151 0.54848791
H  -0.12108972 0.19025682 0.01484473
H  0.28771548 0.29914719 0.31901974
H  -0.95295677 -1.11126729 -0.47650167
H  -0.10015136 -0.19180193 0.52587255
H  -0.19977199 -0.13351261 -0.56592884
12
MD Step 682.5 Units = [eV / Ang.]
C  0.48623916 0.27927029 0.40895677
C  -1.34739590 -0.40300824 -0.98875578
C  -1.35134817 -0.69070224 0.00302765
C  1.25888916 1.00546494 0.40355685
C  0.02954487 1.06874598 -0.39452516
C  0.76656816 -0.97578589 0.12734780
H  0.86991527 1.17879368 0.57287525
H  -0.13159358 0.25821275 0.02954674
H  0.52379518 0.30849962 0.28157141
H  -1.11978198 -1.33115757 -0.44945182
H  0.19233800 -0.54338599 0.57410670
H  -0.17717017 -0.15494734 -0.56825640
12
MD Step 683.0 Units = [eV / Ang.]
C  0.49260470 0.25109329 0.43513302
C  -1.19770678 -0.14581584 -1.06981099
C  -1.63773567 -0.97163227 0.11035996
C  1.59696325 1.18679701 0.29375637
C  -0.46535926 1.22307986 -0.36269011
C  0.69488380 -0.89340548 0.09807781
H  0.84058980 1.18269537 0.57984580
H  -0.13208890 0.30648650 0.04372029
H  0.71356870 0.31322594 0.24811121
H  -1.21939256 -1.44486506 -0.40837444
H  0.45928675 -0.83188407 0.60067981
H  -0.14561382 -0.17577527 -0.56880873
12
MD Step 683.5 Units = [eV / Ang.]
C  0.53005307 0.28866664 0.47409219
C  -1.03453615 0.12586441 -1.14543692
C  -1.84791512 -1.23896594 0.21160977
C  1.86484794 1.26693866 0.17424650
C  -0.92990337 1.28763124 -0.30657305
C  0.61669708 -0.78511618 0.06462384
H  0.75877626 1.09845142 0.56858390
H  -0.12152225 0.33281637 0.05709614
H  0.83407528 0.31442365 0.22128403
H  -1.24970562 -1.45268381 -0.35678673
H  0.68725226 -1.04208111 0.60407483
H  -0.10811938 -0.19594534 -0.56681449
12
MD Step 684.0 Units = [eV / Ang.]
C  0.59710225 0.39100023 0.52563707
C  -0.86116051 0.40725171 -1.21444625
C  -1.96416017 -1.48786197 0.30455129
C  2.05318098 1.24473627 0.04895022
C  -1.34479240 1.25933287 -0.22744080
C  0.53412982 -0.65514288 0.02673168
H  0.62674478 0.92858032 0.53902978
H  -0.09973027 0.33656315 0.06941569
H  0.86942063 0.31290927 0.20251051
H  -1.20943963 -1.35566514 -0.29847625
H  0.86671465 -1.16636127 0.58499701
H  -0.06801013 -0.21534257 -0.56145995
12
MD Step 684.5 Units = [eV / Ang.]
C  0.69050041 0.55355827 0.58871729
C  -0.68030859 0.69227088 -1.27571635
C  -1.97878415 -1.71310217 0.38838511
C  2.15290818 1.11938729 -0.07811770
C  -1.69321913 1.14016803 -0.12776085
C  0.44883215 -0.50823153 -0.01581597
H  0.44896428 0.67931421 0.49212836
H  -0.06745342 0.31872246 0.08045870
H  0.81402881 0.30887511 0.19168968
H  -1.09785099 -1.15522698 -0.23752673
H  0.99099978 -1.20194933 0.54555685
H  -0.02861732 -0.23378624 -0.55199839
12
MD Step 685.0 Units = [eV / Ang.]
C  0.80412203 0.76626760 0.66103622
C  -0.49427720 0.97353733 -1.32825403
C  -1.89539147 -1.90883098 0.46366495
C  2.15684437 0.89170728 -0.20267845
C  -1.96060004 0.93497059 -0.01067844
C  0.36182353 -0.34951333 -0.06313182
H  0.23324949 0.36266598 0.43023833
H  -0.02631868 0.28187254 0.09006186
H  0.67389609 0.30175656 0.18727743
H  -0.91564286 -0.85454344 -0.17841231
H  1.05530186 -1.14885390 0.48871971
H  0.00699288 -0.25103624 -0.53784346
12
MD Step 685.5 Units = [eV / Ang.]
C  0.92774887 1.01123899 0.73862726
C  -0.30504252 1.24243774 -1.37125164
C  -1.72771756 -2.06861745 0.53187654
C  2.06231553 0.56709150 -0.32014408
C  -2.13472718 0.65031567 0.12017836
C  0.27339753 -0.18434439 -0.11517254
H  -0.00799525 -0.00122168 0.35756314
H  0.02121908 0.23004794 0.09812931
H  0.46537920 0.29037707 0.18672305
H  -0.66702609 -0.46162216 -0.12594493
H  1.05619387 -1.00889700 0.41805550
H  0.03625452 -0.26680622 -0.51863998
12
MD Step 686.0 Units = [eV / Ang.]
C  1.04631572 1.26122860 0.81564323
C  -0.11435395 1.48937457 -1.40412554
C  -1.49649006 -2.18582938 0.59482809
C  1.87453217 0.15985141 -0.42594342
C  -2.20650445 0.29458189 0.26064814
C  0.18311060 -0.01811465 -0.17171450
H  -0.25705076 -0.38251140 0.28035294
H  0.07199695 0.16851269 0.10463076
H  0.21195650 0.27331104 0.18710158
H  -0.36266414 0.00630291 -0.08483098
H  0.99186880 -0.78592988 0.33771383
H  0.05728262 -0.28077780 -0.49430414
12
MD Step 686.5 Units = [eV / Ang.]
C  1.14039403 1.48024952 0.88466270
C  0.07617339 1.70421800 -1.42653023
C  -1.22541499 -2.25421452 0.65405986
C  1.60984990 -0.30211759 -0.51643240
C  -2.17135986 -0.12092827 0.40587855
C  0.08985042 0.14399597 -0.23234579
H  -0.49145024 -0.74232969 0.20656825
H  0.12234682 0.10340077 0.10958881
H  -0.05992400 0.24931473 0.18572863
H  -0.02268862 0.51818465 -0.05863441
H  0.86323190 -0.48716049 0.25248768
H  0.06899125 -0.29261308 -0.46503164
12
MD Step 687.0 Units = [eV / Ang.]
C  1.18849723 1.62757737 0.93772678
C  0.26495921 1.87694875 -1.43833947
C  -0.93748322 -2.26852042 0.71044272
C  1.29731508 -0.77455514 -0.59038444
C  -2.03126229 -0.58006093 0.55025931
C  -0.00801542 0.29729030 -0.29647041
H  -0.68644664 -1.03689313 0.14478770
H  0.16839006 0.04121842 0.11305560
H  -0.32468645 0.21767192 0.18059029
H  0.32179748 1.02662064 -0.04817497
H  0.67578685 -0.12533374 0.16778156
H  0.07114810 -0.30196403 -0.43127466
12
MD Step 687.5 Units = [eV / Ang.]
C  1.17118289 1.66525863 0.96802957
C  0.45033044 1.99847218 -1.43960232
C  -0.65242722 -2.22506251 0.76402877
C  0.97649595 -1.19897673 -0.65057545
C  -1.79699812 -1.05963016 0.68766313
C  -0.11242540 0.43782938 -0.36331909
H  -0.81931931 -1.22519827 0.10244890
H  0.20641559 -0.01178200 0.11508272
H  -0.56031463 0.17836792 0.17052719
H  0.63076273 1.47038056 -0.04987065
H  0.44193219 0.27881978 0.08928082
H  0.06436489 -0.30847877 -0.39369360
12
MD Step 688.0 Units = [eV / Ang.]
C  1.07590038 1.56736266 0.97175369
C  0.63035344 2.06148448 -1.43048727
C  -0.38554251 -2.12217521 0.81412509
C  0.69039354 -1.51196934 -0.70446101
C  -1.48988041 -1.52798053 0.81217301
C  -0.22534809 0.56261987 -0.43196950
H  -0.87443550 -1.27844397 0.08394695
H  0.23329548 -0.05027940 0.11569291
H  -0.74965680 0.13209624 0.15521095
H  0.86211797 1.78416163 -0.05506160
H  0.18278029 0.69493024 0.02216411
H  0.05002222 -0.31180667 -0.35308733
12
MD Step 688.5 Units = [eV / Ang.]
C  0.90076162 1.32754794 0.94927693
C  0.80263303 2.06127178 -1.41123243
C  -0.14762662 -1.96051057 0.85950963
C  0.47462339 -1.66059658 -0.76288013
C  -1.14158357 -1.94566046 0.91928177
C  -0.34847136 0.66965145 -0.50137562
H  -0.84719479 -1.18772029 0.08938164
H  0.24688010 -0.07052308 0.11485933
H  -0.88059649 0.08015354 0.13499629
H  0.98230465 1.91441372 -0.05139527
H  -0.07185330 1.08357935 -0.03010941
H  0.03012335 -0.31160678 -0.31031273
12
MD Step 689.0 Units = [eV / Ang.]
C  0.65555324 0.96158154 0.90514491
C  0.96413349 1.99629933 -1.38211929
C  0.05441314 -1.74312673 0.89869902
C  0.34707230 -1.61837698 -0.83662640
C  -0.79081933 -2.26943364 1.00721958
C  -0.48290469 0.75773760 -0.57041081
H  -0.74513748 -0.96655977 0.11457215
H  0.24629022 -0.07080515 0.11250123
H  -0.94557850 0.02429206 0.11073279
H  0.97650491 1.83553512 -0.02642457
H  -0.28662284 1.40041824 -0.06708552
H  0.00709554 -0.30756162 -0.26620307
12
MD Step 689.5 Units = [eV / Ang.]
C  0.35951636 0.50361146 0.84679022
C  1.11105495 1.86847090 -1.34347617
C  0.21678296 -1.47532077 0.93019805
C  0.30313807 -1.39407301 -0.93225818
C  -0.47647550 -2.45974219 1.07774990
C  -0.62892244 0.82616201 -0.63792559
H  -0.58571925 -0.64714401 0.15235554
H  0.23204726 -0.05167426 0.10849895
H  -0.94098645 -0.03342727 0.08359148
H  0.85333961 1.55859257 0.02798453
H  -0.42731354 1.60394140 -0.09201386
H  -0.01646202 -0.29939683 -0.22149487
12
MD Step 690.0 Units = [eV / Ang.]
C  0.03692083 -0.00206096 0.78259929
C  1.23884710 1.68301820 -1.29571210
C  0.33819469 -1.16419696 0.95269260
C  0.31913900 -1.02853444 -1.04937792
C  -0.22881342 -2.48985368 1.13578189
C  -0.78578339 0.87426518 -0.70281976
H  -0.39179846 -0.27195674 0.19456106
H  0.20601190 -0.01584232 0.10272516
H  -0.86672041 -0.09077000 0.05492534
H  0.64145284 1.12778563 0.11271886
H  -0.46940025 1.66505031 -0.11131870
H  -0.03805043 -0.28690421 -0.17677572
12
MD Step 690.5 Units = [eV / Ang.]
C  -0.28772431 -0.51015476 0.72012703
C  1.34243317 1.44805473 -1.23936068
C  0.41967241 -0.81808285 0.96516394
C  0.36179410 -0.58141052 -1.18081170
C  -0.06201160 -2.35323180 1.18765980
C  -0.95165040 0.90108573 -0.76411509
H  -0.18673925 0.11551721 0.23383341
H  0.17113953 0.03219981 0.09508648
H  -0.72616266 -0.14546813 0.02616062
H  0.37995309 0.60660640 0.22144977
H  -0.40517232 1.57484668 -0.13273388
H  -0.05553176 -0.26996250 -0.13245971
12
MD Step 691.0 Units = [eV / Ang.]
C  -0.59319255 -0.98138044 0.66501415
C  1.41659286 1.17389381 -1.17512399
C  0.46480616 -0.44586805 0.96695027
C  0.39881175 -0.11475185 -1.31527438
C  0.02846702 -2.06582603 1.23880924
C  -1.12357998 0.90527050 -0.82102593
H  0.00923306 0.47782126 0.26474070
H  0.13111328 0.08676601 0.08556400
H  -0.52652102 -0.19539082 -0.00130329
H  0.10768441 0.06084895 0.34324126
H  -0.24606161 1.34716893 -0.16279966
H  -0.06735339 -0.24855226 -0.08879237
12
MD Step 691.5 Units = [eV / Ang.]
C  -0.86318304 -1.38580531 0.62069647
C  1.45649280 0.87225966 -1.10389432
C  0.48034756 -0.05641291 0.95777108
C  0.40612546 0.31947709 -1.44077796
C  0.06250233 -1.66210188 1.29185250
C  -1.29759884 0.88525734 -0.87300229
H  0.18074636 0.78687360 0.28406534
H  0.08991756 0.14165482 0.07424345
H  -0.27939084 -0.23876520 -0.02620330
H  -0.14426033 -0.45433471 0.46600599
H  -0.01900413 1.01465784 -0.20487295
H  -0.07269491 -0.22276035 -0.04588400
12
MD Step 692.0 Units = [eV / Ang.]
C  -1.08635099 -1.70302796 0.58866900
C  1.45828432 0.55553908 -1.02675210
C  0.47678709 0.34188286 0.93775921
C  0.37030007 0.68481849 -1.54716760
C  0.06775690 -1.18669452 1.34601743
C  -1.46885806 0.83968205 -0.91973740
H  0.31731410 1.02405198 0.29051886
H  0.05142823 0.19080663 0.06132938
H  -0.00119482 -0.27443341 -0.04754583
H  -0.35523854 -0.90009662 0.57915976
H  0.24130078 0.62024833 -0.25848867
H  -0.07152907 -0.19277691 -0.00376204
12
MD Step 692.5 Units = [eV / Ang.]
C  -1.25535942 -1.92053540 0.56897905
C  1.41960572 0.23612051 -0.94493479
C  0.46847262 0.74134950 0.90750544
C  0.28720940 0.95961602 -1.62715346
C  0.07145609 -0.68529839 1.39784689
C  -1.63188067 0.76793166 -0.96113149
H  0.41239462 1.17837935 0.28421751
H  0.01906747 0.22885998 0.04713962
H  0.28693654 -0.30209216 -0.06475329
H  -0.51399849 -1.25322077 0.67480311
H  0.50068607 0.20777691 -0.32008678
H  -0.06458995 -0.15888720 0.03756822
12
MD Step 693.0 Units = [eV / Ang.]
C  -1.36573803 -2.03154468 0.56069539
C  1.33999719 -0.07412261 -0.85978781
C  0.47276936 1.13504386 0.86810708
C  0.15897708 1.13310371 -1.67612186
C  0.09460146 -0.19790621 1.44256526
C  -1.78088434 0.67060057 -0.99721709
H  0.46219220 1.24420572 0.26618107
H  -0.00445347 0.25157157 0.03208303
H  0.56030202 -0.32241755 -0.07779084
H  -0.61586030 -1.50204830 0.74767140
H  0.73136183 -0.18502086 -0.38445266
H  -0.05326500 -0.12146521 0.07806702
12
MD Step 693.5 Units = [eV / Ang.]
C  -1.41495109 -2.03329247 0.56223942
C  1.22110753 -0.36423181 -0.77269957
C  0.50801301 1.51647179 0.82116748
C  -0.00914051 1.20093222 -1.69135486
C  0.14967873 0.24429057 1.47536194
C  -1.91016331 0.54980400 -1.02806707
H  0.46469501 1.21935271 0.23798136
H  -0.01730123 0.25609347 0.01662376
H  0.79302527 -0.33696739 -0.08721932
H  -0.65977436 -1.64172251 0.79445721
H  0.91423529 -0.52975960 -0.44610684
H  -0.03942433 -0.08097099 0.11761651
12
MD Step 694.0 Units = [eV / Ang.]
C  -1.40196536 -1.92623255 0.57155286
C  1.06670969 -0.62448704 -0.68503068
C  0.59038112 1.87906274 0.76869838
C  -0.21110260 1.16168675 -1.67121366
C  0.24126586 0.61888769 1.49217025
C  -2.01448082 0.40924389 -1.05370460
H  0.41922496 1.10423867 0.20156956
H  -0.01861467 0.24113621 0.00123582
H  0.96155093 -0.34780547 -0.09412404
H  -0.64612135 -1.67039943 0.81304936
H  1.03836496 -0.80737969 -0.50019962
H  -0.02521272 -0.03795178 0.15599638
12
MD Step 694.5 Units = [eV / Ang.]
C  -1.32742833 -1.71432778 0.58614516
C  0.88252379 -0.84668883 -0.59804118
C  0.73040046 2.21551359 0.71289616
C  -0.44139938 1.01503286 -1.61461541
C  0.36815277 0.91050773 1.48990476
C  -2.08943043 0.25404789 -1.07403141
H  0.32662082 0.90217065 0.15923979
H  -0.00854119 0.20703988 -0.01364751
H  1.04852440 -0.35690008 -0.09990164
H  -0.57553479 -1.58711837 0.80202769
H  1.09894192 -1.00623277 -0.54285660
H  -0.01283003 0.00695522 0.19288019
12
MD Step 695.0 Units = [eV / Ang.]
C  -1.19447020 -1.40636489 0.60308874
C  0.67587803 -1.02442927 -0.51281669
C  0.93012889 2.51726381 0.65582780
C  -0.69533341 0.76163312 -1.52097280
C  0.52574226 1.10866542 1.46634941
C  -2.13173293 0.09038167 -1.08878571
H  0.19005733 0.62075114 0.11365675
H  0.01177085 0.15576876 -0.02768609
H  1.04598150 -0.36547807 -0.10594725
H  -0.44876554 -1.39154563 0.76059090
H  1.09505970 -1.11967036 -0.57115632
H  -0.00431648 0.05302431 0.22785126
12
MD Step 695.5 Units = [eV / Ang.]
C  -1.01001855 -1.01801863 0.61905395
C  0.45524655 -1.15333934 -0.43019687
C  1.18202298 2.77437040 0.59910845
C  -0.96828595 0.40486425 -1.39065862
C  0.70795899 1.20612983 1.41993659
C  -2.13943576 -0.07506323 -1.09753223
H  0.01637488 0.27408684 0.06784729
H  0.04022321 0.09083158 -0.04068234
H  0.95680722 -0.37357057 -0.11333368
H  -0.26756353 -1.08565604 0.68899658
H  1.02803278 -1.14408500 -0.58297378
H  -0.00136282 0.09944990 0.26043466
12
MD Step 696.0 Units = [eV / Ang.]
C  -0.78626028 -0.57397177 0.63047994
C  0.22969214 -1.23129052 -0.35070819
C  1.46996803 2.97597366 0.54367510
C  -1.25398850 -0.04568344 -1.22598654
C  0.90834556 1.19825395 1.34960305
C  -2.11202298 -0.23564104 -1.09967468
H  -0.18244674 -0.11492262 0.02505098
H  0.07387435 0.01710041 -0.05262179
H  0.79396034 -0.37993333 -0.12258822
H  -0.03654456 -0.67732612 0.58950909
H  0.90057972 -1.07792534 -0.57687762
H  -0.00515709 0.14536617 0.29013888
12
MD Step 696.5 Units = [eV / Ang.]
C  -0.54162842 -0.10891560 0.63396300
C  0.00828973 -1.25847680 -0.27451398
C  1.77211751 3.11131915 0.48971934
C  -1.54198685 -0.56936788 -1.03252102
C  1.12027227 1.08342763 1.25484669
C  -2.05040601 -0.38529685 -1.09449179
H  -0.38833982 -0.51341810 -0.01165393
H  0.10911580 -0.05949349 -0.06369539
H  0.57776909 -0.38236284 -0.13362920
H  0.23416619 -0.18537857 0.46767246
H  0.71690932 -0.92191492 -0.55219914
H  -0.01627881 0.18987828 0.31650294
12
MD Step 697.0 Units = [eV / Ang.]
C  -0.30036048 0.33399626 0.62684714
C  -0.20044671 -1.23733317 -0.20138984
C  2.06461859 3.17110692 0.43678365
C  -1.81491045 -1.12965794 -0.82023592
C  1.33630726 0.86466156 1.13603486
C  -1.95683857 -0.51896818 -1.08118555
H  -0.57764568 -0.88003621 -0.03994083
H  0.14193364 -0.13241008 -0.07429603
H  0.33221982 -0.37826965 -0.14586023
H  0.52616898 0.35533258 0.33342100
H  0.48359142 -0.68052502 -0.50932108
H  -0.03463782 0.23210293 0.33914282
12
MD Step 697.5 Units = [eV / Ang.]
C  -0.08986103 0.70834000 0.60787513
C  -0.38907478 -1.17221937 -0.13075076
C  2.32508568 3.14878194 0.38396866
C  -2.04686290 -1.67196767 -0.60368329
C  1.54694887 0.55209832 0.99492666
C  -1.83472773 -0.63281427 -1.05894333
H  -0.72383491 -1.17007257 -0.05888600
H  0.16825781 -0.19509509 -0.08497777
H  0.08135290 -0.36529029 -0.15836023
H  0.81124687 0.89154309 0.20118689
H  0.21094111 -0.36451994 -0.45014723
H  -0.05947188 0.27121583 0.35779127
12
MD Step 698.0 Units = [eV / Ang.]
C  0.06416062 0.97289387 0.57760219
C  -0.55163671 -1.06888846 -0.06173193
C  2.53504443 3.04145738 0.33017762
C  -2.20472450 -2.12760099 -0.40026915
C  1.73912743 0.16588796 0.83526091
C  -1.68838215 -0.72424640 -1.02701052
H  -0.80245448 -1.34400493 -0.06938344
H  0.18437399 -0.24166959 -0.09637871
H  -0.15342332 -0.34175768 -0.17009158
H  1.05288205 1.35540835 0.08810002
H  -0.08557774 0.00602083 -0.37860274
H  -0.08938963 0.30649966 0.37232733
12
MD Step 698.5 Units = [eV / Ang.]
C  0.14357080 1.10105492 0.53829747
C  -0.68395354 -0.93379963 0.00667058
C  2.68106536 2.85029241 0.27433766
C  -2.25370449 -2.42590146 -0.22638257
C  1.89523953 -0.26176176 0.66310839
C  -1.52270553 -0.79179316 -0.98477229
H  -0.79705644 -1.37699744 -0.07403013
H  0.18734890 -0.26762377 -0.10911200
H  -0.35480005 -0.30694727 -0.18006937
H  1.21216141 1.67665626 0.01003545
H  -0.38470251 0.39943672 -0.30087401
H  -0.12246343 0.33738418 0.38279082
12
MD Step 699.0 Units = [eV / Ang.]
C  0.14245870 1.08749942 0.49325454
C  -0.78380059 -0.77339702 0.07542224
C  2.75479080 2.58035846 0.21555868
C  -2.16648539 -2.51252409 -0.09250541
C  1.99364699 -0.68706769 0.48660914
C  -1.34285815 -0.83489444 -0.93183609
H  -0.70384093 -1.26563097 -0.07640655
H  0.17540209 -0.27039941 -0.12364317
H  -0.50997171 -0.26111445 -0.18746673
H  1.25739299 1.80093272 -0.02334081
H  -0.66037428 0.77276622 -0.22502617
H  -0.15636052 0.36347123 0.38938033
12
MD Step 699.5 Units = [eV / Ang.]
C  0.06847183 0.94907653 0.44577206
C  -0.85095672 -0.59349797 0.14526427
C  2.75227113 2.24014130 0.15322515
C  -1.93262037 -2.36663212 0.00032717
C  2.01141483 -1.05934726 0.31482060
C  -1.15391828 -0.85371336 -0.86810305
H  -0.53291613 -1.02879068 -0.08001280
H  0.14815235 -0.24974202 -0.14017756
H  -0.61036578 -0.20539408 -0.19166522
H  1.17397234 1.70707631 -0.01213690
H  -0.88500128 1.07628482 -0.15974760
H  -0.18850393 0.38453854 0.39243389
12
MD Step 700.0 Units = [eV / Ang.]
C  -0.05978166 0.71951255 0.39824654
C  -0.88712264 -0.39890579 0.21656567
C  2.67308087 1.84088520 0.08702776
C  -1.56348980 -2.00825089 0.06058633
C  1.92915820 -1.33018197 0.15578690
C  -0.96059033 -0.84902325 -0.79380747
H  -0.30556310 -0.70227972 -0.08732101
H  0.10668911 -0.20774704 -0.15858567
H  -0.65113657 -0.14163418 -0.19227011
H  0.96968714 1.41447284 0.03374387
H  -1.03467596 1.26263188 -0.11236621
H  -0.21625525 0.40052037 0.39239339
12
MD Step 700.5 Units = [eV / Ang.]
C  -0.21799586 0.44043748 0.35173645
C  -0.89568543 -0.19329578 0.28924117
C  2.51958534 1.39589832 0.01695459
C  -1.08997764 -1.49161035 0.10267369
C  1.73657206 -1.46489584 0.01448234
C  -0.76697878 -0.82216719 -0.70951392
H  -0.04880868 -0.32968554 -0.09931223
H  0.05345089 -0.14858292 -0.17838264
H  -0.63075887 -0.07221480 -0.18911499
H  0.67251078 0.97630585 0.09828435
H  -1.09480654 1.29834206 -0.08680609
H  -0.23710725 0.41146872 0.38975728
12
MD Step 701.0 Units = [eV / Ang.]
C  -0.38178974 0.15246819 0.30605306
C  -0.88133778 0.02065929 0.36274849
C  2.29656983 0.91986128 -0.05673367
C  -0.55406520 -0.88820481 0.14175041
C  1.43639183 -1.45195739 -0.10843372
C  -0.57646097 -0.77504614 -0.61606864
H  0.21036148 0.04670767 -0.11556415
H  -0.00805870 -0.07795853 -0.19876740
H  -0.55090247 0.00013378 -0.18226848
H  0.32205856 0.46247626 0.16468646
H  -1.06388930 1.17335777 -0.08243004
H  -0.24887754 0.41750263 0.38502769
12
MD Step 701.5 Units = [eV / Ang.]
C  -0.53075416 -0.11082675 0.26017997
C  -0.84958152 0.24100698 0.43615844
C  2.01132374 0.42808650 -0.13352487
C  0.00128586 -0.26828299 0.18959844
C  1.04491460 -1.30597380 -0.21640702
C  -0.39163833 -0.71006141 -0.51451416
H  0.44919008 0.39208204 -0.13469081
H  -0.07366330 -0.00243813 -0.21871187
H  -0.41663271 0.07252198 -0.17204875
H  -0.04086953 -0.05899695 0.21969690
H  -0.95368037 0.90412701 -0.09439331
H  -0.24989437 0.41875553 0.37865704
12
MD Step 702.0 Units = [eV / Ang.]
C  -0.65019666 -0.32525961 0.21275217
C  -0.80615723 0.46619018 0.50827486
C  1.67407616 -0.06429595 -0.21266836
C  0.53963348 0.31176591 0.25291907
C  0.58885244 -1.06276980 -0.31545252
C  -0.21436792 -0.62998715 -0.40598767
H  0.65098151 0.68145760 -0.15485471
H  -0.13894608 0.07127239 -0.23708041
H  -0.23682895 0.14211948 -0.15903806
H  -0.38221150 -0.53456704 0.25547919
H  -0.78568507 0.52874234 -0.11534746
H  -0.23915018 0.41533164 0.37100390
12
MD Step 702.5 Units = [eV / Ang.]
C  -0.73093361 -0.47544391 0.16241659
C  -0.75651700 0.69475041 0.57777218
C  1.29854854 -0.54320564 -0.29317963
C  1.03407277 0.81375711 0.33381562
C  0.10003068 -0.76902253 -0.41210745
C  -0.04583143 -0.53778863 -0.29162791
H  0.80495116 0.89907229 -0.17416169
H  -0.19965183 0.13695457 -0.25275556
H  -0.02458285 0.20640959 -0.14408227
H  -0.67804680 -0.92931807 0.26925097
H  -0.58561876 0.09655704 -0.13764179
H  -0.21642087 0.40727776 0.36230095
12
MD Step 703.0 Units = [eV / Ang.]
C  -0.76804659 -0.55275711 0.10801888
C  -0.70536999 0.92509357 0.64332943
C  0.90222968 -0.99641420 -0.37386277
C  1.46652593 1.21572539 0.43134648
C  -0.38990114 -0.47109365 -0.51178214
C  0.11334820 -0.43644278 -0.17250655
H  0.90498456 1.03624051 -0.19087877
H  -0.25202422 0.18936787 -0.26475259
H  0.20277171 0.26345867 -0.12825468
H  -0.91409438 -1.22469366 0.26178104
H  -0.37810855 -0.34306166 -0.15507991
H  -0.18231520 0.39457703 0.35264159
12
MD Step 703.5 Units = [eV / Ang.]
C  -0.75942091 -0.55309380 0.04865897
C  -0.65637810 1.15530256 0.70374271
C  0.50594732 -1.41414404 -0.45337589
C  1.82518177 1.50710446 0.54311087
C  -0.85313297 -0.20704548 -0.61798181
C  0.26297531 -0.32881139 -0.04959900
H  0.94816258 1.08898993 -0.20350864
H  -0.29305833 0.22458053 -0.27230888
H  0.42437989 0.31214247 -0.11276547
H  -1.08313972 -1.41335335 0.23577828
H  -0.18325503 -0.74883416 -0.16373654
H  -0.13826183 0.37716226 0.34198540
12
MD Step 704.0 Units = [eV / Ang.]
C  -0.70464586 -0.47521101 -0.01631640
C  -0.61200886 1.38297635 0.75800760
C  0.13242071 -1.78931787 -0.53034625
C  2.10177795 1.68380442 0.66633358
C  -1.26732186 -0.00330594 -0.73232211
C  0.40312898 -0.21760936 0.07620962
H  0.93363559 1.05631102 -0.21079406
H  -0.32066958 0.24015341 -0.27494447
H  0.61761402 0.35224297 -0.09881387
H  -1.18207981 -1.49398364 0.19471592
H  -0.01543441 -1.09100721 -0.16191115
H  -0.08641688 0.35494686 0.33018158
12
MD Step 704.5 Units = [eV / Ang.]
C  -0.60455583 -0.32002365 -0.08731804
C  -0.57352868 1.60505252 0.80537532
C  -0.19622007 -2.11735425 -0.60353185
C  2.28966214 1.74456182 0.79835299
C  -1.61563098 0.12481132 -0.85496575
C  0.53400591 -0.10547359 0.20408828
H  0.86213474 0.93940834 -0.21172053
H  -0.33379878 0.23521875 -0.27249461
H  0.76082661 0.38433714 -0.08740279
H  -1.20959361 -1.46751161 0.14220390
H  0.11620867 -1.35089350 -0.14959385
H  -0.02951013 0.32786671 0.31700691
12
MD Step 705.0 Units = [eV / Ang.]
C  -0.46149231 -0.09096648 -0.16446841
C  -0.54110819 1.81762118 0.84538160
C  -0.46154713 -2.39554271 -0.67198269
C  2.38298358 1.68899599 0.93664965
C  -1.88597307 0.17053763 -0.98512483
C  0.65576397 0.00491096 0.33321305
H  0.73621518 0.74206786 -0.20557112
H  -0.33246528 0.21048000 -0.26511632
H  0.83667191 0.40946275 -0.07916010
H  -1.16486649 -1.33517121 0.08179796
H  0.20645543 -1.51832044 -0.12782979
H  0.02936239 0.29592448 0.30221100
12
MD Step 705.5 Units = [eV / Ang.]
C  -0.28022784 0.20464278 -0.24747190
C  -0.51401626 2.01575357 0.87785482
C  -0.65176042 -2.62215981 -0.73515186
C  2.37701944 1.51740171 1.07860414
C  -2.07007394 0.13272259 -1.12141788
C  0.76839032 0.11066094 0.46271793
H  0.56117574 0.47206096 -0.19206466
H  -0.31777377 0.16815475 -0.25327207
H  0.83516997 0.42864253 -0.07422472
H  -1.04749763 -1.09842996 0.01707223
H  0.25263124 -1.58867976 -0.09820946
H  0.08696314 0.25922970 0.28556343
12
MD Step 706.0 Units = [eV / Ang.]
C  -0.06933923 0.55353171 -0.33541017
C  -0.49084939 2.19340681 0.90290220
C  -0.76354241 -2.79558665 -0.79290888
C  2.26964637 1.23228084 1.22118366
C  -2.16275493 0.01358496 -1.26203832
C  0.87159476 0.20859089 0.59165920
H  0.34642370 0.14326797 -0.17157731
H  -0.29186772 0.11185499 -0.23768780
H  0.75559504 0.44243295 -0.07223817
H  -0.85864207 -0.76072751 -0.04822174
H  0.25358855 -1.56066447 -0.06255809
H  0.14014733 0.21802751 0.26689542
12
MD Step 706.5 Units = [eV / Ang.]
C  0.15746494 0.93431818 -0.42649379
C  -0.46978733 2.34346593 0.92086973
C  -0.80221533 -2.91371002 -0.84544481
C  2.06384225 0.84160081 1.36074612
C  -2.16157812 -0.18235013 -1.40478126
C  0.96474210 0.29520310 0.71899523
H  0.10679864 -0.22215761 -0.14540307
H  -0.25781693 0.04639645 -0.21928723
H  0.60656956 0.45067065 -0.07245059
H  -0.60335492 -0.33093184 -0.11008277
H  0.20926083 -1.43522079 -0.02279924
H  0.18607430 0.17271526 0.24613167
12
MD Step 707.0 Units = [eV / Ang.]
C  0.38080547 1.31638300 -0.51788443
C  -0.44885624 2.45798340 0.93227843
C  -0.78018242 -2.97376464 -0.89310286
C  1.77090314 0.36343478 1.49314752
C  -2.06692797 -0.44802685 -1.54700950
C  1.04682289 0.36680935 0.84358442
H  -0.13691456 -0.59271218 -0.11594480
H  -0.21940918 -0.02250106 -0.19909959
H  0.40434176 0.45250715 -0.07390369
H  -0.29382308 0.17190535 -0.16444994
H  0.12085158 -1.21586161 0.01907421
H  0.22238860 0.12384330 0.22331022
12
MD Step 707.5 Units = [eV / Ang.]
C  0.57678478 1.66113975 -0.60572971
C  -0.42619514 2.52865534 0.93773459
C  -0.71421542 -2.97264153 -0.93619039
C  1.41342949 -0.16924013 1.61429475
C  -1.88256043 -0.77243426 -1.68565019
C  1.11647382 0.41979918 0.96419676
H  -0.35918649 -0.92894670 -0.08668019
H  -0.18083501 -0.08863727 -0.17814680
H  0.16983575 0.44669671 -0.07563222
H  0.04747290 0.71377288 -0.20778358
H  -0.00835707 -0.91026948 0.06099859
H  0.24735283 0.07210552 0.19858839
12
MD Step 708.0 Units = [eV / Ang.]
C  0.72037167 1.92671157 -0.68555085
C  -0.40029936 2.54749795 0.93782367
C  -0.62246521 -2.90751289 -0.97483028
C  1.02635584 -0.70604347 1.72110085
C  -1.61658765 -1.13830741 -1.81728291
C  1.17201904 0.45103158 1.07953484
H  -0.53321265 -1.18835253 -0.06176224
H  -0.14627625 -0.14587000 -0.15732167
H  -0.07461843 0.43199900 -0.07682631
H  0.38646543 1.24337782 -0.23799821
H  -0.17169532 -0.53285076 0.10087627
H  0.25994290 0.01831913 0.17223686
12
MD Step 708.5 Units = [eV / Ang.]
C  0.79064540 2.07573812 -0.75300243
C  -0.37025934 2.50767469 0.93300649
C  -0.52195122 -2.77661789 -1.00888252
C  0.65387226 -1.18223529 1.81250034
C  -1.28267346 -1.51970561 -1.93836493
C  1.21155351 0.45828310 1.18826047
H  -0.63625899 -1.33340299 -0.04523457
H  -0.11942720 -0.18873799 -0.13727583
H  -0.30805656 0.40754832 -0.07692490
H  0.68029121 1.69551415 -0.25540816
H  -0.35762973 -0.10745734 0.13670247
H  0.25989412 -0.03660128 0.14462356
12
MD Step 709.0 Units = [eV / Ang.]
C  0.77628168 2.08416393 -0.80481523
C  -0.33593863 2.40436321 0.92353770
C  -0.42696801 -2.58002148 -1.03794396
C  0.34119144 -1.52944630 1.88989049
C  -0.90092766 -1.88072301 -2.04557107
C  1.23304932 0.44062965 1.28902847
H  -0.65526774 -1.34053492 -0.04005598
H  -0.10302610 -0.21308240 -0.11834086
H  -0.51269892 0.37308709 -0.07563769
H  0.88534719 2.00217442 -0.26306847
H  -0.54874965 0.33106542 0.16678748
H  0.24770708 -0.09167560 0.11618912
12
MD Step 709.5 Units = [eV / Ang.]
C  0.67903359 1.94759541 -0.83956767
C  -0.29810442 2.23550606 0.90942991
C  -0.34841943 -2.32020538 -1.06140706
C  0.12285845 -1.69245909 1.95645166
C  -0.49764982 -2.17700306 -2.13616579
C  1.23449975 0.39867087 1.38052970
H  -0.59043298 -1.20658677 -0.04730033
H  -0.09848009 -0.21656454 -0.10050210
H  -0.67477108 0.32904481 -0.07291674
H  0.96896799 2.10967225 -0.26598119
H  -0.72211119 0.73822461 0.19001280
H  0.22460922 -0.14589516 0.08741681
12
MD Step 710.0 Units = [eV / Ang.]
C  0.51352556 1.68237820 -0.85794633
C  -0.25843539 2.00233676 0.89047561
C  -0.29387516 -2.00236662 -1.07855788
C  0.01244107 -1.64571298 2.01543658
C  -0.10305091 -2.36128165 -2.20826290
C  1.21407779 0.33448503 1.46154197
H  -0.45507484 -0.94979226 -0.06588298
H  -0.10566565 -0.19897954 -0.08343438
H  -0.78458333 0.27649570 -0.06890243
H  0.91990747 1.99528243 -0.26926363
H  -0.85174296 1.06541898 0.20599472
H  0.19247635 -0.19826404 0.05880164
12
MD Step 710.5 Units = [eV / Ang.]
C  0.30342889 1.32090711 -0.86238936
C  -0.21940880 1.70955935 0.86632458
C  -0.26801256 -1.63433464 -1.08869090
C  -0.00098568 -1.40135666 2.06832189
C  0.25327590 -2.39269147 -2.26084878
C  1.17031206 0.25134694 1.53099423
H  -0.27185357 -0.60485453 -0.09292618
H  -0.12295076 -0.16229501 -0.06659379
H  -0.83622914 0.21704929 -0.06386639
H  0.75213137 1.67513269 -0.27617509
H  -0.91341654 1.26937927 0.21503088
H  0.15370881 -0.24784234 0.03081890
12
MD Step 711.0 Units = [eV / Ang.]
C  0.07575611 0.90340717 -0.85630765
C  -0.18403328 1.36516884 0.83659459
C  -0.27313435 -1.22614307 -1.09121057
C  0.05246770 -1.00448321 2.11391743
C  0.54814288 -2.24719764 -2.29355290
C  1.10226909 0.15328984 1.58803302
H  -0.06707081 -0.21438545 -0.12456724
H  -0.14743529 -0.11040534 -0.04934485
H  -0.82723816 0.15271529 -0.05816325
H  0.49974123 1.19899280 -0.28710712
H  -0.89052736 1.32282688 0.21781010
H  0.11106224 -0.29378610 0.00389844
12
MD Step 711.5 Units = [eV / Ang.]
C  -0.14445462 0.46960545 -0.84323794
C  -0.15544454 0.97995083 0.80099142
C  -0.30950536 -0.78936902 -1.08570515
C  0.13464588 -0.51830075 2.14886468
C  0.76965759 -1.92494764 -2.30631692
C  1.00973016 0.04466145 1.63208661
H  0.13464832 0.17976732 -0.15684574
H  -0.17535315 -0.04865316 -0.03109453
H  -0.75839895 0.08575819 -0.05219389
H  0.20589403 0.63484892 -0.29998095
H  -0.77886414 1.22205661 0.21502706
H  0.06744478 -0.33537822 -0.02159466
12
MD Step 712.0 Units = [eV / Ang.]
C  -0.33748557 0.05300434 -0.82622702
C  -0.13642280 0.56675624 0.75940734
C  -0.37536588 -0.33639359 -1.07197478
C  0.21058820 -0.00696473 2.16900823
C  0.91903117 -1.45108400 -2.29917967
C  0.89336614 -0.07021153 1.66291603
H  0.31370556 0.54253752 -0.18635987
H  -0.20255391 0.01679165 -0.01140602
H  -0.63384166 0.01853553 -0.04637913
H  -0.08861374 0.05116317 -0.31155741
H  -0.58810152 0.98790867 0.20712245
H  0.02569399 -0.37204326 -0.04537015
12
MD Step 712.5 Units = [eV / Ang.]
C  -0.49000362 -0.32141408 -0.80755698
C  -0.12890961 0.13968471 0.71197801
C  -0.46663113 0.12029840 -1.05002283
C  0.25546761 0.47679114 2.17074795
C  1.00843043 -0.86954124 -2.27229783
C  0.75489493 -0.18717358 1.68063919
H  0.45659114 0.84809579 -0.21056985
H  -0.22497228 0.07958061 0.00992700
H  -0.46132619 -0.04669410 -0.04113582
H  -0.35263059 -0.49591324 -0.31877637
H  -0.33926248 0.65963096 0.19428044
H  -0.01164820 -0.40334537 -0.06721292
12
MD Step 713.0 Units = [eV / Ang.]
C  -0.59443782 -0.63671725 -0.78876084
C  -0.13361284 -0.28673081 0.65909365
C  -0.57645712 0.56873870 -1.02001976
C  0.25619587 0.89647235 2.15179005
C  1.05600350 -0.23277283 -2.22614113
C  0.59718818 -0.30223862 1.68572546
H  0.55525664 1.07941488 -0.22780015
H  -0.23902113 0.13377595 0.03285138
H  -0.25254811 -0.10800105 -0.03685138
H  -0.56666514 -0.96756126 -0.31954149
H  -0.05937011 0.28459026 0.17662986
H  -0.04253194 -0.42897032 -0.08697564
12
MD Step 713.5 Units = [eV / Ang.]
C  -0.64758127 -0.88214416 -0.77078922
C  -0.14976265 -0.69826963 0.60136507
C  -0.69496605 0.99797025 -0.98226212
C  0.20929541 1.23050783 2.11124926
C  1.08034187 0.40829860 -2.16168587
C  0.42428862 -0.41150453 1.67895006
H  0.60572114 1.22631678 -0.23707359
H  -0.24187236 0.17432336 0.05706849
H  -0.02317958 -0.16402922 -0.03385221
H  -0.72111516 -1.34095779 -0.31288601
H  0.22437939 -0.09181244 0.15448057
H  -0.06554936 -0.44869905 -0.10456442
12
MD Step 714.0 Units = [eV / Ang.]
C  -0.64914297 -1.05102857 -0.75421043
C  -0.17505428 -1.08167288 0.53956213
C  -0.80948232 1.39839244 -0.93713274
C  0.11734194 1.46790998 2.04936132
C  1.09639662 1.01095666 -2.08046378
C  0.24131008 -0.51107847 1.66131761
H  0.60665747 1.28326100 -0.23790771
H  -0.23162319 0.19738936 0.08207835
H  0.20768093 -0.21420318 -0.03236859
H  -0.81295777 -1.60474301 -0.29876686
H  0.48889551 -0.43280427 0.12845337
H  -0.08002202 -0.46237906 -0.11992268
12
MD Step 714.5 Units = [eV / Ang.]
C  -0.60068610 -1.13932780 -0.73935664
C  -0.20577959 -1.42522772 0.47453867
C  -0.90556916 1.76191828 -0.88507071
C  -0.01433919 1.60359334 1.96711040
C  1.11371495 1.54315576 -1.98445837
C  0.05419988 -0.59707834 1.63396095
H  0.55841066 1.24772575 -0.23016082
H  -0.20737276 0.20058565 0.10724421
H  0.41892241 -0.25881007 -0.03250197
H  -0.84257910 -1.75404020 -0.27776719
H  0.71709070 -0.71259222 0.09947677
H  -0.08601269 -0.46990243 -0.13301530
12
MD Step 715.0 Units = [eV / Ang.]
C  -0.50512664 -1.14516129 -0.72637627
C  -0.23712580 -1.71926922 0.40715491
C  -0.96891957 2.08190152 -0.82654477
C  -0.17996073 1.63482828 1.86594562
C  1.13669334 1.98283166 -1.87591201
C  -0.13061036 -0.66574346 1.59803303
H  0.46263114 1.11962520 -0.21397374
H  -0.16922976 0.18309416 0.13186646
H  0.58972200 -0.29887624 -0.03420420
H  -0.81154423 -1.78660281 -0.25087589
H  0.89773916 -0.91543353 0.06870410
H  -0.08426856 -0.47119428 -0.14381724
12
MD Step 715.5 Units = [eV / Ang.]
C  -0.36682869 -1.06950304 -0.71518167
C  -0.26358803 -1.95663733 0.33820886
C  -0.98782279 2.35285186 -0.76202875
C  -0.37441082 1.55940544 1.74766075
C  1.16599460 2.31571473 -1.75714267
C  -0.30662570 -0.71362598 1.55460782
H  0.32254489 0.90192378 -0.18982024
H  -0.11828070 0.14572978 0.15525858
H  0.70243825 -0.33581137 -0.03727730
H  -0.72150371 -1.70072269 -0.21940248
H  1.02418927 -1.03311193 0.03742401
H  -0.07610658 -0.46621326 -0.15230690
12
MD Step 716.0 Units = [eV / Ang.]
C  -0.19221831 -0.91796198 -0.70530311
C  -0.27946431 -2.13305478 0.26838076
C  -0.95559817 2.57004621 -0.69197846
C  -0.59331476 1.37564802 1.61441898
C  1.20027898 2.53308097 -1.63041977
C  -0.46774539 -0.73785610 1.50460121
H  0.14376878 0.60239114 -0.15865374
H  -0.05652538 0.09093661 0.17681996
H  0.74544450 -0.37088540 -0.04139772
H  -0.57419163 -1.49510382 -0.18500587
H  1.09281509 -1.06227876 0.00700398
H  -0.06324939 -0.45496211 -0.15846621
12
MD Step 716.5 Units = [eV / Ang.]
C  0.00925834 -0.70333202 -0.69568882
C  -0.27935576 -2.24739377 0.19819026
C  -0.87226183 2.72919495 -0.61681327
C  -0.83212719 1.08437052 1.46885748
C  1.23764485 2.63022816 -1.49791872
C  -0.60868965 -0.73640160 1.44872636
H  -0.06455356 0.23615189 -0.12210796
H  0.01321781 0.02271703 0.19610140
H  0.71512744 -0.40469811 -0.04616181
H  -0.37243402 -1.17080344 -0.14976993
H  1.10181170 -1.00252858 -0.02113076
H  -0.04763813 -0.43750502 -0.16228424
12
MD Step 717.0 Units = [eV / Ang.]
C  0.22423852 -0.44808743 -0.68453063
C  -0.25864877 -2.30175773 0.12797127
C  -0.74484133 2.82635616 -0.53691341
C  -1.08435507 0.69279584 1.31415539
C  1.27643687 2.60598731 -1.36172308
C  -0.72533696 -0.70828322 1.38748362
H  -0.28873154 -0.17180531 -0.08266699
H  0.08745483 -0.05354771 0.21285640
H  0.61642563 -0.43683218 -0.05114158
H  -0.12205827 -0.73524992 -0.11620960
H  1.05066076 -0.85559034 -0.04551626
H  -0.03124468 -0.41398547 -0.16376513
12
MD Step 717.5 Units = [eV / Ang.]
C  0.43519273 -0.18551726 -0.66923512
C  -0.21392234 -2.30132164 0.05786458
C  -0.58621009 2.85819450 -0.45263770
C  -1.33916058 0.22003255 1.15389213
C  1.31523681 2.46328678 -1.22382450
C  -0.81494835 -0.65367865 1.32118516
H  -0.51025485 -0.58551412 -0.04367933
H  0.16222036 -0.13141324 0.22707006
H  0.46175320 -0.46581939 -0.05593907
H  0.16558839 -0.20789302 -0.08704713
H  0.94039642 -0.62571450 -0.06471346
H  -0.01589169 -0.38464199 -0.16293562
12
MD Step 718.0 Units = [eV / Ang.]
C  0.62150095 0.04217906 -0.64667058
C  -0.14324105 -2.25386093 -0.01216568
C  -0.41284683 2.82252166 -0.36436357
C  -1.57905306 -0.29737596 0.99152057
C  1.35197273 2.21060568 -1.08604854
C  -0.87622600 -0.57390182 1.25000812
H  -0.70698172 -0.95998080 -0.00908412
H  0.23335693 -0.20385544 0.23895680
H  0.26868870 -0.48942469 -0.06022695
H  0.47126439 0.37406028 -0.06459713
H  0.77466795 -0.32114978 -0.07747606
H  -0.00310299 -0.34981726 -0.15985287
12
MD Step 718.5 Units = [eV / Ang.]
C  0.76225018 0.18989392 -0.61375136
C  -0.04632793 -2.16896484 -0.08228216
C  -0.24220232 2.71892440 -0.27253882
C  -1.77894259 -0.80282538 0.82939513
C  1.38224341 1.86398622 -0.94983576
C  -0.90921244 -0.47125095 1.17406477
H  -0.85616401 -1.24728066 0.01720869
H  0.29685931 -0.26391122 0.24891987
H  0.05713553 -0.50512952 -0.06377206
H  0.76694204 0.95288985 -0.04972984
H  0.56141195 0.04362677 -0.08306891
H  0.00600686 -0.30995858 -0.15460956
12
MD Step 719.0 Units = [eV / Ang.]
C  0.84036147 0.21915097 -0.56825501
C  0.07540104 -2.05700598 -0.15269930
C  -0.09037458 2.54925420 -0.17772472
C  -1.90816383 -1.22385039 0.66763881
C  1.39729984 1.44893235 -0.81585158
C  -0.91503594 -0.34876362 1.09347558
H  -0.93890274 -1.40619946 0.03217688
H  0.34925483 -0.30542296 0.25747319
H  -0.15330808 -0.51064874 -0.06644273
H  1.01801582 1.45454053 -0.04071579
H  0.31465305 0.44562510 -0.08173969
H  0.01079913 -0.26561200 -0.14733564
12
MD Step 719.5 Units = [eV / Ang.]
C  0.84675932 0.10830247 -0.50959088
C  0.21891931 -1.92798101 -0.22358022
C  0.02944742 2.31778956 -0.08062169
C  -1.93627411 -1.48552947 0.50353367
C  1.38251595 1.00114169 -0.68349380
C  -0.89555432 -0.20996212 1.00843124
H  -0.94466333 -1.41252634 0.03449002
H  0.38796390 -0.32378143 0.26513596
H  -0.34527227 -0.50433305 -0.06820319
H  1.18945493 1.80212219 -0.03265808
H  0.05557135 0.85216780 -0.07524615
H  0.01113185 -0.21741028 -0.13819688
12
MD Step 720.0 Units = [eV / Ang.]
C  0.78284760 -0.14075348 -0.43917361
C  0.37973902 -1.79044602 -0.29492712
C  0.10769035 2.03108632 0.01794109
C  -1.84152396 -1.53070709 0.33221522
C  1.31760529 0.56469923 -0.55052708
C  -0.85296161 -0.05865725 0.91923280
H  -0.87403049 -1.26581523 0.02490627
H  0.41157927 -0.31653756 0.27231979
H  -0.50469262 -0.48539321 -0.06910293
H  1.25470550 1.93629588 -0.01829255
H  -0.18829571 1.22228778 -0.06720270
H  0.00733734 -0.16605936 -0.12738918
12
MD Step 720.5 Units = [eV / Ang.]
C  0.66010602 -0.50249348 -0.36019791
C  0.55211702 -1.65072630 -0.36648823
C  0.13839476 1.69758539 0.11704590
C  -1.61855873 -1.33887392 0.14883136
C  1.17958140 0.18679027 -0.41317158
C  -0.78943511 0.10112445 0.82630166
H  -0.73844254 -0.98945652 0.00605606
H  0.42000330 -0.28374990 0.27923397
H  -0.62117843 -0.45394876 -0.06926354
H  1.20382265 1.83431999 0.00969845
H  -0.38657071 1.51175260 -0.06291604
H  0.00016037 -0.11232381 -0.11513009
12
MD Step 721.0 Units = [eV / Ang.]
C  0.49697807 -0.93435215 -0.27690829
C  0.72928743 -1.51257018 -0.43770083
C  0.11882490 1.32716187 0.21574839
C  -1.28143920 -0.93390395 -0.04877707
C  0.94850734 -0.09071423 -0.26691497
C  -0.70690962 0.26509832 0.73016011
H  -0.55704004 -0.62404754 -0.01829246
H  0.41441565 -0.22799392 0.28583134
H  -0.68795164 -0.41095203 -0.06886493
H  1.04675361 1.51788090 0.05582684
H  -0.51209728 1.68140533 -0.06846038
H  -0.00932922 -0.05701241 -0.10164775
12
MD Step 721.5 Units = [eV / Ang.]
C  0.31445227 -1.38691353 -0.19368052
C  0.90375128 -1.37725072 -0.50768740
C  0.04897457 0.93068805 0.31314588
C  -0.86025092 -0.37621230 -0.25842413
C  0.61437672 -0.24049753 -0.10796950
C  -0.60700702 0.42864362 0.63138901
H  -0.35205171 -0.21716765 -0.04416040
H  0.39708127 -0.15403004 0.29180732
H  -0.70164454 -0.35804190 -0.06813083
H  0.80996210 1.04524473 0.11996747
H  -0.54780142 1.70649983 -0.08908768
H  -0.01984259 -0.00096259 -0.08716920
12
MD Step 722.0 Units = [eV / Ang.]
C  0.13206894 -1.81355488 -0.11426681
C  1.06764653 -1.24406555 -0.57531107
C  -0.06876588 0.51964308 0.40843008
C  -0.39317775 0.25619380 -0.47390296
C  0.18228623 -0.25628426 0.06514461
C  -0.49111246 0.58678483 0.53057902
H  -0.14452711 0.18625760 -0.06811841
H  0.37103733 -0.06819888 0.29665045
H  -0.66216654 -0.29736919 -0.06730813
H  0.52825769 0.49224291 0.19753409
H  -0.49155965 1.58337234 -0.12752271
H  -0.02998733 0.05497821 -0.07190814
12
MD Step 722.5 Units = [eV / Ang.]
C  -0.03448538 -2.17666870 -0.04139669
C  1.21318629 -1.11105002 -0.63927071
C  -0.22966224 0.10569830 0.50091330
C  0.08199054 0.88795316 -0.68691609
C  -0.32661857 -0.15365268 0.25065874
C  -0.36053487 0.73433650 0.42829153
H  0.04836385 0.55009445 -0.08769021
H  0.33972358 0.02232689 0.29972882
H  -0.57273297 -0.23140782 -0.06663844
H  0.23592755 -0.06802113 0.28130028
H  -0.35677241 1.33041771 -0.18292350
H  -0.03838537 0.10997335 -0.05605703
12
MD Step 723.0 Units = [eV / Ang.]
C  -0.17402752 -2.44982598 0.02327389
C  1.33314132 -0.97572496 -0.69822259
C  -0.42642687 -0.29976884 0.59001386
C  0.53359717 1.45976073 -0.88938360
C  -0.87891179 0.03522852 0.44375085
C  -0.21669835 0.86620308 0.32503307
H  0.21422171 0.84901659 -0.10140295
H  0.30662050 0.11029864 0.30039141
H  -0.44002498 -0.16274912 -0.06631454
H  -0.03934773 -0.57857269 0.36365872
H  -0.16836106 0.98291404 -0.25101706
H  -0.04378240 0.16322000 -0.03978104
12
MD Step 723.5 Units = [eV / Ang.]
C  -0.27926731 -2.61690630 0.07898970
C  1.42129965 -0.83577587 -0.75090141
C  -0.64890818 -0.68621092 0.67520087
C  0.93810671 1.93257469 -1.07505266
C  -1.43558655 0.27048514 0.63775994
C  -0.06128685 0.97777952 0.22125235
H  0.34496711 1.06746346 -0.10861555
H  0.27493553 0.18905863 0.29806511
H  -0.27433473 -0.09387056 -0.06642324
H  -0.27864380 -1.00268671 0.43824533
H  0.04387662 0.58411910 -0.32530306
H  -0.04515820 0.21396982 -0.02321738
12
MD Step 724.0 Units = [eV / Ang.]
C  -0.34565731 -2.66980438 0.12564399
C  1.47286470 -0.68954986 -0.79622358
C  -0.88395364 -1.04447982 0.75591190
C  1.27927002 2.28501176 -1.24005165
C  -1.95884456 0.51337989 0.82579785
C  0.10364269 1.06534467 0.11735253
H  0.43575698 1.19718439 -0.10927176
H  0.24736570 0.25304724 0.29233016
H  -0.08946481 -0.02688437 -0.06687796
H  -0.47088588 -1.32113344 0.50057146
H  0.25171578 0.17634072 -0.39870390
H  -0.04180968 0.26154320 -0.00647903
12
MD Step 724.5 Units = [eV / Ang.]
C  -0.37029064 -2.60603068 0.16354778
C  1.48472477 -0.53641328 -0.83336032
C  -1.11576220 -1.36727316 0.83145947
C  1.54611931 2.50780161 -1.38261755
C  -2.41688695 0.73231302 1.00206482
C  0.27562836 1.12635759 0.01371811
H  0.48386676 1.23473798 -0.10368185
H  0.22593479 0.29814575 0.28296881
H  0.09789054 0.03670369 -0.06735434
H  -0.61050305 -1.52648873 0.54788678
H  0.43270139 -0.20518859 -0.46496921
H  -0.03342308 0.30533480 0.01033750
12
MD Step 725.0 Units = [eV / Ang.]
C  -0.35119204 -2.42699911 0.19327367
C  1.45558844 -0.37697224 -0.86177428
C  -1.32694170 -1.64940125 0.90095842
C  1.73098770 2.59830743 -1.50243558
C  -2.78601943 0.90513700 1.16249992
C  0.45180615 1.15959062 -0.08925305
H  0.48790952 1.17976795 -0.09238263
H  0.21189313 0.32187282 0.26998480
H  0.26946648 0.09616312 -0.06725277
H  -0.69496336 -1.61753390 0.57869304
H  0.57157082 -0.53474279 -0.51945254
H  -0.02010571 0.34481037 0.02714100
12
MD Step 725.5 Units = [eV / Ang.]
C  -0.28718349 -2.13735774 0.21558029
C  1.38599260 -0.21320335 -0.88122678
C  -1.50032317 -1.88774736 0.96329975
C  1.82818807 2.55656605 -1.59994851
C  -3.05065989 1.01855302 1.30477921
C  0.62896818 1.16510120 -0.19111507
H  0.44758066 1.03441365 -0.07608221
H  0.20566444 0.32346654 0.25359791
H  0.40746781 0.15156010 -0.06570993
H  -0.72291115 -1.59525401 0.59225452
H  0.65960099 -0.79559343 -0.55926326
H  -0.00238505 0.37949533 0.04383406
12
MD Step 726.0 Units = [eV / Ang.]
C  -0.17835885 -1.74543807 0.23140927
C  1.27817839 -0.04852578 -0.89175344
C  -1.62124297 -2.08090839 1.01719862
C  1.83349136 2.38329162 -1.67585946
C  -3.20223936 1.06601938 1.42791907
C  0.80365244 1.14404035 -0.29134489
H  0.36400181 0.80393080 -0.05567518
H  0.20682778 0.30388120 0.23421592
H  0.49703765 0.20358278 -0.06168301
H  -0.69317679 -1.46086263 0.58829931
H  0.69299379 -0.97797371 -0.58302941
H  0.01883475 0.40896245 0.06030320
12
MD Step 726.5 Units = [eV / Ang.]
C  -0.02715374 -1.26469513 0.24192717
C  1.13589272 0.11220971 -0.89361765
C  -1.67978739 -2.22857147 1.06131755
C  1.74440246 2.07984598 -1.73094014
C  -3.23784079 1.04542423 1.53177395
C  0.97226910 1.09836292 -0.38932338
H  0.24063949 0.49835984 -0.03229676
H  0.21413031 0.26570848 0.21238756
H  0.52861894 0.25318317 -0.05410491
H  -0.60474684 -1.21585502 0.56700076
H  0.67122347 -1.07679371 -0.59053606
H  0.04235226 0.43282100 0.07641190
12
MD Step 727.0 Units = [eV / Ang.]
C  0.16019131 -0.71575155 0.24856893
C  0.96410855 0.26283189 -0.88724579
C  -1.67234575 -2.33078591 1.09444582
C  1.56124408 1.65017147 -1.76619435
C  -3.15906716 0.95734517 1.61664013
C  1.13124014 1.03049123 -0.48432700
H  0.08463563 0.13480875 -0.00737073
H  0.22554155 0.21301370 0.18873895
H  0.49956290 0.30113231 -0.04208493
H  -0.45776308 -0.86403454 0.52926068
H  0.59587826 -1.08993494 -0.58243011
H  0.06677355 0.45071241 0.09199841
12
MD Step 727.5 Units = [eV / Ang.]
C  0.37215729 -0.12822951 0.25302873
C  0.76872777 0.39612769 -0.87315073
C  -1.60202059 -2.38733596 1.11569113
C  1.28906675 1.10458527 -1.78335305
C  -2.97133122 0.80426285 1.68307625
C  1.27715000 0.94300997 -0.57553639
H  -0.09185442 -0.26050833 0.01740571
H  0.23836300 0.15106371 0.16389738
H  0.41450213 0.34763218 -0.02510414
H  -0.25558070 -0.41538943 0.47724493
H  0.47018663 -1.01753432 -0.56007820
H  0.09063335 0.46231588 0.10687836
12
MD Step 728.0 Units = [eV / Ang.]
C  0.59118509 0.45890542 0.25713972
C  0.55625269 0.50430854 -0.85185414
C  -1.47776887 -2.39740826 1.12463630
C  0.94024952 0.46498383 -1.78554534
C  -2.68359423 0.59085880 1.73195777
C  1.40689081 0.83843792 -0.66205831
H  -0.27101646 -0.65178860 0.04019559
H  0.24941258 0.08592521 0.13841048
H  0.28438282 0.39211689 -0.00315155
H  -0.00771125 0.10869207 0.41499817
H  0.29920364 -0.86239355 -0.52557999
H  0.11251367 0.46736172 0.12085129
12
MD Step 728.5 Units = [eV / Ang.]
C  0.79448629 0.99985923 0.26261510
C  0.33346934 0.57969118 -0.82381483
C  -1.31259571 -2.35964627 1.12142422
C  0.53709890 -0.23006192 -1.77777531
C  -2.30848100 0.32533464 1.76469759
C  1.51777801 0.71913435 -0.74296175
H  -0.43028622 -0.99612671 0.05929586
H  0.25529395 0.02392475 0.11267115
H  0.12447186 0.43329721 0.02323639
H  0.26711165 0.67039459 0.34876769
H  0.09049944 -0.63145564 -0.48186662
H  0.13115348 0.46565460 0.13371051
12
MD Step 729.0 Units = [eV / Ang.]
C  0.95704716 1.44813101 0.27069673
C  0.10713602 0.61553435 -0.78938180
C  -1.12136102 -2.27257157 1.10676038
C  0.11298042 -0.92313871 -1.76665531
C  -1.86259502 0.02145569 1.78348681
C  1.60763366 0.58734228 -0.81732642
H  -0.54541301 -1.24970667 0.07350167
H  0.25273976 -0.02899180 0.08686578
H  -0.04806773 0.46940768 0.05303744
H  0.53931042 1.21346980 0.28651061
H  -0.14494371 -0.33803185 -0.43275052
H  0.14553305 0.45709977 0.14525463
12
MD Step 729.5 Units = [eV / Ang.]
C  1.05656138 1.76533809 0.28183487
C  -0.11630958 0.60693811 -0.74878107
C  -0.91876970 -2.13525431 1.08184746
C  -0.29000406 -1.54229123 -1.75894564
C  -1.36673989 -0.29932296 1.79133433
C  1.67482000 0.44533080 -0.88429585
H  -0.59540390 -1.37677122 0.08242807
H  0.23899818 -0.06793496 0.06095864
H  -0.21642471 0.49854937 0.08487708
H  0.77040239 1.66777065 0.23618337
H  -0.39206761 -0.00408287 -0.38274125
H  0.15493749 0.44173052 0.15529998
12
MD Step 730.0 Units = [eV / Ang.]
C  1.07885543 1.92996345 0.29556190
C  -0.33101527 0.55166315 -0.70214991
C  -0.71792588 -1.94807667 1.04827383
C  -0.62810494 -2.01375877 -1.75906597
C  -0.84555721 -0.60680929 1.79168257
C  1.71823912 0.29558398 -0.94313414
H  -0.56789614 -1.35852752 0.08662808
H  0.21220538 -0.08967281 0.03472383
H  -0.36580264 0.51901706 0.11719235
H  0.91989556 1.96224262 0.20304521
H  -0.63188745 0.33864619 -0.33644951
H  0.15899404 0.41972861 0.16369175
12
MD Step 730.5 Units = [eV / Ang.]
C  1.02163137 1.94243132 0.31064589
C  -0.53194416 0.45070009 -0.64961291
C  -0.52956616 -1.71339718 1.00787519
C  -0.86662933 -2.28068572 -1.76669570
C  -0.32609924 -0.86352368 1.78749979
C  1.73732486 0.14093574 -0.99327587
H  -0.46278476 -1.19830811 0.08741896
H  0.17167470 -0.09304027 0.00782189
H  -0.48436828 0.52953518 0.14838928
H  0.95605177 2.04382087 0.18715161
H  -0.84297844 0.65009761 -0.29753199
H  0.15768767 0.39143414 0.17031386
12
MD Step 731.0 Units = [eV / Ang.]
C  0.89483779 1.82414737 0.32547501
C  -0.71503829 0.30848018 -0.59138860
C  -0.36186395 -1.43597728 0.96259155
C  -0.99008055 -2.32024457 -1.77606699
C  0.16490359 -1.02967016 1.78005362
C  1.73202421 -0.01539538 -1.03436545
H  -0.29242264 -0.92059062 0.08647608
H  0.11804481 -0.07907501 -0.02009310
H  -0.56359692 0.52938178 0.17697042
H  0.86628179 1.89458025 0.18266269
H  -1.00445005 0.88702294 -0.26741067
H  0.15136019 0.35734050 0.17509545
12
MD Step 731.5 Units = [eV / Ang.]
C  0.71754659 1.61101384 0.33849873
C  -0.87729427 0.13266502 -0.52789934
C  -0.22060501 -1.12303161 0.91432870
C  -1.00647167 -2.15040127 -1.77777946
C  0.60465908 -1.07130268 1.76790584
C  1.70280753 -0.16990402 -1.06627532
H  -0.07830887 -0.56434836 0.08537346
H  0.05325433 -0.05084670 -0.04926013
H  -0.59823991 0.51841870 0.20163234
H  0.66182187 1.53827016 0.17977725
H  -1.09985792 1.01139036 -0.24431411
H  0.14068824 0.31807656 0.17801203
12
MD Step 732.0 Units = [eV / Ang.]
C  0.51285075 1.34434384 0.34855023
C  -1.01671101 -0.06644308 -0.45985656
C  -0.10947307 -0.78391363 0.86483484
C  -0.94331751 -1.82253482 -1.76229703
C  0.97773723 -0.96937286 1.74679079
C  1.65068161 -0.31895289 -1.08910437
H  0.15418501 -0.17372996 0.08525408
H  -0.01965322 -0.01301526 -0.07971834
H  -0.58615090 0.49706123 0.22134184
H  0.37400682 1.03247184 0.16839863
H  -1.12079943 0.99970940 -0.22327658
H  0.12664372 0.27437617 0.17908247
12
MD Step 732.5 Units = [eV / Ang.]
C  0.30293508 1.06275432 0.35496723
C  -1.13212532 -0.27674843 -0.38829960
C  -0.03024309 -0.42951872 0.81559219
C  -0.83751680 -1.40417461 -1.72317094
C  1.27793041 -0.72605461 1.71070387
C  1.57721484 -0.45893655 -1.10315524
H  0.38087845 0.21030115 0.08671344
H  -0.09684997 0.02878584 -0.11125410
H  -0.52814895 0.46621510 0.23540623
H  0.04426076 0.45072295 0.14151762
H  -1.06876295 0.84960964 -0.19738103
H  0.11042753 0.22704391 0.17836034
12
MD Step 733.0 Units = [eV / Ang.]
C  0.10584546 0.79725857 0.35754237
C  -1.22295725 -0.48533378 -0.31457832
C  0.01725362 -0.07156018 0.76771404
C  -0.72442609 -0.96072064 -1.65845899
C  1.50777085 -0.36540825 1.65385162
C  1.48454051 -0.58636953 -1.10889444
H  0.58208455 0.55505376 0.08986433
H  -0.17411137 0.06862669 -0.14339678
H  -0.42798603 0.42719285 0.24354706
H  -0.28696634 -0.13633976 0.09674632
H  -0.95443180 0.58068150 -0.15985960
H  0.09338390 0.17691876 0.17592239
12
MD Step 733.5 Units = [eV / Ang.]
C  -0.06564354 0.56987271 0.35638919
C  -1.28892911 -0.67939215 -0.24028293
C  0.03538010 0.27814406 0.72184674
C  -0.63060317 -0.54343501 -1.57021278
C  1.67594747 0.07203246 1.57259331
C  1.37533595 -0.69791452 -1.10690521
H  0.74375941 0.83757512 0.09449134
H  -0.24720302 0.10090550 -0.17545848
H  -0.29240245 0.38160811 0.24597781
H  -0.58775705 -0.67341140 0.03585529
H  -0.79477549 0.22917222 -0.10614996
H  0.07689090 0.12484290 0.17185566
12
MD Step 734.0 Units = [eV / Ang.]
C  -0.20356454 0.39468462 0.35180517
C  -1.32982005 -0.84705166 -0.16713925
C  0.02900595 0.60830552 0.67808711
C  -0.57162768 -0.18576534 -1.46294235
C  1.79378580 0.53830061 1.46652444
C  1.25275132 -0.79036620 -1.09783228
H  0.85702233 1.04353458 0.10021032
H  -0.31222331 0.12085463 -0.20660602
H  -0.13113427 0.33123927 0.24346805
H  -0.83725898 -1.12436585 -0.03676528
H  -0.60917197 -0.16100707 -0.03505464
H  0.06223540 0.07163689 0.16624473
12
MD Step 734.5 Units = [eV / Ang.]
C  -0.30354003 0.27998671 0.34416939
C  -1.34530372 -0.97804025 -0.09687912
C  0.00567254 0.90868701 0.63593200
C  -0.55372605 0.09418635 -1.34208799
C  1.87211210 0.98702159 1.33841292
C  1.12027312 -0.86067972 -1.08232778
H  0.91689967 1.16497261 0.10658778
H  -0.36587122 0.12489156 -0.23594977
H  0.04329330 0.27785896 0.23736707
H  -1.02434348 -1.46970400 -0.11567231
H  -0.41596400 -0.54726399 0.05128589
H  0.05049776 0.01808316 0.15916191
12
MD Step 735.0 Units = [eV / Ang.]
C  -0.36351420 0.23032482 0.33388660
C  -1.33489242 -1.06421153 -0.03111082
C  -0.02465901 1.17051990 0.59430213
C  -0.57703319 0.28858715 -1.21305406
C  1.91935604 1.37964094 1.19328966
C  0.98154054 -0.90607496 -1.06100221
H  0.92103723 1.19809776 0.11321112
H  -0.40564375 0.11083243 -0.26263491
H  0.21620045 0.22304095 0.22954801
H  -1.14450768 -1.70120135 -0.19538584
H  -0.23032346 -0.89447362 0.14828828
H  0.04243945 -0.03508250 0.15066204
12
MD Step 735.5 Units = [eV / Ang.]
C  -0.38290210 0.24781544 0.32136120
C  -1.29798077 -1.09993185 0.02879917
C  -0.05042680 1.38680875 0.55166976
C  -0.63879750 0.39489688 -1.08086237
C  1.94102223 1.68799769 1.03727400
C  0.84012542 -0.92424874 -1.03437741
H  0.86884675 1.14184534 0.11972235
H  -0.42996544 0.07798391 -0.28592680
H  0.37193075 0.16798024 0.22224103
H  -1.19672382 -1.81656734 -0.27078146
H  -0.06355564 -1.17740826 0.25009905
H  0.03842693 -0.08717207 0.14078149
12
MD Step 736.0 Units = [eV / Ang.]
C  -0.36234660 0.33242414 0.30698305
C  -1.23396193 -1.08237177 0.08182689
C  -0.05986782 1.55251751 0.50630511
C  -0.73568419 0.41233188 -0.95022877
C  1.94018065 1.89402143 0.87660852
C  0.69929967 -0.91366295 -1.00285407
H  0.76130744 0.99752752 0.12583282
H  -0.43827530 0.02716097 -0.30528462
H  0.49555381 0.11337773 0.21775011
H  -1.18113606 -1.81556687 -0.33705426
H  0.07654025 -1.38021861 0.35057122
H  0.03839008 -0.13754097 0.12954401
12
MD Step 736.5 Units = [eV / Ang.]
C  -0.30414676 0.48113385 0.29111636
C  -1.14239052 -1.01168371 0.12736141
C  -0.04278182 1.66462806 0.45661899
C  -0.86492927 0.34014221 -0.82580738
C  1.91844757 1.98794670 0.71710186
C  0.56181738 -0.87385593 -0.96669396
H  0.60147447 0.76965687 0.13133395
H  -0.43107257 -0.03936236 -0.32041854
H  0.57485568 0.05944122 0.21808475
H  -1.09789944 -1.69807477 -0.38951576
H  0.18479750 -1.49439093 0.44384816
H  0.04182780 -0.18558120 0.11697015
12
MD Step 737.0 Units = [eV / Ang.]
C  -0.21326660 0.68613905 0.27407551
C  -1.02315964 -0.89106484 0.16524708
C  0.00775619 1.72205434 0.40153053
C  -1.02434700 0.17775655 -0.71235769
C  1.87700966 1.96629537 0.56394102
C  0.42974711 -0.80571523 -0.92602039
H  0.39558960 0.46780326 0.13611200
H  -0.40992641 -0.11795151 -0.33132787
H  0.60219296 0.00602376 0.22458697
H  -0.94720678 -1.46414276 -0.42347577
H  0.25775833 -1.51648410 0.52459893
H  0.04785258 -0.23071388 0.10308969
12
MD Step 737.5 Units = [eV / Ang.]
C  -0.09863901 0.93245785 0.25609809
C  -0.87667091 -0.72664028 0.19578755
C  0.09418620 1.72545410 0.34077002
C  -1.21120715 -0.07322648 -0.61461065
C  1.81739786 1.83040850 0.42171064
C  0.30435619 -0.71163110 -0.88084182
H  0.15449505 0.10903944 0.14016340
H  -0.37742854 -0.20378182 -0.33831351
H  0.57572789 -0.04712987 0.23765214
H  -0.73049756 -1.11608842 -0.43444510
H  0.29300353 -1.44647841 0.58807463
H  0.05527644 -0.27238353 0.08795461
12
MD Step 738.0 Units = [eV / Ang.]
C  0.02577093 1.19585209 0.23732404
C  -0.70398672 -0.52714906 0.21970865
C  0.21411341 1.67699818 0.27503171
C  -1.42002821 -0.40521161 -0.53660778
C  1.74184004 1.58584736 0.29442961
C  0.18606575 -0.59548991 -0.83109582
H  -0.10522658 -0.27993912 0.14359748
H  -0.33706829 -0.29109268 -0.34195842
H  0.49968842 -0.10010247 0.25662749
H  -0.45279896 -0.66254307 -0.41888738
H  0.28890695 -1.28711435 0.63018021
H  0.06272326 -0.31005536 0.07165021
12
MD Step 738.5 Units = [eV / Ang.]
C  0.14094912 1.44237913 0.21780658
C  -0.50697002 -0.30337768 0.23807903
C  0.36088661 1.58016264 0.20593264
C  -1.63955319 -0.79939953 -0.48035781
C  1.65305376 1.24267193 0.18542395
C  0.07448283 -0.46244741 -0.77671483
H  -0.36121443 -0.66240467 0.14660424
H  -0.29299752 -0.37355666 -0.34306899
H  0.38358215 -0.15258469 0.27992156
H  -0.12588498 -0.12393893 -0.37566027
H  0.24491106 -1.04428744 0.64773190
H  0.06875461 -0.34321668 0.05430198
12
MD Step 739.0 Units = [eV / Ang.]
C  0.22465757 1.63107921 0.19757377
C  -0.28839362 -0.06735974 0.25218600
C  0.52487168 1.43957665 0.13580554
C  -1.84976736 -1.22069934 -0.44392648
C  1.55341584 0.81642101 0.09690237
C  -0.03149837 -0.31852330 -0.71769708
H  -0.58722466 -0.99439552 0.14936692
H  -0.24968105 -0.44475651 -0.34257689
H  0.24060233 -0.20378539 0.30528562
H  0.22866153 0.46215235 -0.30801105
H  0.16235618 -0.72832812 0.63901445
H  0.07199993 -0.37138131 0.03607683
12
MD Step 739.5 Units = [eV / Ang.]
C  0.25539347 1.72048747 0.17673747
C  -0.05204127 0.16861578 0.26338110
C  0.69502045 1.26088120 0.06737994
C  -2.02060144 -1.61564834 -0.41959818
C  1.44351618 0.32934125 0.02919932
C  -0.13352783 -0.17003241 -0.65418481
H  -0.75724158 -1.23141611 0.15192935
H  -0.21143966 -0.49875316 -0.34140804
H  0.08567407 -0.25248861 0.33018443
H  0.57819509 1.03882995 -0.22544150
H  0.04577450 -0.35571918 0.60464154
H  0.07127802 -0.39409784 0.01717937
12
MD Step 740.0 Units = [eV / Ang.]
C  0.21768249 1.67791685 0.15560864
C  0.19722483 0.39307850 0.27290781
C  0.86030962 1.05055526 0.00343785
C  -2.11434806 -1.91697393 -0.39337427
C  1.32036075 -0.18881215 -0.02017830
C  -0.23357469 -0.02298040 -0.58652271
H  -0.85100893 -1.33792806 0.15406526
H  -0.18194138 -0.53068175 -0.34033692
H  -0.06639261 -0.29722212 0.35215748
H  0.88163411 1.53450066 -0.14415399
H  -0.09564627 0.04950871 0.54854763
H  0.06570013 -0.41096158 -0.00215848
12
MD Step 740.5 Units = [eV / Ang.]
C  0.10685486 1.48845852 0.13473629
C  0.45342478 0.59637913 0.28174656
C  1.01078901 0.81566806 -0.05349884
C  -2.09293059 -2.05676957 -0.34716165
C  1.17585859 -0.70134711 -0.05732062
C  -0.33365543 0.11745597 -0.51529184
H  -0.85908661 -1.29650863 0.15523169
H  -0.16371933 -0.53729258 -0.33985378
H  -0.20231691 -0.33647329 0.36910034
H  1.09705987 1.87630814 -0.08470561
H  -0.24702761 0.45575216 0.47870823
H  0.05474937 -0.42163080 -0.02169076
12
MD Step 741.0 Units = [eV / Ang.]
C  -0.06883791 1.15985864 0.11482521
C  0.70950790 0.77147174 0.29049627
C  1.13814628 0.56356780 -0.10140599
C  -1.92852020 -1.98558153 -0.26392773
C  0.99654564 -1.16747433 -0.09191329
C  -0.43555090 0.24724482 -0.44130451
H  -0.78526805 -1.11279389 0.15466115
H  -0.15781818 -0.51733541 -0.34007458
H  -0.31120980 -0.36888828 0.37943578
H  1.19271086 2.00957267 -0.06662039
H  -0.38803602 0.82620659 0.40700174
H  0.03833038 -0.42584881 -0.04117368
12
MD Step 741.5 Units = [eV / Ang.]
C  -0.28982654 0.72098481 0.09653809
C  0.95747972 0.91435058 0.29932297
C  1.23589931 0.30157104 -0.13891566
C  -1.61316491 -1.68947301 -0.13401582
C  0.76547110 -1.54770402 -0.13593703
C  -0.54054885 0.36353543 -0.36555512
H  -0.64523806 -0.81387947 0.15157728
H  -0.16363739 -0.47172476 -0.34071494
H  -0.38496099 -0.39341577 0.38218731
H  1.15687390 1.91521398 -0.10180620
H  -0.49513229 1.12400961 0.34770031
H  0.01678500 -0.42346841 -0.06038119
12
MD Step 742.0 Units = [eV / Ang.]
C  -0.52987517 0.21460196 0.08028057
C  1.18867292 1.02405799 0.30798054
C  1.29936708 0.03677267 -0.16539268
C  -1.16246403 -1.19611419 0.04064486
C  0.46649027 -1.81084637 -0.20098889
C  -0.64927262 0.46444182 -0.28913991
H  -0.46213255 -0.44094671 0.14543831
H  -0.17902259 -0.40343389 -0.34113790
H  -0.41831804 -0.40938589 0.37698298
H  1.00159035 1.61608360 -0.19011335
H  -0.54591016 1.31924746 0.31456380
H  -0.00912545 -0.41447845 -0.07911831
12
MD Step 742.5 Units = [eV / Ang.]
C  -0.76175605 -0.31222786 0.06606519
C  1.39415051 1.10232023 0.31589489
C  1.32561450 -0.22402030 -0.18094240
C  -0.61130191 -0.56632620 0.24690606
C  0.08994945 -1.94043347 -0.29495106
C  -0.76162001 0.54865637 -0.21315420
H  -0.26100503 -0.03947108 0.13610121
H  -0.20057291 -0.31715566 -0.34046206
H  -0.40884960 -0.41653506 0.36402315
H  0.75814198 1.16862308 -0.31955146
H  -0.52447931 1.39559407 0.31730161
H  -0.03827163 -0.39902411 -0.09723092
12
MD Step 743.0 Units = [eV / Ang.]
C  -0.96189044 -0.81643664 0.05350703
C  1.56523679 1.15288223 0.32229242
C  1.31352110 -0.47424275 -0.18635699
C  -0.00422212 0.12415624 0.46498871
C  -0.36229310 -1.93800695 -0.41932882
C  -0.87682164 0.61505553 -0.13859478
H  -0.06426411 0.34921569 0.12385255
H  -0.22410755 -0.21878230 -0.33770797
H  -0.35693393 -0.41500171 0.34403051
H  0.46693066 0.64463922 -0.47084425
H  -0.42591914 1.35393952 0.35877240
H  -0.06923653 -0.37741809 -0.11461081
12
MD Step 743.5 Units = [eV / Ang.]
C  -1.11286469 -1.26373107 0.04192368
C  1.69411176 1.18070287 0.32634278
C  1.26404578 -0.70751531 -0.18301750
C  0.61458849 0.80346308 0.67454060
C  -0.87471218 -1.82180295 -0.56850187
C  -0.99357553 0.66240483 -0.06628396
H  0.11080513 0.69277614 0.10932947
H  -0.24519122 -0.11480590 -0.33194946
H  -0.26583593 -0.40530763 0.31818798
H  0.16691867 0.11251525 -0.62355558
H  -0.25787089 1.21143729 0.43417964
H  -0.10041938 -0.35013658 -0.13119578
12
MD Step 744.0 Units = [eV / Ang.]
C  -1.20384454 -1.62973629 0.03047398
C  1.77438744 1.19114782 0.32729217
C  1.18063271 -0.91765394 -0.17275414
C  1.20777091 1.41565295 0.85923439
C  -1.41973154 -1.62145093 -0.73121257
C  -1.11021755 0.68926509 0.00316937
H  0.25247264 0.96897441 0.09339430
H  -0.25963381 -0.01172670 -0.32244416
H  -0.14183729 -0.38833505 0.28805228
H  -0.11125871 -0.37482726 -0.76082933
H  -0.03858539 0.99648970 0.53258828
H  -0.13015487 -0.31779979 -0.14696456
12
MD Step 744.5 Units = [eV / Ang.]
C  -1.22963353 -1.89871604 0.01827697
C  1.80158189 1.18929111 0.32456620
C  1.06961472 -1.09877966 -0.15766703
C  1.74677864 1.92419220 1.00861848
C  -1.96232241 -1.37092771 -0.89352521
C  -1.22488607 0.69409728 0.06936764
H  0.35368260 1.16426910 0.07702246
H  -0.26389578 0.08446002 -0.30872390
H  0.00569683 -0.36529088 0.25542683
H  -0.34738456 -0.78333630 -0.87141106
H  0.20760727 0.74188029 0.63997587
H  -0.15683962 -0.28113941 -0.16192726
12
MD Step 745.0 Units = [eV / Ang.]
C  -1.18921389 -2.06134626 0.00448238
C  1.77344832 1.17937448 0.31783516
C  0.94037614 -1.24550888 -0.13990960
C  2.21074498 2.30923440 1.11766094
C  -2.46565982 -1.10231011 -1.04193378
C  -1.33565451 0.67550428 0.13208728
H  0.41069220 1.27140669 0.06123284
H  -0.25537413 0.16866851 -0.29063916
H  0.16449745 -0.33764587 0.22218013
H  -0.53024482 -1.09503044 -0.94935523
H  0.45544793 0.47861121 0.74246938
H  -0.17905985 -0.24095800 -0.17611033
12
MD Step 745.5 Units = [eV / Ang.]
C  -1.08436175 -2.11270586 -0.01170510
C  1.69010112 1.16444599 0.30704006
C  0.80503243 -1.35319153 -0.12143469
C  2.58421395 2.56231117 1.18515894
C  -2.89597129 -0.84190237 -1.16554391
C  -1.44064741 0.63253302 0.19121994
H  0.42185116 1.28720842 0.04705791
H  -0.23256029 0.23700164 -0.26835915
H  0.32001832 -0.30703152 0.19001101
H  -0.65471457 -1.30264083 -0.99257515
H  0.68274516 0.23206094 0.82866925
H  -0.19570682 -0.19808907 -0.18953912
12
MD Step 746.0 Units = [eV / Ang.]
C  -0.91870709 -2.05112300 -0.03102710
C  1.55397292 1.14615610 0.29238741
C  0.67745919 -1.41817016 -0.10373260
C  2.85517110 2.68113905 1.21204958
C  -3.22565458 -0.60894599 -1.25696424
C  -1.53812590 0.56495568 0.24670521
H  0.38686383 1.21123440 0.03553348
H  -0.19509805 0.28693245 -0.24233688
H  0.45664766 -0.27509103 0.16018828
H  -0.71888293 -1.40442579 -1.00125936
H  0.87242655 0.02070161 0.89067441
H  -0.20607268 -0.15336332 -0.20221818
12
MD Step 746.5 Units = [eV / Ang.]
C  -0.69738542 -1.87813958 -0.05416285
C  1.36960469 1.12468501 0.27431554
C  0.57168383 -1.43799740 -0.08760653
C  3.01399756 2.66587317 1.20018340
C  -3.43466597 -0.41617684 -1.31215621
C  -1.62655602 0.47347402 0.29847019
H  0.30667740 1.04561046 0.02767222
H  -0.14375502 0.31739417 -0.21324581
H  0.55947376 -0.24329977 0.13332360
H  -0.72199434 -1.40050345 -0.97672216
H  1.01283527 -0.14333257 0.92404219
H  -0.20991575 -0.10758721 -0.21411357
12
MD Step 747.0 Units = [eV / Ang.]
C  -0.42731944 -1.59960484 -0.08167395
C  1.14330744 1.09877984 0.25344131
C  0.49988120 -1.41159603 -0.07304936
C  3.05340803 2.51722012 1.15174677
C  -3.51071786 -0.27124810 -1.32975270
C  -1.70466220 0.35982185 0.34638342
H  0.18401875 0.79605214 0.02438392
H  -0.08033511 0.32880402 -0.18189944
H  0.61636524 -0.21278996 0.10924808
H  -0.66344842 -1.29108185 -0.92087523
H  1.09698401 -0.25282269 0.92718636
H  -0.20748164 -0.06153449 -0.22513919
12
MD Step 747.5 Units = [eV / Ang.]
C  -0.11809946 -1.22768763 -0.11386525
C  0.88274651 1.06592229 0.23049073
C  0.47039989 -1.33932599 -0.05927979
C  2.96927926 2.23646519 1.06932846
C  -3.44891693 -0.17818773 -1.31032110
C  -1.77145326 0.22675802 0.39022815
H  0.02450079 0.47387619 0.02630539
H  -0.00753327 0.32300719 -0.14915878
H  0.61992410 -0.18422562 0.08705362
H  -0.54290574 -1.07661955 -0.83631262
H  1.12153845 -0.30403426 0.90068123
H  -0.19948036 -0.01594810 -0.23515004
12
MD Step 748.0 Units = [eV / Ang.]
C  0.21677353 -0.78325441 -0.15054052
C  0.59647859 1.02259620 0.20621806
C  0.48635960 -1.22292546 -0.04495545
C  2.76226694 1.82743679 0.95653913
C  -3.25127637 -0.13840206 -1.25585555
C  -1.82622120 0.07797122 0.42969483
H  -0.16195563 0.09844183 0.03352335
H  0.07125539 0.30314555 -0.11583574
H  0.56878574 -0.15776639 0.06531248
H  -0.36152150 -0.75990294 -0.72690727
H  1.08607250 -0.29579232 0.84675046
H  -0.18701759 0.02845198 -0.24394378
12
MD Step 748.5 Units = [eV / Ang.]
C  0.55877001 -0.29758860 -0.19067687
C  0.29349483 0.96471427 0.18132076
C  0.54517949 -1.06537460 -0.02851787
C  2.44014185 1.30037897 0.81898477
C  -2.92634030 -0.15098334 -1.16959339
C  -1.86851675 -0.08208653 0.46439674
H  -0.35991079 -0.30102788 0.04521747
H  0.15218129 0.27341528 -0.08260287
H  0.46789659 -0.13312953 0.04242625
H  -0.12429155 -0.34997119 -0.59871476
H  0.99288065 -0.22930857 0.76903117
H  -0.17148532 0.07096173 -0.25127139
12
MD Step 749.0 Units = [eV / Ang.]
C  0.88413617 0.18799677 -0.23212402
C  -0.01718985 0.88816752 0.15636019
C  0.63914894 -0.87069224 -0.00858684
C  2.02056167 0.67720708 0.66520433
C  -2.48897741 -0.21228770 -1.05608772
C  -1.89808130 -0.24839431 0.49389897
H  -0.54821489 -0.68571830 0.05933758
H  0.23122724 0.23871399 -0.04992000
H  0.32767116 -0.10973128 0.01700848
H  0.15678239 0.13263944 -0.46078479
H  0.84737410 -0.10879481 0.67254872
H  -0.15443822 0.11089384 -0.25685490
12
MD Step 749.5 Units = [eV / Ang.]
C  1.16549479 0.62602525 -0.27151177
C  -0.32685735 0.78948719 0.13169945
C  0.75679894 -0.64375848 0.01569688
C  1.53341497 -0.00339269 0.50691287
C  -1.96024438 -0.31490783 -0.92136115
C  -1.91476940 -0.41555223 0.51776385
H  -0.70171082 -1.01098921 0.07250799
H  0.30452387 0.20417782 -0.01799159
H  0.16229307 -0.08686219 -0.01180429
H  0.45963498 0.65089254 -0.32522821
H  0.65887254 0.05729129 0.56372801
H  -0.13745119 0.14758853 -0.26041204
12
MD Step 750.0 Units = [eV / Ang.]
C  1.37567827 0.97050099 -0.30457348
C  -0.62732051 0.66655904 0.10747276
C  0.88464103 -0.39021621 0.04445568
C  1.02110073 -0.68398562 0.35777029
C  -1.36707271 -0.44639308 -0.77286533
C  -1.91843909 -0.57795233 0.53560128
H  -0.79522162 -1.23394831 0.08037083
H  0.36866415 0.17464092 0.01323385
H  -0.01236754 -0.06385003 -0.04418480
H  0.75097056 1.14943769 -0.20579014
H  0.44136337 0.25477072 0.45019110
H  -0.12199666 0.18043621 -0.26168204
12
MD Step 750.5 Units = [eV / Ang.]
C  1.49315778 1.18667398 -0.32696338
C  -0.91105197 0.51927493 0.08359893
C  1.00881422 -0.11647181 0.07701239
C  0.53470933 -1.29311694 0.23032665
C  -0.74132694 -0.58838922 -0.61897058
C  -1.90885483 -0.72991798 0.54712101
H  -0.80914666 -1.32317421 0.07844433
H  0.42097400 0.15409072 0.04401701
H  -0.18071119 -0.04017919 -0.07960499
H  0.98917540 1.55954298 -0.11462212
H  0.21359333 0.46275942 0.34009310
H  -0.10933248 0.20890732 -0.26045234
12
MD Step 751.0 Units = [eV / Ang.]
C  1.50726006 1.25942037 -0.33537644
C  -1.17126065 0.35001893 0.05983834
C  1.11635628 0.17021930 0.11196834
C  0.12516548 -1.75856160 0.13192546
C  -0.11779074 -0.71709584 -0.46783879
C  -1.88560079 -0.86583908 0.55218009
H  -0.73478795 -1.26706062 0.06330014
H  0.45970137 0.14519883 0.07473928
H  -0.32889903 -0.01555399 -0.11695015
H  1.13244368 1.81254213 -0.05809117
H  -0.00217163 0.65412689 0.24088688
H  -0.10041607 0.23258468 -0.25658197
12
MD Step 751.5 Units = [eV / Ang.]
C  1.42092979 1.19659643 -0.32854103
C  -1.40195077 0.16387422 0.03589355
C  1.19599283 0.46166772 0.14738697
C  -0.16884393 -2.02621105 0.06162272
C  0.46922005 -0.80588051 -0.32582962
C  -1.84803282 -0.98034607 0.55081529
H  -0.57712698 -1.07709062 0.03360750
H  0.48409578 0.14901426 0.10578778
H  -0.44574479 0.01008474 -0.15470244
H  1.15038074 1.85884417 -0.03372709
H  -0.18308176 0.79825687 0.15770496
H  -0.09583815 0.25118983 -0.25001858
12
MD Step 752.0 Units = [eV / Ang.]
C  1.24969994 1.02578126 -0.30762265
C  -1.59798795 -0.03152957 0.01152828
C  1.23852628 0.74881042 0.18103039
C  -0.33124771 -2.07667965 0.01030360
C  0.99023093 -0.83017925 -0.19598539
C  -1.79528041 -1.06852659 0.54325397
H  -0.35371048 -0.78444863 -0.00942602
H  0.49436879 0.16487801 0.13743886
H  -0.52308974 0.03657516 -0.19113977
H  1.03421463 1.68449012 -0.03049308
H  -0.30994285 0.86622918 0.09191869
H  -0.09578143 0.26459954 -0.24080688
12
MD Step 752.5 Units = [eV / Ang.]
C  1.01736378 0.78604722 -0.27587438
C  -1.75518370 -0.22653425 -0.01331698
C  1.23698597 1.02200728 0.21061404
C  -0.37193344 -1.93086722 -0.03557602
C  1.42486106 -0.77364367 -0.07733035
C  -1.72633377 -1.12618261 0.52989929
H  -0.09016592 -0.43160085 -0.06239648
H  0.49155611 0.19057021 0.16976418
H  -0.55584660 0.06356634 -0.22452163
H  0.80019285 1.31645901 -0.03277674
H  -0.37150961 0.83732818 0.04060459
H  -0.09998673 0.27285037 -0.22908952
12
MD Step 753.0 Units = [eV / Ang.]
C  0.75030202 0.51843806 -0.23774454
C  -1.87036655 -0.41027243 -0.03843971
C  1.18671674 1.27159536 0.23403618
C  -0.32119674 -1.64136904 -0.08861579
C  1.76439812 -0.63334547 0.03450507
C  -1.64018334 -1.15007968 0.51128623
H  0.18563725 -0.06256452 -0.12061499
H  0.47731078 0.22265857 0.20257892
H  -0.54191248 0.09055644 -0.25324964
H  0.48417457 0.81362166 -0.02603408
H  -0.36712984 0.70462925 -0.00261064
H  -0.10775052 0.27613178 -0.21509701
12
MD Step 753.5 Units = [eV / Ang.]
C  0.47266113 0.25859085 -0.19787464
C  -1.94142708 -0.57165507 -0.06333745
C  1.08556220 1.48858934 0.24957070
C  -0.21844314 -1.27468823 -0.15639743
C  2.01160272 -0.42176630 0.14547282
C  -1.53603483 -1.13812685 0.48802262
H  0.44855343 0.28462964 -0.17914914
H  0.45367241 0.25697105 0.23543816
H  -0.48210989 0.11693309 -0.27601112
H  0.13045595 0.24841771 -0.00108690
H  -0.30655360 0.47733388 -0.04551657
H  -0.11793930 0.27477090 -0.19913104
12
MD Step 754.0 Units = [eV / Ang.]
C  0.20362651 0.03314051 -0.16035510
C  -1.96731324 -0.70038669 -0.08722552
C  0.93419063 1.66537587 0.25601786
C  -0.10086866 -0.89339929 -0.24033835
C  2.17781047 -0.16452281 0.26088669
C  -1.41351867 -1.08948126 0.46072499
H  0.67895918 0.58163186 -0.23361243
H  0.42284365 0.28911590 0.26768043
H  -0.38021736 0.14201865 -0.29191452
H  -0.21949700 -0.31147283 0.04460136
H  -0.20697038 0.17876949 -0.09492480
H  -0.12904512 0.26921060 -0.18154062
12
MD Step 754.5 Units = [eV / Ang.]
C  -0.04314837 -0.14049832 -0.12838466
C  -1.94798223 -0.78784818 -0.10910177
C  0.73653836 1.79623761 0.25282259
C  0.00356901 -0.54510154 -0.33703185
C  2.27860608 0.10527021 0.38373162
C  -1.27288739 -1.00455461 0.42996773
H  0.86333412 0.80997988 -0.28054590
H  0.38700126 0.31496160 0.29850248
H  -0.24307674 0.16512263 -0.30062149
H  -0.53408903 -0.81449565 0.10824170
H  -0.08858639 -0.15905509 -0.15488615
H  -0.13927866 0.25998148 -0.16269429
12
MD Step 755.0 Units = [eV / Ang.]
C  -0.25867613 -0.25232833 -0.10426863
C  -1.88433911 -0.82777137 -0.12784531
C  0.50020448 1.87761530 0.24016551
C  0.07791393 -0.25967357 -0.44054365
C  2.32974082 0.35372176 0.51404143
C  -1.11514243 -0.88497855 0.39625656
H  0.99336754 0.95922408 -0.31744901
H  0.34814748 0.33103423 0.32705133
H  -0.08064916 0.18560738 -0.30246561
H  -0.79339435 -1.22805553 0.18407577
H  0.02953509 -0.50206523 -0.22606732
H  -0.14670814 0.24766983 -0.14295109
12
MD Step 755.5 Units = [eV / Ang.]
C  -0.43723418 -0.29739165 -0.08960394
C  -1.77815591 -0.81664408 -0.14232935
C  0.23657386 1.90809107 0.21901234
C  0.11431844 -0.05227503 -0.54436276
C  2.34444711 0.55166035 0.64927470
C  -0.94207579 -0.73353199 0.36002643
H  1.06450412 1.02443533 -0.34261346
H  0.30800297 0.33479767 0.35251856
H  0.09415477 0.20296424 -0.29852568
H  -0.98726460 -1.53538722 0.26542894
H  0.13215884 -0.81960091 -0.30619332
H  -0.14942963 0.23288222 -0.12263246
12
MD Step 756.0 Units = [eV / Ang.]
C  -0.57510773 -0.27379503 -0.08548804
C  -1.63201401 -0.75386838 -0.15153216
C  -0.03956664 1.88814965 0.19109040
C  0.11071357 0.07145264 -0.64247481
C  2.33244194 0.67766476 0.78521560
C  -0.75620896 -0.55407427 0.32166331
H  1.07465148 1.00413047 -0.35492386
H  0.26793382 0.32481977 0.37422355
H  0.26608144 0.21689202 -0.29061263
H  -1.11196416 -1.73007731 0.34589750
H  0.20880219 -1.08750444 -0.39105819
H  -0.14576294 0.21621012 -0.10200068
12
MD Step 756.5 Units = [eV / Ang.]
C  -0.66988226 -0.18162729 -0.09264659
C  -1.44924939 -0.64169186 -0.15463196
C  -0.31110369 1.81981070 0.15875330
C  0.06767652 0.11053335 -0.72965184
C  2.30021038 0.71865582 0.91690720
C  -0.56065471 -0.35148811 0.28153645
H  1.02345735 0.89913476 -0.35373519
H  0.22890340 0.30083069 0.39167929
H  0.41873329 0.22735833 -0.28112287
H  -1.16697968 -1.81089360 0.41973530
H  0.25332970 -1.28882191 -0.47557685
H  -0.13444092 0.19819912 -0.08124624
12
MD Step 757.0 Units = [eV / Ang.]
C  -0.72046286 -0.02294427 -0.11141242
C  -1.23392370 -0.48497272 -0.15107582
C  -0.56033593 1.70624435 0.12470302
C  -0.01375393 0.06533332 -0.80128449
C  2.25191262 0.66886959 1.03932934
C  -0.35890251 -0.13161661 0.24003219
H  0.91234177 0.71257465 -0.33889797
H  0.19144759 0.26368852 0.40463557
H  0.53634338 0.23462015 -0.27273878
H  -1.15279723 -1.77819218 0.48176180
H  0.26291005 -1.41293079 -0.55456766
H  -0.11477926 0.17932599 -0.06048477
12
MD Step 757.5 Units = [eV / Ang.]
C  -0.72783620 0.19717920 -0.14153634
C  -0.99079114 -0.29081634 -0.14061445
C  -0.77116771 1.55146257 0.09158785
C  -0.13310830 -0.06393841 -0.85308981
C  2.19037049 0.52821623 1.14776962
C  -0.15458903 0.09882895 0.19758595
H  0.74528988 0.45097659 -0.31095178
H  0.15566827 0.21526732 0.41309585
H  0.60590966 0.23918302 -0.26800240
H  -1.06987647 -1.63226716 0.52712982
H  0.23692021 -1.45408001 -0.62320686
H  -0.08678965 0.15998804 -0.03976744
12
MD Step 758.0 Units = [eV / Ang.]
C  -0.69642755 0.46874285 -0.18184749
C  -0.72527695 -0.06811868 -0.12330378
C  -0.93128302 1.36013766 0.06154983
C  -0.29037001 -0.27691147 -0.88096475
C  2.11779857 0.30081437 1.23799313
C  0.04874194 0.33241442 0.15469987
H  0.53023853 0.12624441 -0.27146373
H  0.12125513 0.15827267 0.41730805
H  0.61923034 0.24169872 -0.26884780
H  -0.91883214 -1.37365990 0.55123258
H  0.17615542 -1.41014004 -0.67725652
H  -0.05123026 0.14050498 -0.01909940
12
MD Step 758.5 Units = [eV / Ang.]
C  -0.63564200 0.77453973 -0.22985873
C  -0.44344062 0.17296292 -0.09947128
C  -1.03377904 1.13754197 0.03582969
C  -0.48472378 -0.57091936 -0.88121010
C  2.03615098 -0.00580034 1.30636208
C  0.24784032 0.56120364 0.11195169
H  0.28063011 -0.24202460 -0.22341403
H  0.08753831 0.09599865 0.41772860
H  0.57431968 0.24282141 -0.27621282
H  -0.70180633 -1.00541611 0.54998786
H  0.08249026 -1.28204022 -0.71322746
H  -0.00957787 0.12113231 0.00153449
12
MD Step 759.0 Units = [eV / Ang.]
C  -0.56085065 1.08844996 -0.28149861
C  -0.15192473 0.42158956 -0.06965200
C  -1.07782571 0.88956833 0.01454659
C  -0.71221921 -0.93709562 -0.85131603
C  1.94705770 -0.38062436 1.35005626
C  0.43989237 0.77708619 0.06998771
H  0.01637872 -0.62487696 -0.17144117
H  0.05358298 0.03203483 0.41496106
H  0.47578358 0.24306386 -0.28984570
H  -0.42495258 -0.53719614 0.52068738
H  -0.04099698 -1.07408279 -0.72862774
H  0.03607452 0.10208315 0.02214224
12
MD Step 759.5 Units = [eV / Ang.]
C  -0.49285250 1.37565274 -0.33121924
C  0.14214099 0.66687251 -0.03450969
C  -1.06822747 0.62273586 -0.00329085
C  -0.96268033 -1.35521174 -0.79136826
C  1.85137908 -0.80832410 1.36747726
C  0.62259623 0.97219854 0.02950216
H  -0.23674185 -0.98437363 -0.12168987
H  0.01832460 -0.03005575 0.40967759
H  0.33403781 0.24269441 -0.30836315
H  -0.10165047 0.00934206 0.46347030
H  -0.18950626 -0.79508375 -0.72238682
H  0.08318017 0.08355284 0.04270057
12
MD Step 760.0 Units = [eV / Ang.]
C  -0.45499784 1.59604859 -0.37270827
C  0.43127779 0.89849787 0.00524915
C  -1.01409340 0.34411174 -0.01955203
C  -1.21680933 -1.78878173 -0.70583707
C  1.74845253 -1.26789608 1.35884595
C  0.79416179 1.13942389 -0.00879426
H  -0.45009583 -1.27728383 -0.08104179
H  -0.01926233 -0.08705434 0.40253080
H  0.16361209 0.24170125 -0.32953136
H  0.24457159 0.59550552 0.38315458
H  -0.35575950 -0.46001486 -0.69545263
H  0.12894244 0.06574197 0.06313694
12
MD Step 760.5 Units = [eV / Ang.]
C  -0.46803228 1.71120256 -0.40020125
C  0.70784669 1.10732336 0.04895200
C  -0.92706021 0.06108701 -0.03661242
C  -1.44523138 -2.18334735 -0.60496487
C  1.63522905 -1.73149060 1.32684391
C  0.95324025 1.27289669 -0.04421353
H  -0.59751447 -1.46237204 -0.05573640
H  -0.05997571 -0.13637289 0.39406995
H  -0.01898594 0.23982412 -0.35067733
H  0.57922456 1.16385714 0.29062759
H  -0.52928130 -0.09148020 -0.65140874
H  0.17054074 0.04887220 0.08332108
12
MD Step 761.0 Units = [eV / Ang.]
C  -0.54406345 1.69329505 -0.41004255
C  0.96427784 1.28587178 0.09601513
C  -0.81954240 -0.21897445 -0.05694027
C  -1.61151410 -2.47143614 -0.50452918
C  1.50564146 -2.16435204 1.27700743
C  1.09881400 1.36843150 -0.07612987
H  -0.66154272 -1.50969227 -0.04975191
H  -0.10421167 -0.17626380 0.38467628
H  -0.19731805 0.23663053 -0.36911109
H  0.86022197 1.64334188 0.20254165
H  -0.69611774 0.27995623 -0.59680270
H  0.20535486 0.03319174 0.10306708
12
MD Step 761.5 Units = [eV / Ang.]
C  -0.68210278 1.53286618 -0.40184889
C  1.19333317 1.42867471 0.14596842
C  -0.70335545 -0.48917010 -0.08273364
C  -1.67998961 -2.58586823 -0.42293265
C  1.35069035 -2.52690058 1.21745902
C  1.23006322 1.42375107 -0.10401307
H  -0.63815387 -1.40856977 -0.06360298
H  -0.15183078 -0.20593078 0.37452818
H  -0.35660064 0.23161028 -0.38246802
H  1.04624462 1.96289591 0.13827397
H  -0.83946850 0.61767231 -0.54077412
H  0.23117029 0.01896899 0.12214377
12
MD Step 762.0 Units = [eV / Ang.]
C  -0.86737108 1.24193375 -0.37869822
C  1.38837771 1.53241047 0.19845215
C  -0.58884945 -0.74344088 -0.11565709
C  -1.62645811 -2.47850739 -0.37590414
C  1.15970441 -2.77952366 1.15767681
C  1.34624600 1.43845073 -0.12745366
H  -0.53773466 -1.17077856 -0.09414496
H  -0.20209651 -0.22552379 0.36360327
H  -0.48468168 0.22426351 -0.38892559
H  1.10807703 2.07052193 0.11444088
H  -0.94156888 0.88371967 -0.49368345
H  0.24635522 0.00647421 0.14029399
12
MD Step 762.5 Units = [eV / Ang.]
C  -1.07482935 0.85097682 -0.34622074
C  1.54363897 1.59583942 0.25318720
C  -0.48452150 -0.97681458 -0.15669297
C  -1.44704215 -2.13660652 -0.37095801
C  0.92286647 -2.88949698 1.10637144
C  1.44658800 1.41370086 -0.14617075
H  -0.38183942 -0.82739328 -0.13550795
H  -0.25369651 -0.23602879 0.35171498
H  -0.57247328 0.21417379 -0.38730158
H  1.03803695 1.94987585 0.13916232
H  -0.98672371 1.04582102 -0.46484049
H  0.24999554 -0.00404762 0.15725656
12
MD Step 763.0 Units = [eV / Ang.]
C  -1.27537358 0.40123024 -0.31102279
C  1.65445473 1.61953370 0.30993255
C  -0.39693621 -1.18541022 -0.20609741
C  -1.16037074 -1.58821208 -0.40461777
C  0.63447226 -2.83810837 1.06910482
C  1.53019715 1.35176751 -0.16001301
H  -0.19726084 -0.42079232 -0.18072115
H  -0.30484936 -0.23907075 0.33857441
H  -0.61404081 0.20106272 -0.37706770
H  0.85250614 1.62573791 0.20912904
H  -0.96477997 1.08466848 -0.45999116
H  0.24198124 -0.01240683 0.17279018
12
MD Step 763.5 Units = [eV / Ang.]
C  -1.44207812 -0.06431877 -0.27913658
C  1.71749272 1.60545840 0.36843403
C  -0.33076619 -1.36622473 -0.26343699
C  -0.80177571 -0.89357974 -0.46400649
C  0.29582580 -2.62527724 1.04662707
C  1.59600026 1.25549842 -0.16894874
H  -0.00997949 0.00469743 -0.22332119
H  -0.35347769 -0.23666342 0.32386473
H  -0.60655189 0.18483075 -0.35831927
H  0.58612074 1.15530683 0.31113129
H  -0.87384400 0.99877014 -0.47958227
H  0.22303358 -0.01849806 0.18669441
12
MD Step 764.0 Units = [eV / Ang.]
C  -1.55444010 -0.50795501 -0.25502217
C  1.73093627 1.55648209 0.42837690
C  -0.28875321 -1.51681663 -0.32768410
C  -0.41274432 -0.12741513 -0.53172080
C  -0.08345235 -2.26963689 1.03473193
C  1.64270324 1.12789149 -0.17305658
H  0.15897638 0.41015800 -0.25840255
H  -0.39741518 -0.23095075 0.30731202
H  -0.55025788 0.16558198 -0.33172687
H  0.28088484 0.61022951 0.42698714
H  -0.72111817 0.80475186 -0.51862185
H  0.19468048 -0.02232052 0.19882693
12
MD Step 764.5 Units = [eV / Ang.]
C  -1.59995698 -0.90072557 -0.24126648
C  1.69462544 1.47588060 0.48934393
C  -0.27147116 -1.63501906 -0.39732927
C  -0.03093216 0.63913489 -0.59117784
C  -0.48629015 -1.80399315 1.02569353
C  1.66881466 0.97183901 -0.17251097
H  0.29510709 0.76581022 -0.28295998
H  -0.43462393 -0.22395824 0.28874330
H  -0.44859111 0.14362978 -0.29848539
H  -0.02437613 0.05840502 0.53904328
H  -0.52146717 0.53298467 -0.56820719
H  0.15916160 -0.02398817 0.20911307
12
MD Step 765.0 Units = [eV / Ang.]
C  -1.57355412 -1.22268168 -0.23879593
C  1.61009917 1.36691385 0.55078866
C  -0.27690658 -1.71877475 -0.47050720
C  0.31558267 1.34991621 -0.63006997
C  -0.89086306 -1.26804744 1.01059376
C  1.67274045 0.79005864 -0.16757279
H  0.38998500 1.05136924 -0.29569606
H  -0.46338367 -0.21739256 0.26812223
H  -0.30834119 0.11947374 -0.26024744
H  -0.30034580 -0.44752179 0.63383963
H  -0.29428471 0.22041428 -0.61800300
H  0.11927186 -0.02372774 0.21754811
12
MD Step 765.5 Units = [eV / Ang.]
C  -1.47589901 -1.46116810 -0.24732124
C  1.48056175 1.23251133 0.61202321
C  -0.30001475 -1.76611794 -0.54512501
C  0.60926434 1.96699884 -0.64127061
C  -1.27403106 -0.70115908 0.98152988
C  1.65293945 0.58517693 -0.15857449
H  0.43976885 1.25431971 -0.29658279
H  -0.48244110 -0.21249015 0.24556158
H  -0.13978326 0.09373970 -0.21902427
H  -0.52863124 -0.87331728 0.70322074
H  -0.05988268 -0.09662659 -0.65862660
H  0.07814872 -0.02186738 0.22418960
12
MD Step 766.0 Units = [eV / Ang.]
C  -1.31148867 -1.60854499 -0.26577827
C  1.31072781 1.07508688 0.67222747
C  -0.33250611 -1.77525001 -0.61901216
C  0.84096846 2.46805396 -0.62193112
C  -1.61439518 -0.13726269 0.93298757
C  1.60814952 0.35990882 -0.14590236
H  0.44357528 1.36752414 -0.28641645
H  -0.49110366 -0.20992526 0.22131430
H  0.04346400 0.06707869 -0.17702959
H  -0.69983946 -1.20035910 0.74358727
H  0.16343976 -0.38749249 -0.68318780
H  0.03900825 -0.01881795 0.22914115
12
MD Step 766.5 Units = [eV / Ang.]
C  -1.08706659 -1.66032536 -0.29264088
C  1.10656799 0.89647623 0.73047894
C  -0.36315862 -1.74466589 -0.69010642
C  1.00677184 2.84134829 -0.57190533
C  -1.89428652 0.39733284 0.86221628
C  1.53763689 0.11726807 -0.12997486
H  0.40223653 1.38718971 -0.26649568
H  -0.48927380 -0.20977823 0.19574601
H  0.22509334 0.04003480 -0.13645802
H  -0.81040654 -1.42039236 0.75440112
H  0.36103087 -0.62943736 -0.68779038
H  0.00485463 -0.01505074 0.23252921
12
MD Step 767.0 Units = [eV / Ang.]
C  -0.81062148 -1.61426544 -0.32607500
C  0.87498389 0.69798401 0.78579858
C  -0.37886933 -1.67329245 -0.75667272
C  1.10521557 3.08090513 -0.49233502
C  -2.10062607 0.88376600 0.76887872
C  1.44143681 -0.13922349 -0.11121615
H  0.31766096 1.31177571 -0.23845837
H  -0.47742870 -0.21155792 0.16929648
H  0.38745448 0.01291032 -0.09921347
H  -0.85966243 -1.53046273 0.73677853
H  0.52225627 -0.80746415 -0.67125802
H  -0.02179995 -0.01107499 0.23447642
12
MD Step 767.5 Units = [eV / Ang.]
C  -0.49099591 -1.47063199 -0.36396171
C  0.62341328 0.48052669 0.83721126
C  -0.36645235 -1.56064939 -0.81752185
C  1.13553736 3.18309528 -0.38477374
C  -2.22494469 1.30915494 0.65439813
C  1.32056007 -0.40538136 -0.09002926
H  0.19282152 1.14210313 -0.20425216
H  -0.45654886 -0.21427707 0.14243491
H  0.51357697 -0.01432624 -0.06663757
H  -0.84781391 -1.52932333 0.69256001
H  0.64003487 -0.91287567 -0.63450448
H  -0.03918836 -0.00741500 0.23507647
12
MD Step 768.0 Units = [eV / Ang.]
C  -0.13809658 -1.23369145 -0.40384796
C  0.35943809 0.24485930 0.88381215
C  -0.31491544 -1.40706370 -0.87216766
C  1.09700576 3.14504928 -0.25090642
C  -2.26301573 1.66483569 0.52133723
C  1.17711044 -0.67624147 -0.06677256
H  0.03230740 0.88272736 -0.16617820
H  -0.42800383 -0.21657755 0.11561535
H  0.58958654 -0.04204105 -0.03931258
H  -0.77502162 -1.41572485 0.62393601
H  0.71006041 -0.94154159 -0.57989104
H  -0.04645545 -0.00458999 0.23437569
12
MD Step 768.5 Units = [eV / Ang.]
C  0.23643944 -0.91423124 -0.44290823
C  0.09040305 -0.00812872 0.92483293
C  -0.21769376 -1.21393822 -0.92086212
C  0.98927416 2.96494448 -0.09278361
C  -2.21442349 1.94502874 0.37297983
C  1.01431164 -0.94602334 -0.04174427
H  -0.15671531 0.54439751 -0.12692280
H  -0.39340701 -0.21689671 0.08923825
H  0.60697970 -0.07081748 -0.01700842
H  -0.64156441 -1.18866335 0.53356563
H  0.73013292 -0.89257863 -0.51075221
H  -0.04373693 -0.00309305 0.23236501
12
MD Step 769.0 Units = [eV / Ang.]
C  0.61835774 -0.53254563 -0.47802139
C  -0.17688213 -0.27707026 0.95969490
C  -0.07422537 -0.98406349 -0.96447200
C  0.81370389 2.64426199 0.08655873
C  -2.08229427 2.14627436 0.21313509
C  0.83641627 -1.20815541 -0.01517864
H  -0.36342256 0.14702626 -0.08947013
H  -0.35445363 -0.21366237 0.06362333
H  0.56413415 -0.10123795 0.00119392
H  -0.44908071 -0.84965730 0.42507020
H  0.69986652 -0.76779874 -0.43111790
H  -0.03211991 -0.00337146 0.22898389
12
MD Step 769.5 Units = [eV / Ang.]
C  0.99013973 -0.12072088 -0.50606019
C  -0.43632917 -0.55975338 0.98804440
C  0.10958878 -0.72189900 -1.00422537
C  0.57561594 2.19200492 0.28229099
C  -1.87330667 2.26773634 0.04608451
C  0.64851733 -1.45537668 0.01274110
H  -0.57261302 -0.27800315 -0.05679692
H  -0.31275801 -0.20550007 0.03899621
H  0.46659267 -0.13362737 0.01663194
H  -0.20283665 -0.40704048 0.30371586
H  0.62089036 -0.57201561 -0.34555877
H  -0.01350128 -0.00580463 0.22413623
12
MD Step 770.0 Units = [eV / Ang.]
C  1.33121420 0.27747744 -0.52443212
C  -0.68261610 -0.85276296 1.00976107
C  0.32214570 -0.43373787 -1.04139318
C  0.28716890 1.63039254 0.48711305
C  -1.59798096 2.31227966 -0.12347031
C  0.45628464 -1.67989982 0.04185642
H  -0.76499115 -0.68791998 -0.03131434
H  -0.26970528 -0.19143324 0.01549105
H  0.32602965 -0.16784388 0.03072460
H  0.08529297 0.11823568 0.17696895
H  0.49752448 -0.31410495 -0.25901917
H  0.00963295 -0.01068261 0.21771398
12
MD Step 770.5 Units = [eV / Ang.]
C  1.61959389 0.61083777 -0.53176468
C  -0.91107077 -1.15120782 1.02493629
C  0.54781717 -0.12767251 -1.07699961
C  -0.02999190 1.00038065 0.69119861
C  -1.27113726 2.28796737 -0.29061857
C  0.26566025 -1.87364049 0.07199451
H  -0.91903193 -1.03274827 -0.01416783
H  -0.22633889 -0.17104373 -0.00683223
H  0.15823246 -0.20318827 0.04466873
H  0.39404404 0.68697143 0.05444552
H  0.33774230 -0.00847201 -0.17648523
H  0.03448065 -0.01818413 0.20962450
12
MD Step 771.0 Units = [eV / Ang.]
C  1.83506083 0.82947902 -0.52846067
C  -1.11743782 -1.44856508 1.03382722
C  0.76901228 0.18663953 -1.11162363
C  -0.34394355 0.36378053 0.88326415
C  -0.91223505 2.20941268 -0.45074141
C  0.08255293 -2.02850611 0.10292474
H  -1.01450552 -1.26403431 -0.00468100
H  -0.18329590 -0.14457364 -0.02795982
H  -0.01931015 -0.23845366 0.05924122
H  0.69186028 1.23950577 -0.05323850
H  0.15403818 0.32367427 -0.10236918
H  0.05820347 -0.02835900 0.19981688
12
MD Step 771.5 Units = [eV / Ang.]
C  1.96318994 0.89630548 -0.51677349
C  -1.29760511 -1.73670584 1.03679216
C  0.96809708 0.49838200 -1.14531870
C  -0.61546106 -0.20200193 1.05290444
C  -0.54513802 2.09808498 -0.60031961
C  -0.08742739 -2.13675390 0.13432201
H  -1.03689473 -1.34621400 -0.00030051
H  -0.14079540 -0.11295175 -0.04789031
H  -0.18961668 -0.27208832 0.07473303
H  0.93985096 1.70092197 -0.13684005
H  -0.03638946 0.65413863 -0.03961110
H  0.07818987 -0.04111732 0.18830213
12
MD Step 772.0 Units = [eV / Ang.]
C  1.99875058 0.79694484 -0.50021451
C  -1.44739465 -2.00613623 1.03421851
C  1.12886433 0.79607879 -1.17763007
C  -0.80561698 -0.61863557 1.19350483
C  -0.19675660 1.98070185 -0.73785936
C  -0.23918114 -2.19144357 0.16574378
H  -0.98114995 -1.26642253 0.00277060
H  -0.09868631 -0.07773205 -0.06660319
H  -0.33782885 -0.30241340 0.09099304
H  1.09949243 1.99571419 -0.19138078
H  -0.21276209 0.94957247 0.01129199
H  0.09226924 -0.05622879 0.17516517
12
MD Step 772.5 Units = [eV / Ang.]
C  1.94697556 0.54377875 -0.48246940
C  -1.56253220 -2.24648095 1.02645243
C  1.23746733 1.06816117 -1.20767783
C  -0.88621878 -0.82777766 1.30425763
C  0.10575447 1.88520504 -0.86452740
C  -0.36827144 -2.18696039 0.19663102
H  -0.85317714 -1.03833142 0.00843273
H  -0.05654006 -0.04095506 -0.08403422
H  -0.45211782 -0.32783562 0.10753744
H  1.14327128 2.06872289 -0.21807158
H  -0.35348446 1.17580830 0.05290242
H  0.09887326 -0.07333506 0.16056676
12
MD Step 773.0 Units = [eV / Ang.]
C  1.82201562 0.17215049 -0.46630127
C  -1.63882016 -2.44718685 1.01373806
C  1.28295028 1.30360488 -1.23427167
C  -0.84859587 -0.80941697 1.38992326
C  0.33898563 1.83490315 -0.98402612
C  -0.47103614 -2.11959260 0.22633717
H  -0.66835095 -0.69812147 0.01953862
H  -0.01377853 -0.00494297 -0.10006461
H  -0.52402140 -0.34701863 0.12368001
H  1.06370249 1.90345768 -0.22390829
H  -0.44018757 1.30413758 0.09061888
H  0.09713661 -0.09197430 0.14473597
12
MD Step 773.5 Units = [eV / Ang.]
C  1.64327290 -0.26932073 -0.45291851
C  -1.67250459 -2.59839313 0.99617316
C  1.25755988 1.49264388 -1.25603530
C  -0.70605688 -0.58792825 1.45828285
C  0.48740907 1.84250974 -1.10147246
C  -0.54469328 -1.98804619 0.25417508
H  -0.44772728 -0.29457821 0.03722576
H  0.03018768 0.02794039 -0.11452366
H  -0.54844205 -0.35899881 0.13865393
H  0.87592378 1.52804604 -0.21890667
H  -0.46187130 1.31773908 0.13139116
H  0.08694208 -0.11161380 0.12795466
12
MD Step 774.0 Units = [eV / Ang.]
C  1.43113477 -0.72991279 -0.44197570
C  -1.66071772 -2.69187072 0.97368282
C  1.15702983 1.62754855 -1.27152369
C  -0.48861669 -0.22244708 1.51676336
C  0.54618017 1.90641431 -1.22156636
C  -0.58744358 -1.79379304 0.27947759
H  -0.21356433 0.12223228 0.06091302
H  0.07582644 0.05554072 -0.12720576
H  -0.52356114 -0.36325606 0.15171182
H  0.61238600 1.00538156 -0.21249614
H  -0.41757084 1.21584957 0.18168294
H  0.06891708 -0.13168729 0.11053610
12
MD Step 774.5 Units = [eV / Ang.]
C  1.20365201 -1.16538909 -0.43203197
C  -1.60190265 -2.72188212 0.94602147
C  0.98095457 1.70333243 -1.27932948
C  -0.23303001 0.21283175 1.57006979
C  0.52145558 2.01088676 -1.34678856
C  -0.59857601 -1.54115395 0.30165087
H  0.01427032 0.50957787 0.08878472
H  0.12337558 0.07614428 -0.13789763
H  -0.45083604 -0.35975045 0.16220567
H  0.31266228 0.41313796 -0.21095941
H  -0.31640626 1.01389483 0.24547311
H  0.04438063 -0.15163028 0.09280143
12
MD Step 775.0 Units = [eV / Ang.]
C  0.97489362 -1.54217483 -0.42113702
C  -1.49611395 -2.68582752 0.91280332
C  0.73327231 1.71825149 -1.27817056
C  0.02683245 0.64831611 1.61964374
C  0.42811838 2.13017383 -1.47640424
C  -0.57855003 -1.23708060 0.32021126
H  0.22019907 0.83612331 0.11842463
H  0.17276510 0.08866751 -0.14641185
H  -0.33514014 -0.34893294 0.16965015
H  0.01349625 -0.17615133 -0.21678615
H  -0.17502574 0.73954452 0.32312089
H  0.01525268 -0.17090954 0.07505584
12
MD Step 775.5 Units = [eV / Ang.]
C  0.75489255 -1.83761891 -0.40729187
C  -1.34515293 -2.58456705 0.87356293
C  0.42274845 1.67395564 -1.26696319
C  0.26565702 1.03110869 1.66451169
C  0.28593269 2.23478926 -1.60661456
C  -0.52901545 -0.89068022 0.33479775
H  0.39321217 1.08196024 0.14733123
H  0.22357583 0.09278744 -0.15262083
H  -0.18497822 -0.33172417 0.17377269
H  -0.25721246 -0.70734063 -0.22951604
H  -0.01357162 0.42637332 0.41146370
H  -0.01608802 -0.18904360 0.05756648
12
MD Step 776.0 Units = [eV / Ang.]
C  0.55057876 -2.03798691 -0.38868900
C  -1.15252732 -2.42238652 0.82783692
C  0.06323551 1.57523825 -1.24488283
C  0.46779891 1.32797356 1.70256088
C  0.11562782 2.29758107 -1.73159536
C  -0.45275429 -0.51257645 0.34515855
H  0.52610799 1.23630686 0.17320989
H  0.27503123 0.08900486 -0.15648658
H  -0.01258902 -0.30944124 0.17454612
H  -0.48179344 -1.14564952 -0.24709552
H  0.14826509 0.10754809 0.50489047
H  -0.04698124 -0.20561204 0.04054645
12
MD Step 776.5 Units = [eV / Ang.]
C  0.36705181 -2.13585469 -0.36377182
C  -0.92327979 -2.20662408 0.77525367
C  -0.32657936 1.42939725 -1.21140355
C  0.62535168 1.52203576 1.73153815
C  -0.06395306 2.29781217 -1.84483488
C  -0.35353185 -0.11422747 0.35112619
H  0.61436654 1.29460799 0.19407087
H  0.32601997 0.07863288 -0.15808186
H  0.16633360 -0.28365240 0.17219248
H  -0.65103759 -1.47323502 -0.26700866
H  0.29396090 -0.18863882 0.59677581
H  -0.07470285 -0.22025359 0.02414361
12
MD Step 777.0 Units = [eV / Ang.]
C  0.20866389 -2.12799511 -0.33119817
C  -0.66371842 -1.94704508 0.71561258
C  -0.72421898 1.24532503 -1.16630787
C  0.73513840 1.60710107 1.74955246
C  -0.23726142 2.22268660 -1.94023097
C  -0.23586297 0.29271901 0.35258061
H  0.65516759 1.25618615 0.20822226
H  0.37514707 0.06370542 -0.15759818
H  0.33358232 -0.25595108 0.16714661
H  -0.76123733 -1.68330411 -0.28692578
H  0.41129917 -0.44077309 0.68070711
H  -0.09669933 -0.23265481 0.00843935
12
MD Step 777.5 Units = [eV / Ang.]
C  0.07961622 -2.01428314 -0.28980402
C  -0.38111068 -1.65506012 0.64893914
C  -1.10538798 1.03247409 -1.10965352
C  0.79599337 1.58238043 1.75519018
C  -0.39224225 2.06681433 -2.01270971
C  -0.10472616 0.69694701 0.34941962
H  0.64686228 1.12301146 0.21425179
H  0.42080964 0.04681074 -0.15534029
H  0.47020133 -0.22767488 0.15997079
H  -0.81143715 -1.77461436 -0.30494607
H  0.49224253 -0.63427313 0.75122805
H  -0.11082117 -0.24253243 -0.00654595
12
MD Step 778.0 Units = [eV / Ang.]
C  -0.01609447 -1.79776297 -0.23863573
C  -0.08340029 -1.34290597 0.57550373
C  -1.44672209 0.79991488 -1.04170051
C  0.80694556 1.44889107 1.74743507
C  -0.51986560 1.83059030 -2.05840389
C  0.03475306 1.08784481 0.34153321
H  0.58905691 0.89974666 0.21107247
H  0.46129466 0.03085622 -0.15170544
H  0.55897013 -0.19963696 0.15123331
H  -0.80155090 -1.74771050 -0.31961427
H  0.53214330 -0.76021414 0.80412050
H  -0.11553028 -0.24961339 -0.02083845
12
MD Step 778.5 Units = [eV / Ang.]
C  -0.07548588 -1.48581334 -0.17709959
C  0.22105625 -1.02285170 0.49580102
C  -1.72884934 0.55565994 -0.96282340
C  0.76645918 1.20784802 1.72556413
C  -0.61348706 1.51838933 -2.07458327
C  0.17760257 1.45572940 0.32878835
H  0.48336688 0.59498519 0.19808255
H  0.49489885 0.01877359 -0.14714865
H  0.58717248 -0.17195964 0.14138102
H  -0.73152418 -1.60325630 -0.32987260
H  0.52883796 -0.81388528 0.83640188
H  -0.11004771 -0.25361921 -0.03449144
12
MD Step 779.0 Units = [eV / Ang.]
C  -0.09805620 -1.09211972 -0.10524459
C  0.52369970 -0.70650067 0.41049670
C  -1.93902946 0.30636853 -0.87344264
C  0.67272048 0.86105851 1.68911445
C  -0.66837571 1.13722201 -2.05954896
C  0.31926412 1.79194748 0.31102144
H  0.33476136 0.22335307 0.17545548
H  0.52005934 0.01320142 -0.14213879
H  0.54894465 -0.14409023 0.13064712
H  -0.60156269 -1.34247719 -0.33504715
H  0.48200360 -0.79370508 0.84625033
H  -0.09442920 -0.25425813 -0.04756340
12
MD Step 779.5 Units = [eV / Ang.]
C  -0.08765769 -0.63883210 -0.02413917
C  0.81596430 -0.40422183 0.32035263
C  -2.07265984 0.05746955 -0.77401377
C  0.52497528 0.41328484 1.63796396
C  -0.68158272 0.69614965 -2.01264361
C  0.45579192 2.08891491 0.28803947
H  0.15320129 -0.19219822 0.14451767
H  0.53548942 0.01617388 -0.13710988
H  0.44650193 -0.11501570 0.11903088
H  -0.41342306 -0.96967481 -0.33491388
H  0.39295272 -0.70082119 0.83301326
H  -0.06955355 -0.25122896 -0.06009757
12
MD Step 780.0 Units = [eV / Ang.]
C  -0.05409551 -0.15784028 0.06377675
C  1.08946040 -0.12470778 0.22614787
C  -2.13324030 -0.18643755 -0.66507833
C  0.32586303 -0.12351725 1.57250786
C  -0.65219883 0.20655980 -1.93445735
C  0.58397400 2.34013803 0.25962818
H  -0.04506795 -0.61903322 0.10809146
H  0.54030526 0.02885824 -0.13241534
H  0.28983311 -0.08361403 0.10635478
H  -0.17271657 -0.49665731 -0.32983152
H  0.26491296 -0.53951222 0.79738113
H  -0.03702960 -0.24423642 -0.07210549
12
MD Step 780.5 Units = [eV / Ang.]
C  -0.01350353 0.31023181 0.15456787
C  1.33618824 0.12532393 0.12861220
C  -2.13086738 -0.42108410 -0.54735813
C  0.08443954 -0.72474767 1.49383579
C  -0.58197067 -0.31682725 -1.82720726
C  0.70137672 2.54027341 0.22557295
H  -0.23751958 -1.01585238 0.07059047
H  0.53412768 0.05138351 -0.12829120
H  0.09494541 -0.04902595 0.09237684
H  0.10811397 0.05164042 -0.32085347
H  0.10370728 -0.31830039 0.74171182
H  0.00096232 -0.23301534 -0.08355789
12
MD Step 781.0 Units = [eV / Ang.]
C  0.01350878 0.72045838 0.24314098
C  1.54877660 0.34129454 0.02838224
C  -2.07982664 -0.64215315 -0.42185008
C  -0.18103394 -1.34831876 1.40373842
C  -0.47610905 -0.85455648 -1.69516015
C  0.80630633 2.68524557 0.18568931
H  -0.39758011 -1.33725672 0.03763668
H  0.51714434 0.08278646 -0.12483524
H  -0.11877077 -0.01092677 0.07691301
H  0.40709678 0.63224400 -0.30965350
H  -0.08138138 -0.05145777 0.67038042
H  0.04186905 -0.21735931 -0.09438210
12
MD Step 781.5 Units = [eV / Ang.]
C  0.00623096 1.03140794 0.32414382
C  1.72074391 0.52079489 -0.07401196
C  -1.99598491 -0.84516163 -0.28987778
C  -0.44221183 -1.93364445 1.30433570
C  -0.34397475 -1.38126206 -1.54485527
C  0.89769851 2.77240546 0.13986875
H  -0.49935015 -1.54177549 0.01509478
H  0.49012191 0.12108366 -0.12200348
H  -0.33132351 0.03036517 0.05992909
H  0.69201815 1.18321212 -0.29807509
H  -0.27694909 0.23972359 0.58991878
H  0.08298081 -0.19714921 -0.10446734
12
MD Step 782.0 Units = [eV / Ang.]
C  -0.05024118 1.21431977 0.39325647
C  1.84674187 0.66348064 -0.17813248
C  -1.89462076 -1.02563137 -0.15308536
C  -0.66360139 -2.40803998 1.19727700
C  -0.19917377 -1.86561283 -1.38480492
C  0.97495089 2.80068660 0.08813596
H  -0.52376341 -1.60131614 0.00770288
H  0.45436306 0.16345903 -0.11962584
H  -0.52439071 0.07394079 0.04158220
H  0.92364452 1.63027928 -0.28726695
H  -0.46555053 0.52681177 0.50863637
H  0.12164144 -0.17237755 -0.11367533
12
MD Step 782.5 Units = [eV / Ang.]
C  -0.15984473 1.26021390 0.44840556
C  1.92276964 0.77082733 -0.28359539
C  -1.78898249 -1.17947057 -0.01337237
C  -0.81011873 -2.70174618 1.08279904
C  -0.05852994 -2.27229082 -1.22442785
C  1.03774120 2.77066395 0.03070353
H  -0.46391316 -1.50849108 0.01778463
H  0.41160791 0.20654333 -0.11743648
H  -0.68277074 0.11845781 0.02221209
H  1.06365358 1.90223678 -0.27671188
H  -0.62704264 0.77622317 0.43549404
H  0.15543010 -0.14316764 -0.12185492
12
MD Step 783.0 Units = [eV / Ang.]
C  -0.31351815 1.18176967 0.49035766
C  1.94631313 0.84577722 -0.39002441
C  -1.68960777 -1.30341199 0.12720738
C  -0.85735252 -2.76766243 0.95928462
C  0.06033191 -2.56647513 -1.07225818
C  1.08585789 2.68445316 -0.03197921
H  -0.32715170 -1.27856222 0.04459926
H  0.36389642 0.24673548 -0.11511493
H  -0.79501310 0.16233748 0.00229980
H  1.08533771 1.95102098 -0.26379445
H  -0.74140855 0.95380410 0.37828073
H  0.18231471 -0.10978632 -0.12885826
12
MD Step 783.5 Units = [eV / Ang.]
C  -0.49134059 1.00908689 0.52241293
C  1.91642098 0.89228416 -0.49699945
C  -1.60418289 -1.39534446 0.26655728
C  -0.80005216 -2.59704629 0.82386654
C  0.14251473 -2.72019762 -0.93391159
C  1.11906661 2.54543951 -0.09920939
H  -0.13295533 -0.94508618 0.08462330
H  0.31340241 0.28053515 -0.11233002
H  -0.85347791 0.20395118 -0.01758866
H  0.98245649 1.76764768 -0.24445014
H  -0.79261932 1.03137877 0.34158618
H  0.20076697 -0.07264879 -0.13455701
12
MD Step 784.0 Units = [eV / Ang.]
C  -0.66781629 0.78136709 0.54937189
C  1.83374165 0.91481492 -0.60401328
C  -1.53770114 -1.45441084 0.40264315
C  -0.65421548 -2.22273122 0.67396147
C  0.17946690 -2.71872319 -0.81063309
C  1.13703728 2.35788065 -0.17004085
H  0.09237562 -0.55130361 0.13259145
H  0.26226207 0.30484436 -0.10878200
H  -0.85413116 0.24177451 -0.03686078
H  0.77152900 1.38543076 -0.21476842
H  -0.77238828 0.99337166 0.32538672
H  0.20983983 -0.03231510 -0.13885625
12
MD Step 784.5 Units = [eV / Ang.]
C  -0.81789211 0.53805234 0.57626791
C  1.70051492 0.91785147 -0.71043548
C  -1.49262732 -1.48087520 0.53358245
C  -0.45156146 -1.70796877 0.50886938
C  0.17132476 -2.56449121 -0.69915240
C  1.13931838 2.12651551 -0.24333079
H  0.32178929 -0.14091379 0.18279708
H  0.21241328 0.31721721 -0.10423756
H  -0.79635310 0.27451001 -0.05495321
H  0.48624492 0.86860152 -0.17267474
H  -0.68237749 0.84097689 0.32497249
H  0.20920595 0.01052402 -0.14170512
12
MD Step 785.0 Units = [eV / Ang.]
C  -0.92153228 0.31242391 0.60735133
C  1.52057071 0.90546541 -0.81548705
C  -1.46890080 -1.47585518 0.65772250
C  -0.22946939 -1.12715080 0.33050550
C  0.12692818 -2.27686362 -0.59300493
C  1.12536304 1.85626293 -0.31780719
H  0.53211756 0.24868337 0.23015219
H  0.16545550 0.31604788 -0.09855599
H  -0.68292070 0.30118743 -0.07138475
H  0.16712439 0.29266358 -0.11874540
H  -0.53389349 0.59206222 0.33235779
H  0.19915728 0.05507287 -0.14310400
12
MD Step 785.5 Units = [eV / Ang.]
C  -0.96582593 0.12879763 0.64556705
C  1.29928820 0.88099945 -0.91822555
C  -1.46368702 -1.44104768 0.77370413
C  -0.02142853 -0.54788478 0.14298631
C  0.06149084 -1.88773221 -0.48473403
C  1.09459342 1.55208190 -0.39214860
H  0.70628750 0.58946131 0.27075238
H  0.12254356 0.30068847 -0.09170430
H  -0.52019518 0.32125085 -0.08580808
H  -0.14844810 -0.27390364 -0.05586837
H  -0.34518392 0.27682422 0.33858734
H  0.18056515 0.10046450 -0.14310829
12
MD Step 786.0 Units = [eV / Ang.]
C  -0.94490002 0.00276478 0.69249862
C  1.04352332 0.84688028 -1.01754701
C  -1.47096301 -1.37855622 0.88051991
C  0.14848416 -0.02075849 -0.04846863
C  -0.00710413 -1.43482189 -0.36803621
C  1.04650898 1.21897730 -0.46506223
H  0.83336930 0.86267925 0.30197059
H  0.08431175 0.27150552 -0.08376368
H  -0.31840376 0.33462621 -0.09805897
H  -0.43217512 -0.78013137 0.01179654
H  -0.13744960 -0.06896544 0.33597731
H  0.15479813 0.14580006 -0.14182626
12
MD Step 786.5 Units = [eV / Ang.]
C  -0.85853135 -0.05689689 0.74859205
C  0.76146063 0.80456857 -1.11219799
C  -1.48118909 -1.29082571 0.97754616
C  0.26656991 0.42243743 -0.23862491
C  -0.06196789 -0.95521607 -0.23909611
C  0.98081098 0.86211490 -0.53535231
H  0.90737126 1.05700389 0.32225832
H  0.05083884 0.22986561 -0.07492691
H  -0.09177917 0.34175209 -0.10819295
H  -0.66614803 -1.19442518 0.07988139
H  0.06895679 -0.41056503 0.31952801
H  0.12360712 0.19018639 -0.13941475
12
MD Step 787.0 Units = [eV / Ang.]
C  -0.71038863 -0.04593716 0.81347388
C  0.46238445 0.75461816 -1.20081034
C  -1.48139702 -1.18064350 1.06454486
C  0.32744503 0.76502262 -0.42289339
C  -0.08978422 -0.48095622 -0.09690540
C  0.89754080 0.48698009 -0.60197244
H  0.92570137 1.16616831 0.33085072
H  0.02164984 0.17805786 -0.06548826
H  0.14176103 0.34353861 -0.11649378
H  -0.84098992 -1.50079584 0.14447196
H  0.25709723 -0.71882030 0.28729162
H  0.08898004 0.23276739 -0.13606942
12
MD Step 787.5 Units = [eV / Ang.]
C  -0.50654727 0.03714659 0.88622141
C  0.15635005 0.69683234 -1.28195108
C  -1.45603852 -1.05111132 1.14161336
C  0.33092565 0.99989124 -0.59749613
C  -0.08193823 -0.03728008 0.05717498
C  0.79720906 0.09952109 -0.66406160
H  0.88793003 1.18709217 0.32751697
H  -0.00423592 0.11913885 -0.05582613
H  0.36170254 0.34122645 -0.12343383
H  -0.95281384 -1.69313641 0.20230345
H  0.41447237 -0.97206587 0.23995128
H  0.05298408 0.27274495 -0.13201268
12
MD Step 788.0 Units = [eV / Ang.]
C  -0.25459461 0.19193175 0.96551647
C  -0.14623754 0.63047771 -1.35418836
C  -1.38875443 -0.90552830 1.20907075
C  0.27919243 1.12458733 -0.75929908
C  -0.03442076 0.35705797 0.22017075
C  0.68089097 -0.29375190 -0.72096562
H  0.79516795 1.11894677 0.31243270
H  -0.02820953 0.05670597 -0.04637905
H  0.54694196 0.33613888 -0.12957400
H  -1.00040164 -1.77007128 0.25064227
H  0.53282018 -1.15588177 0.18005308
H  0.01760502 0.30938686 -0.12747990
12
MD Step 788.5 Units = [eV / Ang.]
C  0.03655907 0.41578349 1.04966136
C  -0.43512009 0.55455462 -1.41617143
C  -1.26492290 -0.74719274 1.26729272
C  0.17485929 1.13807104 -0.90551739
C  0.05296157 0.68840030 0.38820449
C  0.55028185 -0.68575248 -0.77224461
H  0.65015390 0.96336630 0.28619768
H  -0.05192658 -0.00539944 -0.03761606
H  0.67855242 0.32936805 -0.13541065
H  -0.98327020 -1.73151868 0.28705161
H  0.60726778 -1.26170576 0.11125800
H  -0.01539613 0.34202529 -0.12270571
12
MD Step 789.0 Units = [eV / Ang.]
C  0.35619248 0.70244334 1.13646326
C  -0.70071352 0.46809269 -1.46671462
C  -1.07447649 -0.57916716 1.31652618
C  0.02008916 1.03941457 -1.03346721
C  0.17760536 0.94668920 0.55699467
C  0.40768366 -1.06888132 -0.81767109
H  0.45800540 0.72581816 0.24999163
H  -0.07711800 -0.06343704 -0.03000251
H  0.74278426 0.32148279 -0.14120712
H  -0.90082572 -1.57725966 0.30920881
H  0.63537007 -1.28524332 0.03779045
H  -0.04459667 0.37004773 -0.11791245
12
MD Step 789.5 Units = [eV / Ang.]
C  0.69080238 1.03973404 1.22303464
C  -0.93462454 0.37045712 -1.50488354
C  -0.81421674 -0.40412027 1.35674353
C  -0.18322286 0.82844513 -1.14050850
C  0.33500920 1.12449459 0.72212469
C  0.25591873 -1.43516596 -0.85721229
H  0.22742670 0.41789535 0.20581708
H  -0.10537194 -0.11412628 -0.02396353
H  0.73351157 0.31236788 -0.14686504
H  -0.75265148 -1.30754355 0.31491308
H  0.61640402 -1.22532534 -0.03589885
H  -0.06898505 0.39288729 -0.11330127
12
MD Step 790.0 Units = [eV / Ang.]
C  1.02303122 1.40698988 1.30560304
C  -1.13009347 0.26165104 -1.53007096
C  -0.48888868 -0.22433054 1.38759093
C  -0.43215140 0.50834522 -1.22430300
C  0.51933511 1.21689315 0.87917942
C  0.09817685 -1.77647318 -0.89099983
H  -0.02803972 0.05991060 0.15673114
H  -0.13790797 -0.15497782 -0.01984885
H  0.65337199 0.30126828 -0.15189185
H  -0.53996480 -0.92573895 0.30240220
H  0.55111671 -1.08355611 -0.10534506
H  -0.08798585 0.41001845 -0.10904717
12
MD Step 790.5 Units = [eV / Ang.]
C  1.33114074 1.77331907 1.37946973
C  -1.28228144 0.14256762 -1.54205124
C  -0.11066183 -0.04184770 1.40845380
C  -0.72032719 0.09012656 -1.28348813
C  0.72355373 1.22224614 1.02388161
C  -0.06219594 -2.08474055 -0.91928005
H  -0.28938370 -0.31736557 0.10691328
H  -0.17538238 -0.18453878 -0.01790274
H  0.51322042 0.28703379 -0.15548378
H  -0.26821943 -0.44292821 0.27106995
H  0.44198269 -0.86483427 -0.16628552
H  -0.10144569 0.42096190 -0.10529693
12
MD Step 791.0 Units = [eV / Ang.]
C  1.58982652 2.09828720 1.43928832
C  -1.38837401 0.01517862 -1.54100493
C  0.30280022 0.14123419 1.41862314
C  -1.03469593 -0.40168438 -1.31875642
C  0.93912588 1.14372706 1.15236588
C  -0.22193216 -2.35222262 -0.94235141
H  -0.53293270 -0.67340977 0.06139735
H  -0.21774636 -0.20252428 -0.01824217
H  0.33008191 0.26847960 -0.15670265
H  0.04950035 0.11626538 0.22256199
H  0.29392581 -0.57863211 -0.21500916
H  -0.10957953 0.42530114 -0.10216994
12
MD Step 791.5 Units = [eV / Ang.]
C  1.77295233 2.33635700 1.47975476
C  -1.44745787 -0.11737686 -1.52750746
C  0.73102357 0.32249695 1.41750261
C  -1.35244056 -0.92405311 -1.33406025
C  1.15532179 0.99118696 1.26168482
C  -0.37806925 -2.57170293 -0.96049039
H  -0.73316893 -0.96246435 0.02536633
H  -0.26419015 -0.20980297 -0.02084567
H  0.12425902 0.24473383 -0.15468398
H  0.38935455 0.70856564 0.16196293
H  0.11531014 -0.24064962 -0.24892401
H  -0.11289463 0.42270946 -0.09975969
12
MD Step 792.0 Units = [eV / Ang.]
C  1.85802575 2.44519147 1.49662687
C  -1.46021156 -0.25082567 -1.50247881
C  1.15338289 0.49899315 1.40479993
C  -1.63995383 -1.41450572 -1.33729380
C  1.35845193 0.78263874 1.35053845
C  -0.52811411 -2.73668493 -0.97388263
H  -0.86736831 -1.14193271 0.00310079
H  -0.31317933 -0.20824827 -0.02555598
H  -0.08358691 0.21546785 -0.14881601
H  0.71583410 1.27106993 0.09841650
H  -0.08117607 0.12585386 -0.26731981
H  -0.11210456 0.41298228 -0.09813551
12
MD Step 792.5 Units = [eV / Ang.]
C  1.83120934 2.39574839 1.48775712
C  -1.42850200 -0.37990932 -1.46710972
C  1.55111542 0.66714142 1.38065339
C  -1.85603780 -1.79799151 -1.33956237
C  1.53148768 0.54438758 1.42004532
C  -0.67012125 -2.84156536 -0.98257487
H  -0.92078729 -1.18255302 -0.00309007
H  -0.36257794 -0.20048191 -0.03209324
H  -0.27472815 0.18096740 -0.13884494
H  0.98528737 1.72815753 0.04429725
H  -0.27830516 0.49003073 -0.27213472
H  -0.10804021 0.39606808 -0.09734315
12
MD Step 793.0 Units = [eV / Ang.]
C  1.69089540 2.18036080 1.45370200
C  -1.35497420 -0.49865071 -1.42277283
C  1.90845476 0.82271819 1.34568035
C  -1.96029544 -2.00273099 -1.35252059
C  1.65472377 0.30884676 1.47417970
C  -0.80266338 -2.88184595 -0.98645775
H  -0.89039871 -1.07648170 0.00649545
H  -0.40984193 -0.18955381 -0.04007935
H  -0.43374353 0.14206461 -0.12490184
H  1.15479047 2.00746834 0.01242911
H  -0.45537574 0.81571487 -0.26834963
H  -0.10157147 0.37208957 -0.09740462
12
MD Step 793.5 Units = [eV / Ang.]
C  1.44825495 1.81517549 1.39760991
C  -1.24275861 -0.60071494 -1.37093822
C  2.21296513 0.96094973 1.30095468
C  -1.92462405 -1.98083832 -1.38439618
C  1.70793195 0.10965364 1.51943879
C  -0.92470733 -2.85441223 -0.98529096
H  -0.78551723 -0.83962647 0.02906004
H  -0.45225374 -0.17860336 -0.04906957
H  -0.54903203 0.09999090 -0.10746844
H  1.19417753 2.06066866 0.01198842
H  -0.59089232 1.06640471 -0.26357161
H  -0.09354425 0.34135219 -0.09831687
12
MD Step 794.0 Units = [eV / Ang.]
C  1.12448776 1.33581430 1.32442893
C  -1.09533898 -0.67985290 -1.31309999
C  2.45537801 1.07674546 1.24793017
C  -1.74274383 -1.72447059 -1.43658421
C  1.67391043 -0.02512108 1.56348984
C  -1.03544693 -2.75787375 -0.97876074
H  -0.62504009 -0.50710673 0.06012152
H  -0.48716899 -0.17054428 -0.05858941
H  -0.61274943 0.05620874 -0.08730912
H  1.09598304 1.87967539 0.04499679
H  -0.66653587 1.21218942 -0.26657274
H  -0.08473514 0.30433601 -0.10005105
12
MD Step 794.5 Units = [eV / Ang.]
C  0.74605005 0.78838389 1.23978686
C  -0.91657396 -0.73038806 -1.25071437
C  2.62926119 1.16510300 1.18832979
C  -1.43260558 -1.26876761 -1.50283669
C  1.54249982 -0.07957305 1.61304772
C  -1.13415471 -2.59292520 -0.96655409
H  -0.43259617 -0.12402390 0.09466482
H  -0.51224721 -0.16780016 -0.06817264
H  -0.62050589 0.01226287 -0.06539173
H  0.87799876 1.49952327 0.10543952
H  -0.67130152 1.23652913 -0.28504647
H  -0.07582477 0.26167582 -0.10255272
12
MD Step 795.0 Units = [eV / Ang.]
C  0.33981310 0.21976996 1.14898947
C  -0.71079605 -0.74771118 -1.18514748
C  2.73081321 1.22164764 1.12401234
C  -1.03032470 -0.67988776 -1.57159217
C  1.31358096 -0.05383677 1.67174833
C  -1.22007548 -2.36260432 -0.94842993
H  -0.23160963 0.26445037 0.12817152
H  -0.52565171 -0.17209783 -0.07739895
H  -0.57111071 -0.03033930 -0.04280521
H  0.57701400 0.98619769 0.18156428
H  -0.60425827 1.14027828 -0.32336936
H  -0.06739472 0.21413322 -0.10574284
12
MD Step 795.5 Units = [eV / Ang.]
C  -0.07032367 -0.32945015 1.05641602
C  -0.48291845 -0.72872678 -1.11762836
C  2.75895917 1.24321481 1.05682166
C  -0.57914550 -0.03491337 -1.63003285
C  0.99780828 0.03647210 1.73893675
C  -1.29241014 -2.07238835 -0.92426932
H  -0.04184506 0.62026896 0.15723313
H  -0.52620463 -0.18432462 -0.08592888
H  -0.46653469 -0.07022551 -0.02067126
H  0.23731634 0.41627805 0.25995435
H  -0.47477088 0.94122792 -0.38131068
H  -0.05993077 0.16256694 -0.10952055
12
MD Step 796.0 Units = [eV / Ang.]
C  -0.46488346 -0.82819036 0.96534145
C  -0.23846647 -0.67219543 -1.04920676
C  2.71579865 1.22832171 0.98841938
C  -0.11903750 0.59652588 -1.66769413
C  0.61477284 0.16492077 1.80987781
C  -1.35034279 -1.73003252 -0.89409400
H  0.12203756 0.91566674 0.17970769
H  -0.51349365 -0.20444472 -0.09353360
H  -0.31213510 -0.10625240 -0.00003821
H  -0.10030013 -0.14162461 0.32920078
H  -0.30010953 0.66940039 -0.45421380
H  -0.05384043 0.10790455 -0.11376662
12
MD Step 796.5 Units = [eV / Ang.]
C  -0.82869928 -1.25472774 0.87805537
C  0.01647526 -0.57894572 -0.98072002
C  2.60727548 1.17745519 0.92010784
C  0.31925091 1.16249736 -1.67825919
C  0.18946431 0.30102256 1.87717786
C  -1.39311115 -1.34521799 -0.85805807
H  0.25029407 1.13290926 0.19455900
H  -0.48793129 -0.23146514 -0.10011896
H  -0.11704417 -0.13760547 0.01825292
H  -0.40501243 -0.63716488 0.38179511
H  -0.10149467 0.36012438 -0.53444415
H  -0.04946703 0.05111818 -0.11834771
12
MD Step 797.0 Units = [eV / Ang.]
C  -1.14998958 -1.59478805 0.79609416
C  0.27540331 -0.45191067 -0.91277139
C  2.44379527 1.09311282 0.85265019
C  0.71517964 1.63036910 -1.65951613
C  -0.25159084 0.41650073 1.93268305
C  -1.42007291 -0.92902678 -0.81641822
H  0.33703436 1.26217779 0.20156463
H  -0.45075724 -0.26346034 -0.10574071
H  0.10550934 -0.16390438 0.03373089
H  -0.65730821 -1.03975072 0.41420465
H  0.09990270 0.04747573 -0.61336013
H  -0.04710584 -0.00679523 -0.12312100
12
MD Step 797.5 Units = [eV / Ang.]
C  -1.41931352 -1.83925168 0.72045492
C  0.53158254 -0.29601456 -0.84572159
C  2.24042934 0.97964046 0.78611028
C  1.05621522 1.98295042 -1.61226390
C  -0.68333555 0.48932361 1.96908644
C  -1.43078710 -0.49338196 -0.76949566
H  0.37899266 1.29906846 0.20103592
H  -0.40397892 -0.29765723 -0.11060840
H  0.33827148 -0.18528748 0.04646382
H  -0.84690014 -1.33445409 0.42590092
H  0.28582629 -0.24010577 -0.68302308
H  -0.04700229 -0.06483019 -0.12793968
12
MD Step 798.0 Units = [eV / Ang.]
C  -1.62883430 -1.98242692 0.65172680
C  0.77823565 -0.11791021 -0.77969830
C  2.01629643 0.84288622 0.71975376
C  1.33461394 2.21289100 -1.53900487
C  -1.08388533 0.50507690 1.98083495
C  -1.42507180 -0.05050155 -0.71764237
H  0.37459722 1.24268766 0.19362435
H  -0.35024418 -0.33058887 -0.11507481
H  0.56079419 -0.20243435 0.05718959
H  -0.96940520 -1.51613767 0.41816352
H  0.44225123 -0.48155440 -0.73721399
H  -0.04934785 -0.12198781 -0.13265861
12
MD Step 798.5 Units = [eV / Ang.]
C  -1.77213531 -2.02134628 0.59011949
C  1.00870987 0.07440653 -0.71462133
C  1.79288796 0.68971753 0.65206584
C  1.54465427 2.31777350 -1.44292172
C  -1.43508456 0.45633034 1.96433792
C  -1.40307424 0.38755822 -0.66121485
H  0.32357936 1.09482204 0.18023392
H  -0.29263710 -0.35833204 -0.11960648
H  0.75126293 -0.21648001 0.06733968
H  -1.02331634 -1.58430353 0.39315031
H  0.55941065 -0.66285628 -0.77174291
H  -0.05425750 -0.17729004 -0.13713987
12
MD Step 799.0 Units = [eV / Ang.]
C  -1.84465172 -1.95621354 0.53541525
C  1.21658371 0.27207913 -0.65024531
C  1.59139504 0.52744760 0.58093864
C  1.68096319 2.29692359 -1.32729660
C  -1.72240634 0.34103498 1.91773780
C  -1.36534058 0.80924701 -0.60055881
H  0.22721451 0.86031664 0.16202217
H  -0.23440724 -0.37682268 -0.12473528
H  0.88925868 -0.22879707 0.07889155
H  -1.00798045 -1.53974916 0.35338741
H  0.63110757 -0.77567091 -0.78429735
H  -0.06173636 -0.22979558 -0.14125948
12
MD Step 799.5 Units = [eV / Ang.]
C  -1.84472640 -1.79191088 0.48687395
C  1.39573117 0.46595955 -0.58621805
C  1.42949343 0.36324002 0.50404645
C  1.73808328 2.15013784 -1.19534769
C  -1.93468880 0.16085293 1.84054806
C  -1.31286855 1.20376662 -0.53600359
H  0.08918419 0.54854981 0.14045525
H  -0.17864716 -0.38224463 -0.13099077
H  0.95898804 -0.24067068 0.09402867
H  -0.92278420 -1.38325919 0.30164372
H  0.65388005 -0.81580447 -0.77412378
H  -0.07164505 -0.27861692 -0.14491221
12
MD Step 800.0 Units = [eV / Ang.]
C  -1.77512756 -1.54022086 0.44315137
C  1.54035967 0.64720651 -0.52214827
C  1.31843030 0.20359312 0.41935014
C  1.71125843 1.87831593 -1.05037106
C  -2.06403123 -0.07995662 1.73338203
C  -1.24716096 1.56123400 -0.46785855
H  -0.08309147 0.17562038 0.11735863
H  -0.12796497 -0.37144419 -0.13882115
H  0.95215105 -0.25295003 0.11466206
H  -0.76759136 -1.11630918 0.24107449
H  0.62642719 -0.78215051 -0.74176340
H  -0.08365909 -0.32293855 -0.14801628
12
MD Step 800.5 Units = [eV / Ang.]
C  -1.64466880 -1.22201737 0.40230257
C  1.64507641 0.80790720 -0.45767497
C  1.26126444 0.05400014 0.32561172
C  1.59843909 1.48597514 -0.89604624
C  -2.10603820 -0.37486005 1.59788733
C  -1.17023881 1.87282547 -0.39641050
H  -0.27703236 -0.23353658 0.09488906
H  -0.08419163 -0.34233483 -0.14851402
H  0.86956731 -0.26579155 0.14194126
H  -0.54445205 -0.74373351 0.17548160
H  0.54951276 -0.67639902 -0.68895186
H  -0.09723817 -0.36203504 -0.15051593
12
MD Step 801.0 Units = [eV / Ang.]
C  -1.46921982 -0.86821002 0.36194843
C  1.70501657 0.94163817 -0.39253013
C  1.25280948 -0.08114379 0.22276241
C  1.40340666 0.98551051 -0.73670388
C  -2.06042877 -0.71451021 1.43688437
C  -1.08461459 2.13091654 -0.32192026
H  -0.47408219 -0.64434647 0.07535212
H  -0.04818365 -0.29421607 -0.16012976
H  0.72101005 -0.27858666 0.17591411
H  -0.26050992 -0.27816857 0.10948577
H  0.42640796 -0.50359786 -0.61868227
H  -0.11161178 -0.39528558 -0.15238092
12
MD Step 801.5 Units = [eV / Ang.]
C  -1.27119902 -0.51802863 0.31964745
C  1.71607048 1.04392852 -0.32658320
C  1.28122192 -0.19843032 0.11202003
C  1.13951733 0.40247752 -0.57727497
C  -1.93191477 -1.08554943 1.25460691
C  -0.99321615 2.32927051 -0.24462084
H  -0.65039968 -1.01453629 0.06082466
H  -0.01975477 -0.22795611 -0.17346288
H  0.52330959 -0.29010030 0.21544359
H  0.06838394 0.25452641 0.04833603
H  0.26376819 -0.27341722 -0.53533372
H  -0.12578707 -0.42218466 -0.15360305
12
MD Step 802.0 Units = [eV / Ang.]
C  -1.07679240 -0.21370855 0.27342733
C  1.67519375 1.11256347 -0.25986323
C  1.33062136 -0.29522192 -0.00426762
C  0.83276745 -0.22004409 -0.42263298
C  -1.73107161 -1.46914920 1.05684681
C  -0.89925408 2.46324888 -0.16472467
H  -0.77978121 -1.29973125 0.05263848
H  0.00224763 -0.14600035 -0.18803875
H  0.29736189 -0.29876272 0.25839829
H  0.41464676 0.81086184 -0.00291017
H  0.07264976 -0.00171202 -0.44468500
H  -0.13858929 -0.44234410 -0.15418848
12
MD Step 802.5 Units = [eV / Ang.]
C  -0.91097809 0.00785062 0.22230257
C  1.58076550 1.14767983 -0.19255839
C  1.38389502 -0.36947916 -0.12296709
C  0.52199794 -0.82122900 -0.27625030
C  -1.47473508 -1.84002926 0.85075498
C  -0.80605383 2.53004294 -0.08244335
H  -0.83871131 -1.46210191 0.05090319
H  0.01973665 -0.05219460 -0.20315010
H  0.06494596 -0.30300801 0.30202684
H  0.73873010 1.32959496 -0.04088658
H  -0.13086220 0.28836303 -0.35358415
H  -0.14873065 -0.45548945 -0.15414762
12
MD Step 803.0 Units = [eV / Ang.]
C  -0.79166533 0.12396224 0.16653967
C  1.43290761 1.15165125 -0.12499669
C  1.42497065 -0.41974827 -0.24058269
C  0.25400817 -1.32974220 -0.13858728
C  -1.18533447 -2.16690555 0.64408978
C  -0.71685132 2.52885681 0.00197405
H  -0.81219047 -1.47950028 0.05431435
H  0.03508965 0.04854675 -0.21792541
H  -0.15387644 -0.30155797 0.34338924
H  0.99395074 1.73919867 -0.06563586
H  -0.32609660 0.56668846 -0.26909655
H  -0.15491218 -0.46144991 -0.15348262
12
MD Step 803.5 Units = [eV / Ang.]
C  -0.72521676 0.13196637 0.10750353
C  1.23368900 1.12877351 -0.05761887
C  1.44023525 -0.44533099 -0.35364256
C  0.07313132 -1.67904465 -0.00619931
C  -0.88863531 -2.41526365 0.44391175
C  -0.63458267 2.46098211 0.08818852
H  -0.69806887 -1.35141432 0.06041020
H  0.05081756 0.15067654 -0.23141904
H  -0.34239277 -0.29359139 0.37972787
H  1.13686069 1.97349213 -0.08153076
H  -0.48989448 0.79890253 -0.19715543
H  -0.15594298 -0.46014818 -0.15217590
12
MD Step 804.0 Units = [eV / Ang.]
C  -0.70534674 0.04930561 0.04712412
C  0.98715050 1.08479275 0.00905357
C  1.41912499 -0.44654495 -0.45899777
C  0.00833458 -1.82626408 0.12743651
C  -0.60986280 -2.55267499 0.25505859
C  -0.56167277 2.32970895 0.17571621
H  -0.50790118 -1.09900332 0.06622532
H  0.06925355 0.24848667 -0.24270684
H  -0.48791033 -0.27879506 0.40872127
H  1.14011576 1.99082713 -0.09638471
H  -0.60041526 0.95175447 -0.14106542
H  -0.15087031 -0.45159316 -0.15018084
12
MD Step 804.5 Units = [eV / Ang.]
C  -0.71584795 -0.09214156 -0.01277053
C  0.69915372 1.02632766 0.07445009
C  1.35415654 -0.42491075 -0.55402022
C  0.06380959 -1.76594172 0.26930826
C  -0.36900937 -2.55562381 0.07902944
C  -0.49985494 2.14006984 0.26388850
H  -0.26390775 -0.75920173 0.06907365
H  0.09229541 0.33656699 -0.25097561
H  -0.58175733 -0.25732892 0.42862140
H  1.00187427 1.78800900 -0.11870030
H  -0.64181251 1.00005324 -0.10048738
H  -0.13909967 -0.43587823 -0.14741730
12
MD Step 805.0 Units = [eV / Ang.]
C  -0.73576182 -0.25481614 -0.07095989
C  0.37708266 0.96026196 0.13798341
C  1.24071794 -0.38314363 -0.63672236
C  0.21818051 -1.53113788 0.42375164
C  -0.17684427 -2.41562380 -0.08611396
C  -0.45003375 1.89849110 0.35184161
H  0.00653470 -0.37559631 0.06714614
H  0.12123042 0.41019848 -0.25559417
H  -0.61897367 -0.22974949 0.43830828
H  0.74653312 1.40135913 -0.15437572
H  -0.60817368 0.93294290 -0.07149241
H  -0.12049216 -0.41318633 -0.14377255
12
MD Step 805.5 Units = [eV / Ang.]
C  -0.74471270 -0.40371913 -0.12700956
C  0.02946719 0.89315755 0.19908135
C  1.07690498 -0.32488068 -0.70582910
C  0.43275213 -1.18133312 0.59060351
C  -0.03323924 -2.14210528 -0.24466091
C  -0.41221269 1.61243246 0.43854485
H  0.27654923 0.01024274 0.05974583
H  0.15663967 0.46566670 -0.25616241
H  -0.59802034 -0.19693017 0.43731006
H  0.41636607 0.89432718 -0.20469196
H  -0.50507267 0.75694107 -0.04782303
H  -0.09542164 -0.38379932 -0.13910862
12
MD Step 806.0 Units = [eV / Ang.]
C  -0.72659559 -0.51163898 -0.18115639
C  -0.33440314 0.83074731 0.25721889
C  0.86357690 -0.25426879 -0.76082197
C  0.66410413 -0.78385715 0.76548254
C  0.07146453 -1.76074678 -0.40143435
C  -0.38547803 1.29008465 0.52286675
H  0.52372254 0.36440117 0.04718645
H  0.19837297 0.50049124 -0.25253644
H  -0.52068965 -0.15999412 0.42581925
H  0.05873493 0.33851452 -0.26647857
H  -0.34802288 0.49437583 -0.02287223
H  -0.06478670 -0.34810891 -0.13327393
12
MD Step 806.5 Units = [eV / Ang.]
C  -0.67099176 -0.56081263 -0.23404100
C  -0.70482995 0.77752679 0.31195066
C  0.60470208 -0.17550556 -0.80196787
C  0.87494662 -0.39776058 0.94161072
C  0.15268096 -1.30795135 -0.56005587
C  -0.36805001 0.94018397 0.60366193
H  0.73173823 0.66259539 0.03050718
H  0.24557378 0.51358059 -0.24483202
H  -0.39228568 -0.12026310 0.40471667
H  -0.28499023 -0.20287188 -0.33389332
H  -0.15852091 0.17790566 0.00846279
H  -0.02997314 -0.30662730 -0.12611987
12
MD Step 807.0 Units = [eV / Ang.]
C  -0.57276815 -0.54191888 -0.28644428
C  -1.07199514 0.73648743 0.36293236
C  0.30788670 -0.09249041 -0.83031948
C  1.03966849 -0.06539170 1.11189223
C  0.22699104 -0.82374641 -0.72196000
C  -0.35737953 0.57187828 0.67986902
H  0.89011389 0.88938632 0.01116481
H  0.29674218 0.50531583 -0.23340708
H  -0.22197749 -0.07920570 0.37558701
H  -0.58518027 -0.68375346 -0.40052656
H  0.04067007 -0.15656639 0.04873018
H  0.00722824 -0.25999491 -0.11751820
12
MD Step 807.5 Units = [eV / Ang.]
C  -0.43073150 -0.45183595 -0.33910929
C  -1.42618458 0.70896165 0.40993716
C  -0.01514429 -0.00862578 -0.84766368
C  1.14461084 0.18830481 1.27029785
C  0.30839722 -0.34562248 -0.88632044
C  -0.35031750 0.19462625 0.75059422
H  0.99292732 1.03604442 -0.00920037
H  0.34981628 0.47757295 -0.21882692
H  -0.02309807 -0.03836675 0.34068398
H  -0.82437744 -1.07603482 -0.46085724
H  0.22935523 -0.47604057 0.09784389
H  0.04474647 -0.20898372 -0.10737918
12
MD Step 808.0 Units = [eV / Ang.]
C  -0.24616846 -0.29134228 -0.39266790
C  -1.75797303 0.69460059 0.45285477
C  -0.34846158 0.07320552 -0.85637277
C  1.18522735 0.35182520 1.41232864
C  0.40626676 0.09519927 -1.05061604
C  -0.34332123 -0.18194809 0.81517164
H  1.03736724 1.09829723 -0.02889887
H  0.40227285 0.43366479 -0.20181152
H  0.18694217 0.00073836 0.30279311
H  -0.99453258 -1.36564255 -0.51080445
H  0.39200325 -0.75410327 0.15368954
H  0.08037726 -0.15449478 -0.09566616
12
MD Step 808.5 Units = [eV / Ang.]
C  -0.02179579 -0.06349388 -0.44764150
C  -2.05839411 0.69147037 0.49167134
C  -0.67262902 0.15053105 -0.85911682
C  1.16240258 0.42181652 1.53483364
C  0.52499196 0.47492549 -1.21139989
C  -0.33271234 -0.54825775 0.87319495
H  1.02265842 1.07471616 -0.04625453
H  0.45124370 0.37818480 -0.18316542
H  0.38750565 0.03676518 0.26494681
H  -1.09335221 -1.54712745 -0.54762760
H  0.51813478 -0.97198183 0.21296470
H  0.11194637 -0.09754866 -0.08240567
12
MD Step 809.0 Units = [eV / Ang.]
C  0.23862496 0.22700548 -0.50445988
C  -2.31913230 0.69627319 0.52643081
C  -0.96642433 0.22111784 -0.85844047
C  1.07935139 0.39856869 1.63557183
C  0.66479111 0.77657985 -1.36494107
C  -0.31496252 -0.89503700 0.92451176
H  0.94963761 0.96610356 -0.05964278
H  0.49365662 0.31672260 -0.16369342
H  0.55658501 0.06869418 0.22999210
H  -1.12120666 -1.61900193 -0.56955052
H  0.60160326 -1.11776045 0.27191166
H  0.13747586 -0.03926601 -0.06769004
12
MD Step 809.5 Units = [eV / Ang.]
C  0.52993485 0.57334219 -0.56344544
C  -2.53274422 0.70469498 0.55718084
C  -1.20953384 0.28283016 -0.85626272
C  0.93965329 0.28315344 1.71281570
C  0.82300373 0.98865289 -1.50761117
C  -0.28698647 -1.21367131 0.96919363
H  0.82106477 0.77599104 -0.06756429
H  0.52640138 0.25544081 -0.14410829
H  0.67361319 0.09595418 0.20008103
H  -1.07919673 -1.58074519 -0.57540599
H  0.63945481 -1.18480432 0.32679944
H  0.15533524 0.01916114 -0.05167274
12
MD Step 810.0 Units = [eV / Ang.]
C  0.84455405 0.96511902 -0.62470674
C  -2.69290929 0.71187548 0.58391197
C  -1.38574774 0.33359515 -0.85343620
C  0.74651537 0.07640017 1.76516791
C  0.99534052 1.10388539 -1.63604952
C  -0.24642846 -1.49654984 1.00748036
H  0.64260469 0.51216882 -0.06880611
H  0.54652696 0.20051423 -0.12494133
H  0.72274911 0.11846677 0.17622318
H  -0.96848900 -1.43171111 -0.56447018
H  0.63090701 -1.17027131 0.37418166
H  0.16437679 0.07650723 -0.03455499
12
MD Step 810.5 Units = [eV / Ang.]
C  1.17105954 1.38620600 -0.68790406
C  -2.79470105 0.71298156 0.60650360
C  -1.48584362 0.37149995 -0.84951818
C  0.50320508 -0.22027314 1.79166897
C  1.17679022 1.11866071 -1.74721611
C  -0.19190207 -1.73738552 1.03971011
H  0.42421839 0.18890318 -0.06272892
H  0.55146588 0.15747664 -0.10647118
H  0.69580667 0.13658423 0.15805967
H  -0.79087663 -1.17197469 -0.53657040
H  0.57674117 -1.07423896 0.41103255
H  0.16403641 0.13156006 -0.01656605
12
MD Step 811.0 Units = [eV / Ang.]
C  1.49286130 1.81259846 -0.75189408
C  -2.83482162 0.70380613 0.62469273
C  -1.50925148 0.39501912 -0.84286590
C  0.21460180 -0.60214160 1.79222261
C  1.36203133 1.03323177 -1.83846666
C  -0.12317166 -1.93144487 1.06624031
H  0.18144099 -0.17088700 -0.04966923
H  0.53926821 0.13056100 -0.08868780
H  0.59390764 0.15093306 0.14396924
H  -0.55049860 -0.80515294 -0.49248861
H  0.47923249 -0.89969503 0.43488448
H  0.15439959 0.18317191 0.00206291
12
MD Step 811.5 Units = [eV / Ang.]
C  1.78779274 2.21147359 -0.81433868
C  -2.81176677 0.68132086 0.63807453
C  -1.46396927 0.40327096 -0.83104548
C  -0.11029728 -1.05664209 1.76827513
C  1.54530934 0.85273742 -1.90775270
C  -0.04123988 -2.07564867 1.08737011
H  -0.06426539 -0.53470255 -0.03136410
H  0.50882600 0.12213748 -0.07130374
H  0.42730992 0.16221588 0.13149013
H  -0.25652229 -0.34307967 -0.43459383
H  0.34260198 -0.65339549 0.44406227
H  0.13622090 0.23031227 0.02112635
12
MD Step 812.0 Units = [eV / Ang.]
C  2.02950121 2.54284770 -0.87147479
C  -2.72586104 0.64408059 0.64614467
C  -1.36477055 0.39620797 -0.81142613
C  -0.45548632 -1.55777532 1.72352309
C  1.71984831 0.58876793 -1.95399639
C  0.05166289 -2.16851547 1.10326992
H  -0.28698205 -0.86222018 -0.01119727
H  0.46005265 0.13236422 -0.05381634
H  0.21345874 0.17103500 0.11792272
H  0.07382031 0.18846300 -0.36747594
H  0.17385973 -0.34737413 0.43805528
H  0.11089614 0.27211868 0.04047118
12
MD Step 812.5 Units = [eV / Ang.]
C  2.19111785 2.76477785 -0.91828697
C  -2.57915152 0.59241022 0.64836784
C  -1.23034163 0.37464587 -0.78177266
C  -0.79589919 -2.06143462 1.66420499
C  1.87697895 0.26095117 -1.97759859
C  0.15220379 -2.20994962 1.11392668
H  -0.46009546 -1.11067242 0.00598865
H  0.39399029 0.15912122 -0.03561168
H  -0.02607902 0.17778763 0.10091892
H  0.41314143 0.74502005 -0.29813729
H  -0.01624875 -0.00059524 0.41798115
H  0.08038327 0.30793788 0.06001897
12
MD Step 813.0 Units = [eV / Ang.]
C  2.25066986 2.84162020 -0.94926224
C  -2.37517121 0.52833794 0.64426410
C  -1.08024771 0.34010152 -0.74067713
C  -1.09806380 -2.50509080 1.59840589
C  2.00538332 -0.10226998 -1.98090908
C  0.25619328 -2.20093601 1.11911585
H  -0.56179427 -1.24331728 0.01468637
H  0.31281482 0.19825351 -0.01609086
H  -0.26886624 0.18264144 0.07889780
H  0.72467617 1.26321687 -0.23518653
H  -0.21266459 0.36009012 0.38697757
H  0.04707035 0.33735247 0.07977827
12
MD Step 813.5 Units = [eV / Ang.]
C  2.19649999 2.75290468 -0.95962911
C  -2.11863592 0.45529825 0.63348967
C  -0.93245835 0.29446932 -0.68775603
C  -1.32505215 -2.81536265 1.53406637
C  2.09101227 -0.46468548 -1.96837416
C  0.35892673 -2.14322277 1.11840609
H  -0.58052877 -1.23850551 0.01002388
H  0.21973143 0.24407366 0.00520662
H  -0.49425016 0.18557126 0.05122052
H  0.96756396 1.66852480 -0.18674986
H  -0.39640777 0.70074846 0.35025046
H  0.01359874 0.36018598 0.09984555
12
MD Step 814.0 Units = [eV / Ang.]
C  2.03044134 2.49926858 -0.94667441
C  -1.81517053 0.37768566 0.61590346
C  -0.80184451 0.23963262 -0.62363342
C  -1.44548632 -2.92423439 1.47617968
C  2.11823923 -0.78601329 -1.94606084
C  0.45560317 -2.03909645 1.11120700
H  -0.51813748 -1.09571112 -0.01086121
H  0.11877116 0.29002180 0.02850581
H  -0.68500116 0.18642340 0.01815282
H  1.10637774 1.89173681 -0.15761026
H  -0.54644524 0.98380207 0.31450069
H  -0.01734740 0.37648430 0.12039068
12
MD Step 814.5 Units = [eV / Ang.]
C  1.76726036 2.10270497 -0.91056477
C  -1.47111027 0.30032664 0.59160401
C  -0.69961135 0.17715856 -0.54977959
C  -1.44344713 -2.78921731 1.42457185
C  2.07245019 -1.02818977 -1.92044155
C  0.54176933 -1.89130418 1.09684986
H  -0.38915865 -0.83575387 -0.04795573
H  0.01450808 0.32937743 0.05374258
H  -0.82797380 0.18498149 -0.01930486
H  1.12165947 1.88933112 -0.14698398
H  -0.64307372 1.17411273 0.28663254
H  -0.04327250 0.38647218 0.14162964
12
MD Step 815.0 Units = [eV / Ang.]
C  1.43069801 1.60102381 -0.85432262
C  -1.09343294 0.22797762 0.56094697
C  -0.63341390 0.10817858 -0.46828374
C  -1.32436682 -2.40819665 1.37377683
C  1.94357916 -1.16287860 -1.89670786
C  0.61373020 -1.70314080 1.07469975
H  -0.21665442 -0.49510994 -0.09838790
H  -0.08825374 0.35589802 0.08055566
H  -0.91407741 0.18102139 -0.05963597
H  1.01637437 1.65837162 -0.14844354
H  -0.67208657 1.24636010 0.27201738
H  -0.06209593 0.39049484 0.16378504
12
MD Step 815.5 Units = [eV / Ang.]
C  1.04796275 1.03906809 -0.78301386
C  -0.68976060 0.16487588 0.52453788
C  -0.60779886 0.03351472 -0.38161846
C  -1.11345074 -1.82086264 1.31534933
C  1.72938280 -1.17767609 -1.87723791
C  0.66886786 -1.47861706 1.04426998
H  -0.02645544 -0.11693129 -0.15725983
H  -0.18480161 0.36433713 0.10832165
H  -0.93794199 0.17435580 -0.10101959
H  0.81467159 1.23778042 -0.15231409
H  -0.62832075 1.19120061 0.27294500
H  -0.07235503 0.38895444 0.18703990
12
MD Step 816.0 Units = [eV / Ang.]
C  0.64489090 0.46027237 -0.70258518
C  -0.26838452 0.11439608 0.48321286
C  -0.62460623 -0.04602526 -0.29242095
C  -0.84743784 -1.09590386 1.24133667
C  1.43707248 -1.07853883 -1.86092180
C  0.70583448 -1.22260637 1.00532640
H  0.15790454 0.25757499 -0.21885465
H  -0.27080217 0.35079384 0.13621947
H  -0.89762619 0.16487245 -0.14151556
H  0.55364113 0.69522441 -0.14924216
H  -0.51713123 1.01768484 0.28795456
H  -0.07335533 0.38225532 0.21149034
12
MD Step 816.5 Units = [eV / Ang.]
C  0.24313462 -0.09888536 -0.61883100
C  0.16176169 0.07879391 0.43800541
C  -0.68308710 -0.12933400 -0.20329061
C  -0.56410505 -0.31109438 1.14699615
C  1.08252729 -0.88738295 -1.84365372
C  0.72460589 -0.94089640 0.95795809
H  0.31816538 0.59479188 -0.27771786
H  -0.34255463 0.31292557 0.16331366
H  -0.79457397 0.15257234 -0.17923180
H  0.27250693 0.10687724 -0.13301239
H  -0.35312637 0.75086316 0.31236098
H  -0.06525470 0.37076899 0.23710308
12
MD Step 817.0 Units = [eV / Ang.]
C  -0.14051862 -0.61088872 -0.53677692
C  0.59122790 0.05904015 0.39010356
C  -0.77961755 -0.21480021 -0.11658998
C  -0.29426473 0.46416560 1.03166979
C  0.68741912 -0.63597557 -1.81972930
C  0.72641696 -0.64009563 0.90260921
H  0.44208030 0.87069294 -0.32931341
H  -0.39720058 0.25004078 0.18864478
H  -0.63389554 0.13760522 -0.21249560
H  0.00413089 -0.46025706 -0.10151267
H  -0.15671385 0.42564956 0.33970506
H  -0.04906431 0.35482293 0.26368550
12
MD Step 817.5 Units = [eV / Ang.]
C  -0.49338639 -1.05650258 -0.46050128
C  1.01029422 0.05471456 0.34079592
C  -0.90710270 -0.30029418 -0.03423420
C  -0.05845335 1.17811941 0.89803703
C  0.27545742 -0.35861392 -1.78347848
C  0.71357809 -0.32742711 0.84006944
H  0.52261469 1.07006301 -0.37022657
H  -0.43290293 0.16312377 0.21131971
H  -0.42487020 0.12029974 -0.24004767
H  -0.22880511 -0.95764783 -0.05606518
H  0.05013744 0.07945225 0.36345842
H  -0.02656118 0.33471288 0.29087287
12
MD Step 818.0 Units = [eV / Ang.]
C  -0.80560240 -1.42278763 -0.39324506
C  1.40931389 0.06394628 0.29140117
C  -1.05432261 -0.38331399 0.04252809
C  0.13232417 1.79762606 0.75067752
C  -0.13089588 -0.08611045 -1.73050877
C  0.68921072 -0.01047543 0.77142600
H  0.55651417 1.18437153 -0.39805494
H  -0.44899288 0.05480811 0.23060080
H  -0.18143046 0.10117483 -0.26125671
H  -0.41344759 -1.35606552 -0.00004819
H  0.24745502 -0.25390557 0.37834231
H  -0.00012616 0.31073179 0.31813777
12
MD Step 818.5 Units = [eV / Ang.]
C  -1.06898665 -1.70101941 -0.33762948
C  1.77911949 0.08337601 0.24319508
C  -1.20565616 -0.46120109 0.11331062
C  0.27377743 2.30408728 0.59477628
C  -0.51245289 0.15758416 -1.65826347
C  0.65692739 0.30306695 0.69799483
H  0.54294975 1.20954263 -0.41118397
H  -0.44608472 -0.07068490 0.24598456
H  0.07777686 0.08092048 -0.27632101
H  -0.54416937 -1.64125220 0.06235697
H  0.41932405 -0.54762337 0.38095998
H  0.02747482 0.28320347 0.34481960
12
MD Step 819.0 Units = [eV / Ang.]
C  -1.27644222 -1.88525607 -0.29582321
C  2.11143963 0.10815200 0.19732532
C  -1.34163757 -0.53134473 0.17870204
C  0.36521908 2.68791007 0.43534228
C  -0.85397725 0.35614237 -1.56598340
C  0.62047614 0.60561102 0.62123611
H  0.48262873 1.14440367 -0.40859681
H  -0.42613495 -0.20766007 0.25727081
H  0.33018658 0.06033697 -0.28638558
H  -0.61952178 -1.80808514 0.12692785
H  0.55441757 -0.78272456 0.36981095
H  0.05334603 0.25251447 0.37017364
12
MD Step 819.5 Units = [eV / Ang.]
C  -1.42200542 -1.97192383 -0.26956721
C  2.39925344 0.13198821 0.15473635
C  -1.44070136 -0.59129050 0.24020519
C  0.40715232 2.94376881 0.27693345
C  -1.14392488 0.49990213 -1.45433514
C  0.58338997 0.88981656 0.54266982
H  0.37751939 0.99019608 -0.38982298
H  -0.39241322 -0.34914386 0.26460810
H  0.55129961 0.04023409 -0.29348391
H  -0.63977924 -1.85558280 0.18967509
H  0.64548817 -0.94709864 0.34494874
H  0.07472121 0.21913376 0.39343251
12
MD Step 820.0 Units = [eV / Ang.]
C  -1.50152437 -1.96053154 -0.26000567
C  2.63701593 0.14731936 0.11611133
C  -1.48208801 -0.63873412 0.29994169
C  0.39985721 3.06762426 0.12370928
C  -1.37379990 0.58422967 -1.32497660
C  0.54867351 1.14870399 0.46379637
H  0.23118761 0.75125047 -0.35507396
H  -0.34934200 -0.48719855 0.26850700
H  0.71782059 0.02131032 -0.30023793
H  -0.60544134 -1.78374709 0.24680884
H  0.68843638 -1.03384465 0.30754636
H  0.08920439 0.18361790 0.41387327
12
MD Step 820.5 Units = [eV / Ang.]
C  -1.51384650 -1.85544640 -0.26732385
C  2.82071700 0.14563146 0.08184790
C  -1.44941210 -0.67144740 0.36012762
C  0.34294078 3.05571691 -0.02039327
C  -1.53754382 0.60804918 -1.18022884
C  0.51853598 1.37574246 0.38602870
H  0.04963901 0.43672982 -0.30556674
H  -0.30216953 -0.61338609 0.26980696
H  0.81142367 0.00404775 -0.30932489
H  -0.51672423 -1.59247448 0.29460504
H  0.68145946 -1.03976363 0.25953795
H  0.09498030 0.14660041 0.43088341
12
MD Step 821.0 Units = [eV / Ang.]
C  -1.46225427 -1.66836471 -0.29025311
C  2.94774155 0.11799912 0.05208217
C  -1.33393730 -0.68719211 0.42243505
C  0.23580591 2.90556044 -0.15156078
C  -1.63124937 0.57300472 -1.02290509
C  0.49421916 1.56496092 0.31063702
H  -0.15757141 0.06304579 -0.24397031
H  -0.25646582 -0.71938602 0.26958858
H  0.82216471 -0.01133748 -0.32283229
H  -0.37401078 -1.28254597 0.32936804
H  0.62458589 -0.96451265 0.20339337
H  0.09097172 0.10876798 0.44401735
12
MD Step 821.5 Units = [eV / Ang.]
C  -1.35570677 -1.42068433 -0.32559612
C  3.01658977 0.05584152 0.02675553
C  -1.13651085 -0.68369322 0.48743706
C  0.07905065 2.61896872 -0.26626548
C  -1.65331000 0.48345535 -0.85626702
C  0.47591197 1.71110658 0.23870621
H  -0.37639987 -0.34388427 -0.17481590
H  -0.21747971 -0.79772843 0.26903224
H  0.75045420 -0.02486803 -0.34170251
H  -0.17926595 -0.85869837 0.34767743
H  0.51972318 -0.81064370 0.14200011
H  0.07694339 0.07082817 0.45303845
12
MD Step 822.0 Units = [eV / Ang.]
C  -1.20922246 -1.14445507 -0.36803962
C  3.02652857 -0.04815870 0.00571945
C  -0.86750692 -0.65870209 0.55432898
C  -0.12323067 2.20696291 -0.36187294
C  -1.60498998 0.34728473 -0.68401584
C  0.46276339 1.80986171 0.17110734
H  -0.58818790 -0.74787970 -0.10460719
H  -0.18944477 -0.84256008 0.26924043
H  0.60691666 -0.03671153 -0.36546361
H  0.06162224 -0.33458636 0.34708751
H  0.37120505 -0.58452944 0.07857400
H  0.05354679 0.03347360 0.45794149
12
MD Step 822.5 Units = [eV / Ang.]
C  -1.04271554 -0.88036077 -0.41055007
C  2.97731276 -0.19907240 -0.01114974
C  -0.54484651 -0.61017233 0.62101807
C  -0.36051634 1.69569688 -0.43776331
C  -1.49131380 0.17727405 -0.51020514
C  0.45300115 1.85811445 0.10848366
H  -0.77103157 -1.10477448 -0.04133582
H  -0.17496312 -0.85032671 0.27105355
H  0.41018688 -0.04705883 -0.39233520
H  0.33591186 0.26127364 0.32733538
H  0.18667602 -0.29794157 0.01649737
H  0.02229821 -0.00265193 0.45895126
12
MD Step 823.0 Units = [eV / Ang.]
C  -0.87797332 -0.67179661 -0.44552104
C  2.86910107 -0.39883647 -0.02386056
C  -0.19084882 -0.53651739 0.68452979
C  -0.61322043 1.13116568 -0.49676091
C  -1.32196638 -0.00746984 -0.33896199
C  0.44414395 1.85424537 0.05125388
H  -0.90296166 -1.36863205 0.00675868
H  -0.17460496 -0.82024052 0.27489864
H  0.18342080 -0.05602089 -0.41964919
H  0.62144656 0.88083279 0.29182629
H  -0.02202780 0.03025118 -0.04100961
H  -0.01450903 -0.03698124 0.45649601
12
MD Step 823.5 Units = [eV / Ang.]
C  -0.73424312 -0.55576579 -0.46650571
C  2.70262951 -0.64560025 -0.03226207
C  0.17103618 -0.43694353 0.74157060
C  -0.85199715 0.57906429 -0.54619001
C  -1.11175917 -0.18086930 -0.17396761
C  0.43329461 1.79837688 -0.00036445
H  -0.96643565 -1.50111833 0.03299738
H  -0.18682315 -0.75443592 0.28070672
H  -0.04938780 -0.06357475 -0.44441545
H  0.88617414 1.45675920 0.24869351
H  -0.23852682 0.37315027 -0.09141900
H  -0.05396157 -0.06904276 0.45115611
12
MD Step 824.0 Units = [eV / Ang.]
C  -0.62385243 -0.55341237 -0.46995292
C  2.47959609 -0.93342676 -0.03605968
C  0.51878242 -0.31182329 0.78907013
C  -1.04086795 0.11623481 -0.59750334
C  -0.88008487 -0.31106204 -0.01777439
C  0.41750774 1.69251187 -0.04631056
H  -0.95269807 -1.48113244 0.03404014
H  -0.20820620 -0.65777628 0.28791824
H  -0.26637050 -0.06956450 -0.46384864
H  1.09162760 1.91115454 0.21036892
H  -0.44268532 0.69676629 -0.13353961
H  -0.09274851 -0.09846982 0.44359170
12
MD Step 824.5 Units = [eV / Ang.]
C  -0.54964335 -0.66409831 -0.45619255
C  2.20314497 -1.25241100 -0.03487757
C  0.83326643 -0.16308812 0.82457928
C  -1.14483826 -0.18664873 -0.66368965
C  -0.64894653 -0.36421475 0.12879380
C  0.39419478 1.54052536 -0.08662012
H  -0.86420097 -1.31074114 0.01086315
H  -0.23401226 -0.53734309 0.29557336
H  -0.44957727 -0.07374120 -0.47573673
H  1.20098886 2.17308001 0.19088312
H  -0.61294099 0.96368291 -0.16803410
H  -0.12743540 -0.12500193 0.43445800
12
MD Step 825.0 Units = [eV / Ang.]
C  -0.50532954 -0.86575365 -0.42920079
C  1.87826940 -1.58919903 -0.02834492
C  1.09876397 0.00544805 0.84648782
C  -1.13998196 -0.28578375 -0.75490489
C  -0.43963411 -0.31083693 0.26681949
C  0.36153481 1.34797575 -0.12135612
H  -0.71395647 -1.01466221 -0.03154260
H  -0.25885705 -0.40171120 0.30246421
H  -0.58565035 -0.07581928 -0.47862235
H  1.18961688 2.19945052 0.20136262
H  -0.73000252 1.13937012 -0.19747995
H  -0.15477307 -0.14847840 0.42431746
12
MD Step 825.5 Units = [eV / Ang.]
C  -0.47850290 -1.12129788 -0.39526983
C  1.51199749 -1.92784945 -0.01617761
C  1.30285578 0.18793205 0.85408090
C  -1.02152338 -0.17857951 -0.87431691
C  -0.26884632 -0.13308464 0.39880555
C  0.31883763 1.12178964 -0.15054953
H  -0.52211195 -0.63354723 -0.08561029
H  -0.27741248 -0.26013757 0.30731174
H  -0.66573056 -0.07553185 -0.47183530
H  1.05339538 1.98949372 0.24575218
H  -0.78095025 1.19964010 -0.22575429
H  -0.17200846 -0.16882740 0.41356339
12
MD Step 826.0 Units = [eV / Ang.]
C  -0.45482287 -1.38811049 -0.36122898
C  1.11330520 -2.25093086 0.00176220
C  1.43616320 0.37661143 0.84749081
C  -0.80553999 0.09623942 -1.01656551
C  -0.14561297 0.16955080 0.52760197
C  0.26681053 0.86987487 -0.17416164
H  -0.31127286 -0.21415299 -0.14310807
H  -0.28499502 -0.12178605 0.30893246
H  -0.68504894 -0.07267725 -0.45544179
H  0.81043101 1.58480885 0.31919268
H  -0.76225372 1.13662192 -0.25683917
H  -0.17716357 -0.18604965 0.40236504
12
MD Step 826.5 Units = [eV / Ang.]
C  -0.42165917 -1.62674358 -0.33294371
C  0.69276475 -2.54073948 0.02543583
C  1.49227524 0.56229832 0.82759029
C  -0.52334854 0.47276620 -1.16975215
C  -0.07025665 0.57863456 0.65518155
C  0.20766696 0.60074444 -0.19208316
H  -0.10235708 0.19969197 -0.19676635
H  -0.27797323 0.00492415 0.30636995
H  -0.64256970 -0.06715764 -0.43016324
H  0.49513851 1.05502365 0.40998713
H  -0.68044161 0.96075771 -0.29350246
H  -0.16923948 -0.20020031 0.39064633
12
MD Step 827.0 Units = [eV / Ang.]
C  -0.37012031 -1.80632641 -0.31451083
C  0.26199532 -2.78051680 0.05462168
C  1.46804990 0.73509944 0.79586265
C  -0.21175394 0.87838510 -1.31964115
C  -0.03578312 1.06006815 0.78182101
C  0.14506477 0.32319841 -0.20417011
H  0.08789993 0.57272267 -0.24118416
H  -0.25398468 0.11280914 0.29897995
H  -0.54090370 -0.05901267 -0.39729208
H  0.14801050 0.47699176 0.50383888
H  -0.55015201 0.69795056 -0.33642691
H  -0.14832266 -0.21136933 0.37810109
12
MD Step 827.5 Units = [eV / Ang.]
C  -0.29539201 -1.90622722 -0.30814923
C  -0.16697382 -2.95560049 0.08891628
C  1.36433481 0.88528259 0.75425780
C  0.09596846 1.25090879 -1.45370261
C  -0.03096393 1.57094885 0.90601094
C  0.08386692 0.04607058 -0.21030942
H  0.24765299 0.88001163 -0.27300264
H  -0.21199869 0.19626768 0.28647373
H  -0.38654542 -0.04845061 -0.35859898
H  -0.19393718 -0.08269001 0.58797979
H  -0.39043602 0.38314365 -0.38411930
H  -0.11557611 -0.21966546 0.36424365
12
MD Step 828.0 Units = [eV / Ang.]
C  -0.19589437 -1.91500181 -0.31453854
C  -0.58234446 -3.05440513 0.12773922
C  1.18689900 1.00410940 0.70502272
C  0.37515888 1.54704716 -1.56336260
C  -0.04375436 2.06734262 1.02501136
C  0.02972980 -0.22198904 -0.21049869
H  0.36938197 1.10592494 -0.29059619
H  -0.15227132 0.25151345 0.26892583
H  -0.19029297 -0.03587052 -0.31620269
H  -0.50269980 -0.57643189 0.65352704
H  -0.22079844 0.05296490 -0.43351408
H  -0.07311393 -0.22520407 0.34848660
12
MD Step 828.5 Units = [eV / Ang.]
C  -0.07201723 -1.82814714 -0.33330215
C  -0.97309723 -3.06923390 0.17032787
C  0.94724808 1.08454946 0.65048433
C  0.61054532 1.74257260 -1.64426861
C  -0.06384941 2.51048443 1.13567440
C  -0.01141268 -0.47272213 -0.20491724
H  0.44877342 1.24181439 -0.29358825
H  -0.07625204 0.27674799 0.24675868
H  0.03242961 -0.02186655 -0.27236637
H  -0.76035161 -0.97598985 0.69585203
H  -0.05822922 -0.26010720 -0.48088682
H  -0.02378702 -0.22810209 0.33023212
12
MD Step 829.0 Units = [eV / Ang.]
C  0.07504366 -1.64587794 -0.36342701
C  -1.32941875 -2.99686553 0.21572886
C  0.66282231 1.12176086 0.59276520
C  0.79422940 1.82772838 -1.69534204
C  -0.08384492 2.87019442 1.23515449
C  -0.03394079 -0.69849391 -0.19397392
H  0.48362004 1.28371470 -0.28241236
H  0.01352924 0.27229736 0.22070949
H  0.26177858 -0.00720048 -0.22919716
H  -0.95716762 -1.26791752 0.71371002
H  0.08425170 -0.53086152 -0.52267765
H  0.02909715 -0.22847881 0.30896209
12
MD Step 829.5 Units = [eV / Ang.]
C  0.24398047 -1.37164858 -0.40351805
C  -1.64297640 -2.83890419 0.26279447
C  0.35611621 1.11332021 0.53344553
C  0.92274944 1.80144029 -1.71751016
C  -0.09918385 3.12564558 1.32129665
C  -0.03311220 -0.89255475 -0.17831561
H  0.47309422 1.23082557 -0.25803156
H  0.11357765 0.24071710 0.19178085
H  0.47464589 0.00726583 -0.18827036
H  -1.08868125 -1.44773438 0.70801896
H  0.19771355 -0.74191167 -0.55600389
H  0.08207629 -0.22646102 0.28431317
12
MD Step 830.0 Units = [eV / Ang.]
C  0.43348107 -1.01175034 -0.45186775
C  -1.90707487 -2.60185305 0.31020060
C  0.05243662 1.05920815 0.47323705
C  0.99449643 1.66652313 -1.71269042
C  -0.10737625 3.26442054 1.39271057
C  -0.00556214 -1.04931969 -0.15879910
H  0.41756723 1.08513559 -0.22184340
H  0.21956094 0.18682816 0.16117239
H  0.64701974 0.02067409 -0.15025949
H  -1.15301199 -1.51505126 0.68086391
H  0.27663526 -0.88262594 -0.57885271
H  0.13182794 -0.22218939 0.25612835
12
MD Step 830.5 Units = [eV / Ang.]
C  0.64168720 -0.57603653 -0.50636992
C  -2.11671450 -2.29686237 0.35649546
C  -0.22352295 0.96160044 0.41179308
C  1.00805052 1.42671160 -1.68323776
C  -0.10703140 3.28091718 1.44864986
C  0.05033216 -1.16463374 -0.13642698
H  0.31902715 0.85225745 -0.17574473
H  0.32647267 0.11761177 0.13018983
H  0.75738291 0.03228840 -0.11470902
H  -1.14909856 -1.47053732 0.63494415
H  0.31798638 -0.94749189 -0.59006341
H  0.17542842 -0.21582500 0.22447943
12
MD Step 831.0 Units = [eV / Ang.]
C  0.86508661 -0.07959391 -0.56434437
C  -2.26860362 -1.93909278 0.40019008
C  -0.45160839 0.82455969 0.34777598
C  0.96163859 1.08563224 -1.63184548
C  -0.09708345 3.17489472 1.48884784
C  0.13425199 -1.23599155 -0.11226200
H  0.18203822 0.54328768 -0.12229110
H  0.42885769 0.04187349 0.10013030
H  0.79046238 0.04159525 -0.08008391
H  -1.07606429 -1.31490559 0.57345788
H  0.32046750 -0.93470562 -0.58923625
H  0.21055678 -0.20755363 0.18966103
12
MD Step 831.5 Units = [eV / Ang.]
C  1.09702878 0.45510656 -0.62236917
C  -2.36113565 -1.54664366 0.43988179
C  -0.61954463 0.65368745 0.27923850
C  0.85377500 0.64767766 -1.56178778
C  -0.07645235 2.95062252 1.51341516
C  0.24391249 -1.26266498 -0.08733396
H  0.01503359 0.17717680 -0.06484907
H  0.52112202 -0.03039965 0.07215131
H  0.74027038 0.04835189 -0.04415092
H  -0.93378565 -1.04988670 0.50031003
H  0.28413634 -0.84544166 -0.57666609
H  0.23563967 -0.19758623 0.15216019
12
MD Step 832.0 Units = [eV / Ang.]
C  1.32632929 0.99655050 -0.67625584
C  -2.39434947 -1.13908928 0.47438926
C  -0.72464476 0.45580654 0.20424149
C  0.68508675 0.12075564 -1.47732733
C  -0.04418854 2.61678447 1.52285528
C  0.37520569 -1.24570302 -0.06255416
H  -0.16852430 -0.21739741 -0.00760264
H  0.59792570 -0.08900285 0.04714060
H  0.61141476 0.05256779 -0.00460664
H  -0.72469149 -0.68115519 0.42045571
H  0.21050324 -0.68396026 -0.55334232
H  0.24993316 -0.18615694 0.11260659
12
MD Step 832.5 Units = [eV / Ang.]
C  1.53668876 1.50437329 -0.72130681
C  -2.36985982 -0.73570845 0.50287161
C  -0.77337994 0.23866360 0.12151560
C  0.46124019 -0.47928103 -1.38400789
C  -0.00013794 2.18708277 1.51818419
C  0.52249882 -1.18777153 -0.03865108
H  -0.34983622 -0.60207919 0.04472774
H  0.65463346 -0.12472523 0.02561247
H  0.41819560 0.05443180 0.04024978
H  -0.45665966 -0.22297690 0.34009257
H  0.10308274 -0.45849263 -0.52099852
H  0.25353402 -0.17351650 0.07171034
12
MD Step 833.0 Units = [eV / Ang.]
C  1.70771798 1.93279399 -0.75292506
C  -2.29072335 -0.35365205 0.52489725
C  -0.77907758 0.01062000 0.03095004
C  0.19633573 -1.12338644 -1.28843642
C  0.05402948 1.68126109 1.50108247
C  0.67903546 -1.09284681 -0.01613340
H  -0.50610994 -0.93221901 0.08752084
H  0.68776460 -0.13061789 0.00765661
H  0.18180922 0.05421552 0.09102739
H  -0.14639142 0.29636196 0.26630384
H  -0.03172823 -0.18260830 -0.48213854
H  0.24733805 -0.15992207 0.03019496
12
MD Step 833.5 Units = [eV / Ang.]
C  1.81805246 2.23772890 -0.76748709
C  -2.16124113 -0.00634209 0.54044357
C  -0.75865814 -0.21971661 -0.06622737
C  -0.08459333 -1.76537645 -1.19714054
C  0.11364628 1.12599619 1.47394462
C  0.83741288 -0.96577972 0.00471362
H  -0.61397206 -1.16405535 0.11715178
H  0.69536990 -0.10306354 -0.00704206
H  -0.07338870 0.05218792 0.14707425
H  0.17817195 0.83054135 0.20575714
H  -0.18372946 0.12350303 -0.43992118
H  0.23292935 -0.14562363 -0.01126673
12
MD Step 834.0 Units = [eV / Ang.]
C  1.85007000 2.38617071 -0.76319269
C  -1.98670331 0.29760944 0.54982807
C  -0.72944620 -0.44395055 -0.16758464
C  -0.34617907 -2.34264397 -1.11442047
C  0.17022795 0.55484962 1.43967506
C  0.99008826 -0.81180798 0.02380546
H  -0.65442165 -1.26425442 0.13185335
H  0.67726089 -0.04239280 -0.01911236
H  -0.32345567 0.04855999 0.20662576
H  0.47857177 1.31602358 0.16240957
H  -0.33842926 0.43268603 -0.39778070
H  0.21241629 -0.13084964 -0.05210641
12
MD Step 834.5 Units = [eV / Ang.]
C  1.79467379 2.36460285 -0.74052622
C  -1.77311323 0.55474732 0.55359239
C  -0.70681835 -0.65442746 -0.26983399
C  -0.54824296 -2.78464620 -1.03986946
C  0.21154970 0.00638674 1.40113366
C  1.12987689 -0.63612719 0.04121770
H  -0.61773273 -1.21851031 0.13216729
H  0.63504202 0.04711687 -0.02935649
H  -0.54746549 0.04346541 0.26715397
H  0.71158627 1.68083135 0.13495144
H  -0.47757931 0.71235345 -0.35873385
H  0.18822339 -0.11579284 -0.09189644
12
MD Step 835.0 Units = [eV / Ang.]
C  1.65414651 2.18278486 -0.70208460
C  -1.52695551 0.76637126 0.55237192
C  -0.70296292 -0.84475710 -0.36926299
C  -0.65605113 -3.02920025 -0.96708778
C  0.22317477 -0.48006546 1.36031553
C  1.25041780 -0.44359518 0.05713339
H  -0.50625752 -1.03548818 0.12074215
H  0.57193589 0.15785631 -0.03859286
H  -0.72885773 0.03696778 0.32577268
H  0.83976290 1.86125357 0.11554748
H  -0.58119842 0.92847430 -0.32449174
H  0.16284538 -0.10060191 -0.13036319
12
MD Step 835.5 Units = [eV / Ang.]
C  1.44173961 1.87108831 -0.65183895
C  -1.25503204 0.93753263 0.54678122
C  -0.72656504 -1.01021243 -0.46214200
C  -0.65163568 -3.04128480 -0.88507668
C  0.19146430 -0.87058129 1.31756109
C  1.34655410 -0.23865302 0.07179466
H  -0.33382721 -0.74424064 0.10154694
H  0.49243876 0.27995686 -0.04751836
H  -0.85573702 0.02908546 0.37958984
H  0.84304227 1.82105066 0.09138307
H  -0.63104372 1.05163739 -0.29470430
H  0.13860165 -0.08537913 -0.16737654
12
MD Step 836.0 Units = [eV / Ang.]
C  1.17827043 1.47261633 -0.59415361
C  -0.96437345 1.07569045 0.53733768
C  -0.78308236 -1.14788356 -0.54505706
C  -0.54050828 -2.82533523 -0.78234849
C  0.10740277 -1.14312852 1.27123411
C  1.41461061 -0.02541982 0.08545639
H  -0.12205192 -0.38632675 0.07884556
H  0.40187245 0.40256319 -0.05661727
H  -0.92052843 0.01982644 0.42596490
H  0.72570407 1.56400633 0.04901297
H  -0.61471977 1.06357628 -0.26675826
H  0.11740388 -0.07018514 -0.20291693
12
MD Step 836.5 Units = [eV / Ang.]
C  0.88732695 1.03357606 -0.53295474
C  -0.66218959 1.18933062 0.52442538
C  -0.87516782 -1.25653261 -0.61515717
C  -0.34986087 -2.42413108 -0.65174525
C  -0.03011845 -1.29201120 1.21816037
C  1.45253621 0.19209471 0.09835050
H  0.10478523 -0.00613760 0.05633131
H  0.30591387 0.51504316 -0.06612344
H  -0.91946588 0.00922577 0.46268537
H  0.51465440 1.13282511 -0.02055947
H  -0.52898762 0.96176537 -0.23638676
H  0.10057358 -0.05504831 -0.23702610
12
MD Step 837.0 Units = [eV / Ang.]
C  0.59101553 0.59543173 -0.47126771
C  -0.35581589 1.28677414 0.50829157
C  -1.00294697 -1.33620701 -0.67033403
C  -0.11925205 -1.90482519 -0.49326324
C  -0.21295019 -1.32840255 1.15473976
C  1.45989885 0.40977537 0.11065444
H  0.32424992 0.35699850 0.03665819
H  0.21016802 0.60794971 -0.07603097
H  -0.85223475 -0.00261765 0.48810290
H  0.25003917 0.59495136 -0.11884497
H  -0.38090279 0.76014722 -0.19895422
H  0.08873115 -0.03997563 -0.26975172
12
MD Step 837.5 Units = [eV / Ang.]
C  0.30744136 0.19068653 -0.41113231
C  -0.05261587 1.37529484 0.48906342
C  -1.16391260 -1.38774421 -0.70936606
C  0.11108642 -1.33971315 -0.31361447
C  -0.42490042 -1.27667772 1.07825801
C  1.43774799 0.62328096 0.12246604
H  0.51845399 0.67303298 0.02137546
H  0.11982116 0.67366023 -0.08613728
H  -0.72197516 -0.01551469 0.50127396
H  -0.02665828 0.02302300 -0.24019101
H  -0.18625636 0.48563494 -0.15090152
H  0.08176778 -0.02496372 -0.30109424
12
MD Step 838.0 Units = [eV / Ang.]
C  0.05005116 -0.15781306 -0.35376178
C  0.24017552 1.46056899 0.46677501
C  -1.35242261 -1.41231019 -0.73204651
C  0.30903736 -0.79059885 -0.12342600
C  -0.64500194 -1.16808057 0.98782869
C  1.38837398 0.82802558 0.13378654
H  0.67478040 0.92184543 0.01112322
H  0.03938341 0.70671185 -0.09610304
H  -0.53564797 -0.02917649 0.50212565
H  -0.28163245 -0.52105296 -0.37457034
H  0.03400333 0.17188711 -0.09076403
H  0.07889981 -0.01000684 -0.33096743
12
MD Step 838.5 Units = [eV / Ang.]
C  -0.17173138 -0.43534587 -0.29978419
C  0.51566815 1.54637170 0.44139938
C  -1.55894749 -1.41105828 -0.73930357
C  0.45412804 -0.30138387 0.06597831
C  -0.85148295 -1.03414249 0.88464082
C  1.31498061 1.01927781 0.14451309
H  0.78523165 1.09161469 0.00592242
H  -0.02750094 0.70392598 -0.10551536
H  -0.30460981 -0.04323064 0.49163416
H  -0.49246706 -0.99367932 -0.51086613
H  0.25793259 -0.14724574 -0.01944124
H  0.07879858 0.00489604 -0.35917769
12
MD Step 839.0 Units = [eV / Ang.]
C  -0.35136167 -0.63299489 -0.24946142
C  0.76758249 1.63443245 0.41288136
C  -1.76941006 -1.38493467 -0.73327228
C  0.53665638 0.10173599 0.24476333
C  -1.02508999 -0.90183941 0.77158738
C  1.22131554 1.19229951 0.15444451
H  0.84519958 1.17638518 0.00544023
H  -0.07820358 0.66441314 -0.11394756
H  -0.04507068 -0.05726691 0.47195593
H  -0.64734280 -1.36938706 -0.63916448
H  0.46595317 -0.44257904 0.06019887
H  0.07977162 0.01973569 -0.38542587
12
MD Step 839.5 Units = [eV / Ang.]
C  -0.48411654 -0.74559244 -0.20283587
C  0.99053325 1.72435058 0.38117562
C  -1.96509851 -1.33460650 -0.71723902
C  0.55463428 0.40580084 0.40536224
C  -1.15101028 -0.79129032 0.65258386
C  1.11128564 1.34249406 0.16330529
H  0.85230269 1.17391605 0.00917408
H  -0.11125187 0.58954142 -0.12101203
H  0.22202377 -0.07090647 0.44641399
H  -0.74197339 -1.63626196 -0.75164702
H  0.64269900 -0.69193259 0.14404887
H  0.07997197 0.03448732 -0.40933002
12
MD Step 840.0 Units = [eV / Ang.]
C  -0.56651489 -0.77050991 -0.15980199
C  1.18032481 1.81352231 0.34628843
C  -2.12362909 -1.26047441 -0.69536599
C  0.51047105 0.60564887 0.54222890
C  -1.21937875 -0.71564884 0.53191492
C  0.98860203 1.46552041 0.17077681
H  0.80568184 1.08440828 0.01655221
H  -0.12647257 0.48289835 -0.12640614
H  0.47215656 -0.08387692 0.41923103
H  -0.77624824 -1.79033448 -0.84243597
H  0.77739965 -0.88025817 0.22748154
H  0.07760761 0.04910452 -0.43046374
12
MD Step 840.5 Units = [eV / Ang.]
C  -0.59635724 -0.70752087 -0.12011449
C  1.33420665 1.89709839 0.30832294
C  -2.22124225 -1.16274688 -0.67212345
C  0.40841453 0.69947134 0.65114065
C  -1.22480839 -0.68227590 0.41379059
C  0.85646442 1.55736418 0.17654506
H  0.70593645 0.91034374 0.02695462
H  -0.12512691 0.35023050 -0.12995077
H  0.67971984 -0.09606316 0.39494832
H  -0.75165335 -1.83096148 -0.90697159
H  0.86330852 -0.99845386 0.30586317
H  0.07113772 0.06351402 -0.44840505
12
MD Step 841.0 Units = [eV / Ang.]
C  -0.57344026 -0.55974719 -0.08335436
C  1.45104919 1.96802603 0.26752192
C  -2.23626472 -1.04156510 -0.65148147
C  0.25302514 0.68612974 0.72851348
C  -1.16550963 -0.69427312 0.30214566
C  0.71733676 1.61438272 0.18034446
H  0.55574695 0.65744794 0.03968182
H  -0.10999633 0.19929950 -0.13161841
H  0.82163895 -0.10750153 0.37758752
H  -0.66980050 -1.75800638 -0.94138852
H  0.89678721 -1.04180370 0.37483374
H  0.05942725 0.07761109 -0.46278586
12
MD Step 841.5 Units = [eV / Ang.]
C  -0.50085170 -0.33554187 -0.04886860
C  1.53138897 2.01730177 0.22429763
C  -2.15300670 -0.89718125 -0.63604808
C  0.04862931 0.56437468 0.77103639
C  -1.04244233 -0.75169689 0.20058984
C  0.57280367 1.63334903 0.18199384
H  0.36108944 0.33658696 0.05389146
H  -0.08535263 0.03956689 -0.13154552
H  0.88139280 -0.11830228 0.36975773
H  -0.53203957 -1.57098656 -0.94220786
H  0.87652530 -1.00872832 0.43044015
H  0.04186344 0.09125783 -0.47333698
12
MD Step 842.0 Units = [eV / Ang.]
C  -0.38655727 -0.05082431 -0.01571495
C  1.57727408 2.03452383 0.17924094
C  -1.96497109 -0.73015693 -0.62643347
C  -0.20031021 0.33398962 0.77582751
C  -0.85878042 -0.85212938 0.11238140
C  0.42353116 1.61151807 0.18142042
H  0.13275009 -0.03389219 0.06852967
H  -0.05673501 -0.11836970 -0.13002429
H  0.85227653 -0.12851732 0.37200375
H  -0.34007196 -1.27021285 -0.90656132
H  0.80317533 -0.90021439 0.46925279
H  0.01841877 0.10428554 -0.47992243
12
MD Step 842.5 Units = [eV / Ang.]
C  -0.24471518 0.26902208 0.01736215
C  1.59190051 2.00882181 0.13309633
C  -1.67630043 -0.54155543 -0.62109374
C  -0.48794185 -0.00108967 0.74128065
C  -0.61983521 -0.99047435 0.04028720
C  0.26933199 1.54675339 0.17865492
H  -0.11245215 -0.42631636 0.08229648
H  -0.03047649 -0.26362261 -0.12746738
H  0.73880979 -0.13800314 0.38265279
H  -0.09750343 -0.85996121 -0.83310904
H  0.67952359 -0.72007696 0.48859632
H  -0.01034115 0.11650243 -0.48255669
12
MD Step 843.0 Units = [eV / Ang.]
C  -0.09582690 0.58903390 0.05187286
C  1.57903584 1.93011270 0.08670262
C  -1.30095907 -0.33307894 -0.61673019
C  -0.80495311 -0.42781193 0.66866045
C  -0.33342138 -1.15807610 -0.01377325
C  0.10930926 1.43771832 0.17380866
H  -0.35160744 -0.80369215 0.09368891
H  -0.01298177 -0.38608567 -0.12434710
H  0.55577173 -0.14633712 0.39823633
H  0.18778600 -0.35351479 -0.72369573
H  0.51114455 -0.47597515 0.48698289
H  -0.04329771 0.12770695 -0.48140645
12
MD Step 843.5 Units = [eV / Ang.]
C  0.03513174 0.86770067 0.08941346
C  1.54234102 1.79053449 0.04090301
C  -0.86001859 -0.10712420 -0.60910110
C  -1.13603613 -0.91809142 0.56420755
C  -0.01053900 -1.34143790 -0.04933429
C  -0.05790923 1.28412044 0.16702281
H  -0.55770565 -1.12292021 0.10115809
H  -0.00983780 -0.47758662 -0.12111662
H  0.32522354 -0.15282489 0.41433081
H  0.50088936 0.22083341 -0.58547770
H  0.30733874 -0.18090922 0.46476471
H  -0.07887801 0.13770545 -0.47677074
12
MD Step 844.0 Units = [eV / Ang.]
C  0.12296062 1.06362335 0.13138272
C  1.48472511 1.58581731 -0.00355551
C  -0.37803441 0.13318437 -0.59395668
C  -1.45783638 -1.42418436 0.44094967
C  0.33393767 -1.52109590 -0.06814449
C  -0.23388867 1.08700026 0.15840967
H  -0.70399502 -1.34168493 0.10337884
H  -0.02492276 -0.53289817 -0.11813009
H  0.07254143 -0.15659203 0.42651572
H  0.81775910 0.81512312 -0.43269001
H  0.08194375 0.14537468 0.42488690
H  -0.11519047 0.14633231 -0.46904675
12
MD Step 844.5 Units = [eV / Ang.]
C  0.14802776 1.14454793 0.17864794
C  1.40791394 1.31631089 -0.04611265
C  0.12034135 0.38393897 -0.56782110
C  -1.73894943 -1.87905251 0.31880584
C  0.68107189 -1.67146375 -0.07480895
C  -0.42004622 0.84898849 0.14799098
H  -0.76987081 -1.42769198 0.09956807
H  -0.05972514 -0.55037834 -0.11558071
H  -0.17735277 -0.15672326 0.43115825
H  1.10535709 1.36212743 -0.28662072
H  -0.14656616 0.47592881 0.37345470
H  -0.15020148 0.15346732 -0.45868165
12
MD Step 845.0 Units = [eV / Ang.]
C  0.10158710 1.09566233 0.23127910
C  1.31236486 0.98747044 -0.08645387
C  0.61271164 0.64033416 -0.52845830
C  -1.94351619 -2.20530530 0.22154764
C  1.00872375 -1.76255032 -0.07688779
C  -0.61728464 0.57448130 0.13565112
H  -0.74625970 -1.36708552 0.08973460
H  -0.11304499 -0.53209237 -0.11347336
H  -0.40271281 -0.15239958 0.42585962
H  1.32565867 1.78438274 -0.17236738
H  -0.35630355 0.77805636 0.31968831
H  -0.18192415 0.15904576 -0.44611968
12
MD Step 845.5 Units = [eV / Ang.]
C  -0.01167086 0.92361245 0.28846719
C  1.19754537 0.60971188 -0.12452584
C  1.08003706 0.89648818 -0.47501232
C  -2.03871052 -2.33297326 0.17046616
C  1.29381158 -1.76410196 -0.08402700
C  -0.82561711 0.26967641 0.12111274
H  -0.63817969 -1.16843952 0.07474114
H  -0.18116219 -0.48338566 -0.11163762
H  -0.58636133 -0.14300095 0.40956294
H  1.44372880 2.01208646 -0.11226485
H  -0.52481546 1.01726908 0.27486858
H  -0.20860564 0.16305688 -0.43175113
12
MD Step 846.0 Units = [eV / Ang.]
C  -0.17505842 0.65437367 0.34868074
C  1.06250543 0.19770418 -0.16051322
C  1.50671107 1.14531581 -0.40790176
C  -2.00392908 -2.22054260 0.17695584
C  1.51574815 -1.65177098 -0.10600633
C  -1.04382089 -0.05754880 0.10393782
H  -0.46326910 -0.86043906 0.05613350
H  -0.25841449 -0.41203214 -0.10977574
H  -0.71596357 -0.12816499 0.38242245
H  1.43755274 2.00419071 -0.11825830
H  -0.63317317 1.16338380 0.25019672
H  -0.22888866 0.16553038 -0.41587172
12
MD Step 846.5 Units = [eV / Ang.]
C  -0.36461282 0.32602702 0.40999570
C  0.90657337 -0.23074828 -0.19478825
C  1.88010485 1.37857294 -0.32858551
C  -1.83754041 -1.86929046 0.23791025
C  1.66011340 -1.41367009 -0.15014498
C  -1.26917821 -0.39789951 0.08355043
H  -0.24699913 -0.48434132 0.03579927
H  -0.33802892 -0.32716102 -0.10752912
H  -0.78364430 -0.10781020 0.34556488
H  1.30526114 1.76267207 -0.18717655
H  -0.67011992 1.19713572 0.25406179
H  -0.24192904 0.16651313 -0.39865791
12
MD Step 847.0 Units = [eV / Ang.]
C  -0.55494892 -0.02028932 0.47046989
C  0.72999660 -0.65603993 -0.22784805
C  2.19004968 1.58717266 -0.23928512
C  -1.55756605 -1.32298130 0.33680076
C  1.72121465 -1.05492155 -0.21901766
C  -1.49736523 -0.74099718 0.05927595
H  -0.01672777 -0.08457061 0.01559014
H  -0.41300707 -0.23818422 -0.10454668
H  -0.78541692 -0.08214216 0.30083825
H  1.06593479 1.33200488 -0.30181486
H  -0.63470819 1.11490634 0.28970038
H  -0.24745560 0.16604237 -0.38016299
12
MD Step 847.5 Units = [eV / Ang.]
C  -0.72406303 -0.34784540 0.52843162
C  0.53439848 -1.05813161 -0.26025173
C  2.42862852 1.76177581 -0.14271892
C  -1.19585649 -0.65315367 0.44986760
C  1.70245900 -0.59824212 -0.30946653
C  -1.72252513 -1.07575974 0.03038507
H  0.20318595 0.29907289 -0.00296445
H  -0.47689039 -0.15389763 -0.10053992
H  -0.72078587 -0.05165382 0.25059414
H  0.75353164 0.78410763 -0.43724923
H  -0.53631596 0.92960443 0.35424494
H  -0.24576669 0.16412324 -0.36033260
12
MD Step 848.0 Units = [eV / Ang.]
C  -0.85589155 -0.62837586 0.58261820
C  0.32298230 -1.41783107 -0.29255775
C  2.59048129 1.89352887 -0.04185912
C  -0.78892126 0.06185286 0.55384879
C  1.61443292 -0.08018224 -0.41334396
C  -1.93754550 -1.39080715 -0.00385504
H  0.39402002 0.63568811 -0.01879218
H  -0.52431524 -0.08183388 -0.09531857
H  -0.59271444 -0.01712419 0.19749810
H  0.40719179 0.19704521 -0.56876882
H  -0.39204948 0.66732431 0.43956739
H  -0.23767085 0.16071503 -0.33903706
12
MD Step 848.5 Units = [eV / Ang.]
C  -0.94068188 -0.84278845 0.63217978
C  0.10048400 -1.71794405 -0.32526023
C  2.67362912 1.97482688 0.06029756
C  -0.36977251 0.75423823 0.63152097
C  1.47162113 0.45551694 -0.51958373
C  -2.13452574 -1.67489184 -0.04412648
H  0.54313338 0.90406683 -0.03127641
H  -0.55134166 -0.02786255 -0.08880738
H  -0.40797143 0.02039348 0.14433246
H  0.06246354 -0.36252274 -0.67764115
H  -0.22266242 0.36123778 0.53447971
H  -0.22437552 0.15572949 -0.31611509
12
MD Step 849.0 Units = [eV / Ang.]
C  -0.97396752 -0.97972290 0.67659673
C  -0.12705758 -1.94424829 -0.35872004
C  2.68061380 1.99992903 0.16097508
C  0.03649509 1.37518665 0.67354614
C  1.28913268 0.96505397 -0.61666699
C  -2.30537375 -1.91739953 -0.09099997
H  0.64300804 1.09122933 -0.04017368
H  -0.55560113 0.00401972 -0.08104753
H  -0.17770485 0.05960975 0.09374608
H  -0.25364881 -0.84780338 -0.75315069
H  -0.04854858 0.04510502 0.62731502
H  -0.20734739 0.14904063 -0.29142016
12
MD Step 849.5 Units = [eV / Ang.]
C  -0.95503304 -1.03336601 0.71557550
C  -0.35264414 -2.08630673 -0.39309903
C  2.61956003 1.96536435 0.25790744
C  0.41319104 1.89493839 0.67739429
C  1.08049786 1.41013670 -0.69459939
C  -2.44247840 -2.10889816 -0.14486886
H  0.68979853 1.19013318 -0.04550954
H  -0.53633192 0.01178966 -0.07218748
H  0.08208677 0.09908114 0.04792274
H  -0.52353189 -1.23177375 -0.79165270
H  0.11303907 -0.25160157 0.70798011
H  -0.18815392 0.14050280 -0.26486308
12
MD Step 850.0 Units = [eV / Ang.]
C  -0.88554485 -1.00156189 0.74896125
C  -0.56870015 -2.13811261 -0.42829836
C  2.50464599 1.87009872 0.34966180
C  0.75004397 2.29816260 0.64502852
C  0.85686058 1.76106934 -0.74596973
C  -2.53937020 -2.24171257 -0.20588177
H  0.68206956 1.19765689 -0.04749402
H  -0.49436003 -0.00454796 -0.06246810
H  0.35063305 0.13734189 0.00818448
H  -0.73713906 -1.50225152 -0.79431866
H  0.24917265 -0.50611581 0.76903764
H  -0.16831152 0.12997293 -0.23644306
12
MD Step 850.5 Units = [eV / Ang.]
C  -0.76870143 -0.88477670 0.77669109
C  -0.76745636 -2.09854141 -0.46391817
C  2.35543088 1.71550125 0.43594396
C  1.04042540 2.57824606 0.58069208
C  0.62726479 1.99757710 -0.76615342
C  -2.59129811 -2.31046994 -0.27388006
H  0.62009016 1.11347228 -0.04647513
H  -0.43205653 -0.04292574 -0.05220324
H  0.60350945 0.17306934 -0.02538798
H  -0.88921314 -1.65584318 -0.76493461
H  0.35115108 -0.70264228 0.80589199
H  -0.14914620 0.11733322 -0.20626651
12
MD Step 851.0 Units = [eV / Ang.]
C  -0.60906158 -0.68616996 0.79878934
C  -0.94131367 -1.97157050 -0.49924698
C  2.19473893 1.50517923 0.51775673
C  1.27893906 2.73266676 0.48943037
C  0.39946419 2.10816235 -0.75299245
C  -2.59565836 -2.31253965 -0.34835336
H  0.50583549 0.94007906 -0.04293081
H  -0.35326579 -0.09921169 -0.04175640
H  0.81506877 0.20523981 -0.05417079
H  -0.97676347 -1.69301731 -0.70840242
H  0.41370704 -0.83132893 0.81642479
H  -0.13169062 0.10251084 -0.17454802
12
MD Step 851.5 Units = [eV / Ang.]
C  -0.41305812 -0.41275355 0.81539916
C  -1.08320640 -1.76620435 -0.53329260
C  2.04522832 1.24479068 0.59727352
C  1.45988001 2.76021340 0.37641912
C  0.18072698 2.08885625 -0.70631439
C  -2.55223491 -2.24829388 -0.42842042
H  0.34368381 0.68400367 -0.03748808
H  -0.26316591 -0.16730309 -0.03151336
H  0.96203941 0.23321731 -0.08088796
H  -0.99737497 -1.61514057 -0.63003665
H  0.43408911 -0.88687807 0.80046183
H  -0.11660732 0.08549220 -0.14160016
12
MD Step 852.0 Units = [eV / Ang.]
C  -0.19004602 -0.07741688 0.82682289
C  -1.18699348 -1.49600756 -0.56485341
C  1.92536842 0.94187842 0.67734297
C  1.57678713 2.66014596 0.24692898
C  -0.02174302 1.94203470 -0.62753802
C  -2.46321074 -2.12114907 -0.51284597
H  0.14164637 0.35791768 -0.03094317
H  -0.16800743 -0.23939717 -0.02185153
H  1.02754964 0.25673076 -0.10909354
H  -0.94858830 -1.42360004 -0.53549231
H  0.41140102 -0.86746926 0.75933394
H  -0.10416360 0.06633245 -0.10781082
12
MD Step 852.5 Units = [eV / Ang.]
C  0.04644527 0.29879619 0.83353836
C  -1.24788413 -1.17820338 -0.59262618
C  1.84599267 0.60577457 0.76069008
C  1.62318469 2.43320451 0.10668237
C  -0.20093582 1.67567663 -0.51948453
C  -2.33297098 -1.93735317 -0.60009716
H  -0.08726123 -0.01697471 -0.02424646
H  -0.07467924 -0.30652488 -0.01310698
H  1.00442405 0.27574037 -0.14231980
H  -0.82846938 -1.12092201 -0.43106869
H  0.34639642 -0.77437347 0.69565235
H  -0.09424232 0.04515933 -0.07361337
12
MD Step 853.0 Units = [eV / Ang.]
C  0.27791463 0.68524132 0.83614347
C  -1.26289636 -0.83230639 -0.61533280
C  1.80853918 0.24748524 0.84904168
C  1.59463291 2.08441718 -0.03768853
C  -0.35073628 1.30321088 -0.38638267
C  -2.16770500 -1.70553053 -0.68843220
H  -0.32417536 -0.40940871 -0.01840965
H  0.00990601 -0.35937823 -0.00554427
H  0.89663197 0.29024963 -0.18314026
H  -0.63749201 -0.71378826 -0.32408534
H  0.24177516 -0.61236599 0.61328552
H  -0.08639486 0.02217387 -0.03945494
12
MD Step 853.5 Units = [eV / Ang.]
C  0.48139530 1.04253645 0.83519933
C  -1.23128384 -0.47837122 -0.63184689
C  1.80551020 -0.12054054 0.94246697
C  1.49208866 1.62745631 -0.17844869
C  -0.46710256 0.84390330 -0.23397070
C  -1.97485887 -1.43601442 -0.77601278
H  -0.54495170 -0.77891305 -0.01430971
H  0.07956740 -0.38939447 0.00066726
H  0.71837426 0.30014889 -0.23246357
H  -0.38171129 -0.21763165 -0.22294532
H  0.10290342 -0.39082833 0.51742996
H  -0.07993099 -0.00235127 -0.00576587
12
MD Step 854.0 Units = [eV / Ang.]
C  0.63198406 1.32696526 0.83099123
C  -1.15482869 -0.13507771 -0.64129616
C  1.82286364 -0.48484578 1.03914703
C  1.32605223 1.08962707 -0.30728957
C  -0.54945391 0.32347409 -0.06951274
C  -1.76250387 -1.14004014 -0.86102223
H  -0.72286196 -1.08030107 -0.01241591
H  0.12962410 -0.38993018 0.00546412
H  0.49114061 0.30515504 -0.28928980
H  -0.07671070 0.33819675 -0.13642635
H  -0.06127388 -0.12514928 0.41458511
H  -0.07403163 -0.02807406 0.02706527
12
MD Step 854.5 Units = [eV / Ang.]
C  0.70741906 1.49845117 0.82329645
C  -1.03792634 0.18206466 -0.64312841
C  1.84334347 -0.83162642 1.13560071
C  1.12004894 0.51536133 -0.41695913
C  -0.60182497 -0.22566264 0.09849799
C  -1.53868330 -0.82889664 -0.94177070
H  -0.83340244 -1.27181326 -0.01253692
H  0.15752966 -0.35730792 0.00888512
H  0.23978269 0.30486008 -0.35095770
H  0.24913424 0.90689009 -0.07184270
H  -0.23754394 0.16226604 0.31220724
H  -0.06787707 -0.05458647 0.05870807
12
MD Step 855.0 Units = [eV / Ang.]
C  0.69350836 1.53008869 0.81129998
C  -0.88736294 0.46205076 -0.63712989
C  1.84965468 -1.14756053 1.22722414
C  0.91096465 -0.03500129 -0.50387968
C  -0.63321306 -0.76537907 0.26113046
C  -1.31079626 -0.51315321 -1.01677195
H  -0.85999288 -1.32485259 -0.01373556
H  0.16320726 -0.29147447 0.01105438
H  -0.01121866 0.29884727 -0.41372488
H  0.55454698 1.42554474 -0.03223626
H  -0.40852494 0.44230904 0.21787272
H  -0.06077318 -0.08141935 0.08889654
12
MD Step 855.5 Units = [eV / Ang.]
C  0.58836087 1.41561447 0.79376561
C  -0.71182565 0.69901724 -0.62340290
C  1.82672583 -1.42072368 1.30893347
C  0.74375491 -0.49389978 -0.57071669
C  -0.65654678 -1.25482063 0.41030971
C  -1.08510310 -0.20206766 -1.08478425
H  -0.79842390 -1.23164737 -0.01451425
H  0.14900170 -0.19610066 0.01215482
H  -0.24044476 0.28681729 -0.47344354
H  0.79085586 1.82418966 -0.01369610
H  -0.55410075 0.68167295 0.13796888
H  -0.05225422 -0.10805184 0.11742522
12
MD Step 856.0 Units = [eV / Ang.]
C  0.40343839 1.17142720 0.76942904
C  -0.52121087 0.89211508 -0.60230948
C  1.76284133 -1.64148333 1.37574560
C  0.66015080 -0.80230606 -0.62708764
C  -0.68604809 -1.65560027 0.54031770
C  -0.86637679 0.09672940 -1.14481474
H  -0.65804915 -1.00738603 -0.01323906
H  0.11925872 -0.07809656 0.01239975
H  -0.43091924 0.26868148 -0.52613594
H  0.91344579 2.04204030 -0.00467885
H  -0.65437777 0.84780440 0.07623529
H  -0.04215312 -0.13392562 0.14413832
12
MD Step 856.5 Units = [eV / Ang.]
C  0.16087709 0.83215836 0.73745019
C  -0.32585735 1.04470427 -0.57439870
C  1.64987793 -1.80323508 1.42322583
C  0.68501128 -0.92711884 -0.68699389
C  -0.73348201 -1.93829329 0.64893613
C  -0.65775723 0.37728115 -1.19609809
H  -0.45914999 -0.68581413 -0.00862705
H  0.07964013 0.05333837 0.01200699
H  -0.57038798 0.24461055 -0.56838103
H  0.89550846 2.04543635 0.01122918
H  -0.69365517 0.91539755 0.03273663
H  -0.03062516 -0.15846526 0.16891383
12
MD Step 857.0 Units = [eV / Ang.]
C  -0.11172123 0.44186356 0.69771066
C  -0.13581846 1.16312816 -0.54032525
C  1.48305231 -1.90282874 1.44780210
C  0.81689644 -0.87176294 -0.76351686
C  -0.80445560 -2.08822056 0.73765526
C  -0.46081099 0.63511671 -1.23805891
H  -0.22770148 -0.31037530 -0.00008487
H  0.03633690 0.18789776 0.01118040
H  -0.65096044 0.21504785 -0.59752243
H  0.73748391 1.83884294 0.04968075
H  -0.66417875 0.87239242 0.00383106
H  -0.01812260 -0.18110185 0.19164808
12
MD Step 857.5 Units = [eV / Ang.]
C  -0.38683500 0.04460269 0.65085661
C  0.03972995 1.25534418 -0.50077846
C  1.26057631 -1.94055490 1.44698213
C  1.02820827 -0.67406181 -0.86348446
C  -0.89623509 -2.10825136 0.81074570
C  -0.27577696 0.86695252 -1.27027445
H  0.01023156 0.07529308 0.01221292
H  -0.00465497 0.31532600 0.01009884
H  -0.66857579 0.18070205 -0.61176551
H  0.46686817 1.46283116 0.11986174
H  -0.56820919 0.72311272 -0.01669856
H  -0.00532726 -0.20129634 0.21224349
12
MD Step 858.0 Units = [eV / Ang.]
C  -0.64107388 -0.32241583 0.59811753
C  0.19294309 1.32965967 -0.45642393
C  0.98350610 -1.91969232 1.41950249
C  1.27476493 -0.39268250 -0.98505937
C  -0.99802474 -2.01732596 0.87354610
C  -0.10195354 1.07038321 -1.29244390
H  0.23257944 0.43428118 0.02747303
H  -0.03809753 0.42637518 0.00891190
H  -0.62265429 0.14252676 -0.61023826
H  0.12856390 0.98027529 0.22177254
H  -0.41750572 0.48717636 -0.03575964
H  0.00695223 -0.21856104 0.23060150
12
MD Step 858.5 Units = [eV / Ang.]
C  -0.85699803 -0.63186599 0.54103007
C  0.31759725 1.39372364 -0.40786642
C  0.65593622 -1.84575317 1.36543158
C  1.50939587 -0.08949607 -1.11914126
C  -1.09358496 -1.84527967 0.93069528
C  0.06186717 1.24364252 -1.30436910
H  0.42308852 0.73947504 0.04453480
H  -0.05986743 0.51346294 0.00773970
H  -0.51610898 0.10167975 -0.59306795
H  -0.22877379 0.45822985 0.34747438
H  -0.23045156 0.19465591 -0.05908411
H  0.01789971 -0.23247476 0.24662301
12
MD Step 859.0 Units = [eV / Ang.]
C  -1.02304434 -0.86611575 0.48119030
C  0.40925466 1.45380921 -0.35563449
C  0.28554358 -1.72560490 1.28624427
C  1.69308999 0.18416849 -1.25306764
C  -1.16504598 -1.62601482 0.98496968
C  0.21697327 1.38546023 -1.30594661
H  0.57121566 0.97335543 0.06210458
H  -0.06713353 0.57105478 0.00667496
H  -0.35572876 0.05944544 -0.56148685
H  -0.56390574 -0.04637695 0.48479431
H  -0.02802969 -0.12048817 -0.09005580
H  0.02681088 -0.24269298 0.26021329
12
MD Step 859.5 Units = [eV / Ang.]
C  -1.13240195 -1.01524270 0.42009609
C  0.46533506 1.51434656 -0.30018501
C  -0.11568840 -1.56660739 1.18484486
C  1.80030765 0.39359781 -1.37427743
C  -1.19650191 -1.39140105 1.03696248
C  0.36437592 1.49499279 -1.29716619
H  0.67094704 1.12597841 0.07890873
H  -0.05840911 0.59584144 0.00578636
H  -0.15276095 0.01710044 -0.51792754
H  -0.84829534 -0.49330875 0.62112423
H  0.16989031 -0.42634458 -0.12945906
H  0.03320168 -0.24895298 0.27129248
12
MD Step 860.0 Units = [eV / Ang.]
C  -1.18162303 -1.07463400 0.35908274
C  0.48511428 1.57764761 -0.24192056
C  -0.53092589 -1.37585093 1.06549330
C  1.81886302 0.51997168 -1.47249776
C  -1.17637398 -1.16742826 1.08543486
C  0.50455269 1.57179010 -1.27811069
H  0.71936197 1.19253415 0.09376314
H  -0.03353232 0.58679753 0.00512063
H  0.07665168 -0.02428334 -0.46602479
H  -1.06594303 -0.85864859 0.74579217
H  0.34697062 -0.69682114 -0.17593930
H  0.03688401 -0.25107481 0.27980627
12
MD Step 860.5 Units = [eV / Ang.]
C  -1.16950398 -1.04307940 0.29932563
C  0.46966354 1.64373506 -0.18121742
C  -0.93858258 -1.15954298 0.93354291
C  1.74676250 0.55601251 -1.54028649
C  -1.09827825 -0.97288311 1.12796917
C  0.63729652 1.61576873 -1.24895979
H  0.71549629 1.17142023 0.10558799
H  0.00637708 0.54519603 0.00470277
H  0.31165060 -0.06407192 -0.41041551
H  -1.21020074 -1.13063234 0.85078515
H  0.49130982 -0.91296274 -0.22676953
H  0.03800920 -0.24896006 0.28573511
12
MD Step 861.0 Units = [eV / Ang.]
C  -1.09651085 -0.92181821 0.24185633
C  0.42173315 1.71024366 -0.11845600
C  -1.31353928 -0.92260392 0.79491692
C  1.58832576 0.50094366 -1.57253389
C  -0.96069939 -0.81988113 1.16160670
C  0.76166227 1.62715873 -1.20999208
H  0.65978591 1.06330266 0.11341428
H  0.05897434 0.47460119 0.00453608
H  0.52793850 -0.10226916 -0.35624620
H  -1.27993534 -1.30464401 0.93037534
H  0.59519615 -1.06244455 -0.27857777
H  0.03706877 -0.24258892 0.28910028
12
MD Step 861.5 Units = [eV / Ang.]
C  -0.96483805 -0.71468557 0.18755745
C  0.34556337 1.77242806 -0.05404934
C  -1.62972009 -0.66856145 0.65532489
C  1.35095269 0.35645769 -1.56560692
C  -0.76602909 -0.71529580 1.18331315
C  0.87601973 1.60643829 -1.16158985
H  0.55418397 0.87131842 0.11642068
H  0.12077072 0.38080874 0.00459856
H  0.70039417 -0.13958038 -0.30839429
H  -1.27644463 -1.37911024 0.98033311
H  0.65429290 -1.13820247 -0.32787076
H  0.03485431 -0.23201529 0.28996332
12
MD Step 862.0 Units = [eV / Ang.]
C  -0.77906011 -0.42933697 0.13709063
C  0.24659931 1.82332544 0.01153292
C  -1.86379841 -0.39979834 0.51934953
C  1.04305245 0.12432400 -1.51663794
C  -0.51946789 -0.66222765 1.19026049
C  0.97817668 1.55428368 -1.10424173
H  0.40291567 0.60236983 0.11403780
H  0.18727341 0.27166464 0.00484108
H  0.80680641 -0.17724431 -0.27054378
H  -1.20164510 -1.35296798 0.99723151
H  0.66676944 -1.13703052 -0.37134088
H  0.03237815 -0.21736181 0.28842037
12
MD Step 862.5 Units = [eV / Ang.]
C  -0.54726913 -0.07927987 0.09074057
C  0.13111753 1.85419815 0.07775278
C  -1.99922496 -0.11814475 0.38966457
C  0.67317561 -0.19428379 -1.42323215
C  -0.22812564 -0.66097019 1.17999319
C  1.06557762 1.47152568 -1.03854209
H  0.21370481 0.26924673 0.10613517
H  0.25323042 0.15666408 0.00518691
H  0.83190279 -0.21661852 -0.24439216
H  -1.05757467 -1.22484085 0.97814257
H  0.63271852 -1.05868289 -0.40604043
H  0.03076710 -0.19881379 0.28459106
12
MD Step 863.0 Units = [eV / Ang.]
C  -0.28230849 0.31385446 0.04818818
C  0.00575396 1.85530593 0.14399965
C  -2.02939281 0.17434905 0.26667767
C  0.25031715 -0.59773973 -1.28375809
C  0.09947604 -0.70922705 1.15057177
C  1.13555367 1.35918787 -0.96518562
H  -0.00091213 -0.10705166 0.09327373
H  0.31300958 0.04626273 0.00553589
H  0.77047708 -0.25861868 -0.22928950
H  -0.84712483 -0.99397210 0.92091036
H  0.55402205 -0.90573717 -0.42952762
H  0.03112875 -0.17661365 0.27860357
12
MD Step 863.5 Units = [eV / Ang.]
C  -0.00248208 0.71888804 0.00827390
C  -0.12303750 1.81704143 0.20960205
C  -1.95886345 0.47467534 0.14874969
C  -0.21470173 -1.08113827 -1.09832480
C  0.45346232 -0.80154097 1.10077227
C  1.18559885 1.21857919 -0.88494937
H  -0.22284118 -0.49588581 0.07695299
H  0.36111553 -0.04911667 0.00577561
H  0.62852741 -0.30321466 -0.22247579
H  -0.57587620 -0.66299234 0.82511569
H  0.43468606 -0.68424052 -0.44007137
H  0.03441196 -0.15105475 0.27057913
12
MD Step 864.0 Units = [eV / Ang.]
C  0.26905711 1.09592076 -0.03110756
C  -0.24949579 1.73131494 0.27384666
C  -1.80226031 0.77842419 0.03293358
C  -0.70698518 -1.63178107 -0.87042048
C  0.82229282 -0.92812659 1.03038094
C  1.21363800 1.05146895 -0.79866863
H  -0.42908454 -0.85786171 0.05971255
H  0.39279722 -0.12028942 0.00579972
H  0.42198920 -0.34918802 -0.21984724
H  -0.25475972 -0.24244882 0.69371256
H  0.28153468 -0.40495629 -0.43696151
H  0.04127651 -0.12247693 0.26061942
12
MD Step 864.5 Units = [eV / Ang.]
C  0.50691302 1.40060642 -0.07282274
C  -0.36897084 1.59296960 0.33600974
C  -1.58126619 1.07971523 -0.08404700
C  -1.20508170 -2.22365838 -0.60889373
C  1.19224657 -1.07354229 0.94056608
C  1.21827822 0.86030663 -0.70720324
H  -0.59444903 -1.14922210 0.04492641
H  0.40464835 -0.16052721 0.00553009
H  0.17353392 -0.39424399 -0.21697117
H  0.09716434 0.24363181 0.53500196
H  0.10500386 -0.08477338 -0.42089484
H  0.05197949 -0.09126232 0.24879844
12
MD Step 865.0 Units = [eV / Ang.]
C  0.68795179 1.59184975 -0.11992747
C  -0.47814750 1.40094228 0.39539422
C  -1.32080020 1.37145982 -0.20490296
C  -1.67957749 -2.81289297 -0.32942139
C  1.54707489 -1.21591507 0.83421109
C  1.19900086 0.64845523 -0.61140325
H  -0.69620264 -1.32969806 0.03619794
H  0.39508161 -0.16653630 0.00493835
H  -0.09146034 -0.43541910 -0.21000874
H  0.45117670 0.75314846 0.36407672
H  -0.08039880 0.25243902 -0.39431639
H  0.06630111 -0.05783307 0.23516189
12
MD Step 865.5 Units = [eV / Ang.]
C  0.79652278 1.64105707 -0.17480520
C  -0.57503192 1.15888003 0.45137088
C  -1.04551943 1.64577041 -0.33119999
C  -2.09449692 -3.33744940 -0.05414033
C  1.86825421 -1.32761048 0.71602209
C  1.15628985 0.42035679 -0.51208466
H  -0.71945816 -1.37187939 0.03645698
H  0.36456061 -0.13894732 0.00406133
H  -0.34857020 -0.46961410 -0.19630365
H  0.77043026 1.22565945 0.20239463
H  -0.25650314 0.57642856 -0.36150794
H  0.08352205 -0.02265163 0.21973585
12
MD Step 866.0 Units = [eV / Ang.]
C  0.82836002 1.53946074 -0.23832042
C  -0.65872549 0.87508258 0.50341796
C  -0.77738033 1.89434041 -0.46315472
C  -2.41276093 -3.72453499 0.19174812
C  2.13625586 -1.37811186 0.59217944
C  1.09170500 0.18157168 -0.41001636
H  -0.66120316 -1.26858116 0.04707794
H  0.31553253 -0.08219496 0.00300353
H  -0.57683996 -0.49407451 -0.17457800
H  1.01581505 1.58988489 0.07429593
H  -0.40321126 0.85338017 -0.32819514
H  0.10245267 0.01377701 0.20254173
12
MD Step 866.5 Units = [eV / Ang.]
C  0.79137922 1.30031038 -0.30938200
C  -0.72907020 0.56176010 0.55115456
C  -0.53442962 2.10874174 -0.59972515
C  -2.60495619 -3.90637479 0.38623034
C  2.33291608 -1.33915642 0.46943464
C  1.00789150 -0.06135997 -0.30592501
H  -0.53115632 -1.03494770 0.06741482
H  0.25207841 -0.00381606 0.00192723
H  -0.75995841 -0.50671166 -0.14481894
H  1.15537527 1.77962276 0.00064281
H  -0.50158979 1.05103085 -0.30057020
H  0.12152004 0.05090077 0.18361691
12
MD Step 867.0 Units = [eV / Ang.]
C  0.70295740 0.95491899 -0.38512951
C  -0.78626057 0.23379278 0.59436005
C  -0.33057934 2.28069256 -0.73887182
C  -2.65806192 -3.83976665 0.51730616
C  2.44444229 -1.19110228 0.35379341
C  0.90853112 -0.30122033 -0.20051102
H  -0.34902503 -0.70428887 0.09497424
H  0.17936533 0.08665351 0.00103159
H  -0.88637148 -0.50624780 -0.10800221
H  1.17378539 1.75339572 -0.00809218
H  -0.53768570 1.14505430 -0.28389360
H  0.13890249 0.08811806 0.16303488
12
MD Step 867.5 Units = [eV / Ang.]
C  0.58497279 0.54448541 -0.46164750
C  -0.83053587 -0.09274392 0.63297425
C  -0.17590942 2.40242754 -0.87787664
C  -2.57962478 -3.52048205 0.58683475
C  2.46406407 -0.92844982 0.24921152
C  0.79822486 -0.53053916 -0.09446552
H  -0.13944827 -0.31961216 0.12612936
H  0.10303142 0.17891647 0.00052692
H  -0.94883306 -0.49223174 -0.06578303
H  1.07718204 1.50878505 0.04430230
H  -0.50582288 1.12466427 -0.28113030
H  0.15269912 0.12478011 0.14092390
12
MD Step 868.0 Units = [eV / Ang.]
C  0.45870489 0.11119174 -0.53486186
C  -0.86198301 -0.40204546 0.66708258
C  -0.07707384 2.46723860 -1.01365872
C  -2.39489558 -2.98470837 0.60909353
C  2.39325473 -0.56234594 0.15683247
C  0.68228252 -0.74203957 0.01151825
H  0.07325380 0.07556351 0.15702443
H  0.02861261 0.26305730 0.00060934
H  -0.94385793 -0.46499056 -0.02022675
H  0.89066044 1.08361670 0.14128332
H  -0.41007780 0.99525945 -0.29217407
H  0.16111917 0.16020260 0.11747748
12
MD Step 868.5 Units = [eV / Ang.]
C  0.34127809 -0.30837734 -0.60126220
C  -0.88045996 -0.67982292 0.69687365
C  -0.03747431 2.47015370 -1.14305235
C  -2.13843252 -2.29683917 0.60491015
C  2.24095136 -0.11892285 0.07507569
C  0.56643911 -0.92904859 0.11675238
H  0.26879303 0.44400012 0.18431503
H  -0.03890411 0.33042148 0.00144223
H  -0.87142970 -0.42556776 0.02640154
H  0.64985918 0.54333307 0.25958048
H  -0.26328753 0.77698288 -0.31399227
H  0.16266737 0.19368738 0.09295567
12
MD Step 869.0 Units = [eV / Ang.]
C  0.24426876 -0.68627274 -0.65827255
C  -0.88560411 -0.91424733 0.72259001
C  -0.05703400 2.40858453 -1.26305388
C  -1.84452326 -1.53046088 0.59470244
C  2.02109998 0.36588037 0.00048799
C  0.45647830 -1.08581508 0.22057048
H  0.43246753 0.75786454 0.20555751
H  -0.09538163 0.37418872 0.00314424
H  -0.73511405 -0.37566356 0.07181129
H  0.39103885 -0.03844201 0.37637488
H  -0.08401019 0.49983079 -0.34159048
H  0.15631382 0.22455264 0.06767808
12
MD Step 869.5 Units = [eV / Ang.]
C  0.17406666 -1.00317851 -0.70428865
C  -0.87688032 -1.09656541 0.74446890
C  -0.13157471 2.28274351 -1.37103716
C  -1.54046762 -0.75169877 0.59364724
C  1.74954814 0.85302777 -0.07106991
C  0.35781857 -1.20774605 0.32235738
H  0.55494243 0.99868936 0.21926336
H  -0.13770477 0.38967772 0.00578538
H  -0.54256023 -0.31755780 0.11386109
H  0.14384840 -0.59685391 0.47434959
H  0.10733821 0.19729463 -0.36934432
H  0.14162522 0.25216746 0.04200710
12
MD Step 870.0 Units = [eV / Ang.]
C  0.13317116 -1.24669849 -0.73850830
C  -0.85360519 -1.22143604 0.76268405
C  -0.25201153 2.09567180 -1.46495112
C  -1.24421541 -0.01036165 0.61015206
C  1.44140245 1.30638480 -0.14337959
C  0.27506713 -1.29156581 0.42157444
H  0.63107214 1.15552086 0.22474882
H  -0.16386882 0.37446578 0.00938845
H  -0.30617204 -0.25396779 0.15076312
H  -0.07154519 -1.08473465 0.54338375
H  0.29184445 -0.09926341 -0.39218042
H  0.11886083 0.27598459 0.01632475
12
MD Step 870.5 Units = [eV / Ang.]
C  0.12167309 -1.40924187 -0.76070812
C  -0.81494232 -1.28705690 0.77730410
C  -0.40377320 1.85283627 -1.54351438
C  -0.96548777 0.66100157 0.64686176
C  1.10954581 1.69659843 -0.21924900
C  0.21161846 -1.33541898 0.51777317
H  0.65853618 1.22261816 0.22192399
H  -0.17303153 0.32841601 0.01393341
H  -0.04355454 -0.18779219 0.18132187
H  -0.24374040 -1.47339079 0.57963442
H  0.45415081 -0.36413573 -0.40628704
H  0.08900541 0.29556602 -0.00899420
12
MD Step 871.0 Units = [eV / Ang.]
C  0.13841275 -1.48639030 -0.77105963
C  -0.75986239 -1.29513581 0.78826421
C  -0.56699590 1.56136323 -1.60637764
C  -0.70854022 1.24326623 0.70271175
C  0.76437193 2.00258884 -0.30034761
C  0.16933077 -1.33892922 0.61059337
H  0.63679503 1.19764032 0.21112082
H  -0.16555454 0.25365585 0.01936459
H  0.22279789 -0.12172292 0.20516495
H  -0.36759968 -1.74845440 0.58349695
H  0.58309861 -0.57847805 -0.40932104
H  0.05374575 0.31059623 -0.03361071
12
MD Step 871.5 Units = [eV / Ang.]
C  0.18158234 -1.47620556 -0.77003683
C  -0.68709513 -1.25076615 0.79536132
C  -0.71797209 1.22909646 -1.65420303
C  -0.47505169 1.72550571 0.77487662
C  0.41435294 2.21125055 -0.38734340
C  0.14832464 -1.30320916 0.69974192
H  0.56661069 1.08081797 0.19300580
H  -0.14304794 0.15453142 0.02559989
H  0.46705394 -0.05778081 0.22288196
H  -0.44150878 -1.90429498 0.55762386
H  0.67136544 -0.72982838 -0.40026192
H  0.01538564 0.32088292 -0.05724617
12
MD Step 872.0 Units = [eV / Ang.]
C  0.24867930 -1.37964588 -0.75841972
C  -0.59512003 -1.16217904 0.79826629
C  -0.83207372 0.86373637 -1.68857343
C  -0.26634847 2.10056088 0.86008424
C  0.06693533 2.31622600 -0.48015132
C  0.14695555 -1.23080894 0.78495883
H  0.45021083 0.87529974 0.16858319
H  -0.10838681 0.03748319 0.03254205
H  0.66305038 0.00308600 0.23597022
H  -0.46523966 -1.93927401 0.50556018
H  0.71464800 -0.81082687 -0.37911961
H  -0.02331070 0.32634254 -0.07970091
12
MD Step 872.5 Units = [eV / Ang.]
C  0.33585091 -1.20203712 -0.73736655
C  -0.48225291 -1.04035204 0.79655315
C  -0.88778264 0.47235231 -1.71168727
C  -0.08471168 2.36231333 0.95524191
C  -0.27068927 2.31654103 -0.57816103
C  0.16196770 -1.12560230 0.86597744
H  0.29204957 0.58862416 0.13925814
H  -0.06565486 -0.08922291 0.04009227
H  0.78837880 0.06115378 0.24652626
H  -0.43869260 -1.85282372 0.43107861
H  0.71087109 -0.81792244 -0.34665196
H  -0.05933409 0.32697593 -0.10086096
12
MD Step 873.0 Units = [eV / Ang.]
C  0.43677382 -0.95533040 -0.70849765
C  -0.34687054 -0.89840066 0.78973740
C  -0.87084972 0.06144429 -1.72586621
C  0.06621744 2.50489807 1.05750467
C  -0.59119876 2.21561682 -0.68036971
C  0.18882147 -0.99260020 0.94248818
H  0.09999009 0.23501423 0.10690087
H  -0.01995228 -0.21599002 0.04816484
H  0.82857759 0.11768821 0.25672043
H  -0.36153756 -1.64461130 0.33808653
H  0.65972267 -0.75056729 -0.30417654
H  -0.08969421 0.32283825 -0.12069282
12
MD Step 873.5 Units = [eV / Ang.]
C  0.54143437 -0.66044738 -0.67390879
C  -0.18779280 -0.75069056 0.77732382
C  -0.77728775 -0.36247216 -1.73302239
C  0.18194598 2.52388471 1.16397520
C  -0.88728690 2.02091872 -0.78542092
C  0.22217782 -0.83769466 1.01411303
H  -0.11347533 -0.16223168 0.07382820
H  0.02298542 -0.33266332 0.05669997
H  0.78010442 0.17434306 0.26820718
H  -0.23374246 -1.31581002 0.23091675
H  0.56265503 -0.61114730 -0.25348815
H  -0.11171780 0.31401060 -0.13922390
12
MD Step 874.0 Units = [eV / Ang.]
C  0.63542478 -0.34853062 -0.63601090
C  -0.00479940 -0.61169193 0.75885764
C  -0.61415402 -0.79199780 -1.73427371
C  0.25858640 2.41944520 1.27121855
C  -1.15233348 1.74429223 -0.89157740
C  0.25647069 -0.66733781 1.08039227
H  -0.33060211 -0.56947997 0.04260720
H  0.05736525 -0.42954731 0.06567098
H  0.65104102 0.23239521 0.28168121
H  -0.05701388 -0.87245120 0.11479607
H  0.42335179 -0.40567603 -0.19685068
H  -0.12333704 0.30058003 -0.15651123
12
MD Step 874.5 Units = [eV / Ang.]
C  0.70053813 -0.05958395 -0.59714798
C  0.20081647 -0.49464641 0.73397851
C  -0.39788973 -1.21811144 -1.72984050
C  0.29527548 2.20128258 1.37482741
C  -1.38149369 1.40283599 -0.99668857
C  0.28649892 -0.48817900 1.14078759
H  -0.52915614 -0.94417807 0.01563319
H  0.07806359 -0.49855521 0.07508087
H  0.45927483 0.29211537 0.29673499
H  0.16288787 -0.33053921 -0.00376567
H  0.24852619 -0.14507593 -0.13699527
H  -0.12334190 0.28263530 -0.17260456
12
MD Step 875.0 Units = [eV / Ang.]
C  0.71725891 0.16264422 -0.55904196
C  0.42576223 -0.41026120 0.70247257
C  -0.15088403 -1.62987685 -1.71923510
C  0.29720640 1.89429762 1.46934400
C  -1.57290605 1.01988894 -1.09823080
C  0.30796434 -0.30669011 1.19469593
H  -0.68513580 -1.24009280 -0.00545450
H  0.08137719 -0.53427768 0.08494755
H  0.22884960 0.35250241 0.31204397
H  0.41330993 0.27818851 -0.11698965
H  0.04875026 0.15339820 -0.07704287
H  -0.11155298 0.26027874 -0.18750912
12
MD Step 875.5 Units = [eV / Ang.]
C  0.66901681 0.27924052 -0.52227044
C  0.66448171 -0.36565062 0.66431453
C  0.10249839 -2.01475490 -1.70161892
C  0.27833556 1.54259296 1.54885101
C  -1.72859049 0.62544346 -1.19348230
C  0.31788324 -0.12882203 1.24147028
H  -0.77728731 -1.41606658 -0.02030586
H  0.06563371 -0.53473668 0.09527931
H  -0.01426433 0.41143306 0.32576646
H  0.67233547 0.90234380 -0.21657038
H  -0.16115261 0.46532376 -0.02027713
H  -0.08889016 0.23365325 -0.20115657
12
MD Step 876.0 Units = [eV / Ang.]
C  0.54699856 0.26582663 -0.48605516
C  0.90920338 -0.36374345 0.61968964
C  0.33927663 -2.35939934 -1.67616989
C  0.26203048 1.20816142 1.60834873
C  -1.85445771 0.25507992 -1.27986718
C  0.31482943 0.04025295 1.28044630
H  -0.79217459 -1.44588907 -0.03005798
H  0.03150941 -0.50164106 0.10604681
H  -0.24577947 0.46609608 0.33599019
H  0.90859115 1.47247490 -0.29523928
H  -0.36271296 0.75980514 0.03025870
H  -0.05731429 0.20297588 -0.21339088
12
MD Step 876.5 Units = [eV / Ang.]
C  0.35359765 0.11954725 -0.44854486
C  1.15032105 -0.40325713 0.56898921
C  0.53997245 -2.65074844 -1.64233148
C  0.27785448 0.96118030 1.64551938
C  -1.95902377 -0.05329678 -1.35540188
C  0.29899742 0.19627173 1.31096899
H  -0.72782513 -1.32541322 -0.03701547
H  -0.01803716 -0.44007505 0.11716113
H  -0.44540250 0.51351260 0.34108786
H  1.08501909 1.91123752 -0.34873194
H  -0.53581731 1.00247210 0.07227080
H  -0.01965625 0.16856913 -0.22397173
12
MD Step 877.0 Units = [eV / Ang.]
C  0.10284645 -0.13982469 -0.40750665
C  1.37705670 -0.47921779 0.51277377
C  0.68947407 -2.87714999 -1.59991239
C  0.35399995 0.86237670 1.66196870
C  -2.05084694 -0.26497038 -1.41909724
C  0.27209751 0.33587252 1.33242298
H  -0.59430174 -1.07368907 -0.04390429
H  -0.07819740 -0.35770382 0.12846511
H  -0.59779015 0.55097812 0.33992439
H  1.16703346 2.15159673 -0.37720237
H  -0.66202546 1.16085054 0.10466407
H  0.02065356 0.13088112 -0.23259607
12
MD Step 877.5 Units = [eV / Ang.]
C  -0.18244447 -0.47521319 -0.36110762
C  1.57829116 -0.58386158 0.45171178
C  0.77704689 -3.02940707 -1.54906052
C  0.50755470 0.94365998 1.66300168
C  -2.13534837 -0.35503117 -1.47112787
C  0.23710852 0.45647009 1.34426495
H  -0.41091793 -0.72756703 -0.05303110
H  -0.14299922 -0.26369479 0.13974111
H  -0.69252519 0.57635720 0.33192854
H  1.13272201 2.15681126 -0.38511223
H  -0.72840157 1.21098779 0.12772469
H  0.05991348 0.09048851 -0.23893339
12
MD Step 878.0 Units = [eV / Ang.]
C  -0.47557363 -0.84149526 -0.30843832
C  1.74342796 -0.70774686 0.38650912
C  0.79601142 -3.10155456 -1.49018679
C  0.73714803 1.19650792 1.65579938
C  -2.21223089 -0.31395811 -1.51265976
C  0.19791600 0.55610548 1.34605910
H  -0.20139372 -0.33231276 -0.06570912
H  -0.20608614 -0.16758891 0.15073301
H  -0.72364772 0.58824111 0.31708088
H  0.98044805 1.93255151 -0.37943382
H  -0.73052219 1.14316783 0.14291446
H  0.09450284 0.04808261 -0.24266816
12
MD Step 878.5 Units = [eV / Ang.]
C  -0.75090221 -1.19480655 -0.24961829
C  1.86321919 -0.84084456 0.31784343
C  0.74349008 -3.09133061 -1.42389689
C  1.02204249 1.57471513 1.64694010
C  -2.27462700 -0.14993446 -1.54539062
C  0.15888401 0.63331991 1.33751374
H  0.01103713 0.06784199 -0.08211906
H  -0.26143560 -0.07832102 0.16117684
H  -0.68920786 0.58602050 0.29586641
H  0.72971716 1.52443805 -0.36711202
H  -0.67342877 0.96446051 0.15233820
H  0.12121137 0.00444110 -0.24354183
12
MD Step 879.0 Units = [eV / Ang.]
C  -0.98732107 -1.49893543 -0.18556840
C  1.93045139 -0.97348159 0.24632083
C  0.62049436 -3.00027053 -1.35095628
C  1.32821915 2.00993746 1.64058042
C  -2.31044275 0.11315511 -1.57099668
C  0.12439212 0.68710980 1.31851373
H  0.20700869 0.43619178 -0.10152719
H  -0.30391374 -0.00350109 0.17083211
H  -0.59114202 0.56992127 0.26921960
H  0.41483403 1.00248282 -0.35313848
H  -0.57010844 0.69699999 0.15810827
H  0.13752827 -0.03960958 -0.24138793
12
MD Step 879.5 Units = [eV / Ang.]
C  -1.16971561 -1.72786303 -0.11765221
C  1.94047247 -1.09707235 0.17246174
C  0.43239229 -2.83346082 -1.27228139
C  1.61807149 2.43162475 1.63798148
C  -2.30536144 0.44122365 -1.59070187
C  0.09839034 0.71698761 1.28914528
H  0.37238308 0.74612113 -0.12265725
H  -0.32964001 0.05103732 0.17950749
H  -0.43556197 0.54101877 0.23846251
H  0.07488526 0.44087278 -0.33996843
H  -0.43817795 0.37274504 0.16185846
H  0.14186206 -0.08323483 -0.23615580
12
MD Step 880.0 Units = [eV / Ang.]
C  -1.28880316 -1.86524979 -0.04736527
C  1.89151879 -1.20459981 0.09671289
C  0.18962371 -2.59904586 -1.18891271
C  1.85903325 2.78238487 1.63811495
C  -2.24629314 0.79684086 -1.60508491
C  0.08400833 0.72308935 1.24970469
H  0.49799103 0.98054640 -0.14403287
H  -0.33617303 0.08145815 0.18707737
H  -0.23333127 0.50120680 0.20521104
H  -0.25515758 -0.09783943 -0.32804972
H  -0.29610423 0.02684134 0.16454392
H  0.13368732 -0.12563288 -0.22791939
12
MD Step 880.5 Units = [eV / Ang.]
C  -1.34008552 -1.90235954 0.02384638
C  1.78485622 -1.29092455 0.01948146
C  -0.09168831 -2.30752250 -1.10193415
C  2.02825291 3.02458433 1.63864669
C  -2.12408617 1.14513952 -1.61410544
C  0.08325497 0.70630550 1.20069003
H  0.57852799 1.12974350 -0.16420311
H  -0.32257820 0.08601093 0.19348730
H  -0.00058712 0.45306554 0.17121690
H  -0.54927033 -0.56983416 -0.31675710
H  -0.16020486 -0.30813727 0.16650256
H  0.11360842 -0.16607130 -0.21687150
12
MD Step 881.0 Units = [eV / Ang.]
C  -1.32258678 -1.83575639 0.09464789
C  1.62472003 -1.35294169 -0.05882303
C  -0.38976085 -1.97086992 -1.01230475
C  2.11316650 3.13928786 1.63675647
C  -1.93486963 1.45742259 -1.61725213
C  0.09682610 0.66836038 1.14277189
H  0.61131438 1.18893901 -0.18185095
H  -0.28941415 0.06503919 0.19874851
H  0.24130954 0.39956861 0.13812113
H  -0.79100909 -0.94942738 -0.30517078
H  -0.04303853 -0.60570533 0.16765871
H  0.08334248 -0.20391694 -0.20330296
12
MD Step 881.5 Units = [eV / Ang.]
C  -1.23783119 -1.66561204 0.16380748
C  1.41807718 -1.38966824 -0.13774501
C  -0.67835926 -1.60154979 -0.92061402
C  2.10947767 3.12116702 1.62962691
C  -1.68006223 1.71231858 -1.61371923
C  0.12404754 0.61181147 1.07675017
H  0.59538293 1.15654452 -0.19582945
H  -0.23867785 0.02096266 0.20292118
H  0.46696218 0.34361130 0.10713531
H  -0.97151508 -1.22434031 -0.29250951
H  0.04688913 -0.84658955 0.16774591
H  0.04560896 -0.23865562 -0.18756974
12
MD Step 882.0 Units = [eV / Ang.]
C  -1.08929001 -1.39504709 0.23018327
C  1.17421419 -1.40224441 -0.21674645
C  -0.92954409 -1.21148842 -0.82682317
C  2.01828493 2.97269695 1.61467890
C  -1.36549316 1.89520196 -1.60255753
C  0.16294937 0.53995195 1.00349873
H  0.53112400 1.03347260 -0.20518330
H  -0.17370258 -0.04178687 0.20608673
H  0.64962382 0.28743447 0.07872271
H  -1.08667594 -1.39014554 -0.27828731
H  0.10457538 -1.01814493 0.16647849
H  0.00393410 -0.26990067 -0.17005107
12
MD Step 882.5 Units = [eV / Ang.]
C  -0.88238966 -1.03060751 0.29275542
C  0.90416235 -1.39383762 -0.29517948
C  -1.11776309 -0.81125776 -0.73010674
C  1.84348587 2.69958879 1.58968985
C  -1.00014171 1.99683151 -1.58279567
C  0.21048166 0.45661656 0.92390975
H  0.42056165 0.82366665 -0.20920264
H  -0.09899168 -0.11691065 0.20830868
H  0.76522070 0.23212373 0.05240472
H  -1.13464630 -1.44582069 -0.26233566
H  0.12765623 -1.11300679 0.16365596
H  -0.03763603 -0.29738622 -0.15110419
12
MD Step 883.0 Units = [eV / Ang.]
C  -0.62506680 -0.58380220 0.35073704
C  0.61997496 -1.36937140 -0.37227187
C  -1.22443135 -0.40966224 -0.62891474
C  1.59000614 2.30811851 1.55289325
C  -0.59490677 2.01204506 -1.55353791
C  0.26284754 0.36592123 0.83884088
H  0.26821288 0.53574971 -0.20753993
H  -0.01994722 -0.19655484 0.20958409
H  0.79686110 0.17741104 0.02681625
H  -1.11428534 -1.39112352 -0.24479840
H  0.11563045 -1.12778453 0.15921407
H  -0.07489561 -0.32094682 -0.13102273
12
MD Step 883.5 Units = [eV / Ang.]
C  -0.32872688 -0.07335220 0.40376401
C  0.33390977 -1.33502318 -0.44713054
C  -1.24163928 -0.01387482 -0.52130421
C  1.26304645 1.80444120 1.50310012
C  -0.16164493 1.93903618 -1.51405896
C  0.31591918 0.27197560 0.74907607
H  0.08233486 0.18542348 -0.20038745
H  0.05752708 -0.27183976 0.20979270
H  0.73847170 0.12192790 0.00005741
H  -1.02470873 -1.22591838 -0.22614838
H  0.06939678 -1.06231087 0.15324512
H  -0.10388600 -0.34048514 -0.11000589
12
MD Step 884.0 Units = [eV / Ang.]
C  -0.00921949 0.47265340 0.45211414
C  0.05756192 -1.29744331 -0.51876144
C  -1.17369307 0.36997285 -0.40546618
C  0.86847131 1.19583833 1.43983438
C  0.28739084 1.77942306 -1.46388942
C  0.36570852 0.17861919 0.65530501
H  -0.12387380 -0.20221290 -0.18866919
H  0.12755726 -0.33365191 0.20865315
H  0.59624701 0.06386622 -0.02974677
H  -0.86602878 -0.95145987 -0.20722440
H  -0.00881179 -0.91967278 0.14599693
H  -0.12130994 -0.35593229 -0.08814621
12
MD Step 884.5 Units = [eV / Ang.]
C  0.31283187 1.01596050 0.49685192
C  -0.19896015 -1.26276251 -0.58611740
C  -1.03591042 0.73603402 -0.28026191
C  0.41439607 0.49386409 1.36342872
C  0.73970133 1.53913098 -1.40288139
C  0.40880493 0.08922242 0.55812255
H  -0.33180868 -0.59174164 -0.17414343
H  0.18491219 -0.37364004 0.20570291
H  0.38734169 0.00179835 -0.06387493
H  -0.64130795 -0.57362645 -0.18923641
H  -0.11510174 -0.70703197 0.13784839
H  -0.12489914 -0.36720776 -0.06543903
12
MD Step 885.0 Units = [eV / Ang.]
C  0.61310930 1.51025929 0.53975403
C  -0.42768702 -1.23551099 -0.64816933
C  -0.85117935 1.07818447 -0.14557916
C  -0.08611725 -0.28089796 1.27498221
C  1.18230692 1.22979511 -1.33122704
C  0.44274452 0.00660373 0.45805084
H  -0.51854462 -0.93947022 -0.15927974
H  0.22561192 -0.38528754 0.20031533
H  0.13629317 -0.06466796 -0.10263185
H  -0.35955298 -0.10783449 -0.17364533
H  -0.24330284 -0.43698348 0.12924495
H  -0.11368177 -0.37418996 -0.04181492
12
MD Step 885.5 Units = [eV / Ang.]
C  0.86661896 1.90716532 0.58290722
C  -0.62317681 -1.21767019 -0.70400044
C  -0.64552670 1.38988343 -0.00240482
C  -0.61190554 -1.09351585 1.17604675
C  1.60128325 0.87014824 -1.24939788
C  0.46624090 -0.06693658 0.35557771
H  -0.65997552 -1.19942244 -0.14681219
H  0.24741195 -0.36485798 0.19176510
H  -0.12954865 -0.13462358 -0.14527267
H  -0.03904594 0.41544908 -0.16179637
H  -0.38426760 -0.12891877 0.12057615
H  -0.08810832 -0.37670068 -0.01718856
12
MD Step 886.0 Units = [eV / Ang.]
C  1.05231253 2.16544360 0.62802711
C  -0.78258675 -1.20809615 -0.75291152
C  -0.44406353 1.66444549 0.14735706
C  -1.13157999 -1.89118897 1.06795938
C  1.98133786 0.48654062 -1.15798492
C  0.47927323 -0.12949326 0.25120258
H  -0.73564921 -1.33261410 -0.13902062
H  0.25005469 -0.31199475 0.17933441
H  -0.38417533 -0.20600412 -0.19019774
H  0.29052571 0.94703035 -0.15423726
H  -0.52543243 0.19044272 0.11198667
H  -0.05001677 -0.37451142 0.00848486
12
MD Step 886.5 Units = [eV / Ang.]
C  1.15789864 2.26069692 0.67573186
C  -0.90541628 -1.20245147 -0.79451213
C  -0.26824147 1.89552924 0.30120225
C  -1.60456732 -2.60504364 0.95093111
C  2.30581595 0.11160436 -1.05746586
C  0.48302834 -0.17938913 0.14548493
H  -0.73383336 -1.31680617 -0.13698892
H  0.23522887 -0.22982679 0.16244361
H  -0.60570805 -0.27600453 -0.23529268
H  0.58933472 1.42072151 -0.14984714
H  -0.65109597 0.48833985 0.10315670
H  -0.00244406 -0.36737015 0.03515626
12
MD Step 887.0 Units = [eV / Ang.]
C  1.18286625 2.19161949 0.72512960
C  -0.99305805 -1.19370329 -0.82878292
C  -0.13456501 2.07760604 0.45635606
C  -1.98706752 -3.16014871 0.82332400
C  2.55755503 -0.21957997 -0.94798069
C  0.47972576 -0.21506699 0.03908100
H  -0.65475187 -1.15276418 -0.14019173
H  0.20625361 -0.12455147 0.14077687
H  -0.77761952 -0.34156559 -0.27827920
H  0.81379213 1.76345302 -0.14521438
H  -0.74381808 0.72974667 0.09313810
H  0.05068727 -0.35504503 0.06264328
12
MD Step 887.5 Units = [eV / Ang.]
C  1.13825569 1.97992180 0.77395297
C  -1.04825305 -1.17307636 -0.85608460
C  -0.05447212 2.20627665 0.61002620
C  -2.24233739 -3.49308008 0.68175727
C  2.72076936 -0.47556007 -0.82924897
C  0.47236527 -0.23508966 -0.06724030
H  -0.51049209 -0.86410551 -0.14664319
H  0.16756297 -0.00459255 0.11437290
H  -0.88871300 -0.39978367 -0.31698743
H  0.92739342 1.91305480 -0.13488752
H  -0.78703335 0.88341116 0.08036953
H  0.10495429 -0.33737651 0.09061313
12
MD Step 888.0 Units = [eV / Ang.]
C  1.04325927 1.66398144 0.81918540
C  -1.07459122 -1.13125196 -0.87711414
C  -0.03481661 2.27842476 0.75956712
C  -2.35147472 -3.57087334 0.52241291
C  2.78368511 -0.63530268 -0.70074714
C  0.46442725 -0.23825504 -0.17260142
H  -0.32163114 -0.49079799 -0.15354254
H  0.12411466 0.12046375 0.08366288
H  -0.93245657 -0.44818451 -0.34953204
H  0.91204651 1.83747926 -0.11284067
H  -0.76840189 0.92864451 0.06296156
H  0.15583934 -0.31432822 0.11858809
12
MD Step 888.5 Units = [eV / Ang.]
C  0.92019004 1.28918589 0.85786377
C  -1.07611423 -1.05958798 -0.89280826
C  -0.07846935 2.29235008 0.90257334
C  -2.31919739 -3.40210397 0.34312390
C  2.74114983 -0.69325451 -0.56213710
C  0.45953005 -0.22381297 -0.27604617
H  -0.11214520 -0.07931458 -0.15810016
H  0.08083555 0.24093937 0.04945063
H  -0.90623176 -0.48487869 -0.37441685
H  0.77420588 1.54605085 -0.07470185
H  -0.68286978 0.86045294 0.03922373
H  0.19911636 -0.28602643 0.14597502
12
MD Step 889.0 Units = [eV / Ang.]
C  0.78983320 0.89885446 0.88771516
C  -1.05702049 -0.95114586 -0.90421955
C  -0.18469462 2.24795085 1.03695486
C  -2.17127940 -3.03384004 0.14510489
C  2.59617122 -0.66055030 -0.41379321
C  0.46107033 -0.19167484 -0.37658327
H  0.09535165 0.32658834 -0.15819098
H  0.04218140 0.34797386 0.01284305
H  -0.81088790 -0.50864828 -0.39061451
H  0.54234800 1.08642204 -0.01957863
H  -0.53425494 0.69085168 0.00825104
H  0.23118155 -0.25278191 0.17211117
12
MD Step 889.5 Units = [eV / Ang.]
C  0.66855228 0.52844078 0.90743919
C  -1.02144527 -0.80140695 -0.91238217
C  -0.34911593 2.14699435 1.16103333
C  -1.94512692 -2.53617922 -0.06670337
C  2.35968838 -0.56178490 -0.25717523
C  0.47186436 -0.14256184 -0.47323720
H  0.28262504 0.69172658 -0.15265281
H  0.01184176 0.43418185 -0.02485036
H  -0.65079392 -0.51901806 -0.39766038
H  0.25726848 0.52893982 0.04954667
H  -0.33467293 0.44575721 -0.02967878
H  0.24931466 -0.21508962 0.19632110
12
MD Step 890.0 Units = [eV / Ang.]
C  0.56741683 0.20357725 0.91667021
C  -0.97326893 -0.60865104 -0.91819157
C  -0.56325308 1.99336980 1.27368376
C  -1.67862605 -1.98264125 -0.28477800
C  2.04862732 -0.42871744 -0.09487070
C  0.49381524 -0.07803186 -0.56509827
H  0.43680067 0.99139312 -0.14125754
H  -0.00742740 0.49406386 -0.06223363
H  -0.43436359 -0.51633469 -0.39577477
H  -0.03956789 -0.05319257 0.12693950
H  -0.10202225 0.15877534 -0.07306678
H  0.25186913 -0.17361052 0.21797780
12
MD Step 890.5 Units = [eV / Ang.]
C  0.49281956 -0.05904226 0.91575994
C  -0.91592231 -0.37402285 -0.92231113
C  -0.81380299 1.79318312 1.37450283
C  -1.40216335 -1.43508384 -0.50084790
C  1.68302040 -0.29338543 0.06969733
C  0.52763395 -0.00039036 -0.65136360
H  0.54983090 1.21033296 -0.12449951
H  -0.01387758 0.52421286 -0.09794272
H  -0.17484314 -0.50183618 -0.38599498
H  -0.31454909 -0.59917025 0.20594189
H  0.14346477 -0.13566061 -0.11950275
H  0.23838888 -0.12913714 0.23656061
12
MD Step 891.0 Units = [eV / Ang.]
C  0.44776829 -0.24946875 0.90552996
C  -0.85217967 -0.10139122 -0.92510363
C  -1.08206878 1.55457822 1.46393978
C  -1.13576071 -0.93713811 -0.70745126
C  1.28322764 -0.18285710 0.23274048
C  0.57265008 0.08748424 -0.73136611
H  0.61726190 1.34036304 -0.10335020
H  -0.00679630 0.52339733 -0.13076357
H  0.10907545 -0.47765325 -0.37025316
H  -0.54523358 -1.06717402 0.28052867
H  0.38239984 -0.40759144 -0.16615527
H  0.20965583 -0.08254894 0.25170431
12
MD Step 891.5 Units = [eV / Ang.]
C  0.43320298 -0.36225483 0.88708427
C  -0.78396813 0.20290131 -0.92659109
C  -1.34407955 1.28721079 1.54329552
C  -0.89030400 -0.51500871 -0.89872700
C  0.86800948 -0.11662263 0.39055839
C  0.62672107 0.18233917 -0.80459370
H  0.63697489 1.37795029 -0.07906518
H  0.01347967 0.49257449 -0.15974570
H  0.39337796 -0.44665727 -0.35130744
H  -0.71940703 -1.43342196 0.34609655
H  0.59832957 -0.63424848 -0.21023981
H  0.16766306 -0.03476217 0.26323517
12
MD Step 892.0 Units = [eV / Ang.]
C  0.44892045 -0.39492334 0.86170331
C  -0.71222095 0.53033015 -0.92642580
C  -1.57201597 1.00140362 1.61448700
C  -0.67070982 -0.18215317 -1.07048228
C  0.45368401 -0.10640952 0.53984157
C  0.68626524 0.28073491 -0.87069165
H  0.60832098 1.32254996 -0.05306884
H  0.04555561 0.43485359 -0.18431137
H  0.65019730 -0.41208906 -0.33243354
H  -0.83204975 -1.68723503 0.39952744
H  0.77854280 -0.80038198 -0.24933387
H  0.11551010 0.01331986 0.27118803
12
MD Step 892.5 Units = [eV / Ang.]
C  0.49393653 -0.34748036 0.83080223
C  -0.63682813 0.87047782 -0.92387601
C  -1.73722721 0.70710339 1.67953760
C  -0.47918789 0.05537712 -1.21984990
C  0.05412478 -0.15748281 0.67780069
C  0.74642069 0.37918193 -0.92945252
H  0.53183887 1.17606131 -0.02689373
H  0.08698405 0.35539702 -0.20435475
H  0.85092142 -0.37698040 -0.31684853
H  -0.88208651 -1.82540387 0.43884703
H  0.91389691 -0.89710413 -0.28151303
H  0.05720649 0.06085300 0.27580092
12
MD Step 893.0 Units = [eV / Ang.]
C  0.56620022 -0.22304401 0.79590089
C  -0.55670572 1.21137210 -0.91782433
C  -1.81458650 0.41287545 1.73987247
C  -0.31766872 0.19472652 -1.34484188
C  -0.31879281 -0.27042417 0.80216458
C  0.80134014 0.47422139 -0.98078938
H  0.40961355 0.94347533 -0.00212626
H  0.13431913 0.26119540 -0.22031282
H  0.97066242 -0.34350027 -0.30696043
H  -0.86992390 -1.84775246 0.46279165
H  0.99816134 -0.92023230 -0.30535874
H  -0.00261915 0.10708702 0.27748425
12
MD Step 893.5 Units = [eV / Ang.]
C  0.66172379 -0.02946253 0.75855318
C  -0.47003369 1.53991457 -0.90680006
C  -1.78716531 0.12523010 1.79564403
C  -0.18908557 0.23382194 -1.44401030
C  -0.65473242 -0.44264369 0.91113064
C  0.84460214 0.56245790 -1.02469837
H  0.24622177 0.63456822 0.01969825
H  0.18326164 0.16066015 -0.23318567
H  0.99305161 -0.31245690 -0.30367419
H  -0.79610113 -1.75460761 0.47049265
H  1.02735281 -0.86886854 -0.31991638
H  -0.05909564 0.15138641 0.27676622
12
MD Step 894.0 Units = [eV / Ang.]
C  0.77328049 0.21848090 0.72016949
C  -0.37463535 1.84251343 -0.88906753
C  -1.64975596 -0.15148798 1.84536674
C  -0.09752269 0.17083584 -1.51632048
C  -0.94472680 -0.66921361 1.00333048
C  0.86972351 0.64058218 -1.06120473
H  0.05006415 0.26619685 0.03730717
H  0.22894000 0.06297006 -0.24447640
H  0.91384783 -0.28318095 -0.30603780
H  -0.66106506 -1.54629516 0.46138926
H  0.99940620 -0.74463325 -0.32467325
H  -0.10755631 0.19323169 0.27421705
12
MD Step 894.5 Units = [eV / Ang.]
C  0.88908816 0.49709674 0.68170989
C  -0.26847908 2.10593246 -0.86278942
C  -1.40995926 -0.41458993 1.88605262
C  -0.04726932 0.00553610 -1.56130393
C  -1.18148191 -0.94287626 1.07786851
C  0.87071683 0.70539770 -1.09031218
H  -0.16534710 -0.13565942 0.05003040
H  0.26633891 -0.02281093 -0.25603122
H  0.74204668 -0.25387170 -0.31141085
H  -0.46602853 -1.22465084 0.43542580
H  0.91437948 -0.55170647 -0.31960398
H  -0.14400486 0.23220254 0.27036436
12
MD Step 895.0 Units = [eV / Ang.]
C  0.99218137 0.77331893 0.64328664
C  -0.15024060 2.31832403 -0.82626691
C  -1.08639261 -0.66210303 1.91382543
C  -0.04079459 -0.25747258 -1.57951401
C  -1.36023076 -1.25327883 1.13445103
C  0.84262509 0.75388911 -1.11195193
H  -0.38085420 -0.53542495 0.05821669
H  0.29085614 -0.08877123 -0.26978086
H  0.49802713 -0.22227829 -0.31612519
H  -0.21487755 -0.79650844 0.39354270
H  0.77524349 -0.29764125 -0.30529577
H  -0.16554293 0.26794653 0.26561219
12
MD Step 895.5 Units = [eV / Ang.]
C  1.06130292 1.00711649 0.60382549
C  -0.01981717 2.47030313 -0.77822670
C  -0.70471965 -0.89177502 1.92478475
C  -0.07581502 -0.60386331 -1.57321987
C  -1.48003985 -1.58567068 1.17358385
C  0.78197498 0.78334542 -1.12594968
H  -0.57270661 -0.89043030 0.06356961
H  0.29890494 -0.12916773 -0.28741509
H  0.20943706 -0.18644164 -0.31638832
H  0.08304552 -0.27882587 0.33838366
H  0.58913665 0.00526887 -0.28312646
H  -0.17070377 0.30014063 0.26017876
12
MD Step 896.0 Units = [eV / Ang.]
C  1.07390095 1.15753170 0.56102690
C  0.12128901 2.55584624 -0.71809893
C  -0.29292241 -1.10036158 1.91580941
C  -0.14203106 -1.00416256 -1.54710526
C  -1.54523957 -1.91953262 1.19677391
C  0.68706919 0.79150732 -1.13201580
H  -0.71574713 -1.15711687 0.06915689
H  0.28845246 -0.14122003 -0.31005409
H  -0.09374161 -0.14523112 -0.30911147
H  0.40988814 0.29574622 0.27496619
H  0.36870805 0.33853648 -0.25541380
H  -0.15962602 0.32845682 0.25406604
12
MD Step 896.5 Units = [eV / Ang.]
C  1.01094870 1.19141356 0.51182599
C  0.26981041 2.57281704 -0.64621507
C  0.12273461 -1.28340711 1.88507429
C  -0.21885967 -1.41027361 -1.50849336
C  -1.56634431 -2.22788898 1.20659637
C  0.55809725 0.77672202 -1.12976367
H  -0.78840141 -1.29999506 0.07889486
H  0.25936460 -0.12548626 -0.33799459
H  -0.38347014 -0.09854689 -0.29242647
H  0.73729267 0.87541132 0.21084018
H  0.13287786 0.67669462 -0.22540610
H  -0.13405058 0.35253933 0.24706757
12
MD Step 897.0 Units = [eV / Ang.]
C  0.86216395 1.09204393 0.45334033
C  0.42079147 2.52299598 -0.56386836
C  0.52021089 -1.43551143 1.83222075
C  -0.27610269 -1.75755650 -1.46652099
C  -1.55963568 -2.47820363 1.20648049
C  0.39705627 0.73804297 -1.11875381
H  -0.77800103 -1.30048780 0.09652808
H  0.21347555 -0.08573261 -0.37059588
H  -0.63639121 -0.04722080 -0.26583607
H  1.02740630 1.39152515 0.15516330
H  -0.09384334 0.98810669 -0.19697026
H  -0.09713048 0.37199806 0.23881242
12
MD Step 897.5 Units = [eV / Ang.]
C  0.62952782 0.86404947 0.38397170
C  0.56789499 2.41162622 -0.47321561
C  0.88254772 -1.55093780 1.75825501
C  -0.27915982 -1.97531477 -1.42999195
C  -1.54473532 -2.63560535 1.20011973
C  0.20753396 0.67523399 -1.09855600
H  -0.68431624 -1.16198840 0.12444978
H  0.15435673 -0.02832568 -0.40633713
H  -0.83489276 0.00725453 -0.23008062
H  1.23850867 1.76945566 0.11645701
H  -0.28416711 1.23813290 -0.17390757
H  -0.05309865 0.38641923 0.22883566
12
MD Step 898.0 Units = [eV / Ang.]
C  0.32749214 0.53228236 0.30416518
C  0.70385296 2.24661004 -0.37704875
C  1.19754028 -1.62435293 1.66530184
C  -0.19848941 -2.00472604 -1.40447836
C  -1.54018345 -2.66844025 1.19058951
C  -0.00559957 0.58867788 -1.06882434
H  -0.51968935 -0.90877336 0.16288164
H  0.08684796 0.03869406 -0.44302588
H  -0.96692894 0.06303176 -0.18686435
H  1.33490989 1.94695236 0.09964880
H  -0.41291948 1.39465475 -0.15900772
H  -0.00683303 0.39538939 0.21666243
12
MD Step 898.5 Units = [eV / Ang.]
C  -0.02022370 0.13519700 0.21645858
C  0.82100692 2.03754356 -0.27848811
C  1.45683959 -1.65149561 1.55632599
C  -0.02000033 -1.81770254 -1.39011888
C  -1.55813626 -2.55496013 1.17947746
C  -0.23652918 0.47922726 -1.02936866
H  -0.30572026 -0.57929277 0.20978443
H  0.01645388 0.10665505 -0.47810544
H  -1.02523014 0.11816386 -0.13856170
H  1.29773785 1.89337788 0.10387532
H  -0.46281111 1.43475897 -0.15316757
H  0.03661274 0.39852748 0.20188858
12
MD Step 899.0 Units = [eV / Ang.]
C  -0.38576735 -0.28425775 0.12485131
C  0.91188744 1.79478650 -0.18067127
C  1.65506854 -1.62965660 1.43488087
C  0.24867299 -1.42727772 -1.38155570
C  -1.60016939 -2.28894879 1.16643532
C  -0.47882495 0.34808741 -0.98021783
H  -0.06804285 -0.21688919 0.26147882
H  -0.05126882 0.16721482 -0.50898750
H  -1.00648647 0.17077915 -0.08796556
H  1.13144323 1.62029248 0.12249597
H  -0.42897423 1.35034823 -0.15499169
H  0.07246185 0.39552145 0.18424726
12
MD Step 899.5 Units = [eV / Ang.]
C  -0.74215998 -0.68667874 0.03384613
C  0.96978760 1.52868958 -0.08648773
C  1.78933919 -1.55789698 1.30488724
C  0.57958407 -0.88363147 -1.37023450
C  -1.65611151 -1.88205620 1.14941508
C  -0.72574700 0.19681011 -0.92166036
H  0.16869685 0.13844405 0.31361758
H  -0.11123892 0.21311245 -0.53335080
H  -0.91090015 0.21919548 -0.03807670
H  0.86242953 1.17742692 0.14552203
H  -0.32029384 1.15041962 -0.16112939
H  0.09661417 0.38616517 0.16365144
12
MD Step 900.0 Units = [eV / Ang.]
C  -1.06667276 -1.04096427 -0.05241013
C  0.98932485 1.24904010 0.00160815
C  1.85937201 -1.43709838 1.17041164
C  0.93281125 -0.25797049 -1.34775646
C  -1.70656603 -1.36181798 1.12551528
C  -0.97052690 0.02742748 -0.85426656
H  0.38414036 0.45499156 0.36207754
H  -0.15924799 0.23867741 -0.54936920
H  -0.74228638 0.26200522 0.00810657
H  0.53057265 0.63632653 0.16311920
H  -0.15688819 0.85898997 -0.16724772
H  0.10596713 0.37039285 0.14021168
12
MD Step 900.5 Units = [eV / Ang.]
C  -1.34219827 -1.32554694 -0.13063511
C  0.96695905 0.96470262 0.08170162
C  1.86823042 -1.26991273 1.03538712
C  1.26732502 0.37709614 -1.30848559
C  -1.72810036 -0.76623272 1.09203581
C  -1.20663792 -0.15729768 -0.77888251
H  0.56341683 0.71065828 0.40351053
H  -0.19222090 0.24011857 -0.55585743
H  -0.50870963 0.29816284 0.04785989
H  0.17815632 0.07039205 0.16835692
H  0.03512006 0.50955125 -0.16922013
H  0.09865938 0.34830833 0.11422888
12
MD Step 901.0 Units = [eV / Ang.]
C  -1.55704161 -1.52717705 -0.19854457
C  0.90143113 0.68341148 0.15245356
C  1.82344280 -1.06074189 0.90323327
C  1.54954803 0.96214542 -1.25044532
C  -1.69897469 -0.13707961 1.04729411
C  -1.42806102 -0.35360069 -0.69660118
H  0.69673194 0.89178942 0.43552337
H  -0.20837333 0.21566451 -0.55234443
H  -0.22341703 0.32708651 0.07911259
H  -0.15887215 -0.45999982 0.15821414
H  0.22936124 0.13829646 -0.16406114
H  0.07422469 0.32020528 0.08616558
12
MD Step 901.5 Units = [eV / Ang.]
C  -1.70394688 -1.63870216 -0.25473596
C  0.79410011 0.41163841 0.21309031
C  1.73804798 -0.81573465 0.77636498
C  1.75726714 1.45683595 -1.17473396
C  -1.60348335 0.48576813 0.99095459
C  -1.62954987 -0.55650555 -0.60871113
H  0.77818124 0.99092676 0.45660695
H  -0.20729929 0.16561828 -0.53908893
H  0.09437669 0.34875461 0.10094188
H  -0.45492596 -0.91358351 0.13305748
H  0.40356215 -0.22159165 -0.15034765
H  0.03367004 0.28657538 0.05660145
12
MD Step 902.0 Units = [eV / Ang.]
C  -1.77901026 -1.65696112 -0.29848560
C  0.64911192 0.15448661 0.26336538
C  1.63089893 -0.54274881 0.65566517
C  1.87933392 1.83855513 -1.08430385
C  -1.43396727 1.06776644 0.92390491
C  -1.80687908 -0.75977899 -0.51662496
H  0.80450911 1.00465480 0.46597370
H  -0.19001347 0.09236362 -0.51704693
H  0.41949498 0.36374621 0.11409780
H  -0.69455626 -1.26690955 0.09543160
H  0.54161649 -0.54327411 -0.12815298
H  -0.02053902 0.24809977 0.02617575
12
MD Step 902.5 Units = [eV / Ang.]
C  -1.78093486 -1.58146921 -0.32958433
C  0.47337164 -0.08440374 0.30349860
C  1.52553621 -0.25117893 0.54009298
C  1.91301838 2.09743315 -0.98284288
C  -1.19070119 1.58080900 0.84788469
C  -1.95704370 -0.95606693 -0.42179371
H  0.77429222 0.93222991 0.46342679
H  -0.15895182 0.00032347 -0.48779369
H  0.72224911 0.37316369 0.12137612
H  -0.86987988 -1.50930665 0.04891080
H  0.63363724 -0.80715521 -0.09869940
H  -0.08459335 0.20562146 -0.00447598
12
MD Step 903.0 Units = [eV / Ang.]
C  -1.71084273 -1.41415052 -0.34828689
C  0.27626835 -0.30292404 0.33409055
C  1.44723570 0.04844935 0.42666513
C  1.86078093 2.23089666 -0.87409838
C  -0.88041184 2.00279733 0.76508358
C  -2.07838488 -1.13725666 -0.32561704
H  0.68778393 0.77529275 0.44933391
H  -0.11790446 -0.10417515 -0.45338936
H  0.97170729 0.37839306 0.12758824
H  -0.97747968 -1.63731896 -0.00263717
H  0.67481911 -1.00010310 -0.06394785
H  -0.15357172 0.16009930 -0.03478472
12
MD Step 903.5 Units = [eV / Ang.]
C  -1.57273781 -1.16018658 -0.35539940
C  0.06912497 -0.50046918 0.35600685
C  1.41851780 0.34509248 0.31101538
C  1.72754679 2.23952475 -0.76164621
C  -0.51429932 2.31662257 0.67784505
C  -2.17058732 -1.29501177 -0.22935619
H  0.54750466 0.53873505 0.42472256
H  -0.07183486 -0.21319537 -0.41618157
H  1.14048702 0.38073310 0.13891907
H  -1.01588362 -1.65041977 -0.05535517
H  0.66396450 -1.11397184 -0.02626754
H  -0.22180281 0.11254656 -0.06430283
12
MD Step 904.0 Units = [eV / Ang.]
C  -1.37455126 -0.82983442 -0.35246570
C  -0.13561606 -0.67774951 0.37022093
C  1.45421871 0.62793103 0.18853518
C  1.51892141 2.12478558 -0.64895368
C  -0.10614458 2.50936728 0.58850964
C  -2.23455153 -1.42142726 -0.13406444
H  0.35949426 0.23256216 0.39145946
H  -0.02654588 -0.31770571 -0.37854302
H  1.20994733 0.38100392 0.16167497
H  -0.98408729 -1.54865230 -0.10541231
H  0.60226314 -1.14424382 0.01177835
H  -0.28334825 0.06396305 -0.09273938
12
MD Step 904.5 Units = [eV / Ang.]
C  -1.12951947 -0.44076917 -0.34196116
C  -0.32543396 -0.83635928 0.37762861
C  1.55776567 0.88704479 0.05581655
C  1.24052366 1.88873525 -0.53955099
C  0.32913389 2.57217715 0.49936499
C  -2.27211955 -1.50972529 -0.04054456
H  0.13492745 -0.12570272 0.35241231
H  0.01184356 -0.40835973 -0.34256382
H  1.17411646 0.37929939 0.20072380
H  -0.88126567 -1.33230555 -0.14891490
H  0.49260685 -1.08930683 0.04755939
H  -0.33257889 0.01527198 -0.11997021
12
MD Step 905.0 Units = [eV / Ang.]
C  -0.85728471 -0.02007067 -0.32732630
C  -0.48889055 -0.97813725 0.37886350
C  1.72008525 1.11388633 -0.08811380
C  0.89853081 1.53565281 -0.43711866
C  0.77633770 2.50101138 0.41262624
C  -2.28569406 -1.55488935 0.05065718
H  -0.10854329 -0.50899386 0.31143122
H  0.03757487 -0.47648062 -0.30974769
H  1.04090109 0.37500130 0.25815913
H  -0.70774445 -1.00362272 -0.18190665
H  0.33950936 -0.95063384 0.07849212
H  -0.36478202 -0.03272349 -0.14601630
12
MD Step 905.5 Units = [eV / Ang.]
C  -0.58381202 0.39552059 -0.31264848
C  -0.61674046 -1.10437552 0.37415348
C  1.92156026 1.30152196 -0.24123448
C  0.50152582 1.07553088 -0.34529690
C  1.22026428 2.29820774 0.33035846
C  -2.27780752 -1.55413063 0.13922003
H  -0.34668324 -0.88045923 0.27296102
H  0.04600475 -0.51513965 -0.28077581
H  0.83011164 0.36705383 0.33268667
H  -0.46725558 -0.57047498 -0.20065474
H  0.14954247 -0.73389829 0.10222356
H  -0.37671039 -0.07935671 -0.17099282
12
MD Step 906.0 Units = [eV / Ang.]
C  -0.33914879 0.76250798 -0.30188668
C  -0.70282014 -1.21508969 0.36327830
C  2.13627540 1.44471061 -0.39882951
C  0.06348630 0.52904944 -0.26702941
C  1.64550311 1.97459206 0.25426060
C  -2.25070476 -1.50711498 0.22498146
H  -0.55079621 -1.19644549 0.24119272
H  0.03429190 -0.52011458 -0.25540858
H  0.56908479 0.35437317 0.41992730
H  -0.17027166 -0.05157124 -0.20240458
H  -0.06790915 -0.45081653 0.11695661
H  -0.36699078 -0.12408076 -0.19503822
12
MD Step 906.5 Units = [eV / Ang.]
C  -0.15264539 1.03735252 -0.29776467
C  -0.74455720 -1.30851832 0.34564386
C  2.33692995 1.53995505 -0.55444482
C  -0.39281722 -0.06733695 -0.20337018
C  2.03599405 1.55148984 0.18526755
C  -2.20601131 -1.41590546 0.30784868
H  -0.69246284 -1.41334838 0.21889892
H  0.00186831 -0.49052699 -0.23256164
H  0.28750932 0.33621635 0.51343436
H  0.16241513 0.51818818 -0.18665551
H  -0.29992009 -0.12113977 0.12194126
H  -0.33630270 -0.16642608 -0.21823781
12
MD Step 907.0 Units = [eV / Ang.]
C  -0.04656880 1.18581068 -0.30076514
C  -0.74299283 -1.38103633 0.32047805
C  2.49892454 1.58556122 -0.70108264
C  -0.83373272 -0.65885045 -0.15200282
C  2.37475201 1.06163975 0.12302579
C  -2.14451916 -1.28464269 0.38770811
H  -0.74997512 -1.49710278 0.20639840
H  -0.04942881 -0.42898979 -0.21055317
H  0.01301607 0.31238658 0.60598239
H  0.49763089 1.08497221 -0.15668393
H  -0.52979730 0.22619861 0.11805588
H  -0.28730877 -0.20594702 -0.24056092
12
MD Step 907.5 Units = [eV / Ang.]
C  -0.03032084 1.19174710 -0.30877425
C  -0.70236561 -1.42749822 0.28708826
C  2.60275861 1.58169215 -0.83222685
C  -1.21631793 -1.17599503 -0.10621207
C  2.64422623 0.54776494 0.06543508
C  -2.06611227 -1.11904235 0.46434644
H  -0.71420907 -1.43211391 0.20121544
H  -0.11559718 -0.34123496 -0.18746114
H  -0.23155707 0.28324870 0.69069418
H  0.79170839 1.57953597 -0.12054897
H  -0.73787870 0.55406887 0.10826700
H  -0.22433455 -0.24217325 -0.26182312
12
MD Step 908.0 Units = [eV / Ang.]
C  -0.09786011 1.06165652 -0.31769471
C  -0.62936915 -1.44195331 0.24511285
C  2.63474135 1.53030794 -0.94248690
C  -1.49534591 -1.54657098 -0.05537097
C  2.82766342 0.05785703 0.00856301
C  -1.96980586 -0.92583900 0.53740922
H  -0.59132798 -1.22578879 0.19874457
H  -0.19102318 -0.23530703 -0.16150580
H  -0.42914368 0.24960929 0.76176662
H  0.99802620 1.92932083 -0.09050053
H  -0.90368197 0.82129116 0.09764573
H  -0.15287314 -0.27458366 -0.28168308
12
MD Step 908.5 Units = [eV / Ang.]
C  -0.22961468 0.82272952 -0.32281371
C  -0.53225435 -1.41852602 0.19470121
C  2.58652020 1.43495654 -1.02786319
C  -1.63473986 -1.71418473 0.01238488
C  2.91144534 -0.36263918 -0.05277195
C  -1.85390302 -0.71228049 0.60639901
H  -0.40098794 -0.90650726 0.19369567
H  -0.26921434 -0.12052314 -0.13136852
H  -0.56816052 0.21254595 0.81478241
H  1.07913136 2.07716165 -0.08012993
H  -1.00922932 0.98987501 0.09265552
H  -0.07899287 -0.30260784 -0.29967140
12
MD Step 909.0 Units = [eV / Ang.]
C  -0.39801872 0.51541294 -0.32028889
C  -0.41996107 -1.35228994 0.13658569
C  2.45413994 1.30042242 -1.08576107
C  -1.61894358 -1.65594404 0.10593651
C  2.88781864 -0.67988022 -0.12371374
C  -1.71624740 -0.48574582 0.67071384
H  -0.17089935 -0.51599466 0.18166048
H  -0.34355123 -0.00641399 -0.09639046
H  -0.64162819 0.17325308 0.84673904
H  1.01873817 1.99925371 -0.09993961
H  -1.04270426 1.03358127 0.09970161
H  -0.00874295 -0.32565476 -0.31524340
12
MD Step 909.5 Units = [eV / Ang.]
C  -0.57419382 0.18383099 -0.30811277
C  -0.30135025 -1.23995902 0.07204582
C  2.23714754 1.13233596 -1.11491041
C  -1.45824560 -1.39028598 0.22745877
C  2.75701936 -0.87876236 -0.20774764
C  -1.55458394 -0.25348026 0.72971103
H  0.06978466 -0.09954277 0.16014651
H  -0.40793613 0.09818472 -0.05663505
H  -0.64628869 0.13293745 0.85596541
H  0.82744083 1.71319238 -0.15342888
H  -1.00116949 0.94470853 0.12335227
H  0.05237554 -0.34315964 -0.32784505
12
MD Step 910.0 Units = [eV / Ang.]
C  -0.73327994 -0.13228607 -0.28630730
C  -0.18461382 -1.08032440 0.00279413
C  1.93813317 0.93685661 -1.11531774
C  -1.18493010 -0.97046353 0.37132888
C  2.52783333 -0.96519541 -0.30541981
C  -1.36699755 -0.02242356 0.78277925
H  0.29576092 0.30220443 0.12881633
H  -0.45726190 0.18578764 -0.01283262
H  -0.58212055 0.09276049 0.84207201
H  0.53887970 1.27154908 -0.23587862
H  -0.89123701 0.73617143 0.16494527
H  0.09983376 -0.35463671 -0.33697980
12
MD Step 910.5 Units = [eV / Ang.]
C  -0.85716258 -0.40211117 -0.25651460
C  -0.07682065 -0.87443671 -0.06917668
C  1.56284997 0.72044224 -1.08831740
C  -0.84248228 -0.46737319 0.52619345
C  2.21628122 -0.96263773 -0.41397686
C  -1.15238573 0.20094821 0.82939905
H  0.48828270 0.65780847 0.08910044
H  -0.48770102 0.25066834 0.03375500
H  -0.45242749 0.05380392 0.80600953
H  0.19859487 0.74468500 -0.33638924
H  -0.72741490 0.43793251 0.22218484
H  0.13038589 -0.35972987 -0.34226753
12
MD Step 911.0 Units = [eV / Ang.]
C  -0.93472225 -0.60465049 -0.22135283
C  0.01640610 -0.62556604 -0.14175321
C  1.12089232 0.48969260 -1.03671764
C  -0.47361243 0.04936274 0.67877249
C  1.84292242 -0.90454694 -0.52804871
C  -0.91090857 0.41077918 0.86918718
H  0.63542021 0.94591234 0.04355208
H  -0.49684532 0.28906174 0.08151203
H  -0.26448661 0.01702560 0.75023419
H  -0.14851839 0.20176795 -0.44174487
H  -0.52882407 0.08941489 0.28984983
H  0.14227659 -0.35825357 -0.34349055
12
MD Step 911.5 Units = [eV / Ang.]
C  -0.96056408 -0.72732876 -0.18383847
C  0.09112392 -0.33904098 -0.21284840
C  0.62675239 0.25122243 -0.96497562
C  -0.11217158 0.52437537 0.81731404
C  1.42977927 -0.82595157 -0.64097976
C  -0.64436340 0.60200104 0.90191568
H  0.73082152 1.15369831 -0.00474314
H  -0.48375551 0.29924690 0.12866170
H  -0.03055105 -0.01682332 0.67889908
H  -0.46688841 -0.30223445 -0.53998504
H  -0.31554645 -0.26894399 0.36120157
H  0.13536338 -0.35022097 -0.34062164
12
MD Step 912.0 Units = [eV / Ang.]
C  -0.93324734 -0.76369542 -0.14702004
C  0.14521714 -0.02203272 -0.28052995
C  0.10078763 0.01156847 -0.87924552
C  0.21937248 0.92102958 0.93342730
C  0.99785187 -0.75700940 -0.74620002
C  -0.35642639 0.77049339 0.92751280
H  0.77199932 1.27443823 -0.05255710
H  -0.44895854 0.28156392 0.17345783
H  0.23124534 -0.04733127 0.59790513
H  -0.73326231 -0.73100572 -0.62237139
H  -0.10574049 -0.60216087 0.42945312
H  0.11116129 -0.33585822 -0.33383215
12
MD Step 912.5 Units = [eV / Ang.]
C  -0.85371795 -0.71132981 -0.11381564
C  0.17843820 0.31664638 -0.34313646
C  -0.43053948 -0.22287588 -0.78710535
C  0.50826910 1.21937651 1.02226248
C  0.56570184 -0.71981596 -0.83817850
C  -0.05273900 0.91317252 0.94604788
H  0.75886081 1.30527201 -0.09670968
H  -0.39441848 0.23840650 0.21437081
H  0.49672036 -0.07458535 0.51460599
H  -0.93530008 -1.06475551 -0.68367965
H  0.08592363 -0.88391118 0.48881591
H  0.07280105 -0.31560024 -0.32347781
12
MD Step 913.0 Units = [eV / Ang.]
C  -0.72433128 -0.57055594 -0.08697227
C  0.19232642 0.66671038 -0.39938382
C  -0.93585450 -0.44591283 -0.69678692
C  0.74801209 1.41113047 1.08171180
C  0.14905826 -0.72814478 -0.91281661
C  0.25919672 1.02799603 0.95770084
H  0.69284165 1.24585584 -0.13414427
H  -0.32346982 0.17417711 0.25026181
H  0.73692108 -0.09929600 0.43699696
H  -1.06816826 -1.29510008 -0.72147612
H  0.24858492 -1.09679163 0.53496867
H  0.02488272 -0.29006858 -0.31006006
12
MD Step 913.5 Units = [eV / Ang.]
C  -0.54855033 -0.34422880 -0.06903138
C  0.18996007 1.01656847 -0.44846086
C  -1.38197575 -0.65161412 -0.61589646
C  0.93494708 1.49447115 1.11136345
C  -0.23888796 -0.78894029 -0.96740429
C  0.57032178 1.11387576 0.96272067
H  0.57674949 1.09814613 -0.16200163
H  -0.24068210 0.09515600 0.28053469
H  0.92130511 -0.12279614 0.37238454
H  -1.13106788 -1.41981329 -0.73510836
H  0.37469566 -1.23079526 0.56506339
H  -0.02681516 -0.26002960 -0.29416377
12
MD Step 914.0 Units = [eV / Ang.]
C  -0.33131890 -0.03860957 -0.06219463
C  0.17552915 1.35357467 -0.49009432
C  -1.73870379 -0.83451089 -0.54987705
C  1.06591831 1.47016435 1.11165887
C  -0.58697072 -0.90432543 -1.00035857
C  0.87053576 1.17050336 0.96137269
H  0.41526993 0.86734546 -0.17780262
H  -0.15160799 0.00921284 0.30524215
H  1.02261029 -0.14683580 0.32581073
H  -1.12470380 -1.43893998 -0.72487716
H  0.45922402 -1.28124453 0.57749601
H  -0.07578227 -0.22633448 -0.27637611
12
MD Step 914.5 Units = [eV / Ang.]
C  -0.07994746 0.33480799 -0.06799261
C  0.15372374 1.66444076 -0.52456240
C  -1.98423321 -0.98986999 -0.50072353
C  1.13717924 1.33940763 1.08343790
C  -0.88561105 -1.07324133 -1.01094953
C  1.14940758 1.19813880 0.95388109
H  0.21597098 0.56383406 -0.17982983
H  -0.06238222 -0.07470810 0.32511654
H  1.02232009 -0.17317013 0.29875647
H  -1.04999005 -1.35272461 -0.69158713
H  0.49895496 -1.24706457 0.57164977
H  -0.11539259 -0.18985050 -0.25719673
12
MD Step 915.0 Units = [eV / Ang.]
C  0.19477039 0.75698027 -0.08672777
C  0.12900928 1.93591394 -0.55262184
C  -2.10943520 -1.11402798 -0.46650505
C  1.14456378 1.10347610 1.02790175
C  -1.12672278 -1.29227121 -0.99914513
C  1.39702143 1.19741708 0.94037919
H  -0.00952647 0.20558797 -0.16773611
H  0.02083394 -0.14736188 0.34149257
H  0.91495728 -0.20304591 0.28868860
H  -0.90799496 -1.16140126 -0.63651588
H  0.49215468 -1.12987322 0.54774673
H  -0.13963135 -0.15139392 -0.23695705
12
MD Step 915.5 Units = [eV / Ang.]
C  0.47775027 1.19942746 -0.11676349
C  0.10487785 2.15569355 -0.57533968
C  -2.11943457 -1.20460637 -0.44197411
C  1.08483311 0.76516390 0.94695338
C  -1.30405310 -1.55550519 -0.96562829
C  1.60485427 1.16921793 0.92087527
H  -0.24475911 -0.17987217 -0.14329105
H  0.09251232 -0.20019004 0.35610883
H  0.70959683 -0.23677583 0.28972402
H  -0.70106503 -0.86683100 -0.56176182
H  0.43873899 -0.93404334 0.50686349
H  -0.14385181 -0.11167891 -0.21576655
12
MD Step 916.0 Units = [eV / Ang.]
C  0.74980459 1.62414170 -0.15392075
C  0.08323449 2.31351645 -0.59383677
C  -2.03185585 -1.26050394 -0.42006862
C  0.95810087 0.33203023 0.84382673
C  -1.41401254 -1.85352359 -0.91198208
C  1.76654588 1.11463805 0.89525191
H  -0.46873006 -0.55540074 -0.11099784
H  0.14842078 -0.22639717 0.37080181
H  0.42795787 -0.27357382 0.29420061
H  -0.43502270 -0.47595599 -0.47086643
H  0.34098160 -0.66767597 0.45109565
H  -0.12542495 -0.07129520 -0.19350421
12
MD Step 916.5 Units = [eV / Ang.]
C  0.98946047 1.98669464 -0.19138972
C  0.06406561 2.40218453 -0.60899742
C  -1.87247145 -1.28164781 -0.39372887
C  0.77098070 -0.17881195 0.72379190
C  -1.45689215 -2.17182534 -0.84096059
C  1.87844309 1.03507831 0.86329920
H  -0.65794438 -0.87741902 -0.07815705
H  0.18614770 -0.22190194 0.38714884
H  0.09982567 -0.31171121 0.29455591
H  -0.12210626 -0.00573671 -0.36948547
H  0.20465993 -0.34418564 0.38378528
H  -0.08416895 -0.03071786 -0.16986202
12
MD Step 917.0 Units = [eV / Ang.]
C  1.17651266 2.24305419 -0.22056362
C  0.04547261 2.41833122 -0.62121461
C  -1.66990595 -1.26862188 -0.35739857
C  0.53960376 -0.73553585 0.59454193
C  -1.43818974 -2.48925438 -0.75669665
C  1.93979101 0.93240032 0.82478137
H  -0.79024571 -1.10287505 -0.05397099
H  0.20537264 -0.18596494 0.40613813
H  -0.24251302 -0.34890466 0.28486221
H  0.21622228 0.51163804 -0.26569703
H  0.04032518 0.01607998 0.30965196
H  -0.02244571 0.00965301 -0.14443413
12
MD Step 917.5 Units = [eV / Ang.]
C  1.29647234 2.35882182 -0.23287035
C  0.02409221 2.36272413 -0.63024857
C  -1.45109405 -1.22235927 -0.30783247
C  0.29089374 -1.28854096 0.46571115
C  -1.36950253 -2.77732310 -0.66463191
C  1.95258000 0.80908669 0.77952133
H  -0.84958478 -1.19862902 -0.04761530
H  0.20780884 -0.12132538 0.42795087
H  -0.56906615 -0.38276958 0.26163408
H  0.54820142 1.02579078 -0.16940465
H  -0.13588159 0.38508686 0.23461897
H  0.05508054 0.04943702 -0.11683315
12
MD Step 918.0 Units = [eV / Ang.]
C  1.34430019 2.31773295 -0.22212018
C  -0.00423392 2.24004741 -0.63523711
C  -1.23848006 -1.14404478 -0.24419768
C  0.06018998 -1.77295756 0.34712632
C  -1.26823931 -3.00147186 -0.57098071
C  1.92108288 0.66831172 0.72749322
H  -0.83002023 -1.15004298 -0.06578529
H  0.19683952 -0.03381995 0.45190713
H  -0.85512806 -0.41118246 0.22389931
H  0.83436001 1.47091025 -0.09045283
H  -0.30265634 0.72829905 0.16515451
H  0.14198536 0.08821822 -0.08680668
12
MD Step 918.5 Units = [eV / Ang.]
C  1.32572545 2.12578373 -0.18641646
C  -0.04369025 2.05823193 -0.63485296
C  -1.04906430 -1.03525031 -0.16769720
C  -0.11578893 -2.11925465 0.24602653
C  -1.15551043 -3.12499673 -0.48168195
C  1.85121263 0.51386907 0.66890143
H  -0.73722274 -0.96509172 -0.11069181
H  0.17694046 0.06842347 0.47658210
H  -1.08233045 -0.43248134 0.17277920
H  1.03479236 1.77670986 -0.03573411
H  -0.43587166 1.00855384 0.10711323
H  0.23080786 0.12550286 -0.05432800
12
MD Step 919.0 Units = [eV / Ang.]
C  1.25550060 1.80909087 -0.12875655
C  -0.09781746 1.82751201 -0.62755715
C  -0.89478770 -0.89821738 -0.08100067
C  -0.20914859 -2.27063832 0.16443667
C  -1.05215761 -3.11543215 -0.40108583
C  1.74983608 0.34993342 0.60423954
H  -0.58678151 -0.67206777 -0.17940844
H  0.15302851 0.17602330 0.50005015
H  -1.23827168 -0.44551358 0.11088346
H  1.11964189 1.88619266 -0.00650857
H  -0.51286821 1.19241524 0.06435309
H  0.31382568 0.16070172 -0.01964569
12
MD Step 919.5 Units = [eV / Ang.]
C  1.15337581 1.40654625 -0.05608952
C  -0.16904223 1.55941700 -0.61187308
C  -0.78353847 -0.73611062 0.01230452
C  -0.20997015 -2.20074078 0.09829833
C  -0.97383096 -2.95179333 -0.33088484
C  1.62414068 0.18073501 0.53431402
H  -0.40010196 -0.31199206 -0.26481086
H  0.12986501 0.27939641 0.52018847
H  -1.31548430 -0.44959401 0.04174547
H  1.07851451 1.77359655 0.00242896
H  -0.51769493 1.25740199 0.03766351
H  0.38376699 0.19313760 0.01671502
12
MD Step 920.0 Units = [eV / Ang.]
C  1.03949394 0.96060406 0.02262348
C  -0.25841964 1.26584979 -0.58662138
C  -0.72017035 -0.55308357 0.10814732
C  -0.12959258 -1.92273224 0.03918559
C  -0.92690995 -2.63011656 -0.26981862
C  1.48113540 0.01024288 0.46023400
H  -0.19964988 0.07088614 -0.35756441
H  0.11159998 0.36966074 0.53497115
H  -1.31040102 -0.44444122 -0.03060586
H  0.92393736 1.45355719 0.00091243
H  -0.44540886 1.19749637 0.02454345
H  0.43438559 0.22207643 0.05399284
12
MD Step 920.5 Units = [eV / Ang.]
C  0.93083989 0.50967207 0.09843977
C  -0.36555413 0.95835526 -0.55107571
C  -0.70710604 -0.35409410 0.20228978
C  0.00386508 -1.48473960 -0.02223015
C  -0.90702518 -2.16498994 -0.21435621
C  1.32729919 -0.15804366 0.38336012
H  -0.00521201 0.43695026 -0.44823189
H  0.10148898 0.43929723 0.54270690
H  -1.22277239 -0.43014392 -0.10194728
H  0.68687952 0.97634096 -0.00023559
H  -0.30357887 1.02461984 0.02001823
H  0.46087596 0.24677560 0.09126203
12
MD Step 921.0 Units = [eV / Ang.]
C  0.83949309 0.08396470 0.16385264
C  -0.48861709 0.64758816 -0.50503578
C  -0.74428511 -0.14451348 0.29058207
C  0.15521930 -0.95420047 -0.09288102
C  -0.90090008 -1.58642699 -0.16005653
C  1.16835985 -0.32112841 0.30522024
H  0.16802500 0.75552137 -0.52877762
H  0.10176103 0.48257218 0.54219923
H  -1.05575190 -0.40718082 -0.16810909
H  0.40684187 0.41183990 0.00732222
H  -0.11029201 0.76542083 0.01816056
H  0.46014604 0.26654303 0.12752307
12
MD Step 921.5 Units = [eV / Ang.]
C  0.77254368 -0.29522453 0.21336539
C  -0.62439058 0.34293163 -0.44883222
C  -0.82842403 0.07034129 0.36924012
C  0.29219077 -0.39942639 -0.17569524
C  -0.89066133 -0.93349309 -0.10298929
C  1.00914805 -0.47639387 0.22739521
H  0.30969571 1.00563642 -0.59321640
H  0.11359064 0.49577910 0.53283481
H  -0.81664601 -0.37648580 -0.22526667
H  0.12155123 -0.16927036 0.02769926
H  0.11041605 0.45480628 0.01366415
H  0.43098582 0.28079931 0.16180087
12
MD Step 922.0 Units = [eV / Ang.]
C  0.73303221 -0.61407765 0.24340589
C  -0.76831905 0.05223404 -0.38328959
C  -0.95176668 0.28560342 0.43521900
C  0.39171098 0.12376077 -0.26985743
C  -0.85880725 -0.24724887 -0.04067459
C  0.85349718 -0.62137399 0.15138707
H  0.41342120 1.17454394 -0.63757889
H  0.13712607 0.47736472 0.51461338
H  -0.51810754 -0.33951856 -0.27035563
H  -0.13972020 -0.70923547 0.06099228
H  0.33377779 0.12881137 0.00289318
H  0.37415530 0.28913630 0.19324532
12
MD Step 922.5 Units = [eV / Ang.]
C  0.72122924 -0.86402950 0.25190783
C  -0.91456006 -0.21842427 -0.30966049
C  -1.10077399 0.49705756 0.48671399
C  0.44151955 0.57721595 -0.37211819
C  -0.79204399 0.43469731 0.02765659
C  0.70413960 -0.75351913 0.07848800
H  0.47561373 1.25536419 -0.65952286
H  0.17152989 0.42801269 0.48813431
H  -0.17930187 -0.29827520 -0.30163332
H  -0.35812158 -1.16859268 0.10460715
H  0.53835286 -0.18087199 -0.01579900
H  0.29241662 0.29136508 0.22122600
12
MD Step 923.0 Units = [eV / Ang.]
C  0.73576635 -1.03983958 0.23787100
C  -1.05605938 -0.46492400 -0.22954592
C  -1.25548154 0.70105333 0.52372123
C  0.43840189 0.93898654 -0.47818058
C  -0.68316916 1.08102180 0.10132846
C  0.56260532 -0.87002544 0.00966156
H  0.49443135 1.24501543 -0.65790275
H  0.21501736 0.35069557 0.45454894
H  0.17367039 -0.25515587 -0.31930253
H  -0.52375761 -1.52469686 0.15471341
H  0.70808371 -0.44967854 -0.04232845
H  0.19049130 0.28754761 0.24541563
12
MD Step 923.5 Units = [eV / Ang.]
C  0.77434207 -1.13853531 0.20109512
C  -1.18469693 -0.68528893 -0.14479861
C  -1.39034970 0.89414540 0.54846555
C  0.38499698 1.19856401 -0.58363568
C  -0.53106938 1.66714747 0.17872425
C  0.42915946 -0.96777704 -0.05454429
H  0.46917389 1.14303296 -0.63250195
H  0.26489190 0.25068138 0.41547534
H  0.50891963 -0.21263705 -0.32598392
H  -0.63277132 -1.76683426 0.20726183
H  0.83249888 -0.66050043 -0.07540932
H  0.07490453 0.27800179 0.26585168
12
MD Step 924.0 Units = [eV / Ang.]
C  0.83388921 -1.15944983 0.14217400
C  -1.29154923 -0.87975532 -0.05739928
C  -1.47719026 1.07251697 0.56540892
C  0.28670689 1.35180367 -0.68436745
C  -0.33955797 2.17427493 0.25777000
C  0.30284107 -1.04341475 -0.11403163
H  0.40024463 0.95153278 -0.58402240
H  0.31761039 0.13540858 0.37286508
H  0.79204019 -0.17276968 -0.32673318
H  -0.68448457 -1.89091174 0.25846145
H  0.90578055 -0.80251280 -0.11308574
H  -0.04633090 0.26327720 0.28296023
12
MD Step 924.5 Units = [eV / Ang.]
C  0.91015329 -1.10538363 0.06276782
C  -1.36729313 -1.05067048 0.03069499
C  -1.49006154 1.23142241 0.58058669
C  0.14938150 1.39709456 -0.77659446
C  -0.11574232 2.58801743 0.33627234
C  0.18165399 -1.09352538 -0.16912542
H  0.28971504 0.67635028 -0.51434701
H  0.36890933 0.01414737 0.32881816
H  0.99137537 -0.13664066 -0.32834193
H  -0.67933069 -1.89539492 0.30486644
H  0.92547250 -0.86951446 -0.15312694
H  -0.16423335 0.24409749 0.29752931
12
MD Step 925.0 Units = [eV / Ang.]
C  0.99673087 -0.98466675 -0.03392703
C  -1.40275942 -1.20211308 0.11773184
C  -1.41100021 1.36489883 0.60025321
C  -0.02198725 1.33336884 -0.85676231
C  0.13147642 2.89735600 0.41209629
C  0.06296889 -1.11490526 -0.22046926
H  0.14242117 0.32913001 -0.42699778
H  0.41403752 -0.10264594 0.28534807
H  1.08410259 -0.10402028 -0.33791157
H  -0.61779066 -1.77914040 0.34328716
H  0.89139120 -0.85853750 -0.19326511
H  -0.26959113 0.22127552 0.31061649
12
MD Step 925.5 Units = [eV / Ang.]
C  1.08378636 -0.81358467 -0.14268103
C  -1.38962949 -1.33917967 0.20235042
C  -1.23469996 1.46599090 0.62918497
C  -0.22357683 1.16004184 -0.92147394
C  0.39248498 3.09434672 0.48323241
C  -0.05589371 -1.10487723 -0.26885757
H  -0.03265011 -0.07020287 -0.32760716
H  0.44812352 -0.20431425 0.24412381
H  1.06120689 -0.07339667 -0.36105889
H  -0.50032844 -1.54128106 0.37071718
H  0.80504299 -0.76915942 -0.23132403
H  -0.35386621 0.19561639 0.32339384
12
MD Step 926.0 Units = [eV / Ang.]
C  1.15692569 -0.61813996 -0.25600855
C  -1.32119384 -1.46700318 0.28373671
C  -0.97032511 1.52753528 0.66925142
C  -0.45202342 0.87894648 -0.96760792
C  0.65746937 3.17471398 0.54782773
C  -0.17697139 -1.06160255 -0.31502370
H  -0.22119594 -0.49165184 -0.22410104
H  0.46666473 -0.28123872 0.20623675
H  0.92947548 -0.04244321 -0.40038930
H  -0.32831604 -1.18324598 0.38444042
H  0.66964398 -0.60369973 -0.26530835
H  -0.41015350 0.16782943 0.33694585
12
MD Step 926.5 Units = [eV / Ang.]
C  1.19701501 -0.43370952 -0.36457892
C  -1.19309708 -1.58964487 0.36170344
C  -0.63967589 1.54330000 0.71882115
C  -0.70269964 0.49826573 -0.99274469
C  0.91635400 3.13928084 0.60424942
C  -0.30099165 -0.98435219 -0.35942589
H  -0.40344029 -0.89551948 -0.12623137
H  0.46608966 -0.32614949 0.17205128
H  0.70971436 -0.00875316 -0.45482945
H  -0.10592386 -0.71290270 0.38244852
H  0.49069247 -0.36828913 -0.29352038
H  -0.43403707 0.13847397 0.35205690
12
MD Step 927.0 Units = [eV / Ang.]
C  1.18178122 -0.30122864 -0.45850786
C  -1.00395705 -1.70911909 0.43665545
C  -0.27248280 1.50913300 0.77319938
C  -0.96712718 0.03805777 -0.99596020
C  1.15826899 2.99596393 0.65123489
C  -0.42686744 -0.87370182 -0.40208052
H  -0.55581332 -1.23631520 -0.04421721
H  0.44429659 -0.33523243 0.14118856
H  0.43194795 0.02945069 -0.52002607
H  0.15721730 -0.15036661 0.36422769
H  0.27690658 -0.07459492 -0.31474859
H  -0.42417082 0.10795331 0.36903448
12
MD Step 927.5 Units = [eV / Ang.]
C  1.08957544 -0.25964900 -0.52941006
C  -0.75574451 -1.82478479 0.50943833
C  0.09934000 1.42376339 0.82582427
C  -1.23014798 -0.46410732 -0.97886469
C  1.37083419 2.76176186 0.68812752
C  -0.55148713 -0.73162576 -0.44247963
H  -0.65480490 -1.47046451 0.01336529
H  0.40104801 -0.30875528 0.11266060
H  0.12944125 0.07288074 -0.58954332
H  0.44324980 0.46608476 0.33179192
H  0.04115362 0.25833745 -0.32852188
H  -0.38245779 0.07655846 0.38761165
12
MD Step 928.0 Units = [eV / Ang.]
C  0.90465601 -0.33635794 -0.57257416
C  -0.45389687 -1.93329265 0.58110357
C  0.44663095 1.28908279 0.86969160
C  -1.46819461 -0.95042718 -0.94645982
C  1.53971040 2.46382044 0.71513565
C  -0.66984758 -0.56147573 -0.47961915
H  -0.68228244 -1.56610881 0.04178946
H  0.33812105 -0.25104350 0.08512736
H  -0.16653853 0.12110881 -0.65631713
H  0.72459694 1.07712751 0.29052635
H  -0.19917323 0.60302017 -0.33535951
H  -0.31378212 0.04454610 0.40695578
12
MD Step 928.5 Units = [eV / Ang.]
C  0.62217860 -0.53905047 -0.58832556
C  -0.10714906 -2.02906065 0.65265591
C  0.74594334 1.10991996 0.89852758
C  -1.65046476 -1.34709744 -0.90709224
C  1.64899281 2.13841924 0.73347363
C  -0.77547003 -0.36786696 -0.51212100
H  -0.63043622 -1.51145113 0.04152518
H  0.25917015 -0.16981009 0.05720929
H  -0.43003273 0.17276910 -0.71386555
H  0.96560179 1.60660177 0.24911041
H  -0.42296777 0.92440337 -0.33687692
H  -0.22536613 0.01222331 0.42577928
12
MD Step 929.0 Units = [eV / Ang.]
C  0.25076731 -0.85269748 -0.58188118
C  0.27285562 -2.10514025 0.72485350
C  0.98044163 0.89345335 0.90747406
C  -1.74432712 -1.57797434 -0.87085021
C  1.68290913 1.82697605 0.74521888
C  -0.86101915 -0.15648297 -0.53842290
H  -0.50420095 -1.31797655 0.01802726
H  0.16932722 -0.07501267 0.02777817
H  -0.64161562 0.22588365 -0.75700828
H  1.12857599 1.97532135 0.21786850
H  -0.60783230 1.18363795 -0.33558463
H  -0.12588176 -0.01998809 0.44252683
12
MD Step 929.5 Units = [eV / Ang.]
C  -0.18856780 -1.24310319 -0.56173623
C  0.67211965 -2.15423837 0.79810554
C  1.13931747 0.64846405 0.89330906
C  -1.72418307 -1.58527759 -0.84650190
C  1.62875966 1.56914757 0.75279650
C  -0.91899408 0.06615533 -0.55698815
H  -0.31998403 -1.01700895 -0.01998299
H  0.07463210 0.02248359 -0.00383782
H  -0.78808554 0.27817535 -0.78211235
H  1.18340090 2.12202918 0.20565784
H  -0.73392389 1.34469737 -0.33430461
H  -0.02449139 -0.05152435 0.45559511
12
MD Step 930.0 Units = [eV / Ang.]
C  -0.66659985 -1.66539266 -0.53735139
C  1.07495637 -2.16965930 0.87247383
C  1.21652338 0.38459604 0.85437116
C  -1.58035009 -1.34899467 -0.83824401
C  1.48035770 1.39463059 0.75820688
C  -0.94241286 0.29295191 -0.56649632
H  -0.10132609 -0.65127322 -0.06294295
H  -0.01858599 0.11215482 -0.03776456
H  -0.86141684 0.32730313 -0.78703256
H  1.11703738 2.02307000 0.21656627
H  -0.78821852 1.38230715 -0.33532815
H  0.07003541 -0.08169380 0.46354181
12
MD Step 930.5 Units = [eV / Ang.]
C  -1.15129106 -2.07374177 -0.51711924
C  1.46476298 -2.14603147 0.94774824
C  1.20954915 0.11173230 0.79037605
C  -1.32336498 -0.89485311 -0.84408139
C  1.24063764 1.31648327 0.76230834
C  -0.92542648 0.51653632 -0.56598437
H  0.12654271 -0.26517277 -0.10257084
H  -0.10427304 0.18479258 -0.07360093
H  -0.85769418 0.37102343 -0.77094628
H  0.93816205 1.70056724 0.24826069
H  -0.76763936 1.28838691 -0.33964189
H  0.15003457 -0.10972294 0.46525160
12
MD Step 931.0 Units = [eV / Ang.]
C  -1.61241276 -2.42889787 -0.50721118
C  1.82488282 -2.07976356 1.02354804
C  1.11871444 -0.16050492 0.70226747
C  -0.98121365 -0.28620615 -0.85684663
C  0.92225584 1.32871138 0.76451613
C  -0.86386068 0.72958763 -0.55493706
H  0.34118648 0.10273377 -0.13304883
H  -0.17709599 0.23313070 -0.11051535
H  -0.77650506 0.40731972 -0.73423312
H  0.67431011 1.21441651 0.29300425
H  -0.67972286 1.07429232 -0.34658862
H  0.20946129 -0.13481953 0.46004490
12
MD Step 931.5 Units = [eV / Ang.]
C  -2.02430339 -2.70189371 -0.51135184
C  2.13955475 -1.96926893 1.09940677
C  0.94722252 -0.42318639 0.59217113
C  -0.59105123 0.39558065 -0.86716861
C  0.54580709 1.40910527 0.76306888
C  -0.75567354 0.92518958 -0.53332188
H  0.52537822 0.42343639 -0.15121373
H  -0.23275812 0.25216132 -0.14738349
H  -0.62101482 0.43455363 -0.67846916
H  0.36314029 0.64271382 0.34066446
H  -0.54052964 0.76784907 -0.35413021
H  0.24422787 -0.15624071 0.44772769
12
MD Step 932.0 Units = [eV / Ang.]
C  -2.36678069 -2.87428665 -0.53118322
C  2.39489943 -1.81504237 1.17481773
C  0.70201323 -0.66852231 0.46345292
C  -0.18980209 1.07211393 -0.86663124
C  0.13637873 1.52596259 0.75571130
C  -0.60131072 1.09716577 -0.50158246
H  0.66749311 0.67771180 -0.15609694
H  -0.26821105 0.23924133 -0.18293695
H  -0.39873660 0.45167375 -0.60652829
H  0.04238169 0.06081436 0.38194992
H  -0.37072553 0.40652409 -0.35956216
H  0.25240049 -0.17335630 0.42858939
12
MD Step 932.5 Units = [eV / Ang.]
C  -2.62486498 -2.93633290 -0.56681860
C  2.57989124 -1.61964706 1.24923884
C  0.39516371 -0.89038123 0.32080808
C  0.19237789 1.68191730 -0.84968536
C  -0.28024791 1.64586502 0.74044822
C  -0.40396921 1.24037674 -0.46059967
H  0.76061731 0.85429493 -0.14823462
H  -0.28180347 0.19409096 -0.21590725
H  -0.12275563 0.45847988 -0.52270113
H  -0.25733345 -0.47250954 0.41042169
H  -0.19138395 0.02954732 -0.36032928
H  0.23430846 -0.18570141 0.40335906
12
MD Step 933.0 Units = [eV / Ang.]
C  -2.78809024 -2.88449446 -0.61731534
C  2.68720736 -1.38771202 1.32206973
C  0.04533759 -1.08477412 0.17024367
C  0.53435024 2.18483911 -0.81398301
C  -0.68055977 1.73982423 0.71605743
C  -0.16970714 1.35091086 -0.41161955
H  0.80122066 0.94743774 -0.12904682
H  -0.27340614 0.11877104 -0.24515648
H  0.18708221 0.45588351 -0.43267847
H  -0.51516037 -0.91932373 0.42292601
H  -0.02083905 -0.32834633 -0.35461988
H  0.19256465 -0.19301583 0.37312271
12
MD Step 933.5 Units = [eV / Ang.]
C  -2.84992446 -2.71931733 -0.68096456
C  2.71386646 -1.12593906 1.39262919
C  -0.32156554 -1.25014006 0.01877550
C  0.82291113 2.55937673 -0.75967632
C  -1.04491939 1.78647400 0.68225479
C  0.09262375 1.42618063 -0.35615214
H  0.78802256 0.95487968 -0.10041543
H  -0.24452236 0.01765760 -0.26979698
H  0.50379629 0.44603617 -0.34321492
H  -0.71913770 -1.25969873 0.41896399
H  0.12685731 -0.64024364 -0.34160965
H  0.13199195 -0.19526600 0.33920653
12
MD Step 934.0 Units = [eV / Ang.]
C  -2.80756363 -2.44421023 -0.75540847
C  2.66152916 -0.84312898 1.46014595
C  -0.67344077 -1.38720698 -0.12629730
C  1.05022002 2.79693680 -0.68840923
C  -1.35795965 1.77250083 0.63958039
C  0.37168420 1.46488680 -0.29584085
H  0.72139634 0.87677152 -0.06447182
H  -0.19836461 -0.10260944 -0.28929292
H  0.79457971 0.43216416 -0.26134089
H  -0.86354013 -1.48584793 0.39972036
H  0.24206642 -0.88761122 -0.32141266
H  0.05939294 -0.19264534 0.30302743
12
MD Step 934.5 Units = [eV / Ang.]
C  -2.66218279 -2.06533645 -0.83765601
C  2.53638032 -0.55013421 1.52377470
C  -0.97533810 -1.49827829 -0.25851928
C  1.21121652 2.89608972 -0.60249470
C  -1.60821754 1.69133132 0.58915790
C  0.65423966 1.46686492 -0.23230367
H  0.60344003 0.71575390 -0.02353924
H  -0.13983660 -0.23329003 -0.30353670
H  1.02439500 0.41799218 -0.19316124
H  -0.94605548 -1.59635780 0.36724159
H  0.31884757 -1.05908555 -0.29488280
H  -0.01688859 -0.18554971 0.26591945
12
MD Step 935.0 Units = [eV / Ang.]
C  -2.41958887 -1.59265623 -0.92407592
C  2.34853927 -0.25962136 1.58262611
C  -1.19496565 -1.58602493 -0.37354513
C  1.30182206 2.85837103 -0.50444977
C  -1.78754866 1.54122770 0.53245988
C  0.92605419 1.43287805 -0.16696955
H  0.43868752 0.47818133 0.01984840
H  -0.07533793 -0.36392947 -0.31287740
H  1.16165884 0.40680417 -0.14252736
H  -0.96564935 -1.59205360 0.32395126
H  0.35399342 -1.14864933 -0.26339663
H  -0.08766486 -0.17452734 0.22895612
12
MD Step 935.5 Units = [eV / Ang.]
C  -2.09111445 -1.04188108 -1.01045318
C  2.11098766 0.01447957 1.63579108
C  -1.30904482 -1.65210340 -0.47007443
C  1.31812089 2.68605947 -0.39687282
C  -1.89061937 1.32367258 0.47114955
C  1.17305604 1.36435840 -0.10093333
H  0.23527191 0.17624554 0.06293937
H  -0.01231694 -0.48305584 -0.31807952
H  1.18471362 0.40041628 -0.11006907
H  -0.92143775 -1.47393338 0.27248910
H  0.34623339 -1.15404987 -0.22868592
H  -0.14385019 -0.16020828 0.19279917
12
MD Step 936.0 Units = [eV / Ang.]
C  -1.69441763 -0.43679511 -1.09217993
C  1.83813279 0.25792440 1.68233842
C  -1.30839946 -1.69612055 -0.55001177
C  1.25657290 2.38197182 -0.28255043
C  -1.91470579 1.04251343 0.40700415
C  1.38264970 1.26319759 -0.03487078
H  0.00614053 -0.16960394 0.10285397
H  0.04146046 -0.57921937 -0.32019584
H  1.08694296 0.39848772 -0.09304708
H  -0.81265263 -1.24316771 0.21577473
H  0.29583792 -1.07596033 -0.19272810
H  -0.17756174 -0.14322796 0.15761265
12
MD Step 936.5 Units = [eV / Ang.]
C  -1.25358390 0.18915480 -1.16462291
C  1.54417224 0.45747603 1.72127109
C  -1.19981096 -1.71537616 -0.61769599
C  1.11525727 1.95125539 -0.16466771
C  -1.85985047 0.70404461 0.34188191
C  1.54499018 1.13161305 0.03095804
H  -0.23034616 -0.52904433 0.13683101
H  0.07887365 -0.64229895 -0.32036059
H  0.87854115 0.39851634 -0.08617020
H  -0.63974262 -0.90310495 0.15715892
H  0.20470619 -0.91807553 -0.15765567
H  -0.18320656 -0.12416031 0.12307210
12
MD Step 937.0 Units = [eV / Ang.]
C  -0.79782211 0.79346678 -1.22364842
C  1.24155242 0.60240825 1.75145853
C  -1.00388826 -1.70547742 -0.67849111
C  0.89614657 1.40510917 -0.04694393
C  -1.72934178 0.31797086 0.27766389
C  1.65396224 0.97213865 0.09660446
H  -0.45123541 -0.86256180 0.16262716
H  0.09448128 -0.66486112 -0.31954055
H  0.58417997 0.39655850 -0.08308037
H  -0.40661110 -0.46317465 0.10048965
H  0.07690470 -0.68809797 -0.12562125
H  -0.15832850 -0.10347926 0.08848194
12
MD Step 937.5 Units = [eV / Ang.]
C  -0.35825518 1.32873243 -1.26618070
C  0.93980928 0.68589103 1.77157507
C  -0.74989033 -1.66152555 -0.73729143
C  0.60820061 0.76595300 0.06651015
C  -1.53042140 -0.10105593 0.21609611
C  1.70770149 0.78773053 0.16224381
H  -0.63180037 -1.12573631 0.17896379
H  0.08539860 -0.64328806 -0.31830700
H  0.23751836 0.38836286 -0.07792401
H  -0.12374456 0.05582617 0.04988226
H  -0.08048549 -0.39933339 -0.09854776
H  -0.10403101 -0.08155678 0.05297970
12
MD Step 938.0 Units = [eV / Ang.]
C  0.03695007 1.75044628 -1.29060016
C  0.64503494 0.70594699 1.78009424
C  -0.46956343 -1.57940340 -0.79746416
C  0.27048409 0.07255067 0.17182395
C  -1.27495332 -0.53191579 0.15847747
C  1.70851972 0.58195125 0.22795274
H  -0.75015370 -1.27722557 0.18583239
H  0.05179105 -0.57839281 -0.31669572
H  -0.12534722 0.37045195 -0.06647499
H  0.18861277 0.61657937 0.00899593
H  -0.25651901 -0.07229356 -0.07772265
H  -0.02485596 -0.05869538 0.01578095
12
MD Step 938.5 Units = [eV / Ang.]
C  0.36780912 2.02660769 -1.29678927
C  0.36003504 0.66572557 1.77536764
C  -0.19202558 -1.45675200 -0.86044819
C  -0.08631848 -0.61778306 0.26652986
C  -0.97965677 -0.94642714 0.10520157
C  1.66230314 0.35913934 0.29351301
H  -0.79235375 -1.28850703 0.18447213
H  -0.00315647 -0.47534817 -0.31420183
H  -0.47139976 0.34079583 -0.04657518
H  0.49893099 1.16310340 -0.02020689
H  -0.43600947 0.26462697 -0.06326621
H  0.07184200 -0.03518141 -0.02359665
12
MD Step 939.0 Units = [eV / Ang.]
C  0.62613718 2.14555146 -1.28579046
C  0.08507990 0.57307200 1.75579207
C  0.05916946 -1.29352453 -0.92592746
C  -0.42211066 -1.23345584 0.35091078
C  -0.66541838 -1.31076909 0.05528914
C  1.57755451 0.12449885 0.35828509
H  -0.75600289 -1.15175900 0.17697766
H  -0.07378525 -0.34294469 -0.30990819
H  -0.77399175 0.29898012 -0.01798165
H  0.76668603 1.62519060 -0.03884142
H  -0.60019488 0.57649979 -0.05362627
H  0.17687672 -0.01133967 -0.06517929
12
MD Step 939.5 Units = [eV / Ang.]
C  0.81597233 2.11851173 -1.25922919
C  -0.18103473 0.43951364 1.72002418
C  0.26679613 -1.09216053 -0.99231123
C  -0.69461789 -1.70136028 0.42871950
C  -0.35529014 -1.58960061 0.00615981
C  1.46428946 -0.11598850 0.42118664
H  -0.65069599 -0.88234116 0.16569086
H  -0.15286371 -0.19237352 -0.30270667
H  -1.01384334 0.24599162 0.01811210
H  0.94978387 1.93139860 -0.05179223
H  -0.72885127 0.82598281 -0.04537074
H  0.28035529 0.01242620 -0.10848304
12
MD Step 940.0 Units = [eV / Ang.]
C  0.95067911 1.97571595 -1.21876839
C  -0.43991945 0.27894989 1.66718739
C  0.41922619 -0.85755142 -1.05727503
C  -0.87030312 -1.96560359 0.50640597
C  -0.07128330 -1.75260278 -0.04607177
C  1.33301558 -0.35580344 0.48076101
H  -0.49512047 -0.51468049 0.15263986
H  -0.23260994 -0.03582870 -0.29154239
H  -1.17841798 0.18383257 0.05962201
H  1.01575311 2.02802486 -0.06684062
H  -0.80374565 0.97992786 -0.03356270
H  0.37272591 0.03561928 -0.15255536
12
MD Step 940.5 Units = [eV / Ang.]
C  1.04810634 1.75789939 -1.16579072
C  -0.69274406 0.10629436 1.59701874
C  0.50910892 -0.59684603 -1.11820805
C  -0.93456227 -2.00457228 0.59072033
C  0.16934475 -1.78169674 -0.10566365
C  1.19389371 -0.58825181 0.53531312
H  -0.31217330 -0.09349884 0.13922767
H  -0.30561410 0.11478635 -0.27562151
H  -1.26058449 0.11513668 0.10402506
H  0.95218195 1.89633868 -0.09211481
H  -0.81257535 1.01674913 -0.01281734
H  0.44561789 0.05766110 -0.19608885
12
MD Step 941.0 Units = [eV / Ang.]
C  1.12582393 1.50693183 -1.10134601
C  -0.93971998 -0.06370732 1.50992344
C  0.53214800 -0.31908898 -1.17251552
C  -0.89588417 -1.83752260 0.68576694
C  0.35704820 -1.67626234 -0.17590091
C  1.05612690 -0.80684730 0.58307335
H  -0.12411983 0.33584677 0.12620676
H  -0.36551224 0.24885110 -0.25454235
H  -1.25731800 0.04287526 0.14866863
H  0.77099550 1.55915125 -0.13297377
H  -0.75200078 0.93184730 0.02121502
H  0.49241246 0.07792502 -0.23757559
12
MD Step 941.5 Units = [eV / Ang.]
C  1.19793386 1.25881543 -1.02626006
C  -1.17989887 -0.21742100 1.40693803
C  0.48644484 -0.03466642 -1.21779868
C  -0.78166430 -1.51696272 0.79117519
C  0.49105979 -1.45408369 -0.25786722
C  0.92753078 -1.00562685 0.62236015
H  0.05068095 0.73457522 0.11383656
H  -0.40737591 0.35766219 -0.22834455
H  -1.16892435 -0.02984422 0.19096470
H  0.50416008 1.07298281 -0.19003542
H  -0.62852272 0.73878579 0.07050404
H  0.50857585 0.09578348 -0.27547274
12
MD Step 942.0 Units = [eV / Ang.]
C  1.27387352 1.04041332 -0.94128476
C  -1.41117936 -0.34300937 1.28962729
C  0.37258932 0.24542825 -1.25196439
C  -0.62813038 -1.11122282 0.90233712
C  0.57814242 -1.14752152 -0.34987574
C  0.81422404 -1.17933563 0.65172144
H  0.19903046 1.07383389 0.10209337
H  -0.42786062 0.43475595 -0.19748974
H  -0.99899966 -0.09993889 0.22852992
H  0.19331348 0.51025675 -0.25933424
H  -0.45682072 0.46567981 0.13400129
H  0.49181751 0.11066026 -0.30836156
12
MD Step 942.5 Units = [eV / Ang.]
C  1.35877136 0.86943400 -0.84720767
C  -1.63043739 -0.43093885 1.15994264
C  0.19452077 0.51045628 -1.27332635
C  -0.46968005 -0.68615001 1.01226415
C  0.62965929 -0.79651140 -0.44777595
C  0.72036706 -1.32349408 0.67005279
H  0.31255337 1.33466696 0.09084129
H  -0.42519967 0.47602714 -0.16279595
H  -0.75511587 -0.16454059 0.25933720
H  -0.12130061 -0.05942219 -0.33417733
H  -0.25629092 0.14839327 0.20793666
H  0.44215265 0.12207948 -0.33509148
12
MD Step 943.0 Units = [eV / Ang.]
C  1.45457170 0.75625987 -0.74490844
C  -1.83366783 -0.47437278 1.02007318
C  -0.03906872 0.75083684 -1.28074743
C  -0.33194999 -0.29316657 1.11379170
C  0.65819018 -0.44112096 -0.54591095
C  0.64792764 -1.43438335 0.67669220
H  0.38654657 1.50604669 0.07994066
H  -0.39913702 0.47976501 -0.12534548
H  -0.45000787 -0.22127811 0.28192135
H  -0.40815327 -0.58155333 -0.40741479
H  -0.04716516 -0.17674045 0.28681495
H  0.36191378 0.12970714 -0.35490696
12
MD Step 943.5 Units = [eV / Ang.]
C  1.56127320 0.70623204 -0.63537425
C  -2.01611180 -0.46950785 0.87230070
C  -0.31324430 0.95901229 -1.27383988
C  -0.22983008 0.03430799 1.20108573
C  0.67486520 -0.11596605 -0.63825606
C  0.59647092 -1.50900890 0.67149606
H  0.41869938 1.58240777 0.06930074
H  -0.35085978 0.44668567 -0.08637719
H  -0.10280112 -0.26866506 0.29564442
H  -0.64671236 -1.02051331 -0.47305099
H  0.15252958 -0.47836279 0.36462165
H  0.25572117 0.13337821 -0.36755094
12
MD Step 944.0 Units = [eV / Ang.]
C  1.67786620 0.72143648 -0.51970037
C  -2.17235988 -0.41587952 0.71886902
C  -0.60597589 1.13016207 -1.25318690
C  -0.16911162 0.27830797 1.27014795
C  0.68798207 0.15254444 -0.71931360
C  0.56303382 -1.54508958 0.65489016
H  0.40812412 1.56170118 0.05889978
H  -0.28295961 0.37999774 -0.04716267
H  0.26042547 -0.30652854 0.30096044
H  -0.82597766 -1.35702979 -0.52686082
H  0.32857309 -0.73272930 0.43579703
H  0.13037988 0.13310685 -0.37334001
12
MD Step 944.5 Units = [eV / Ang.]
C  1.80277975 0.80150455 -0.39909154
C  -2.29646098 -0.31659355 0.56186119
C  -0.88876898 1.26259211 -1.22047529
C  -0.14967117 0.43120224 1.31859215
C  0.70283151 0.34647228 -0.78458952
C  0.54216954 -1.54109006 0.62788762
H  0.35490915 1.44449656 0.04878572
H  -0.19940406 0.28546017 -0.00886757
H  0.60756851 -0.33631456 0.29956604
H  -0.94139182 -1.58292534 -0.56625826
H  0.47081177 -0.92387826 0.49577733
H  -0.00537322 0.12907385 -0.37318788
12
MD Step 945.0 Units = [eV / Ang.]
C  1.93376935 0.94325950 -0.27485545
C  -2.38208769 -0.17838444 0.40308579
C  -1.12941578 1.35761718 -1.17839644
C  -0.16860121 0.49070400 1.34512261
C  0.72229491 0.45513537 -0.83068875
C  0.52624700 -1.49629871 0.59204833
H  0.26026955 1.23432485 0.03906218
H  -0.10546292 0.17133224 0.02759748
H  0.90353614 -0.36104732 0.29428475
H  -0.99177468 -1.69589832 -0.58983743
H  0.57256654 -1.04233526 0.54113861
H  -0.14134122 0.12159091 -0.36856167
12
MD Step 945.5 Units = [eV / Ang.]
C  2.06724473 1.13926743 -0.14838642
C  -2.42282113 -0.01137229 0.24397749
C  -1.29684942 1.41881247 -1.13021248
C  -0.22249803 0.45635600 1.34905087
C  0.74770044 0.47345762 -0.85520080
C  0.50609532 -1.41093020 0.54936213
H  0.12728772 0.93920167 0.02985623
H  -0.00751757 0.04808341 0.06172328
H  1.11535420 -0.38476413 0.28859122
H  -0.97711757 -1.69575572 -0.59692338
H  0.62975007 -1.08340007 0.56950838
H  -0.26662874 0.11104381 -0.36134652
12
MD Step 946.0 Units = [eV / Ang.]
C  2.19712601 1.37562511 -0.02111963
C  -2.41258690 0.17161469 0.08553519
C  -1.36707629 1.45071836 -1.07902442
C  -0.30866873 0.32788440 1.33003011
C  0.77954704 0.40061110 -0.85654353
C  0.47196687 -1.28622338 0.50204613
H  -0.03787131 0.57397941 0.02125906
H  0.08731777 -0.07227033 0.09350935
H  1.21828932 -0.41145095 0.28582391
H  -0.89750133 -1.58255424 -0.58731823
H  0.64012217 -1.04575944 0.57942061
H  -0.37066463 0.09782527 -0.35361854
12
MD Step 946.5 Units = [eV / Ang.]
C  2.31349118 1.62973019 0.10555468
C  -2.34624903 0.35622628 -0.07167695
C  -1.32834092 1.45736981 -1.02696478
C  -0.42522267 0.10542157 1.28808043
C  0.81785176 0.23937310 -0.83390485
C  0.41474077 -1.12452810 0.45227482
H  -0.22457505 0.16274068 0.01323737
H  0.17179915 -0.17727011 0.12349416
H  1.20111016 -0.44378426 0.28831717
H  -0.75316707 -1.35671304 -0.56131920
H  0.60295840 -0.93084039 0.57025512
H  -0.44439669 0.08227425 -0.34734798
12
MD Step 947.0 Units = [eV / Ang.]
C  2.40156595 1.86929964 0.23040019
C  -2.22029320 0.52819325 -0.22743113
C  -1.18361154 1.44118358 -0.97462943
C  -0.57002170 -0.20841665 1.22391497
C  0.86199310 -0.00371345 -0.78734919
C  0.32717664 -0.92934082 0.40188243
H  -0.41674887 -0.26007213 0.00553318
H  0.23933548 -0.25547281 0.15266726
H  1.06854893 -0.48216852 0.29678201
H  -0.54573629 -1.02110571 -0.52001981
H  0.51925121 -0.74302808 0.54233206
H  -0.48145973 0.06464171 -0.34408251
12
MD Step 947.5 Units = [eV / Ang.]
C  2.44185524 2.05414657 0.35242999
C  -2.03347550 0.67512893 -0.38163900
C  -0.94945151 1.40264121 -0.92099580
C  -0.73848634 -0.60468928 1.13949986
C  0.91003426 -0.31743904 -0.71809331
C  0.20496191 -0.70527977 0.35210475
H  -0.59312440 -0.65136089 -0.00240221
H  0.28483664 -0.29804535 0.18225526
H  0.84000176 -0.52448331 0.31018235
H  -0.28053131 -0.58504337 -0.46582787
H  0.39245523 -0.49067319 0.49716790
H  -0.47907599 0.04509750 -0.34468192
12
MD Step 948.0 Units = [eV / Ang.]
C  2.41217861 2.14179035 0.47091383
C  -1.78729556 0.78814250 -0.53408383
C  -0.65178848 1.34083605 -0.86384581
C  -0.92053160 -1.06300333 1.03867019
C  0.95762428 -0.68461324 -0.62888969
C  0.04735190 -0.45798514 0.30342228
H  -0.72945942 -0.96499436 -0.01137236
H  0.30544251 -0.30013374 0.21341427
H  0.54501406 -0.56662943 0.32613085
H  0.03030859 -0.06960889 -0.40301239
H  0.22963237 -0.18757999 0.43782136
H  -0.43847726 0.02377921 -0.34916870
12
MD Step 948.5 Units = [eV / Ang.]
C  2.29180223 2.09639011 0.58524762
C  -1.48617827 0.86290289 -0.68415019
C  -0.32033019 1.25454892 -0.80048998
C  -1.09748397 -1.54662918 0.92742644
C  0.99678739 -1.08093190 -0.52434726
C  -0.14273429 -0.19394353 0.25554561
H  -0.80284794 -1.16084349 -0.02224731
H  0.30095250 -0.26165721 0.24690332
H  0.21731342 -0.60359540 0.34159459
H  0.36482094 0.48726193 -0.33790793
H  0.04263854 0.14562853 0.36915986
H  -0.36474037 0.00086833 -0.35673477
12
MD Step 949.0 Units = [eV / Ang.]
C  2.06673827 1.89839000 0.69470732
C  -1.13733228 0.89988669 -0.83064006
C  0.01651075 1.14332066 -0.72849816
C  -1.24069037 -2.00070732 0.81342221
C  1.01517082 -1.47486208 -0.41095101
C  -0.35913400 0.07971352 0.20754285
H  -0.79713126 -1.21458013 -0.03564926
H  0.27383268 -0.18729464 0.28283464
H  -0.11065346 -0.63059340 0.35361859
H  0.69001909 1.02890996 -0.27829345
H  -0.15125322 0.48114834 0.29780440
H  -0.26607702 -0.02333160 -0.36589807
12
MD Step 949.5 Units = [eV / Ang.]
C  1.73431340 1.55095202 0.79820676
C  -0.75035800 0.90380698 -0.97173665
C  0.33489821 1.00811496 -0.64621453
C  -1.31388450 -2.35709501 0.70431801
C  0.99646240 -1.82951540 -0.29652418
C  -0.59322010 0.35544399 0.15807003
H  -0.70743176 -1.12428353 -0.05163605
H  0.22880258 -0.08567763 0.32057076
H  -0.41135799 -0.64389280 0.35984134
H  0.96458271 1.48487602 -0.23163733
H  -0.33005140 0.78561453 0.23150607
H  -0.15275555 -0.04834411 -0.37476424
12
MD Step 950.0 Units = [eV / Ang.]
C  1.30501335 1.08012508 0.89422384
C  -0.33674199 0.88243795 -1.10513727
C  0.61682809 0.85141695 -0.55298104
C  -1.28049415 -2.54762621 0.60530446
C  0.92260443 -2.10700779 -0.18903307
C  -0.83484949 0.62549967 0.10564736
H  -0.54179838 -0.91077095 -0.06955064
H  0.17211634 0.03198002 0.35879336
H  -0.66370884 -0.64120526 0.35873117
H  1.14655150 1.78439264 -0.20254179
H  -0.46963588 1.02426996 0.17787170
H  -0.03588498 -0.07351205 -0.38132805
12
MD Step 950.5 Units = [eV / Ang.]
C  0.80076880 0.52859162 0.98098584
C  0.09066046 0.84517817 -1.22831988
C  0.84981897 0.67691294 -0.44911415
C  -1.11443272 -2.52299206 0.51694558
C  0.77778722 -2.27485375 -0.09494594
C  -1.07329118 0.88211499 0.04891572
H  -0.31918062 -0.61149183 -0.08813196
H  0.11071756 0.15345726 0.39571063
H  -0.85291508 -0.62168531 0.34959295
H  1.20448936 1.87556180 -0.19056586
H  -0.54813338 1.16724228 0.14267636
H  0.07371062 -0.09803611 -0.38374929
12
MD Step 951.0 Units = [eV / Ang.]
C  0.25057120 -0.05415614 1.05684883
C  0.51808174 0.80168452 -1.33886551
C  1.02581649 0.48901762 -0.33574466
C  -0.80995422 -2.26935741 0.43478123
C  0.55325181 -2.31266384 -0.01770623
C  -1.29802096 1.11769737 -0.01316527
H  -0.06470156 -0.27084972 -0.10583645
H  0.05144734 0.26696417 0.42933475
H  -0.96948422 -0.58571076 0.33245102
H  1.12758039 1.74222604 -0.18988015
H  -0.55096818 1.19619387 0.12834351
H  0.16638016 -0.12104571 -0.38056107
12
MD Step 951.5 Units = [eV / Ang.]
C  -0.31463234 -0.62123400 1.12070349
C  0.93126757 0.76080932 -1.43475943
C  1.14000497 0.29250735 -0.21461616
C  -0.38543512 -1.81396775 0.35124093
C  0.25118827 -2.21669476 0.04301948
C  -1.49938721 1.32503619 -0.08119268
H  0.19570626 0.06904973 -0.12121611
H  0.00042721 0.36221761 0.45775754
H  -1.00809105 -0.53460592 0.30790201
H  0.92944395 1.40968118 -0.19130531
H  -0.47475276 1.10888597 0.13326313
H  0.23426025 -0.14168493 -0.37079689
12
MD Step 952.0 Units = [eV / Ang.]
C  -0.86595291 -1.13452293 1.17224386
C  1.31592695 0.72990272 -1.51461359
C  1.19002400 0.09236029 -0.08791024
C  0.12108760 -1.21645835 0.25888740
C  -0.11396786 -2.00035454 0.09094634
C  -1.66914695 1.49756510 -0.15526761
H  0.43940905 0.37437139 -0.13320003
H  -0.03734794 0.43109978 0.47937489
H  -0.96682094 -0.47040904 0.27699462
H  0.64350164 0.93593055 -0.18572354
H  -0.32835149 0.91970932 0.15231071
H  0.27163886 -0.15919430 -0.35404282
12
MD Step 952.5 Units = [eV / Ang.]
C  -1.37866892 -1.56686683 1.21202555
C  1.65827021 0.71442552 -1.57778304
C  1.17587547 -0.10621853 0.04188327
C  0.66211932 -0.55074413 0.15316123
C  -0.51744336 -1.69043840 0.13181244
C  -1.80095484 1.62966093 -0.23499253
H  0.64907129 0.62155619 -0.14121324
H  -0.05823383 0.46796440 0.49303813
H  -0.84706136 -0.39571639 0.24114834
H  0.31250430 0.39340321 -0.16700244
H  -0.13064269 0.65595039 0.17835699
H  0.27516443 -0.17297636 -0.33043470
12
MD Step 953.0 Units = [eV / Ang.]
C  -1.83265082 -1.90127200 1.24133862
C  1.94567799 0.71777454 -1.62438416
C  1.10058348 -0.29775729 0.17206249
C  1.19150271 0.11336875 0.03339195
C  -0.92846336 -1.32072092 0.17167499
C  -1.89080582 1.71694168 -0.31950124
H  0.81276435 0.79635248 -0.14515696
H  -0.06004541 0.46972494 0.49813905
H  -0.65408333 -0.31357297 0.20209319
H  -0.02246120 -0.14961241 -0.13315525
H  0.09401435 0.35141261 0.20411443
H  0.24396705 -0.18263940 -0.30061710
12
MD Step 953.5 Units = [eV / Ang.]
C  -2.21183267 -2.12862757 1.26197831
C  2.16747945 0.74118280 -1.65523337
C  0.97145515 -0.47659398 0.29981462
C  1.67162201 0.72177554 -0.09786204
C  -1.31530557 -0.92536806 0.21552829
C  -1.93745346 1.75649442 -0.40750794
H  0.92296081 0.89144179 -0.14531849
H  -0.04211615 0.43585832 0.49464148
H  -0.39815106 -0.22734471 0.16178698
H  -0.32917256 -0.64066750 -0.08577200
H  0.32075625 0.03986555 0.22362229
H  0.17975781 -0.18801662 -0.26567813
12
MD Step 954.0 Units = [eV / Ang.]
C  -2.50348650 -2.24526375 1.27599384
C  2.31578325 0.78362025 -1.67173276
C  0.80153247 -0.63717805 0.42236848
C  2.07585516 1.23918224 -0.23624301
C  -1.64949923 -0.53414659 0.26660059
C  -1.94274411 1.74699829 -0.49737749
H  0.97523288 0.90398718 -0.14227354
H  -0.00535509 0.36841636 0.48307434
H  -0.09576037 -0.14049226 0.12226334
H  -0.58646885 -1.04626905 -0.02861167
H  0.52801264 -0.24969459 0.23299814
H  0.08689775 -0.18916002 -0.22706026
12
MD Step 954.5 Units = [eV / Ang.]
C  -2.69781599 -2.25112043 1.28546774
C  2.38624809 0.84165756 -1.67571526
C  0.61054308 -0.77458790 0.53723210
C  2.38753010 1.64619904 -0.37689652
C  -1.90835675 -0.17017750 0.32629819
C  -1.91177838 1.68869629 -0.58721880
H  0.96724665 0.83390076 -0.13681662
H  0.04768996 0.27206506 0.46448758
H  0.22965886 -0.05619972 0.08538022
H  -0.78275203 -1.34889486 0.03374226
H  0.69940759 -0.49523046 0.23048317
H  -0.02762119 -0.18630784 -0.18644407
12
MD Step 955.0 Units = [eV / Ang.]
C  -2.78812533 -2.14888674 1.29235750
C  2.37864705 0.90935294 -1.66925884
C  0.42452658 -0.88517973 0.64250617
C  2.59737813 1.93403156 -0.51521702
C  -2.07588991 0.15014293 0.39454146
C  -1.85279381 1.58322987 -0.67501883
H  0.89838729 0.68317498 -0.12992258
H  0.11280418 0.15408880 0.44036031
H  0.54838273 0.02311502 0.05248310
H  -0.91290225 -1.54155749 0.09671586
H  0.82396334 -0.68168579 0.21605178
H  -0.15437800 -0.17982636 -0.14559891
12
MD Step 955.5 Units = [eV / Ang.]
C  -2.77164953 -1.94424609 1.29838693
C  2.29709720 0.97827169 -1.65446364
C  0.27342825 -0.96714438 0.73719815
C  2.70099189 2.09940934 -0.64704162
C  -2.14264686 0.41597738 0.47021012
C  -1.77664370 1.43337756 -0.75881264
H  0.77016651 0.45636643 -0.12271770
H  0.18417615 0.02424579 0.41244507
H  0.82705345 0.09626869 0.02406740
H  -0.97522778 -1.62261693 0.15604734
H  0.89529305 -0.79977945 0.19088582
H  -0.28203864 -0.17013003 -0.10620525
12
MD Step 956.0 Units = [eV / Ang.]
C  -2.65098443 -1.64713944 1.30496432
C  2.14980046 1.03780349 -1.63319674
C  0.18658649 -1.02072087 0.82139667
C  2.69699398 2.14105711 -0.76849561
C  -2.10505548 0.62056549 0.55151132
C  -1.69580411 1.24273792 -0.83688186
H  0.58739489 0.16211876 -0.11641710
H  0.25467093 -0.10569306 0.38253667
H  1.03343435 0.16353864 -0.00041446
H  -0.96928676 -1.59216453 0.20774411
H  0.91050782 -0.84451216 0.15691650
H  -0.39825815 -0.15759135 -0.06966381
12
MD Step 956.5 Units = [eV / Ang.]
C  -2.43585680 -1.27379039 1.31306182
C  1.94826447 1.07593973 -1.60682019
C  0.18696162 -1.04786629 0.89616775
C  2.58611862 2.05804765 -0.87573051
C  -1.96471251 0.76006360 0.63621068
C  -1.62294039 1.01547081 -0.90794729
H  0.35988803 -0.18461248 -0.11216866
H  0.31637424 -0.22284203 0.35217945
H  1.14236629 0.22644706 -0.02246002
H  -0.89485082 -1.45035170 0.24792047
H  0.86935778 -0.81404283 0.11651242
H  -0.49097052 -0.14246311 -0.03692592
12
MD Step 957.0 Units = [eV / Ang.]
C  -2.14468560 -0.84879303 1.32300036
C  1.70602876 1.08055506 -1.57595171
C  0.28588792 -1.05139366 0.96313415
C  2.37123952 1.85008342 -0.96477408
C  -1.72787701 0.83309854 0.72174294
C  -1.56921547 0.75613212 -0.97130727
H  0.10414152 -0.56035992 -0.11075253
H  0.36142894 -0.31456265 0.32236231
H  1.14113889 0.28708210 -0.04409533
H  -0.75206508 -1.19769832 0.27272485
H  0.77388609 -0.70930717 0.07230274
H  -0.54990848 -0.12483648 -0.00838643
12
MD Step 957.5 Units = [eV / Ang.]
C  -1.80498326 -0.40610714 1.33411542
C  1.43707690 1.04110617 -1.54032306
C  0.48027416 -1.03386722 1.02384909
C  2.05836100 1.51970792 -1.03168827
C  -1.40524303 0.84113468 0.80527858
C  -1.54263064 0.46968148 -1.02688475
H  -0.15599345 -0.93217595 -0.11213300
H  0.38307643 -0.37014777 0.29328196
H  1.03231306 0.34717987 -0.06724306
H  -0.54281640 -0.83737302 0.27855224
H  0.62865401 -0.53448248 0.02706943
H  -0.56808878 -0.10465654 0.01612543
12
MD Step 958.0 Units = [eV / Ang.]
C  -1.45151534 0.01251315 1.34438296
C  1.15423947 0.95043720 -1.49881264
C  0.75334713 -0.99671090 1.07920541
C  1.65859235 1.07638590 -1.07321233
C  -1.01196196 0.78957297 0.88381998
C  -1.54676999 0.16165185 -1.07515163
H  -0.39078047 -1.25935430 -0.11496986
H  0.37671008 -0.38250326 0.26426670
H  0.83288637 0.40735136 -0.09312081
H  -0.27325237 -0.37934719 0.26271993
H  0.44141889 -0.29819792 -0.01637182
H  -0.54291416 -0.08179886 0.03724411
12
MD Step 958.5 Units = [eV / Ang.]
C  -1.12152015 0.36267023 1.35022626
C  0.86791759 0.80627758 -1.44968315
C  1.07854929 -0.93989342 1.12910573
C  1.19080248 0.54189441 -1.08798971
C  -0.56769762 0.68924439 0.95441280
C  -1.58025138 -0.16156011 -1.11695109
H  -0.56894174 -1.49883623 -0.11633454
H  0.34068232 -0.34941009 0.23391709
H  0.57018136 0.46676873 -0.12189954
H  0.04292642 0.15416313 0.22469969
H  0.22396157 -0.01512890 -0.05538203
H  -0.47661014 -0.05618973 0.05587849
12
MD Step 959.0 Units = [eV / Ang.]
C  -0.84761540 0.60565414 1.34678725
C  0.58541365 0.61202830 -1.39099277
C  1.42501302 -0.86228601 1.17248839
C  0.68402652 -0.04462219 -1.07820970
C  -0.09638498 0.55764186 1.01450300
C  -1.63697506 -0.49241368 -1.15325631
H  -0.66434465 -1.61380529 -0.11193678
H  0.27664496 -0.27400804 0.20045163
H  0.27607435 0.52338205 -0.15271590
H  0.38146377 0.72365676 0.16773708
H  -0.00743375 0.29270510 -0.08783874
H  -0.37588242 -0.02793300 0.07298284
12
MD Step 959.5 Units = [eV / Ang.]
C  -0.65053630 0.71752093 1.32882565
C  0.31097438 0.37662179 -1.32108199
C  1.76264797 -0.76249213 1.20763663
C  0.17785660 -0.62500444 -1.05104096
C  0.37478252 0.41896079 1.06240062
C  -1.70708431 -0.82208898 -1.18493283
H  -0.66290321 -1.58295416 -0.09702193
H  0.18931025 -0.16433568 0.16216862
H  -0.01844584 0.57448541 -0.18396415
H  0.70674198 1.27078539 0.10022860
H  -0.23245937 0.59590574 -0.11256752
H  -0.25088465 0.00259534 0.08934924
12
MD Step 960.0 Units = [eV / Ang.]
C  -0.53470366 0.69525432 1.29205768
C  0.04641996 0.11351975 -1.23900535
C  2.06557716 -0.63981281 1.23260778
C  -0.28127475 -1.12742775 -1.01877210
C  0.81751027 0.30197374 1.09771387
C  -1.77831809 -1.14059664 -1.21256221
H  -0.56673464 -1.40667398 -0.06773837
H  0.08571096 -0.03206539 0.11789214
H  -0.28703224 0.61734537 -0.21369942
H  0.97534787 1.72386470 0.03576733
H  -0.42872730 0.85990495 -0.12972890
H  -0.11377555 0.03471374 0.10546755
12
MD Step 960.5 Units = [eV / Ang.]
C  -0.48867850 0.55714631 1.23440397
C  -0.20788021 -0.16086218 -1.14479655
C  2.31356412 -0.49505128 1.24562349
C  -0.64869484 -1.48036398 -0.99663640
C  1.20567171 0.23536250 1.12152952
C  -1.83744359 -1.43720429 -1.23635465
H  -0.39352996 -1.10726401 -0.02242190
H  -0.02583759 0.10922394 0.06728262
H  -0.50964607 0.64967431 -0.23999938
H  1.14486743 2.01203682 -0.00915714
H  -0.57519541 1.04983391 -0.14094575
H  0.02280291 0.06746796 0.12147218
12
MD Step 961.0 Units = [eV / Ang.]
C  -0.49017555 0.33720344 1.15657958
C  -0.45201859 -0.42889808 -1.03952682
C  2.49189150 -0.33098481 1.24533917
C  -0.89289802 -1.63190637 -0.99836645
C  1.51904537 0.24124390 1.13616290
C  -1.87149783 -1.70109216 -1.25615336
H  -0.17142229 -0.72302408 0.03779205
H  -0.13680789 0.24579991 0.01095012
H  -0.67254734 0.66986693 -0.26120224
H  1.18573003 2.08477400 -0.01974829
H  -0.65633177 1.13730016 -0.14899455
H  0.14703238 0.09971717 0.13716791
12
MD Step 961.5 Units = [eV / Ang.]
C  -0.51321780 0.07623766 1.06179838
C  -0.68576589 -0.67334171 -0.92517222
C  2.59044889 -0.15242889 1.23097430
C  -1.00472621 -1.56620432 -1.03120854
C  1.74631704 0.32890666 1.14446326
C  -1.86874834 -1.92214595 -1.27150069
H  0.06822675 -0.29895421 0.10926512
H  -0.23934589 0.36521057 -0.04962059
H  -0.76737074 0.67704098 -0.27602207
H  1.09093691 1.92839324 0.01197501
H  -0.66562247 1.10703679 -0.15706030
H  0.24886774 0.13024918 0.15210833
12
MD Step 962.0 Units = [eV / Ang.]
C  -0.53446137 -0.18669803 0.95483504
C  -0.90810040 -0.87856972 -0.80435893
C  2.60274201 0.03407827 1.20233384
C  -0.99936487 -1.30836668 -1.09305697
C  1.88620148 0.49131788 1.14891050
C  -1.81939436 -2.09173441 -1.28173160
H  0.29718391 0.12214977 0.18681504
H  -0.32686390 0.45723365 -0.11227581
H  -0.79002036 0.67097273 -0.28358227
H  0.87847135 1.57086555 0.08421353
H  -0.60699418 0.96085048 -0.16780000
H  0.32060069 0.15790050 0.16569762
12
MD Step 962.5 Units = [eV / Ang.]
C  -0.53685716 -0.41986469 0.84093682
C  -1.11704000 -1.03146280 -0.68006049
C  2.52530002 0.22087969 1.15976274
C  -0.90987444 -0.91508382 -1.17335420
C  1.94618769 0.70602251 1.15086657
C  -1.71610284 -2.20336126 -1.28606412
H  0.49401532 0.50548386 0.26483805
H  -0.39433948 0.51435082 -0.17445766
H  -0.73988941 0.65201380 -0.28341980
H  0.58499951 1.07217550 0.18625446
H  -0.49353281 0.71718199 -0.18259582
H  0.35713360 0.18166442 0.17729348
12
MD Step 963.0 Units = [eV / Ang.]
C  -0.51046681 -0.60074742 0.72500055
C  -1.30968134 -1.12199232 -0.55530514
C  2.35773892 0.39992308 1.10408270
C  -0.77587515 -0.45633828 -1.25705891
C  1.93949963 0.94019272 1.15027113
C  -1.55446561 -2.25312498 -1.28367288
H  0.64489166 0.82622676 0.33816747
H  -0.43840042 0.53187734 -0.23347487
H  -0.61967401 0.62103556 -0.27550133
H  0.25441888 0.50568111 0.30248265
H  -0.34406406 0.40648725 -0.20128935
H  0.35607831 0.20077918 0.18629799
12
MD Step 963.5 Units = [eV / Ang.]
C  -0.45134429 -0.71522279 0.61117245
C  -1.48235658 -1.14362739 -0.43292147
C  2.10350869 0.56345052 1.03654075
C  -0.63294908 0.00260052 -1.32932618
C  1.88150408 1.15777987 1.14581589
C  -1.33342848 -2.23995034 -1.27374173
H  0.74245441 1.06865288 0.40250243
H  -0.45729875 0.50791672 -0.28675282
H  -0.43581923 0.57940672 -0.26026437
H  -0.07306596 -0.06022084 0.41717001
H  -0.17900380 0.06442179 -0.22242861
H  0.31779898 0.21479234 0.19223365
12
MD Step 964.0 Units = [eV / Ang.]
C  -0.35964234 -0.75544805 0.50281038
C  -1.63080731 -1.09362323 -0.31532509
C  1.77112203 0.70454568 0.95878606
C  -0.50659140 0.41216855 -1.37874375
C  1.78679942 1.32619589 1.13541808
C  -1.05569197 -2.16558616 -1.25551133
H  0.78392314 1.22385957 0.45446761
H  -0.45086679 0.44327470 -0.33206372
H  -0.19943175 0.52896777 -0.23867499
H  -0.36737131 -0.57331245 0.51785744
H  -0.01689783 -0.27464319 -0.24382339
H  0.24545610 0.22360093 0.19480270
12
MD Step 964.5 Units = [eV / Ang.]
C  -0.23783881 -0.71766679 0.40263638
C  -1.75034457 -0.97327205 -0.20433436
C  1.37546851 0.81755811 0.87285815
C  -0.41121929 0.74116464 -1.39839771
C  1.66761338 1.42066879 1.11674004
C  -0.72798538 -2.03439618 -1.22832864
H  0.76933880 1.28739658 0.49147633
H  -0.42050995 0.34141546 -0.36774830
H  0.07272285 0.47194145 -0.21226212
H  -0.60984450 -1.00029041 0.59655953
H  0.12756085 -0.58198140 -0.26313012
H  0.14503812 0.22746181 0.19393081
12
MD Step 965.0 Units = [eV / Ang.]
C  -0.08951435 -0.60070821 0.31290777
C  -1.83598737 -0.78804907 -0.10100705
C  0.93854056 0.89843282 0.78113721
C  -0.35247599 0.97366627 -1.38529347
C  1.53345732 1.42581510 1.08758405
C  -0.36112269 -1.85297015 -1.19170380
H  0.70041190 1.25760626 0.51157497
H  -0.36923658 0.20844407 -0.39293441
H  0.35775449 0.41071650 -0.18307027
H  -0.79115829 -1.32363774 0.64928991
H  0.24403054 -0.83628183 -0.27827369
H  0.02530047 0.22696598 0.18978877
12
MD Step 965.5 Units = [eV / Ang.]
C  0.08115028 -0.40552690 0.23547251
C  -1.88261630 -0.54760615 -0.00550140
C  0.48882937 0.94500276 0.68619651
C  -0.33065922 1.10376631 -1.33908342
C  1.39157733 1.33499609 1.04611754
C  0.03030788 -1.62959522 -1.14536920
H  0.58013246 1.13507443 0.51340574
H  -0.30167738 0.05304045 -0.40774114
H  0.62744610 0.34748730 -0.15347315
H  -0.90797600 -1.53622230 0.67484492
H  0.32600734 -1.02338283 -0.28765432
H  -0.10252187 0.22296606 0.18278541
12
MD Step 966.0 Units = [eV / Ang.]
C  0.26918724 -0.13588284 0.17162061
C  -1.88521551 -0.26548800 0.08300651
C  0.05880660 0.95724116 0.59052084
C  -0.34380903 1.13066280 -1.26084628
C  1.24766697 1.14850894 0.99096732
C  0.42876894 -1.37364182 -1.08932306
H  0.41310653 0.92331122 0.49637670
H  -0.22400738 -0.11378882 -0.41342578
H  0.85088551 0.28380930 -0.12582774
H  -0.95990827 -1.63622231 0.67359474
H  0.36990062 -1.13496324 -0.29018768
H  -0.22538223 0.21645360 0.17352383
12
MD Step 966.5 Units = [eV / Ang.]
C  0.46809739 0.19988867 0.12169464
C  -1.83927684 0.04155811 0.16629629
C  -0.31952780 0.93736361 0.49612554
C  -0.38980967 1.05529532 -1.15227852
C  1.10646404 0.87159009 0.92125234
C  0.81514863 -1.09490435 -1.02383917
H  0.20646652 0.63058018 0.46106944
H  -0.14366110 -0.27928718 -0.41240719
H  0.99895120 0.22023560 -0.10202495
H  -0.94746133 -1.62362688 0.64665860
H  0.37416008 -1.16708686 -0.28526449
H  -0.32955113 0.20839368 0.16271748
12
MD Step 967.0 Units = [eV / Ang.]
C  0.66879943 0.58638184 0.08450566
C  -1.74139795 0.35476548 0.24690870
C  -0.62018143 0.88962784 0.40419663
C  -0.46736498 0.87885419 -1.01538357
C  0.97201564 0.51290192 0.83661106
C  1.17062744 -0.80297077 -0.94943822
H  -0.02894644 0.27249110 0.40982877
H  -0.06875965 -0.42994234 -0.40809321
H  1.04978991 0.15623276 -0.08307333
H  -0.87114693 -1.49867444 0.59556611
H  0.33873870 -1.11921300 -0.27270519
H  -0.40217375 0.19954542 0.15107660
12
MD Step 967.5 Units = [eV / Ang.]
C  0.85873640 0.99869175 0.05672645
C  -1.59004463 0.65498080 0.32775350
C  -0.82814672 0.81975384 0.31490786
C  -0.57587043 0.60316031 -0.85261964
C  0.84755495 0.08384153 0.73725054
C  1.47877557 -0.50666701 -0.86682080
H  -0.27763119 -0.12549549 0.34734814
H  -0.00724507 -0.55286794 -0.40447124
H  0.99364796 0.09050130 -0.06888475
H  -0.73173944 -1.26225388 0.52237557
H  0.26499966 -0.99395897 -0.25275186
H  -0.43303706 0.19031377 0.13918623
12
MD Step 968.0 Units = [eV / Ang.]
C  1.02179764 1.40142272 0.03259671
C  -1.38636210 0.92455894 0.41154387
C  -0.94205268 0.73406093 0.22752506
C  -0.71417987 0.23289756 -0.66740951
C  0.73500527 -0.40124165 0.62402449
C  1.72749816 -0.21364478 -0.77679083
H  -0.51940223 -0.52705509 0.28091029
H  0.03417964 -0.63739140 -0.40548616
H  0.83528337 0.02163272 -0.05837172
H  -0.53165029 -0.91824980 0.43015763
H  0.15607512 -0.79767073 -0.22610923
H  -0.41619202 0.18068058 0.12740939
12
MD Step 968.5 Units = [eV / Ang.]
C  1.13970768 1.75074579 0.00434664
C  -1.13479440 1.14920130 0.50016725
C  -0.97351825 0.63856807 0.14077252
C  -0.87831880 -0.22043084 -0.46485010
C  0.63420283 -0.92412059 0.49851060
C  1.91038734 0.06987058 -0.68018863
H  -0.73097487 -0.88712351 0.21987109
H  0.05108853 -0.67652752 -0.41431715
H  0.59298531 -0.05115390 -0.04982595
H  -0.27731610 -0.47767267 0.32367840
H  0.01756688 -0.54160170 -0.19400893
H  -0.35101618 0.17024499 0.11584427
12
MD Step 969.0 Units = [eV / Ang.]
C  1.19515262 2.00054856 -0.03638982
C  -0.84330758 1.31933170 0.59415434
C  -0.94356313 0.53837264 0.05332485
C  -1.05849213 -0.73346127 -0.25232540
C  0.54204207 -1.46151212 0.36304973
C  2.02716276 0.33915678 -0.57785731
H  -0.88940718 -1.15818734 0.17412878
H  0.04208546 -0.66797270 -0.43273451
H  0.29458704 -0.12750592 -0.04142836
H  0.01779598 0.03610950 0.20997859
H  -0.14163969 -0.24324836 -0.15824809
H  -0.24241623 0.15836852 0.10434719
12
MD Step 969.5 Units = [eV / Ang.]
C  1.17603006 2.11195488 -0.09636199
C  -0.52304651 1.43073323 0.69241065
C  -0.87754805 0.43743780 -0.03576333
C  -1.23635219 -1.26654559 -0.03956027
C  0.45186324 -1.98440647 0.22067680
C  2.08313852 0.59091896 -0.47064482
H  -0.97675741 -1.29999075 0.15178663
H  0.00905409 -0.61435624 -0.46071706
H  -0.02802156 -0.20584615 -0.03169518
H  0.33058405 0.58281628 0.09837985
H  -0.30883256 0.07290291 -0.12112652
H  -0.10011169 0.14438112 0.09261524
12
MD Step 970.0 Units = [eV / Ang.]
C  1.07935423 2.06329074 -0.17845297
C  -0.18746427 1.48434246 0.79229103
C  -0.80040665 0.33871179 -0.12680334
C  -1.38422528 -1.76290473 0.16238046
C  0.35353192 -2.45883510 0.07488919
C  2.08790337 0.82307752 -0.35942983
H  -0.98440736 -1.28966839 0.15680074
H  -0.04317263 -0.52268503 -0.49643963
H  -0.34405177 -0.28366416 -0.01973387
H  0.62783308 1.10440584 -0.00057635
H  -0.46770411 0.37614389 -0.08522217
H  0.06280947 0.12778518 0.08029674
12
MD Step 970.5 Units = [eV / Ang.]
C  0.91305636 1.85636858 -0.28043351
C  0.14889030 1.48533455 0.88999986
C  -0.73338677 0.24437741 -0.21942448
C  -1.46819848 -2.15462016 0.34331209
C  0.23463285 -2.84881453 -0.07075829
C  2.05361977 1.03444415 -0.24515449
H  -0.91523473 -1.12811942 0.18767402
H  -0.10762646 -0.40315067 -0.53662497
H  -0.62736254 -0.35800512 -0.00528727
H  0.86973536 1.53121989 -0.07740834
H  -0.59979754 0.63256544 -0.05299246
H  0.23167189 0.10839989 0.06709783
12
MD Step 971.0 Units = [eV / Ang.]
C  0.69475005 1.51613512 -0.39539344
C  0.47162634 1.44180552 0.98117785
C  -0.69262051 0.15601750 -0.31266841
C  -1.45574433 -2.37654729 0.49674636
C  0.08290029 -3.12149883 -0.21315252
C  1.99333206 1.22434381 -0.12884756
H  -0.78262910 -0.83964758 0.23788135
H  -0.17627065 -0.26762970 -0.57713487
H  -0.85802474 -0.42594322 0.01137137
H  1.01801728 1.79619513 -0.12655329
H  -0.68726946 0.81035254 -0.02628513
H  0.39193275 0.08641700 0.05285829
12
MD Step 971.5 Units = [eV / Ang.]
C  0.44794465 1.08388171 -0.51365968
C  0.76754897 1.36337077 1.06151662
C  -0.68914672 0.07464146 -0.40515358
C  -1.32589023 -2.38455525 0.62193966
C  -0.11053236 -3.25341072 -0.35005888
C  1.91958452 1.39221794 -0.01162857
H  -0.60681447 -0.46506808 0.29783138
H  -0.24106281 -0.12821910 -0.61363372
H  -1.02228941 -0.48490737 0.02960382
H  1.04657409 1.85346019 -0.14841339
H  -0.71645148 0.88621687 -0.00592870
H  0.53053524 0.06237157 0.03758505
12
MD Step 972.0 Units = [eV / Ang.]
C  0.19729900 0.60720754 -0.62528064
C  1.02535515 1.25993162 1.12726092
C  -0.72969743 0.00064677 -0.49525477
C  -1.07744167 -2.17011593 0.72384938
C  -0.34805948 -3.23567270 -0.48032141
C  1.84345996 1.53729286 0.10530503
H  -0.41010317 -0.05151447 0.35743016
H  -0.29480838 0.00393098 -0.64216848
H  -1.11168638 -0.53283604 0.04856668
H  0.94999481 1.69322844 -0.14924872
H  -0.68109639 0.85084651 0.00841354
H  0.63678399 0.03705443 0.02144833
12
MD Step 972.5 Units = [eV / Ang.]
C  -0.03534448 0.13078422 -0.72204836
C  1.23599148 1.14074586 1.17552512
C  -0.81761342 -0.06616195 -0.58125868
C  -0.73082541 -1.76346560 0.81083449
C  -0.62385555 -3.07609983 -0.60374668
C  1.77399055 1.65838179 0.22069971
H  -0.21284954 0.35693018 0.40819883
H  -0.33171659 0.11938458 -0.65957797
H  -1.12196936 -0.56821362 0.06733267
H  0.74546555 1.34510745 -0.13875564
H  -0.58405830 0.71120931 0.01804434
H  0.70278506 0.01139761 0.00475216
12
MD Step 973.0 Units = [eV / Ang.]
C  -0.23319250 -0.30935273 -0.79850007
C  1.39277331 1.01379284 1.20443454
C  -0.95341364 -0.12639583 -0.66150070
C  -0.32243404 -1.22350051 0.89138325
C  -0.92420664 -2.79719435 -0.72075018
C  1.71782720 1.75383801 0.33327628
H  -0.03113033 0.72503152 0.44436683
H  -0.34766896 0.21081438 -0.66371485
H  -1.05242531 -0.59006710 0.08497387
H  0.46696367 0.86795439 -0.12663325
H  -0.43669026 0.48871777 0.02477233
H  0.72359752 -0.01363839 -0.01210804
12
MD Step 973.5 Units = [eV / Ang.]
C  -0.38495831 -0.68754080 -0.85193476
C  1.49138347 0.88538074 1.21312876
C  -1.13477184 -0.18074492 -0.73447287
C  0.10541132 -0.62001493 0.97158708
C  -1.22977700 -2.43082022 -0.83193283
C  1.67900951 1.82166412 0.44176022
H  0.12379928 1.02814199 0.46296721
H  -0.34028197 0.27313712 -0.65351559
H  -0.90581422 -0.59799497 0.10062318
H  0.15495213 0.33191489 -0.11990633
H  -0.25621498 0.21404188 0.03038851
H  0.69726262 -0.03716489 -0.02869260
12
MD Step 974.0 Units = [eV / Ang.]
C  -0.48413611 -0.98736025 -0.88184640
C  1.52985122 0.75990038 1.20169904
C  -1.35583010 -0.22956934 -0.79892351
C  0.51402406 -0.01692933 1.05427976
C  -1.51892891 -2.01166199 -0.93776473
C  1.65875087 1.85972563 0.54491554
H  0.24484066 1.25100744 0.46332417
H  -0.30885988 0.30352888 -0.62897211
H  -0.68899274 -0.59226047 0.11353575
H  -0.15341231 -0.19860083 -0.12196386
H  -0.06214297 -0.07933295 0.03628037
H  0.62483620 -0.05844717 -0.04456400
12
MD Step 974.5 Units = [eV / Ang.]
C  -0.52778388 -1.19924123 -0.88919739
C  1.50854553 0.63964951 1.17109419
C  -1.60602475 -0.27250397 -0.85394487
C  0.87404965 0.53750403 1.13958553
C  -1.77094957 -1.57163082 -1.03843458
C  1.65519455 1.86600069 0.64157528
H  0.32788782 1.38526907 0.44635972
H  -0.25431199 0.30142635 -0.59105039
H  -0.41402609 -0.57393805 0.12316536
H  -0.43007018 -0.67494501 -0.13309080
H  0.12701022 -0.36061949 0.04327001
H  0.51047868 -0.07697107 -0.05933206
12
MD Step 975.0 Units = [eV / Ang.]
C  -0.51534685 -1.31809790 -0.87582245
C  1.43018891 0.52470176 1.12302315
C  -1.86885666 -0.30820628 -0.89905713
C  1.16676630 1.01263589 1.22604854
C  -1.96836706 -1.13651156 -1.13384439
C  1.66319644 1.83882423 0.73067462
H  0.37071006 1.42697992 0.41400780
H  -0.17906984 0.26856720 -0.54157793
H  -0.09935483 -0.54504378 0.12925273
H  -0.65729406 -1.06632229 -0.15165999
H  0.29586935 -0.60503221 0.05165290
H  0.36155822 -0.09249497 -0.07269784
12
MD Step 975.5 Units = [eV / Ang.]
C  -0.44781457 -1.34175290 -0.84407969
C  1.29982087 0.41280269 1.05984196
C  -2.12128491 -0.33433712 -0.93427054
C  1.38242621 1.39212924 1.31163117
C  -2.09810854 -0.72495830 -1.22366926
C  1.67426006 1.77707309 0.81127970
H  0.37220017 1.37493128 0.36885494
H  -0.08700071 0.20906353 -0.48309815
H  0.22968550 -0.50853771 0.13190646
H  -0.82585716 -1.35655817 -0.17525191
H  0.43302939 -0.79477496 0.06134577
H  0.18864369 -0.10508069 -0.08449045
12
MD Step 976.0 Units = [eV / Ang.]
C  -0.32736401 -1.27046990 -0.79674063
C  1.12466315 0.29937525 0.98440275
C  -2.33458860 -0.34788141 -0.96009061
C  1.51748600 1.66878618 1.39428857
C  -2.15170779 -0.34916404 -1.30741773
C  1.67681821 1.68027418 0.88260946
H  0.33213408 1.23013495 0.31399900
H  0.01672795 0.12942241 -0.41867049
H  0.54181915 -0.46807334 0.13163081
H  -0.93206660 -1.53890565 -0.20137734
H  0.53088479 -0.91840462 0.07205618
H  0.00519365 -0.11509401 -0.09468996
12
MD Step 976.5 Units = [eV / Ang.]
C  -0.15753631 -1.10769324 -0.73703349
C  0.91379881 0.17773901 0.89983617
C  -2.47732071 -0.34582201 -0.97742629
C  1.57199807 1.83983639 1.47215260
C  -2.12495727 -0.01629458 -1.38446748
C  1.65703482 1.54864281 0.94404398
H  0.25149903 0.99655378 0.25304270
H  0.12589203 0.03838635 -0.35159463
H  0.80289683 -0.42743347 0.12925505
H  -0.97502847 -1.61126508 -0.22780399
H  0.58496216 -0.96948889 0.08342074
H  -0.17323900 -0.12316107 -0.10342536
12
MD Step 977.0 Units = [eV / Ang.]
C  0.05603726 -0.86187423 -0.66871197
C  0.67763663 0.03966242 0.80926124
C  -2.52032859 -0.32604154 -0.98738176
C  1.54777193 1.90377403 1.54348585
C  -2.01740435 0.27008278 -1.45407904
C  1.60023437 1.38305581 0.99511556
H  0.13337544 0.68296465 0.19009274
H  0.23361292 -0.05354803 -0.28505674
H  0.98103557 -0.38973429 0.12574255
H  -0.95479369 -1.57293995 -0.25262611
H  0.59321606 -0.94533021 0.09509543
H  -0.33039355 -0.13007144 -0.11093775
12
MD Step 977.5 Units = [eV / Ang.]
C  0.30447385 -0.54898338 -0.59597895
C  0.42716966 -0.12364671 0.71544544
C  -2.44279853 -0.28818343 -0.99097079
C  1.44744225 1.85901796 1.60657405
C  -1.83193610 0.50905891 -1.51541291
C  1.49288261 1.18499354 1.03548591
H  -0.01576596 0.30553409 0.12959900
H  0.33293483 -0.13503191 -0.22172891
H  1.05277350 -0.35664907 0.12191941
H  -0.87156597 -1.42324495 -0.27422706
H  0.55559069 -0.84623095 0.10680276
H  -0.45120082 -0.13663409 -0.11750792
12
MD Step 978.0 Units = [eV / Ang.]
C  0.57435899 -0.19487795 -0.52309863
C  0.17314390 -0.32013860 0.62048155
C  -2.23745173 -0.23412262 -0.98884706
C  1.27451513 1.70444607 1.65967765
C  -1.57461784 0.70213425 -1.56756111
C  1.32480111 0.95651636 1.06491824
H  -0.18470578 -0.10976074 0.07587778
H  0.41752497 -0.19516478 -0.16339862
H  1.00832552 -0.32798173 0.11821706
H  -0.72599707 -1.16203612 -0.29125111
H  0.47399336 -0.67550216 0.11834586
H  -0.52389055 -0.14351196 -0.12336162
12
MD Step 978.5 Units = [eV / Ang.]
C  0.84697681 0.16389031 -0.45361553
C  -0.07473376 -0.55526200 0.52557114
C  -1.91294093 -0.16782262 -0.98116316
C  1.03440265 1.44180564 1.70112194
C  -1.25481229 0.85368541 -1.60960779
C  1.09116796 0.70030887 1.08326874
H  -0.35671365 -0.52629079 0.03224838
H  0.48239328 -0.22503103 -0.11072554
H  0.85396969 -0.30181440 0.11454275
H  -0.52055284 -0.79218386 -0.30265838
H  0.35268992 -0.44020841 0.12959643
H  -0.54184685 -0.15107714 -0.12857899
12
MD Step 979.0 Units = [eV / Ang.]
C  1.09889494 0.48241912 -0.38930729
C  -0.30834937 -0.83039777 0.43099179
C  -1.49248315 -0.09462994 -0.96761620
C  0.73642714 1.07997210 1.72955149
C  -0.88550297 0.97192272 -1.64070471
C  0.79376040 0.41984753 1.09051186
H  -0.51023066 -0.89913077 -0.00006674
H  0.52447217 -0.21914171 -0.06321433
H  0.61058563 -0.27519523 0.11033734
H  -0.26186465 -0.32392614 -0.30789668
H  0.19898882 -0.15240908 0.14045353
H  -0.50469831 -0.15933082 -0.13304005
12
MD Step 979.5 Units = [eV / Ang.]
C  1.30458616 0.71392125 -0.32929318
C  -0.52140951 -1.14176733 0.33627479
C  -1.00929146 -0.02030593 -0.94764798
C  0.39643412 0.64045926 1.74430470
C  -0.48360746 1.06989459 -1.66013945
C  0.44114872 0.11967455 1.08680926
H  -0.62165520 -1.18156828 -0.02284134
H  0.54292538 -0.17642574 -0.01943493
H  0.30893759 -0.24507647 0.10478814
H  0.03634855 0.21952870 -0.30715531
H  0.02392799 0.16957945 0.15076421
H  -0.41834488 -0.16791405 -0.13642893
12
MD Step 980.0 Units = [eV / Ang.]
C  1.44097495 0.81944936 -0.26988889
C  -0.70930067 -1.48013831 0.24054511
C  -0.50059771 0.04980790 -0.92070027
C  0.03905537 0.16246362 1.74574965
C  -0.06992198 1.16583492 -1.66736508
C  0.04778614 -0.19428990 1.07260291
H  -0.67007600 -1.33488347 -0.04093900
H  0.53910995 -0.10048344 0.02255964
H  -0.01647291 -0.20913439 0.09709663
H  0.35082335 0.79693037 -0.30156399
H  -0.15747898 0.50064706 0.16020084
H  -0.29390153 -0.17620373 -0.13829754
12
MD Step 980.5 Units = [eV / Ang.]
C  1.49264202 0.77780064 -0.20560034
C  -0.86871112 -1.83143349 0.14292197
C  -0.00223058 0.11124965 -0.88642309
C  -0.30207746 -0.29574059 1.73532280
C  0.33173658 1.28202454 -1.66197317
C  -0.36766825 -0.51449697 1.04870403
H  -0.64261311 -1.33828533 -0.06121318
H  0.51621652 0.00096827 0.06473072
H  -0.33295716 -0.16622368 0.08669500
H  0.64850103 1.34765569 -0.29310220
H  -0.32694867 0.80994259 0.16810637
H  -0.14588981 -0.18346131 -0.13816891
12
MD Step 981.0 Units = [eV / Ang.]
C  1.45560390 0.59146175 -0.13105098
C  -0.99718798 -2.17811558 0.04285829
C  0.45496943 0.16048194 -0.84477566
C  -0.58793893 -0.66268070 1.71502403
C  0.69647943 1.44156987 -1.64362379
C  -0.78434132 -0.83171065 1.01634144
H  -0.53822399 -1.19481953 -0.09043803
H  0.47869258 0.11730439 0.10860378
H  -0.61326418 -0.11643116 0.07335525
H  0.89030981 1.79777486 -0.28400527
H  -0.46493898 1.06415088 0.17335771
H  0.00984023 -0.18898607 -0.13564678
12
MD Step 981.5 Units = [eV / Ang.]
C  1.33790515 0.28578193 -0.04301109
C  -1.09279753 -2.50100225 -0.05966115
C  0.84664383 0.19470160 -0.79603148
C  -0.78202541 -0.86836657 1.68640544
C  1.00128754 1.66327989 -1.61200070
C  -1.18098106 -1.13522635 0.97714974
H  -0.36820183 -0.93042909 -0.13313141
H  0.43159675 0.23652022 0.15497510
H  -0.83701197 -0.06085629 0.05719396
H  1.03944641 2.07497715 -0.27572196
H  -0.55384651 1.23285416 0.17433648
H  0.15798464 -0.19223441 -0.13050293
12
MD Step 982.0 Units = [eV / Ang.]
C  1.15678960 -0.09818201 0.05841314
C  -1.15398451 -2.78116655 -0.16407635
C  1.15482910 0.21162748 -0.74072417
C  -0.86037160 -0.86418488 1.64953884
C  1.22830008 1.95586985 -1.56687062
C  -1.53739659 -1.41337502 0.93309213
H  -0.15313305 -0.58662995 -0.19025247
H  0.38001273 0.34673450 0.20381168
H  -0.99044608 -0.00128984 0.03861336
H  1.07186564 2.12872550 -0.26791387
H  -0.58162922 1.29475426 0.16909291
H  0.28516390 -0.19288334 -0.12272458
12
MD Step 982.5 Units = [eV / Ang.]
C  0.93385116 -0.51379642 0.16987951
C  -1.17963428 -3.00160262 -0.26933626
C  1.36708725 0.20947186 -0.67958278
C  -0.81910900 -0.63945355 1.60269460
C  1.36741501 2.31361493 -1.50829203
C  -1.83545877 -1.65428289 0.88632838
H  0.08222660 -0.21020881 -0.25923562
H  0.32860911 0.43739058 0.25432475
H  -1.06536623 0.06008110 0.01822155
H  0.98426925 1.94696068 -0.25820867
H  -0.54461552 1.24266322 0.15572840
H  0.38072541 -0.19083806 -0.11252183
12
MD Step 983.0 Units = [eV / Ang.]
C  0.69026267 -0.91789778 0.28589880
C  -1.16923136 -3.14852527 -0.37404439
C  1.47557223 0.18713928 -0.61347945
C  -0.67540404 -0.22580821 1.54310353
C  1.41725725 2.71537252 -1.43691572
C  -2.05979851 -1.84674965 0.83905167
H  0.31399579 0.15593285 -0.33507504
H  0.28135626 0.50006395 0.30515495
H  -1.05798389 0.12088974 -0.00324031
H  0.79526683 1.56050013 -0.24305028
H  -0.44837451 1.08528125 0.13289925
H  0.43708129 -0.18619879 -0.10030301
12
MD Step 983.5 Units = [eV / Ang.]
C  0.44365171 -1.27621822 0.40023252
C  -1.12303255 -3.21223906 -0.47661443
C  1.47653309 0.14458602 -0.54339941
C  -0.46115776 0.31308306 1.46839941
C  1.38423842 3.12770948 -1.35422238
C  -2.19840723 -1.98115962 0.79331271
H  0.52252241 0.47820784 -0.41176424
H  0.24138088 0.52888535 0.35460680
H  -0.96823030 0.17874061 -0.02495552
H  0.53900880 1.03260689 -0.21921994
H  -0.30627861 0.84500390 0.10025486
H  0.44977112 -0.17920624 -0.08663037
12
MD Step 984.0 Units = [eV / Ang.]
C  0.20704157 -1.56489159 0.50700190
C  -1.04214753 -3.18763591 -0.57541010
C  1.37051509 0.08312303 -0.47041034
C  -0.21295952 0.90075360 1.37784815
C  1.28020324 3.51108291 -1.26254720
C  -2.24326447 -2.05029275 0.75085522
H  0.69360485 0.73373991 -0.48347461
H  0.21089588 0.52070491 0.40088502
H  -0.79976557 0.23134126 -0.04608304
H  0.25480797 0.43957141 -0.18513047
H  -0.13636840 0.55268651 0.05863038
H  0.41743689 -0.17018328 -0.07216490
12
MD Step 984.5 Units = [eV / Ang.]
C  -0.01063662 -1.76924870 0.60126396
C  -0.92848589 -3.07436222 -0.66886251
C  1.16325839 0.00547810 -0.39561389
C  0.03683470 1.46657691 1.27272631
C  1.11968725 3.82691134 -1.16484144
C  -2.19105404 -2.04996156 0.71297349
H  0.81807200 0.90897174 -0.54520855
H  0.19115819 0.47510659 0.44230947
H  -0.56069017 0.27667163 -0.06581829
H  -0.02224555 -0.14808038 -0.14126033
H  0.04225470 0.24142170 0.00993265
H  0.34184703 -0.15948515 -0.05760088
12
MD Step 985.0 Units = [eV / Ang.]
C  -0.20328580 -1.88147469 0.67912063
C  -0.78456649 -2.87673899 -0.75557735
C  0.86705521 -0.08450474 -0.32006194
C  0.26482715 1.95701334 1.15587294
C  0.91770671 4.04335395 -1.06426363
C  -2.04387584 -1.97939617 0.68041198
H  0.89056502 0.99712063 -0.59298153
H  0.18241011 0.39437229 0.47750196
H  -0.26472071 0.31322650 -0.08347811
H  -0.26646460 -0.67687348 -0.08975245
H  0.21234826 -0.05863612 -0.04320079
H  0.22800096 -0.14746253 -0.04359172
12
MD Step 985.5 Units = [eV / Ang.]
C  -0.36636640 -1.89836826 0.73757945
C  -0.61323362 -2.60345698 -0.83444006
C  0.50203488 -0.18250733 -0.24463716
C  0.45695662 2.33824227 1.03088528
C  0.68853672 4.13858882 -0.96376089
C  -1.80979700 -1.84133618 0.65330503
H  0.90827423 0.99577447 -0.62374295
H  0.18379588 0.28341011 0.50554399
H  0.06767202 0.34032524 -0.09861358
H  -0.46229074 -1.11294114 -0.03364437
H  0.36016620 -0.32329329 -0.09781387
H  0.08425122 -0.13443774 -0.03066087
12
MD Step 986.0 Units = [eV / Ang.]
C  -0.49606752 -1.81986911 0.77438663
C  -0.41735088 -2.26707015 -0.90471806
C  0.09656196 -0.28453001 -0.16991824
C  0.60623411 2.59290437 0.90142318
C  0.44537367 4.10152954 -0.86577723
C  -1.50299106 -1.64184161 0.63116502
H  0.87010411 0.90535106 -0.63525635
H  0.19327222 0.14960922 0.52609918
H  0.40894267 0.35841163 -0.11113265
H  -0.60220208 -1.43863638 0.02380961
H  0.47584875 -0.53517022 -0.15097764
H  -0.07772595 -0.12068834 -0.01910345
12
MD Step 986.5 Units = [eV / Ang.]
C  -0.58916193 -1.64863992 0.78799931
C  -0.19957436 -1.88328274 -0.96613595
C  -0.31408567 -0.38757231 -0.09608051
C  0.70971201 2.71462538 0.77084369
C  0.20050100 3.93067041 -0.77214678
C  -1.14322075 -1.38983465 0.61291847
H  0.77650786 0.72872138 -0.62610753
H  0.20756909 0.00252592 0.53948136
H  0.72581506 0.36920111 -0.12138609
H  -0.68371824 -1.64691097 0.07950773
H  0.55298611 -0.68306764 -0.20000502
H  -0.24333018 -0.10643599 -0.00888867
12
MD Step 987.0 Units = [eV / Ang.]
C  -0.64360442 -1.39072614 0.77779582
C  0.03769751 -1.47000531 -1.01889233
C  -0.69134577 -0.48990762 -0.02289226
C  0.76593729 2.70291224 0.64214670
C  -0.03446762 3.63203812 -0.68414133
C  -0.75447671 -1.09646489 0.59699580
H  0.63005101 0.47201370 -0.59593847
H  0.22227277 -0.14669510 0.54664136
H  0.98287076 0.37550692 -0.13015493
H  -0.70678068 -1.73612278 0.13057794
H  0.58786660 -0.76071426 -0.24254628
H  -0.39602072 -0.09183488 0.00040797
12
MD Step 987.5 Units = [eV / Ang.]
C  -0.65981006 -1.05716885 0.74454464
C  0.29211774 -1.04616645 -1.06358351
C  -0.99905911 -0.59079260 0.05014221
C  0.77336649 2.55965197 0.51811008
C  -0.24856424 3.21706053 -0.60259853
C  -0.36274369 -0.77435388 0.58148214
H  0.43662719 0.14642607 -0.54592267
H  0.23211305 -0.28623016 0.54904378
H  1.14816213 0.38065903 -0.13849243
H  -0.67205464 -1.70652863 0.17428396
H  0.57881449 -0.76559624 -0.27662024
H  -0.51896935 -0.07696080 0.00961056
12
MD Step 988.0 Units = [eV / Ang.]
C  -0.64232839 -0.66613514 0.69103522
C  0.56092302 -0.63032757 -1.10101784
C  -1.20992970 -0.68966370 0.12349947
C  0.72982959 2.28755863 0.40146468
C  -0.43179874 2.70094140 -0.52803956
C  0.00688488 -0.43681460 0.56433388
H  0.20701908 -0.22944661 -0.47938187
H  0.23149572 -0.40478286 0.54842609
H  1.19956167 0.38760956 -0.14743104
H  -0.58026868 -1.55883253 0.20790833
H  0.52586377 -0.69830291 -0.30065161
H  -0.59725222 -0.06180368 0.01985426
12
MD Step 988.5 Units = [eV / Ang.]
C  -0.60131130 -0.24472016 0.62262737
C  0.84027995 -0.23922089 -1.13194935
C  -1.31068486 -0.78518495 0.19730446
C  0.63297982 1.89063088 0.29496414
C  -0.57585537 2.10181163 -0.46070182
C  0.33325058 -0.09708900 0.54365038
H  -0.04180135 -0.62768061 -0.40229041
H  0.21525465 -0.49292753 0.54646831
H  1.12976670 0.39802876 -0.15764528
H  -0.43256251 -1.29481443 0.22875291
H  0.43086270 -0.56256378 -0.31357497
H  -0.62017901 -0.04626991 0.03239426
12
MD Step 989.0 Units = [eV / Ang.]
C  -0.55286472 0.17088136 0.54731425
C  1.12461265 0.11359317 -1.15679027
C  -1.30404072 -0.87456751 0.27108122
C  0.48168550 1.37659220 0.20120412
C  -0.67507271 1.44070834 -0.40043610
C  0.60167132 0.23235150 0.51795980
H  -0.28655104 -1.01084648 -0.32326552
H  0.17950816 -0.54433725 0.54443973
H  0.94804344 0.41176738 -0.16920595
H  -0.23179534 -0.91999776 0.23439792
H  0.29798605 -0.36594577 -0.31504258
H  -0.58318259 -0.03019918 0.04834337
12
MD Step 989.5 Units = [eV / Ang.]
C  -0.51732893 0.53821469 0.47488831
C  1.40613953 0.41870274 -1.17539269
C  -1.20676255 -0.95348689 0.34369469
C  0.27826788 0.76113603 0.12206056
C  -0.72755028 0.74214940 -0.34646860
C  0.80537008 0.54044600 0.48645807
H  -0.49963487 -1.33499533 -0.25263559
H  0.12242815 -0.55660362 0.54291624
H  0.67799376 0.42692085 -0.18153338
H  0.01529986 -0.44811453 0.22333985
H  0.13449892 -0.12097143 -0.30572914
H  -0.48872155 -0.01339790 0.06840169
12
MD Step 990.0 Units = [eV / Ang.]
C  -0.51511412 0.81504027 0.41506197
C  1.67480927 0.67127294 -1.18697330
C  -1.04473166 -1.01659125 0.41350388
C  0.03122672 0.07314615 0.05769580
C  -0.73607593 0.03482586 -0.29708779
C  0.94546928 0.81806108 0.44913673
H  -0.65362897 -1.55640117 -0.20046080
H  0.04472384 -0.53144788 0.54165069
H  0.35226192 0.44044218 -0.19356222
H  0.29550660 0.09350277 0.19604029
H  -0.04853663 0.15383307 -0.28766324
H  -0.34591030 0.00431597 0.09265799
12
MD Step 990.5 Units = [eV / Ang.]
C  -0.56093596 0.96832165 0.37496719
C  1.91875531 0.87085788 -1.19021056
C  -0.84698459 -1.05834493 0.47864551
C  -0.24243102 -0.64113172 0.00532190
C  -0.70848859 -0.64833894 -0.24940165
C  1.02966616 1.05835942 0.40676365
H  -0.72739135 -1.64088167 -0.17395125
H  -0.05030591 -0.47426774 0.53963670
H  0.00618174 0.44900765 -0.20403302
H  0.58699067 0.65967145 0.15617756
H  -0.23606789 0.43368071 -0.26443615
H  -0.16898857 0.02306624 0.12052013
12
MD Step 991.0 Units = [eV / Ang.]
C  -0.65855712 0.98271851 0.35701253
C  2.12519303 1.02069324 -1.18348291
C  -0.64066924 -1.07388267 0.53733504
C  -0.51673853 -1.31819163 -0.04171937
C  -0.65704256 -1.27156999 -0.19936176
C  1.07006249 1.25696023 0.36072553
H  -0.71166167 -1.57259273 -0.17528741
H  -0.15716100 -0.39316682 0.53534155
H  -0.32762291 0.44978881 -0.21178708
H  0.85914839 1.18751842 0.11152234
H  -0.40986547 0.68884510 -0.24108614
H  0.02491460 0.04287954 0.15078765
12
MD Step 991.5 Units = [eV / Ang.]
C  -0.79850198 0.86493768 0.35814259
C  2.28160658 1.12666395 -1.16517065
C  -0.44801960 -1.05964353 0.58809741
C  -0.75973125 -1.88486090 -0.09368919
C  -0.59651616 -1.79957071 -0.14224055
C  1.08078949 1.41183733 0.31278691
H  -0.61168136 -1.35855511 -0.20090351
H  -0.26887062 -0.29771367 0.52703634
H  -0.62253553 0.44091504 -0.21597360
H  1.07599172 1.60426130 0.07356415
H  -0.55065339 0.88806685 -0.22348251
H  0.21812211 0.06366176 0.18183260
12
MD Step 992.0 Units = [eV / Ang.]
C  -0.95998207 0.64185552 0.37091371
C  2.37697025 1.19618970 -1.13393942
C  -0.28539610 -1.01373283 0.62989473
C  -0.94023229 -2.27382601 -0.16232168
C  -0.54126860 -2.20254282 -0.07359132
C  1.07596073 1.52297865 0.26483535
H  -0.44556350 -1.02677673 -0.24264052
H  -0.37787486 -0.19771711 0.51313230
H  -0.85904531 0.42159813 -0.21613884
H  1.20344212 1.84302201 0.05523206
H  -0.64136375 1.00376034 -0.21720472
H  0.39435337 0.08519113 0.21182834
12
MD Step 992.5 Units = [eV / Ang.]
C  -1.11621431 0.35326866 0.38584433
C  2.40279116 1.23720838 -1.08893677
C  -0.16376276 -0.93605462 0.66217054
C  -1.03662534 -2.44247756 -0.25712147
C  -0.50197212 -2.46163609 0.00953697
C  1.06823515 1.59187896 0.21867021
H  -0.23920014 -0.61883833 -0.29021440
H  -0.47687039 -0.10222605 0.49244742
H  -1.02427729 0.39202302 -0.21222378
H  1.21857883 1.86198363 0.06703390
H  -0.67069523 1.01774447 -0.22617473
H  0.54001242 0.10712552 0.23896777
12
MD Step 993.0 Units = [eV / Ang.]
C  -1.24077923 0.04252753 0.39393073
C  2.35384235 1.25736206 -1.02988641
C  -0.08979009 -0.82826925 0.68483896
C  -1.04375941 -2.38646143 -0.38166171
C  -0.48312194 -2.57289758 0.10757552
C  1.06799501 1.62099136 0.17586177
H  -0.02002802 -0.18026678 -0.33385458
H  -0.55948732 -0.01884773 0.46436658
H  -1.11080488 0.35314213 -0.20451182
H  1.11685719 1.65817354 0.11323455
H  -0.63573979 0.92552701 -0.25152896
H  0.64481613 0.12901913 0.26163535
12
MD Step 993.5 Units = [eV / Ang.]
C  -1.31264419 -0.25138287 0.38837803
C  2.22855617 1.26340450 -0.95709103
C  -0.06689952 -0.69360111 0.69824774
C  -0.97438183 -2.14060729 -0.53190926
C  -0.48225494 -2.54805754 0.21806186
C  1.08298096 1.61324947 0.13767579
H  0.18798817 0.24765706 -0.36613466
H  -0.62074766 0.04663049 0.42889131
H  -1.11548229 0.30647448 -0.19356690
H  0.91357281 1.26844565 0.19013291
H  -0.54262935 0.73744110 -0.29121001
H  0.70194166 0.15034604 0.27852421
12
MD Step 994.0 Units = [eV / Ang.]
C  -1.31862571 -0.49827802 0.36521054
C  2.02909512 1.26080104 -0.87137463
C  -0.09582546 -0.53652868 0.70312679
C  -0.85433890 -1.76667930 -0.69754791
C  -0.49112809 -2.41172117 0.33610131
C  1.11816132 1.57174206 0.10504274
H  0.36694806 0.63254753 -0.38264144
H  -0.65731890 0.09039088 0.38660147
H  -1.03875974 0.25395496 -0.18017786
H  0.63879930 0.75709203 0.28741474
H  -0.40493942 0.47614864 -0.34046599
H  0.70793240 0.17053003 0.28871023
12
MD Step 994.5 Units = [eV / Ang.]
C  -1.25342360 -0.67765517 0.32300680
C  1.76117837 1.25347239 -0.77400002
C  -0.17451517 -0.36239280 0.70052339
C  -0.71420469 -1.33464779 -0.86542288
C  -0.49829255 -2.19602701 0.45546537
C  1.17565001 1.49953954 0.07853653
H  0.50529993 0.95192119 -0.38171712
H  -0.66761864 0.11060960 0.33855674
H  -0.88468008 0.19782117 -0.16530714
H  0.32856229 0.19682773 0.39169202
H  -0.24052935 0.17154952 -0.39303759
H  0.66257348 0.18898163 0.29170392
12
MD Step 995.0 Units = [eV / Ang.]
C  -1.11812438 -0.77724274 0.26222617
C  1.43372545 1.24364701 -0.66657206
C  -0.29737174 -0.17698022 0.69171269
C  -0.58138660 -0.90630206 -1.02318277
C  -0.49202662 -1.93470244 0.56986215
C  1.25457237 1.39964328 0.05834884
H  0.59669969 1.19176574 -0.36375288
H  -0.65182659 0.10743173 0.28615952
H  -0.66153457 0.14049592 -0.15002505
H  0.01644435 -0.34792557 0.49027090
H  -0.06802636 -0.14497714 -0.44254232
H  0.56885500 0.20514649 0.28749483
12
MD Step 995.5 Units = [eV / Ang.]
C  -0.91816371 -0.79064330 0.18452819
C  1.05837226 1.23178664 -0.55093367
C  -0.45411501 0.01390286 0.67806706
C  -0.47549970 -0.52652588 -1.16158327
C  -0.46264527 -1.65832194 0.67394038
C  1.35086326 1.27500135 0.04424371
H  0.63839737 1.34413078 -0.33044500
H  -0.61183485 0.08293595 0.23099331
H  -0.38289759 0.08440654 -0.13540149
H  -0.27147815 -0.83003807 0.57358074
H  0.09595347 -0.44519964 -0.48358545
H  0.43304793 0.21856470 0.27659551
12
MD Step 996.0 Units = [eV / Ang.]
C  -0.66146383 -0.71520332 0.09229493
C  0.64887389 1.21660719 -0.42904737
C  -0.62872169 0.20485200 0.66087307
C  -0.40745205 -0.22237854 -1.27507558
C  -0.40372974 -1.39164453 0.76380391
C  1.45709891 1.12853721 0.03551281
H  0.62983296 1.40489755 -0.28424380
H  -0.55113195 0.04106645 0.17464340
H  -0.06855950 0.03170327 -0.12233486
H  -0.51786302 -1.22074550 0.63585945
H  0.23832514 -0.70662865 -0.51235788
H  0.26479087 0.22893689 0.26007191
12
MD Step 996.5 Units = [eV / Ang.]
C  -0.35710501 -0.55070447 -0.01160483
C  0.22039180 1.19520476 -0.30285621
C  -0.79916680 0.39127678 0.64109325
C  -0.38105705 -0.00696768 -1.36119872
C  -0.31231507 -1.15295890 0.83707216
C  1.56253717 0.96315267 0.03096020
H  0.57177680 1.37237471 -0.22804746
H  -0.47459834 -0.01250905 0.11850834
H  0.25536226 -0.01611438 -0.11131710
H  -0.71268518 -1.50579477 0.67460269
H  0.34986234 -0.91314441 -0.52674630
H  0.07699708 0.23618476 0.23953398
12
MD Step 997.0 Units = [eV / Ang.]
C  -0.01469030 -0.29917710 -0.12386111
C  -0.21134296 1.16334973 -0.17413546
C  -0.93869042 0.56973656 0.61911484
C  -0.39563895 0.11526049 -1.41953115
C  -0.18840628 -0.95477508 0.89266057
C  1.65357656 0.78172449 0.02895294
H  0.46613357 1.24704116 -0.16509668
H  -0.38816405 -0.07070712 0.06362029
H  0.55787258 -0.05857507 -0.10218146
H  -0.85075867 -1.68004608 0.68953456
H  0.42474776 -1.05431574 -0.52613011
H  -0.11463886 0.24048377 0.21705277
12
MD Step 997.5 Units = [eV / Ang.]
C  0.35560515 0.03412071 -0.24069005
C  -0.63098139 1.11600389 -0.04435970
C  -1.01902490 0.73806736 0.59456678
C  -0.44850955 0.14399182 -1.45075001
C  -0.03425098 -0.80503722 0.93047611
C  1.71482310 0.58710698 0.02757452
H  0.31638707 1.03250327 -0.09896394
H  -0.29830975 -0.12556235 0.01050511
H  0.80653370 -0.09645315 -0.09392670
H  -0.92936425 -1.74276669 0.68166195
H  0.45983373 -1.12421883 -0.51106806
H  -0.29274192 0.24224421 0.19497399
12
MD Step 998.0 Units = [eV / Ang.]
C  0.74235124 0.43865596 -0.35784822
C  -1.02456072 1.04807314 0.08537361
C  -1.01529305 0.89517167 0.56631843
C  -0.53676525 0.08019982 -1.45605127
C  0.14631831 -0.70821331 0.95116297
C  1.73081473 0.38217737 0.02488054
H  0.12858400 0.73756526 -0.03350916
H  -0.21142401 -0.16901121 -0.04087812
H  0.97258697 -0.13165033 -0.08473838
H  -0.94658649 -1.69459791 0.65267858
H  0.45398839 -1.12039392 -0.48301658
H  -0.44001414 0.24202347 0.17562758
12
MD Step 998.5 Units = [eV / Ang.]
C  1.13179935 0.89594398 -0.47083511
C  -1.38045038 0.95536276 0.21432809
C  -0.91138793 1.04041638 0.53273552
C  -0.65816242 -0.07483276 -1.43697886
C  0.34825953 -0.66586552 0.95595203
C  1.68820847 0.16994616 0.01922513
H  -0.08740635 0.37895636 0.02733857
H  -0.13309090 -0.19387061 -0.09108308
H  1.03653737 -0.16666580 -0.07228707
H  -0.90059876 -1.53643390 0.60477443
H  0.40775278 -1.04333285 -0.44414016
H  -0.54146076 0.24037581 0.16097052
12
MD Step 999.0 Units = [eV / Ang.]
C  1.50686571 1.37717567 -0.57538538
C  -1.69007046 0.83558030 0.34200172
C  -0.70402425 1.17279448 0.49216594
C  -0.81096839 -0.31869599 -1.39561033
C  0.56535625 -0.67652888 0.94660559
C  1.57800838 -0.04629187 0.00957524
H  -0.31682937 -0.01623931 0.08007768
H  -0.06743878 -0.19484936 -0.14099709
H  0.99236571 -0.20377446 -0.05427053
H  -0.79000724 -1.27018705 0.54079737
H  0.32339997 -0.89665730 -0.39720434
H  -0.58665753 0.23767378 0.15224414
12
MD Step 999.5 Units = [eV / Ang.]
C  1.84684492 1.84264235 -0.66824530
C  -1.94822665 0.68920863 0.46791038
C  -0.40391575 1.29016559 0.44350581
C  -0.99262742 -0.64532716 -1.33499096
C  0.78989565 -0.73496266 0.92538960
C  1.39727778 -0.26279815 -0.00427615
H  -0.53988256 -0.40996929 0.12239876
H  -0.01668265 -0.16939405 -0.19156199
H  0.84878035 -0.24421177 -0.02903540
H  -0.61535174 -0.90137959 0.46464678
H  0.20536976 -0.68793229 -0.34548344
H  -0.57148169 0.23395838 0.14974190
12
MD Step 1000.0 Units = [eV / Ang.]
C  2.12859665 2.24460118 -0.74802164
C  -2.15296794 0.52001057 0.59133971
C  -0.03359940 1.38892973 0.38663604
C  -1.19721659 -1.04104069 -1.25961663
C  1.01212508 -0.83102526 0.89498261
C  1.14983132 -0.47528260 -0.02167898
H  -0.73318592 -0.75607735 0.15400627
H  0.01902641 -0.11815490 -0.24346070
H  0.62701475 -0.28769398 0.00394871
H  -0.38175616 -0.44329312 0.38168586
H  0.06093719 -0.42984813 -0.29258671
H  -0.49880539 0.22887457 0.15276546
