11
Cyclobutanone
 C                 -0.60216162    0.14587632    0.84292911
 C                 -0.54830386   -0.81027816   -0.37735829
 H                 -1.37705720   -0.89900152   -1.04832481
 H                 -0.31281546   -1.80654680   -0.06608026
 C                  0.65320302    0.00437466   -0.85635080
 H                  1.41660484   -0.43222107   -1.46586030
 H                  0.30841253    0.86758276   -1.38634258
 C                  0.91312744    0.37570744    0.60353382
 H                  1.49387041   -0.34037907    1.14654186
 H                  1.36560581    1.32673351    0.79251198
 O                 -1.59587561    0.61249505    1.75928027