 Entering Gaussian System, Link 0=g16
 Initial command:
 /software/gaussian/g16-c01/avx2/g16/l1.exe "/local_scratch/28554158/Gau-25326.inp" -scrdir="/local_scratch/28554158/"
 Entering Link 1 = /software/gaussian/g16-c01/avx2/g16/l1.exe PID=     25345.
  
 Copyright (c) 1988-2019, Gaussian, Inc.  All Rights Reserved.
  
 This is part of the Gaussian(R) 16 program.  It is based on
 the Gaussian(R) 09 system (copyright 2009, Gaussian, Inc.),
 the Gaussian(R) 03 system (copyright 2003, Gaussian, Inc.),
 the Gaussian(R) 98 system (copyright 1998, Gaussian, Inc.),
 the Gaussian(R) 94 system (copyright 1995, Gaussian, Inc.),
 the Gaussian 92(TM) system (copyright 1992, Gaussian, Inc.),
 the Gaussian 90(TM) system (copyright 1990, Gaussian, Inc.),
 the Gaussian 88(TM) system (copyright 1988, Gaussian, Inc.),
 the Gaussian 86(TM) system (copyright 1986, Carnegie Mellon
 University), and the Gaussian 82(TM) system (copyright 1983,
 Carnegie Mellon University). Gaussian is a federally registered
 trademark of Gaussian, Inc.
  
 This software contains proprietary and confidential information,
 including trade secrets, belonging to Gaussian, Inc.
  
 This software is provided under written license and may be
 used, copied, transmitted, or stored only in accord with that
 written license.
  
 The following legend is applicable only to US Government
 contracts under FAR:
  
                    RESTRICTED RIGHTS LEGEND
  
 Use, reproduction and disclosure by the US Government is
 subject to restrictions as set forth in subparagraphs (a)
 and (c) of the Commercial Computer Software - Restricted
 Rights clause in FAR 52.227-19.
  
 Gaussian, Inc.
 340 Quinnipiac St., Bldg. 40, Wallingford CT 06492
  
  
 ---------------------------------------------------------------
 Warning -- This program may not be used in any manner that
 competes with the business of Gaussian, Inc. or will provide
 assistance to any competitor of Gaussian, Inc.  The licensee
 of this program is prohibited from giving any competitor of
 Gaussian, Inc. access to this program.  By using this program,
 the user acknowledges that Gaussian, Inc. is engaged in the
 business of creating and licensing software in the field of
 computational chemistry and represents and warrants to the
 licensee that it is not a competitor of Gaussian, Inc. and that
 it will not use this program in any manner prohibited above.
 ---------------------------------------------------------------
  

 Cite this work as:
 Gaussian 16, Revision C.01,
 M. J. Frisch, G. W. Trucks, H. B. Schlegel, G. E. Scuseria, 
 M. A. Robb, J. R. Cheeseman, G. Scalmani, V. Barone, 
 G. A. Petersson, H. Nakatsuji, X. Li, M. Caricato, A. V. Marenich, 
 J. Bloino, B. G. Janesko, R. Gomperts, B. Mennucci, H. P. Hratchian, 
 J. V. Ortiz, A. F. Izmaylov, J. L. Sonnenberg, D. Williams-Young, 
 F. Ding, F. Lipparini, F. Egidi, J. Goings, B. Peng, A. Petrone, 
 T. Henderson, D. Ranasinghe, V. G. Zakrzewski, J. Gao, N. Rega, 
 G. Zheng, W. Liang, M. Hada, M. Ehara, K. Toyota, R. Fukuda, 
 J. Hasegawa, M. Ishida, T. Nakajima, Y. Honda, O. Kitao, H. Nakai, 
 T. Vreven, K. Throssell, J. A. Montgomery, Jr., J. E. Peralta, 
 F. Ogliaro, M. J. Bearpark, J. J. Heyd, E. N. Brothers, K. N. Kudin, 
 V. N. Staroverov, T. A. Keith, R. Kobayashi, J. Normand, 
 K. Raghavachari, A. P. Rendell, J. C. Burant, S. S. Iyengar, 
 J. Tomasi, M. Cossi, J. M. Millam, M. Klene, C. Adamo, R. Cammi, 
 J. W. Ochterski, R. L. Martin, K. Morokuma, O. Farkas, 
 J. B. Foresman, and D. J. Fox, Gaussian, Inc., Wallingford CT, 2019.
 
 ******************************************
 Gaussian 16:  ES64L-G16RevC.01  3-Jul-2019
                21-Mar-2025 
 ******************************************
 %oldchk=../GS_OLD/geometry.chk
 %chk=geometry.chk
 %nprocshared=1
 Will use up to    1 processors via shared memory.
 %mem=2GB
 Copying data from "../GS_OLD/geometry.chk" to current chk file "geometry.chk"
 IOpt=  2 FromEx=T IUOpen= 4 IOptOp= 5 NList=   0 IFRang= 0 IUIn= 4 IUOut= 2.
 -------------------------------------------
 # AM1/STO-5G SCF=XQC FORCE nosym guess=read
 -------------------------------------------
 1/10=7,30=1,38=1/1,3;
 2/12=2,15=1,17=6,18=5,40=1/2;
 3/5=2,6=5,25=1,41=700000,71=1,116=-2/1,2,3;
 4/5=1,35=1/1;
 5/5=2,8=3,13=1,35=1,38=6/2,8;
 6/7=2,8=2,9=2,10=2,28=1/1;
 7/29=1,30=1/1,2,3,16;
 1/10=7,30=1/3;
 99//99;
 ----------
 MD Step 24
 ----------
 Symbolic Z-matrix:
 Charge =  0 Multiplicity = 1
 C                    -0.72491  -1.20443   0.00345 
 C                     0.67579  -1.19579   0.01751 
 C                     1.38696   0.00946   0.01421 
 C                     0.70125   1.21643  -0.03878 
 C                    -0.6923    1.196     0.01233 
 C                    -1.39055  -0.00368  -0.03919 
 H                    -1.16681  -2.17426   0.08373 
 H                     1.28907  -2.12619   0.01347 
 H                     2.49623  -0.01453   0.17572 
 H                     1.37373   2.16155   0.01073 
 H                    -1.19269   2.17079   0.12094 
 H                    -2.49921  -0.10713   0.07332 
 

 GradGradGradGradGradGradGradGradGradGradGradGradGradGradGradGradGradGrad
 Berny optimization.
 Initialization pass.
 Trust Radius=3.00D-01 FncErr=1.00D-07 GrdErr=1.00D-07 EigMax=2.50D+02 EigMin=1.00D-04
 Number of steps in this run=      2 maximum allowed number of steps=      2.
 GradGradGradGradGradGradGradGradGradGradGradGradGradGradGradGradGradGrad

                          Input orientation:                          
 ---------------------------------------------------------------------
 Center     Atomic      Atomic             Coordinates (Angstroms)
 Number     Number       Type             X           Y           Z
 ---------------------------------------------------------------------
      1          6           0       -0.724905   -1.204430    0.003449
      2          6           0        0.675794   -1.195787    0.017510
      3          6           0        1.386965    0.009464    0.014213
      4          6           0        0.701253    1.216427   -0.038776
      5          6           0       -0.692303    1.196003    0.012335
      6          6           0       -1.390554   -0.003675   -0.039193
      7          1           0       -1.166806   -2.174262    0.083729
      8          1           0        1.289065   -2.126187    0.013466
      9          1           0        2.496231   -0.014533    0.175724
     10          1           0        1.373729    2.161553    0.010730
     11          1           0       -1.192690    2.170789    0.120935
     12          1           0       -2.499213   -0.107128    0.073323
 ---------------------------------------------------------------------
                    Distance matrix (angstroms):
                    1          2          3          4          5
     1  C    0.000000
     2  C    1.400797   0.000000
     3  C    2.435909   1.399430   0.000000
     4  C    2.810028   2.413004   1.389160   0.000000
     5  C    2.400671   2.755427   2.393999   1.394642   0.000000
     6  C    1.373579   2.386240   2.778063   2.421633   1.389042
     7  H    1.068782   2.087336   3.360838   3.873166   3.404253
     8  H    2.214907   1.114343   2.137894   3.394306   3.868174
     9  H    3.438205   2.175864   1.121220   2.187057   3.414505
    10  H    3.966632   3.429124   2.152133   1.161008   2.280522
    11  H    3.409506   3.851722   3.367095   2.126814   1.101085
    12  H    2.087372   3.356928   3.888376   3.465162   2.228631
                    6          7          8          9         10
     6  C    0.000000
     7  H    2.185548   0.000000
     8  H    3.418799   2.457346   0.000000
     9  H    3.892738   4.253320   2.437757   0.000000
    10  H    3.511691   5.025827   4.288577   2.454096   0.000000
    11  H    2.189312   4.345287   4.963331   4.287980   2.568801
    12  H    1.119146   2.459362   4.293161   4.997352   4.488933
                   11         12
    11  H    0.000000
    12  H    2.626438   0.000000
 Symmetry turned off by external request.
 Stoichiometry    C6H6
 Framework group  C1[X(C6H6)]
 Deg. of freedom    30
 Full point group                 C1      NOp   1
 Rotational constants (GHZ):           5.8181951           5.5968055           2.8557111
 Standard basis: VSTO-5G (5D, 7F)
    30 basis functions,   180 primitive gaussians,    30 cartesian basis functions
    15 alpha electrons       15 beta electrons
       nuclear repulsion energy       119.6336252755 Hartrees.
 Integral buffers will be    131072 words long.
 Regular integral format.
 Two-electron integral symmetry is turned off.
 Do NDO integrals.
 One-electron integrals computed using PRISM.
 NBasis=    30 RedAO= F EigKep=  0.00D+00  NBF=    30
 NBsUse=    30 1.00D-04 EigRej=  0.00D+00 NBFU=    30
 Initial guess from the checkpoint file:  "geometry.chk"
 B after Tr=     0.000794    0.000540    0.001232
         Rot=    1.000000   -0.000057    0.000387   -0.000055 Ang=  -0.05 deg.
 Keep J ints in memory in canonical form, NReq=861816.
 Overlap will be assumed to be unity.
 Requested convergence on RMS density matrix=1.00D-08 within  32 cycles.
 Requested convergence on MAX density matrix=1.00D-06.
 Requested convergence on             energy=1.00D-06.
 No special actions if energy rises.
 SCF Done:  E(RAM1) =  0.471275499553E-01 A.U. after   12 cycles
            NFock= 11  Conv=0.59D-08     -V/T= 1.0010
 QCSCF skips out because SCF is already converged.

 **********************************************************************

            Population analysis using the SCF Density.

 **********************************************************************

 Alpha  occ. eigenvalues --   -1.44215  -1.15857  -1.14554  -0.84836  -0.84177
 Alpha  occ. eigenvalues --   -0.65425  -0.58659  -0.56702  -0.52096  -0.51547
 Alpha  occ. eigenvalues --   -0.49247  -0.43610  -0.43204  -0.35703  -0.35196
 Alpha virt. eigenvalues --    0.01974   0.02187   0.10892   0.13793   0.14467
 Alpha virt. eigenvalues --    0.14956   0.15356   0.16733   0.17045   0.18666
 Alpha virt. eigenvalues --    0.18744   0.20642   0.20711   0.21194   0.22516
          Condensed to atoms (all electrons):
               1          2          3          4          5          6
     1  C    4.129054   0.000000   0.000000   0.000000   0.000000   0.000000
     2  C    0.000000   4.142499   0.000000   0.000000   0.000000   0.000000
     3  C    0.000000   0.000000   4.142672   0.000000   0.000000   0.000000
     4  C    0.000000   0.000000   0.000000   4.134425   0.000000   0.000000
     5  C    0.000000   0.000000   0.000000   0.000000   4.117458   0.000000
     6  C    0.000000   0.000000   0.000000   0.000000   0.000000   4.121276
     7  H    0.000000   0.000000   0.000000   0.000000   0.000000   0.000000
     8  H    0.000000   0.000000   0.000000   0.000000   0.000000   0.000000
     9  H    0.000000   0.000000   0.000000   0.000000   0.000000   0.000000
    10  H    0.000000   0.000000   0.000000   0.000000   0.000000   0.000000
    11  H    0.000000   0.000000   0.000000   0.000000   0.000000   0.000000
    12  H    0.000000   0.000000   0.000000   0.000000   0.000000   0.000000
               7          8          9         10         11         12
     1  C    0.000000   0.000000   0.000000   0.000000   0.000000   0.000000
     2  C    0.000000   0.000000   0.000000   0.000000   0.000000   0.000000
     3  C    0.000000   0.000000   0.000000   0.000000   0.000000   0.000000
     4  C    0.000000   0.000000   0.000000   0.000000   0.000000   0.000000
     5  C    0.000000   0.000000   0.000000   0.000000   0.000000   0.000000
     6  C    0.000000   0.000000   0.000000   0.000000   0.000000   0.000000
     7  H    0.868734   0.000000   0.000000   0.000000   0.000000   0.000000
     8  H    0.000000   0.871923   0.000000   0.000000   0.000000   0.000000
     9  H    0.000000   0.000000   0.869558   0.000000   0.000000   0.000000
    10  H    0.000000   0.000000   0.000000   0.862697   0.000000   0.000000
    11  H    0.000000   0.000000   0.000000   0.000000   0.870549   0.000000
    12  H    0.000000   0.000000   0.000000   0.000000   0.000000   0.869156
 Mulliken charges:
               1
     1  C   -0.129054
     2  C   -0.142499
     3  C   -0.142672
     4  C   -0.134425
     5  C   -0.117458
     6  C   -0.121276
     7  H    0.131266
     8  H    0.128077
     9  H    0.130442
    10  H    0.137303
    11  H    0.129451
    12  H    0.130844
 Sum of Mulliken charges =  -0.00000
 Mulliken charges with hydrogens summed into heavy atoms:
               1
     1  C    0.002212
     2  C   -0.014422
     3  C   -0.012229
     4  C    0.002879
     5  C    0.011992
     6  C    0.009568
 Charge=             -0.0000 electrons
 Dipole moment (field-independent basis, Debye):
    X=              0.1256    Y=              0.0185    Z=              0.3459  Tot=              0.3685
 N-N= 1.196336252755D+02 E-N=-1.706351899906D+02  KE=-4.783725641900D+01
 Calling FoFJK, ICntrl=      2127 FMM=F ISym2X=0 I1Cent= 0 IOpClX= 0 NMat=1 NMatS=1 NMatT=0.
 -------------------------------------------------------------------
 Center     Atomic                   Forces (Hartrees/Bohr)
 Number     Number              X              Y              Z
 -------------------------------------------------------------------
      1        6           0.044489127   -0.005955949   -0.002982873
      2        6           0.017511953   -0.001132549   -0.004013360
      3        6           0.010200382   -0.012731295    0.005720735
      4        6           0.024128149    0.020426020    0.012221511
      5        6           0.004275316    0.019908229   -0.007448979
      6        6          -0.030616695    0.003194022    0.017409081
      7        1          -0.019189435   -0.016333247   -0.001797404
      8        1          -0.010694232    0.004108236    0.002417195
      9        1          -0.012842101    0.001309755   -0.008098249
     10        1          -0.030082802   -0.023687960   -0.003745051
     11        1          -0.005720557   -0.002610993   -0.003390242
     12        1           0.008540896    0.013505731   -0.006292364
 -------------------------------------------------------------------
 Cartesian Forces:  Max     0.044489127 RMS     0.015229481

 GradGradGradGradGradGradGradGradGradGradGradGradGradGradGradGradGradGrad
 Berny optimization.
 Search for a local minimum.
 Step number   1 out of a maximum of    2
 All quantities printed in internal units (Hartrees-Bohrs-Radians)
 Second derivative matrix not updated -- first step.
 ITU=  0
     Eigenvalues ---    0.01557   0.01643   0.03267   0.04194   0.06212
     Eigenvalues ---    0.06486   0.06718   0.06907   0.07051   0.09370
     Eigenvalues ---    0.09508   0.11332   0.11738   0.15868   0.17928
     Eigenvalues ---    0.27118   0.29807   0.30035   0.39330   0.40032
     Eigenvalues ---    0.44433   0.63106   0.65555   0.94215   1.04896
     Eigenvalues ---    1.18531   1.21803   1.47711   1.56429   1.61797
 Quadratic step=4.630D-01 exceeds max=3.000D-01 adjusted using Lamda=-3.339D-02.
 Angle between NR and scaled steps=  13.15 degrees.
 Angle between quadratic step and forces=  49.91 degrees.
 Linear search not attempted -- first point.
 B after Tr=     0.011715   -0.001458    0.012346
         Rot=    1.000000   -0.000696   -0.000293   -0.000311 Ang=  -0.09 deg.
 Variable       Old X    -DE/DX   Delta X   Delta X   Delta X     New X
                                 (Linear)    (Quad)   (Total)
    X1       -1.36987   0.04449   0.00000   0.05975   0.07289  -1.29698
    Y1       -2.27604  -0.00596   0.00000  -0.01637  -0.01866  -2.29470
    Z1        0.00652  -0.00298   0.00000   0.00756   0.01748   0.02400
    X2        1.27707   0.01751   0.00000   0.05550   0.06865   1.34571
    Y2       -2.25971  -0.00113   0.00000  -0.02300  -0.02367  -2.28338
    Z2        0.03309  -0.00401   0.00000  -0.00500   0.00338   0.03647
    X3        2.62098   0.01020   0.00000   0.02339   0.03514   2.65612
    Y3        0.01789  -0.01273   0.00000  -0.01875  -0.01863  -0.00075
    Z3        0.02686   0.00572   0.00000   0.02166   0.03245   0.05931
    X4        1.32518   0.02413   0.00000   0.00267   0.01295   1.33813
    Y4        2.29871   0.02043   0.00000  -0.00843  -0.00905   2.28966
    Z4       -0.07328   0.01222   0.00000   0.06122   0.07598   0.00271
    X5       -1.30826   0.00428   0.00000  -0.00195   0.00836  -1.29991
    Y5        2.26012   0.01991   0.00000   0.03350   0.03120   2.29132
    Z5        0.02331  -0.00745   0.00000  -0.00662   0.00969   0.03300
    X6       -2.62777  -0.03062   0.00000   0.00170   0.01341  -2.61435
    Y6       -0.00694   0.00319   0.00000   0.01480   0.01171   0.00477
    Z6       -0.07406   0.01741   0.00000   0.06896   0.08286   0.00879
    X7       -2.20494  -0.01919   0.00000  -0.06311  -0.04876  -2.25371
    Y7       -4.10876  -0.01633   0.00000  -0.02781  -0.03082  -4.13958
    Z7        0.15822  -0.00180   0.00000  -0.05552  -0.04761   0.11061
    X8        2.43598  -0.01069   0.00000  -0.02031  -0.00607   2.42991
    Y8       -4.01791   0.00411   0.00000  -0.03533  -0.03532  -4.05323
    Z8        0.02545   0.00242   0.00000   0.00094   0.00623   0.03168
    X9        4.71719  -0.01284   0.00000  -0.00393   0.00794   4.72514
    Y9       -0.02746   0.00131   0.00000   0.00523   0.00636  -0.02110
    Z9        0.33207  -0.00810   0.00000  -0.08819  -0.07863   0.25344
   X10        2.59597  -0.03008   0.00000  -0.15001  -0.14080   2.45517
   Y10        4.08474  -0.02369   0.00000  -0.04170  -0.04165   4.04309
   Z10        0.02028  -0.00375   0.00000  -0.01463   0.00192   0.02220
   X11       -2.25386  -0.00572   0.00000  -0.05491  -0.04567  -2.29953
   Y11        4.10220  -0.00261   0.00000   0.01363   0.01055   4.11274
   Z11        0.22853  -0.00339   0.00000  -0.09780  -0.07837   0.15016
   X12       -4.72283   0.00854   0.00000   0.01014   0.02196  -4.70087
   Y12       -0.20244   0.01351   0.00000   0.12250   0.11798  -0.08447
   Z12        0.13856  -0.00629   0.00000  -0.04037  -0.02538   0.11318
         Item               Value     Threshold  Converged?
 Maximum Force            0.044489     0.000450     NO 
 RMS     Force            0.015229     0.000300     NO 
 Maximum Displacement     0.140799     0.001800     NO 
 RMS     Displacement     0.048984     0.001200     NO 
 Predicted change in Energy=-1.033772D-02
 GradGradGradGradGradGradGradGradGradGradGradGradGradGradGradGradGradGrad

 Unable to Open any file for archive entry.
 1\1\GINC-BHC0189\Force\RAM1\ZDO\C6H6\BWEIGHT\21-Mar-2025\0\\# AM1/STO-
 5G SCF=XQC FORCE nosym guess=read\\MD Step 24\\0,1\C,-0.72490547,-1.20
 443007,0.00344901\C,0.67579427,-1.19578676,0.01750971\C,1.3869646,0.00
 946444,0.01421296\C,0.70125299,1.21642651,-0.03877574\C,-0.69230294,1.
 19600347,0.01233455\C,-1.39055421,-0.00367511,-0.03919307\H,-1.1668056
 7,-2.17426172,0.08372856\H,1.28906503,-2.12618654,0.01346594\H,2.49623
 114,-0.01453312,0.17572388\H,1.37372932,2.16155345,0.01073007\H,-1.192
 6901,2.17078898,0.12093513\H,-2.49921319,-0.10712816,0.07332331\\Versi
 on=ES64L-G16RevC.01\HF=0.0471275\RMSD=5.935e-09\RMSF=1.523e-02\Dipole=
 0.0494274,0.0072929,0.1360793\PG=C01 [X(C6H6)]\\@
 The archive entry for this job was punched.


 I SUPPOSE A BABY LLAMA HAS A MMAMA AND A PPOPA.
     -- RICHARD AMOUR
 Job cpu time:       0 days  0 hours  0 minutes  1.2 seconds.
 Elapsed time:       0 days  0 hours  0 minutes  0.9 seconds.
 File lengths (MBytes):  RWF=      6 Int=      0 D2E=      0 Chk=      2 Scr=      1
 Normal termination of Gaussian 16 at Fri Mar 21 15:03:16 2025.
