 Entering Gaussian System, Link 0=g16
 Initial command:
 /software/gaussian/g16-c01/avx2/g16/l1.exe "/local_scratch/28554215/Gau-34151.inp" -scrdir="/local_scratch/28554215/"
 Entering Link 1 = /software/gaussian/g16-c01/avx2/g16/l1.exe PID=     34153.
  
 Copyright (c) 1988-2019, Gaussian, Inc.  All Rights Reserved.
  
 This is part of the Gaussian(R) 16 program.  It is based on
 the Gaussian(R) 09 system (copyright 2009, Gaussian, Inc.),
 the Gaussian(R) 03 system (copyright 2003, Gaussian, Inc.),
 the Gaussian(R) 98 system (copyright 1998, Gaussian, Inc.),
 the Gaussian(R) 94 system (copyright 1995, Gaussian, Inc.),
 the Gaussian 92(TM) system (copyright 1992, Gaussian, Inc.),
 the Gaussian 90(TM) system (copyright 1990, Gaussian, Inc.),
 the Gaussian 88(TM) system (copyright 1988, Gaussian, Inc.),
 the Gaussian 86(TM) system (copyright 1986, Carnegie Mellon
 University), and the Gaussian 82(TM) system (copyright 1983,
 Carnegie Mellon University). Gaussian is a federally registered
 trademark of Gaussian, Inc.
  
 This software contains proprietary and confidential information,
 including trade secrets, belonging to Gaussian, Inc.
  
 This software is provided under written license and may be
 used, copied, transmitted, or stored only in accord with that
 written license.
  
 The following legend is applicable only to US Government
 contracts under FAR:
  
                    RESTRICTED RIGHTS LEGEND
  
 Use, reproduction and disclosure by the US Government is
 subject to restrictions as set forth in subparagraphs (a)
 and (c) of the Commercial Computer Software - Restricted
 Rights clause in FAR 52.227-19.
  
 Gaussian, Inc.
 340 Quinnipiac St., Bldg. 40, Wallingford CT 06492
  
  
 ---------------------------------------------------------------
 Warning -- This program may not be used in any manner that
 competes with the business of Gaussian, Inc. or will provide
 assistance to any competitor of Gaussian, Inc.  The licensee
 of this program is prohibited from giving any competitor of
 Gaussian, Inc. access to this program.  By using this program,
 the user acknowledges that Gaussian, Inc. is engaged in the
 business of creating and licensing software in the field of
 computational chemistry and represents and warrants to the
 licensee that it is not a competitor of Gaussian, Inc. and that
 it will not use this program in any manner prohibited above.
 ---------------------------------------------------------------
  

 Cite this work as:
 Gaussian 16, Revision C.01,
 M. J. Frisch, G. W. Trucks, H. B. Schlegel, G. E. Scuseria, 
 M. A. Robb, J. R. Cheeseman, G. Scalmani, V. Barone, 
 G. A. Petersson, H. Nakatsuji, X. Li, M. Caricato, A. V. Marenich, 
 J. Bloino, B. G. Janesko, R. Gomperts, B. Mennucci, H. P. Hratchian, 
 J. V. Ortiz, A. F. Izmaylov, J. L. Sonnenberg, D. Williams-Young, 
 F. Ding, F. Lipparini, F. Egidi, J. Goings, B. Peng, A. Petrone, 
 T. Henderson, D. Ranasinghe, V. G. Zakrzewski, J. Gao, N. Rega, 
 G. Zheng, W. Liang, M. Hada, M. Ehara, K. Toyota, R. Fukuda, 
 J. Hasegawa, M. Ishida, T. Nakajima, Y. Honda, O. Kitao, H. Nakai, 
 T. Vreven, K. Throssell, J. A. Montgomery, Jr., J. E. Peralta, 
 F. Ogliaro, M. J. Bearpark, J. J. Heyd, E. N. Brothers, K. N. Kudin, 
 V. N. Staroverov, T. A. Keith, R. Kobayashi, J. Normand, 
 K. Raghavachari, A. P. Rendell, J. C. Burant, S. S. Iyengar, 
 J. Tomasi, M. Cossi, J. M. Millam, M. Klene, C. Adamo, R. Cammi, 
 J. W. Ochterski, R. L. Martin, K. Morokuma, O. Farkas, 
 J. B. Foresman, and D. J. Fox, Gaussian, Inc., Wallingford CT, 2019.
 
 ******************************************
 Gaussian 16:  ES64L-G16RevC.01  3-Jul-2019
                21-Mar-2025 
 ******************************************
 %oldchk=../GS_OLD/geometry.chk
 %chk=geometry.chk
 %nprocshared=1
 Will use up to    1 processors via shared memory.
 %mem=2GB
 Copying data from "../GS_OLD/geometry.chk" to current chk file "geometry.chk"
 IOpt=  2 FromEx=T IUOpen= 4 IOptOp= 5 NList=   0 IFRang= 0 IUIn= 4 IUOut= 2.
 -------------------------------------------
 # AM1/STO-5G SCF=XQC FORCE nosym guess=read
 -------------------------------------------
 1/10=7,30=1,38=1/1,3;
 2/12=2,15=1,17=6,18=5,40=1/2;
 3/5=2,6=5,25=1,41=700000,71=1,116=-2/1,2,3;
 4/5=1,35=1/1;
 5/5=2,8=3,13=1,35=1,38=6/2,8;
 6/7=2,8=2,9=2,10=2,28=1/1;
 7/29=1,30=1/1,2,3,16;
 1/10=7,30=1/3;
 99//99;
 ----------
 MD Step 29
 ----------
 Symbolic Z-matrix:
 Charge =  0 Multiplicity = 1
 C                    -0.70641  -1.23779  -0.03071 
 C                     0.70082  -1.21003   0.05334 
 C                     1.36016   0.0056   -0.01097 
 C                     0.69847   1.22661  -0.00127 
 C                    -0.70856   1.23947  -0.00473 
 C                    -1.34714  -0.03017   0.00874 
 H                    -1.3279   -2.18043  -0.18301 
 H                     1.21543  -2.1949    0.1443 
 H                     2.44943   0.04279  -0.0478 
 H                     1.17969   2.22128   0.01427 
 H                    -1.27247   2.14583  -0.01988 
 H                    -2.48357  -0.0324    0.08427 
 

 GradGradGradGradGradGradGradGradGradGradGradGradGradGradGradGradGradGrad
 Berny optimization.
 Initialization pass.
 Trust Radius=3.00D-01 FncErr=1.00D-07 GrdErr=1.00D-07 EigMax=2.50D+02 EigMin=1.00D-04
 Number of steps in this run=      2 maximum allowed number of steps=      2.
 GradGradGradGradGradGradGradGradGradGradGradGradGradGradGradGradGradGrad

                          Input orientation:                          
 ---------------------------------------------------------------------
 Center     Atomic      Atomic             Coordinates (Angstroms)
 Number     Number       Type             X           Y           Z
 ---------------------------------------------------------------------
      1          6           0       -0.706410   -1.237788   -0.030705
      2          6           0        0.700816   -1.210032    0.053342
      3          6           0        1.360161    0.005601   -0.010969
      4          6           0        0.698471    1.226612   -0.001270
      5          6           0       -0.708565    1.239472   -0.004726
      6          6           0       -1.347141   -0.030172    0.008739
      7          1           0       -1.327897   -2.180434   -0.183008
      8          1           0        1.215432   -2.194904    0.144303
      9          1           0        2.449426    0.042789   -0.047803
     10          1           0        1.179686    2.221275    0.014270
     11          1           0       -1.272475    2.145829   -0.019879
     12          1           0       -2.483565   -0.032395    0.084273
 ---------------------------------------------------------------------
                    Distance matrix (angstroms):
                    1          2          3          4          5
     1  C    0.000000
     2  C    1.410006   0.000000
     3  C    2.411871   1.384426   0.000000
     4  C    2.836869   2.437257   1.388812   0.000000
     5  C    2.477397   2.826622   2.408756   1.407099   0.000000
     6  C    1.367636   2.363935   2.707611   2.400862   1.421251
     7  H    1.139308   2.261242   3.469006   3.968269   3.480102
     8  H    2.154106   1.114934   2.210719   3.463411   3.939405
     9  H    3.405799   2.153469   1.090522   2.114107   3.377397
    10  H    3.940114   3.464782   2.223156   1.105063   2.128330
    11  H    3.430657   3.893718   3.392850   2.174841   1.067571
    12  H    2.150459   3.395301   3.845094   3.423123   2.185450
                    6          7          8          9         10
     6  C    0.000000
     7  H    2.158880   0.000000
     8  H    3.357265   2.564344   0.000000
     9  H    3.797689   4.385107   2.562600   0.000000
    10  H    3.384361   5.069707   4.418238   2.522280   0.000000
    11  H    2.177469   4.329692   5.005857   4.275056   2.453559
    12  H    1.138933   2.453789   4.285164   4.935331   4.301551
                   11         12
    11  H    0.000000
    12  H    2.494443   0.000000
 Symmetry turned off by external request.
 Stoichiometry    C6H6
 Framework group  C1[X(C6H6)]
 Deg. of freedom    30
 Full point group                 C1      NOp   1
 Rotational constants (GHZ):           5.8591999           5.4939776           2.8387866
 Standard basis: VSTO-5G (5D, 7F)
    30 basis functions,   180 primitive gaussians,    30 cartesian basis functions
    15 alpha electrons       15 beta electrons
       nuclear repulsion energy       119.4700258796 Hartrees.
 Integral buffers will be    131072 words long.
 Regular integral format.
 Two-electron integral symmetry is turned off.
 Do NDO integrals.
 One-electron integrals computed using PRISM.
 NBasis=    30 RedAO= F EigKep=  0.00D+00  NBF=    30
 NBsUse=    30 1.00D-04 EigRej=  0.00D+00 NBFU=    30
 Initial guess from the checkpoint file:  "geometry.chk"
 B after Tr=    -0.000103   -0.000000   -0.000566
         Rot=    1.000000    0.000238    0.000234    0.000165 Ang=   0.04 deg.
 Keep J ints in memory in canonical form, NReq=861816.
 Overlap will be assumed to be unity.
 Requested convergence on RMS density matrix=1.00D-08 within  32 cycles.
 Requested convergence on MAX density matrix=1.00D-06.
 Requested convergence on             energy=1.00D-06.
 No special actions if energy rises.
 SCF Done:  E(RAM1) =  0.460442895694E-01 A.U. after   12 cycles
            NFock= 11  Conv=0.59D-08     -V/T= 1.0010
 QCSCF skips out because SCF is already converged.

 **********************************************************************

            Population analysis using the SCF Density.

 **********************************************************************

 Alpha  occ. eigenvalues --   -1.43608  -1.15604  -1.14390  -0.85155  -0.83767
 Alpha  occ. eigenvalues --   -0.65365  -0.59151  -0.56570  -0.52246  -0.51281
 Alpha  occ. eigenvalues --   -0.49011  -0.44411  -0.42724  -0.35587  -0.34972
 Alpha virt. eigenvalues --    0.01682   0.02404   0.10808   0.14129   0.14505
 Alpha virt. eigenvalues --    0.14789   0.15597   0.16710   0.16921   0.18712
 Alpha virt. eigenvalues --    0.18849   0.20451   0.20786   0.21172   0.22518
          Condensed to atoms (all electrons):
               1          2          3          4          5          6
     1  C    4.134108   0.000000   0.000000   0.000000   0.000000   0.000000
     2  C    0.000000   4.122090   0.000000   0.000000   0.000000   0.000000
     3  C    0.000000   0.000000   4.124511   0.000000   0.000000   0.000000
     4  C    0.000000   0.000000   0.000000   4.131124   0.000000   0.000000
     5  C    0.000000   0.000000   0.000000   0.000000   4.133548   0.000000
     6  C    0.000000   0.000000   0.000000   0.000000   0.000000   4.141654
     7  H    0.000000   0.000000   0.000000   0.000000   0.000000   0.000000
     8  H    0.000000   0.000000   0.000000   0.000000   0.000000   0.000000
     9  H    0.000000   0.000000   0.000000   0.000000   0.000000   0.000000
    10  H    0.000000   0.000000   0.000000   0.000000   0.000000   0.000000
    11  H    0.000000   0.000000   0.000000   0.000000   0.000000   0.000000
    12  H    0.000000   0.000000   0.000000   0.000000   0.000000   0.000000
               7          8          9         10         11         12
     1  C    0.000000   0.000000   0.000000   0.000000   0.000000   0.000000
     2  C    0.000000   0.000000   0.000000   0.000000   0.000000   0.000000
     3  C    0.000000   0.000000   0.000000   0.000000   0.000000   0.000000
     4  C    0.000000   0.000000   0.000000   0.000000   0.000000   0.000000
     5  C    0.000000   0.000000   0.000000   0.000000   0.000000   0.000000
     6  C    0.000000   0.000000   0.000000   0.000000   0.000000   0.000000
     7  H    0.858361   0.000000   0.000000   0.000000   0.000000   0.000000
     8  H    0.000000   0.866966   0.000000   0.000000   0.000000   0.000000
     9  H    0.000000   0.000000   0.875538   0.000000   0.000000   0.000000
    10  H    0.000000   0.000000   0.000000   0.866876   0.000000   0.000000
    11  H    0.000000   0.000000   0.000000   0.000000   0.863976   0.000000
    12  H    0.000000   0.000000   0.000000   0.000000   0.000000   0.881248
 Mulliken charges:
               1
     1  C   -0.134108
     2  C   -0.122090
     3  C   -0.124511
     4  C   -0.131124
     5  C   -0.133548
     6  C   -0.141654
     7  H    0.141639
     8  H    0.133034
     9  H    0.124462
    10  H    0.133124
    11  H    0.136024
    12  H    0.118752
 Sum of Mulliken charges =   0.00000
 Mulliken charges with hydrogens summed into heavy atoms:
               1
     1  C    0.007531
     2  C    0.010943
     3  C   -0.000049
     4  C    0.002000
     5  C    0.002476
     6  C   -0.022902
 Charge=              0.0000 electrons
 Dipole moment (field-independent basis, Debye):
    X=             -0.0787    Y=             -0.0374    Z=             -0.0221  Tot=              0.0899
 N-N= 1.194700258796D+02 E-N=-1.703414358828D+02  KE=-4.782967875627D+01
 Calling FoFJK, ICntrl=      2127 FMM=F ISym2X=0 I1Cent= 0 IOpClX= 0 NMat=1 NMatS=1 NMatT=0.
 -------------------------------------------------------------------
 Center     Atomic                   Forces (Hartrees/Bohr)
 Number     Number              X              Y              Z
 -------------------------------------------------------------------
      1        6           0.009928636   -0.019248498   -0.001769642
      2        6          -0.012798673   -0.022029167   -0.008185489
      3        6           0.014235613    0.000379897    0.007313485
      4        6          -0.032823364    0.015404350   -0.003262866
      5        6           0.021369213   -0.052096996    0.003609684
      6        6          -0.047197907    0.042060990    0.000607785
      7        1           0.019461120    0.017711534    0.009078603
      8        1           0.001368266    0.012412732   -0.003157701
      9        1           0.009309130   -0.003725560    0.001449509
     10        1           0.007327300   -0.008299937   -0.001695533
     11        1          -0.010640701    0.016199868    0.001031601
     12        1           0.020461366    0.001230785   -0.005019435
 -------------------------------------------------------------------
 Cartesian Forces:  Max     0.052096996 RMS     0.018213077

 GradGradGradGradGradGradGradGradGradGradGradGradGradGradGradGradGradGrad
 Berny optimization.
 Search for a local minimum.
 Step number   1 out of a maximum of    2
 All quantities printed in internal units (Hartrees-Bohrs-Radians)
 Second derivative matrix not updated -- first step.
 ITU=  0
     Eigenvalues ---    0.01420   0.01692   0.03181   0.04173   0.06360
     Eigenvalues ---    0.06478   0.06764   0.07017   0.07070   0.09224
     Eigenvalues ---    0.09365   0.11274   0.11594   0.15772   0.17957
     Eigenvalues ---    0.27316   0.28770   0.30252   0.39671   0.40657
     Eigenvalues ---    0.43566   0.62705   0.66235   0.95511   1.05190
     Eigenvalues ---    1.18207   1.19872   1.46184   1.53504   1.61969
 Quadratic step=4.325D-01 exceeds max=3.000D-01 adjusted using Lamda=-2.043D-02.
 Angle between NR and scaled steps=  13.45 degrees.
 Angle between quadratic step and forces=  59.17 degrees.
 Linear search not attempted -- first point.
 B after Tr=    -0.008526   -0.001528   -0.000795
         Rot=    1.000000   -0.000483   -0.000028   -0.000003 Ang=  -0.06 deg.
 Variable       Old X    -DE/DX   Delta X   Delta X   Delta X     New X
                                 (Linear)    (Quad)   (Total)
    X1       -1.33492   0.00993   0.00000   0.00796  -0.00056  -1.33548
    Y1       -2.33908  -0.01925   0.00000   0.03918   0.03768  -2.30140
    Z1       -0.05802  -0.00177   0.00000   0.01906   0.01612  -0.04190
    X2        1.32435  -0.01280   0.00000   0.00058  -0.00793   1.31642
    Y2       -2.28663  -0.02203   0.00000  -0.00330  -0.00486  -2.29149
    Z2        0.10080  -0.00819   0.00000  -0.04997  -0.05305   0.04775
    X3        2.57033   0.01424   0.00000   0.03404   0.02552   2.59585
    Y3        0.01058   0.00038   0.00000  -0.01064  -0.01216  -0.00158
    Z3       -0.02073   0.00731   0.00000   0.02882   0.02788   0.00715
    X4        1.31992  -0.03282   0.00000  -0.04083  -0.04937   1.27055
    Y4        2.31796   0.01540   0.00000  -0.02933  -0.03085   2.28712
    Z4       -0.00240  -0.00326   0.00000  -0.00552  -0.00418  -0.00658
    X5       -1.33899   0.02137   0.00000  -0.01896  -0.02750  -1.36649
    Y5        2.34226  -0.05210   0.00000  -0.05500  -0.05654   2.28572
    Z5       -0.00893   0.00361   0.00000   0.01146   0.01295   0.00402
    X6       -2.54573  -0.04720   0.00000  -0.08510  -0.09363  -2.63936
    Y6       -0.05702   0.04206   0.00000   0.04073   0.03919  -0.01783
    Z6        0.01651   0.00061   0.00000  -0.01336  -0.01402   0.00249
    X7       -2.50936   0.01946   0.00000   0.11908   0.11056  -2.39880
    Y7       -4.12042   0.01771   0.00000   0.04685   0.04553  -4.07490
    Z7       -0.34583   0.00908   0.00000   0.12566   0.12107  -0.22477
    X8        2.29683   0.00137   0.00000   0.03496   0.02647   2.32330
    Y8       -4.14777   0.01241   0.00000   0.04597   0.04428  -4.10349
    Z8        0.27269  -0.00316   0.00000  -0.08946  -0.09435   0.17835
    X9        4.62874   0.00931   0.00000   0.05930   0.05077   4.67951
    Y9        0.08086  -0.00373   0.00000  -0.03610  -0.03758   0.04328
    Z9       -0.09033   0.00145   0.00000   0.06030   0.05928  -0.03105
   X10        2.22928   0.00733   0.00000   0.03075   0.02220   2.25148
   Y10        4.19760  -0.00830   0.00000  -0.07410  -0.07562   4.12198
   Z10        0.02697  -0.00170   0.00000  -0.02986  -0.02680   0.00016
   X11       -2.40463  -0.01064   0.00000  -0.02173  -0.03028  -2.43491
   Y11        4.05503   0.01620   0.00000   0.00320   0.00167   4.05670
   Z11       -0.03756   0.00103   0.00000   0.02382   0.02708  -0.01049
   X12       -4.69326   0.02046   0.00000  -0.01773  -0.02625  -4.71951
   Y12       -0.06122   0.00123   0.00000   0.05091   0.04927  -0.01195
   Z12        0.15925  -0.00502   0.00000  -0.07142  -0.07196   0.08729
         Item               Value     Threshold  Converged?
 Maximum Force            0.052097     0.000450     NO 
 RMS     Force            0.018213     0.000300     NO 
 Maximum Displacement     0.121067     0.001800     NO 
 RMS     Displacement     0.049744     0.001200     NO 
 Predicted change in Energy=-9.323237D-03
 GradGradGradGradGradGradGradGradGradGradGradGradGradGradGradGradGradGrad

 Unable to Open any file for archive entry.
 1\1\GINC-BHC0201\Force\RAM1\ZDO\C6H6\BWEIGHT\21-Mar-2025\0\\# AM1/STO-
 5G SCF=XQC FORCE nosym guess=read\\MD Step 29\\0,1\C,-0.70640971,-1.23
 778796,-0.03070514\C,0.70081589,-1.21003193,0.05334183\C,1.36016119,0.
 00560073,-0.01096885\C,0.69847083,1.22661248,-0.00126969\C,-0.70856496
 ,1.23947154,-0.0047258\C,-1.34714144,-0.03017195,0.00873867\H,-1.32789
 66,-2.18043406,-0.18300767\H,1.21543176,-2.19490436,0.14430279\H,2.449
 42599,0.04278892,-0.04780267\H,1.17968592,2.22127516,0.01426964\H,-1.2
 7247498,2.14582883,-0.01987854\H,-2.48356501,-0.03239513,0.08427343\\V
 ersion=ES64L-G16RevC.01\HF=0.0460443\RMSD=5.949e-09\RMSF=1.821e-02\Dip
 ole=-0.0309616,-0.0147116,-0.0087124\PG=C01 [X(C6H6)]\\@
 The archive entry for this job was punched.


 The most important thing in communication is to hear what isn't being said.
 -- Peter F. Drucker
 Job cpu time:       0 days  0 hours  0 minutes  1.1 seconds.
 Elapsed time:       0 days  0 hours  0 minutes  0.9 seconds.
 File lengths (MBytes):  RWF=      6 Int=      0 D2E=      0 Chk=      2 Scr=      1
 Normal termination of Gaussian 16 at Fri Mar 21 15:03:23 2025.
