 Entering Gaussian System, Link 0=g16
 Initial command:
 /software/gaussian/g16-c01/avx2/g16/l1.exe "/local_scratch/28554187/Gau-25776.inp" -scrdir="/local_scratch/28554187/"
 Entering Link 1 = /software/gaussian/g16-c01/avx2/g16/l1.exe PID=     25796.
  
 Copyright (c) 1988-2019, Gaussian, Inc.  All Rights Reserved.
  
 This is part of the Gaussian(R) 16 program.  It is based on
 the Gaussian(R) 09 system (copyright 2009, Gaussian, Inc.),
 the Gaussian(R) 03 system (copyright 2003, Gaussian, Inc.),
 the Gaussian(R) 98 system (copyright 1998, Gaussian, Inc.),
 the Gaussian(R) 94 system (copyright 1995, Gaussian, Inc.),
 the Gaussian 92(TM) system (copyright 1992, Gaussian, Inc.),
 the Gaussian 90(TM) system (copyright 1990, Gaussian, Inc.),
 the Gaussian 88(TM) system (copyright 1988, Gaussian, Inc.),
 the Gaussian 86(TM) system (copyright 1986, Carnegie Mellon
 University), and the Gaussian 82(TM) system (copyright 1983,
 Carnegie Mellon University). Gaussian is a federally registered
 trademark of Gaussian, Inc.
  
 This software contains proprietary and confidential information,
 including trade secrets, belonging to Gaussian, Inc.
  
 This software is provided under written license and may be
 used, copied, transmitted, or stored only in accord with that
 written license.
  
 The following legend is applicable only to US Government
 contracts under FAR:
  
                    RESTRICTED RIGHTS LEGEND
  
 Use, reproduction and disclosure by the US Government is
 subject to restrictions as set forth in subparagraphs (a)
 and (c) of the Commercial Computer Software - Restricted
 Rights clause in FAR 52.227-19.
  
 Gaussian, Inc.
 340 Quinnipiac St., Bldg. 40, Wallingford CT 06492
  
  
 ---------------------------------------------------------------
 Warning -- This program may not be used in any manner that
 competes with the business of Gaussian, Inc. or will provide
 assistance to any competitor of Gaussian, Inc.  The licensee
 of this program is prohibited from giving any competitor of
 Gaussian, Inc. access to this program.  By using this program,
 the user acknowledges that Gaussian, Inc. is engaged in the
 business of creating and licensing software in the field of
 computational chemistry and represents and warrants to the
 licensee that it is not a competitor of Gaussian, Inc. and that
 it will not use this program in any manner prohibited above.
 ---------------------------------------------------------------
  

 Cite this work as:
 Gaussian 16, Revision C.01,
 M. J. Frisch, G. W. Trucks, H. B. Schlegel, G. E. Scuseria, 
 M. A. Robb, J. R. Cheeseman, G. Scalmani, V. Barone, 
 G. A. Petersson, H. Nakatsuji, X. Li, M. Caricato, A. V. Marenich, 
 J. Bloino, B. G. Janesko, R. Gomperts, B. Mennucci, H. P. Hratchian, 
 J. V. Ortiz, A. F. Izmaylov, J. L. Sonnenberg, D. Williams-Young, 
 F. Ding, F. Lipparini, F. Egidi, J. Goings, B. Peng, A. Petrone, 
 T. Henderson, D. Ranasinghe, V. G. Zakrzewski, J. Gao, N. Rega, 
 G. Zheng, W. Liang, M. Hada, M. Ehara, K. Toyota, R. Fukuda, 
 J. Hasegawa, M. Ishida, T. Nakajima, Y. Honda, O. Kitao, H. Nakai, 
 T. Vreven, K. Throssell, J. A. Montgomery, Jr., J. E. Peralta, 
 F. Ogliaro, M. J. Bearpark, J. J. Heyd, E. N. Brothers, K. N. Kudin, 
 V. N. Staroverov, T. A. Keith, R. Kobayashi, J. Normand, 
 K. Raghavachari, A. P. Rendell, J. C. Burant, S. S. Iyengar, 
 J. Tomasi, M. Cossi, J. M. Millam, M. Klene, C. Adamo, R. Cammi, 
 J. W. Ochterski, R. L. Martin, K. Morokuma, O. Farkas, 
 J. B. Foresman, and D. J. Fox, Gaussian, Inc., Wallingford CT, 2019.
 
 ******************************************
 Gaussian 16:  ES64L-G16RevC.01  3-Jul-2019
                21-Mar-2025 
 ******************************************
 %oldchk=../TD_OLD_S1/geometry.chk
 %chk=geometry.chk
 %nprocshared=1
 Will use up to    1 processors via shared memory.
 %mem=2GB
 Copying data from "../TD_OLD_S1/geometry.chk" to current chk file "geometry.chk"
 IOpt=  2 FromEx=T IUOpen= 4 IOptOp= 5 NList=   0 IFRang= 0 IUIn= 4 IUOut= 2.
 ----------------------------------------------------------------------
 # AM1/STO-5G SCF=XQC TD=(read,singlets,nstates=5,root=1) nosym IOp(9/4
 0=3) guess=read
 ----------------------------------------------------------------------
 1/38=1,172=1/1;
 2/12=2,15=1,17=6,18=5,40=1/2;
 3/5=2,6=5,25=1,41=700000,116=-2/1,2,3,8;
 4/5=1,35=1/1;
 5/5=2,8=3,13=1,35=1,38=6/2,8;
 8/6=1,10=90,107=1,108=5/1;
 9/8=1,40=3,41=5,42=1,48=1,49=13,70=2/14;
 6/7=2,8=2,9=2,10=2/1;
 99/5=1,9=1/99;
 ----------
 MD Step 21
 ----------
 Symbolic Z-matrix:
 Charge =  0 Multiplicity = 1
 C                    -0.70371  -1.26093   0.00869 
 C                     0.6537   -1.176     0.03254 
 C                     1.39419   0.00852  -0.01586 
 C                     0.70758   1.21673  -0.01946 
 C                    -0.68456   1.22973   0.09321 
 C                    -1.36774  -0.00782  -0.05798 
 H                    -1.19892  -2.20284  -0.00306 
 H                     1.24204  -2.1828    0.17956 
 H                     2.50898  -0.10494  -0.09378 
 H                     1.18349   2.21767  -0.12311 
 H                    -1.23189   2.16624  -0.06767 
 H                    -2.42846   0.08246  -0.09707 
 
                          Input orientation:                          
 ---------------------------------------------------------------------
 Center     Atomic      Atomic             Coordinates (Angstroms)
 Number     Number       Type             X           Y           Z
 ---------------------------------------------------------------------
      1          6           0       -0.703709   -1.260928    0.008692
      2          6           0        0.653699   -1.175997    0.032540
      3          6           0        1.394192    0.008518   -0.015858
      4          6           0        0.707583    1.216728   -0.019457
      5          6           0       -0.684561    1.229730    0.093211
      6          6           0       -1.367737   -0.007823   -0.057980
      7          1           0       -1.198920   -2.202842   -0.003059
      8          1           0        1.242041   -2.182804    0.179563
      9          1           0        2.508981   -0.104940   -0.093780
     10          1           0        1.183491    2.217675   -0.123111
     11          1           0       -1.231889    2.166243   -0.067673
     12          1           0       -2.428459    0.082464   -0.097074
 ---------------------------------------------------------------------
                    Distance matrix (angstroms):
                    1          2          3          4          5
     1  C    0.000000
     2  C    1.360271   0.000000
     3  C    2.452200   1.397766   0.000000
     4  C    2.851546   2.393897   1.389683   0.000000
     5  C    2.492165   2.753570   2.413394   1.396756   0.000000
     6  C    1.419736   2.336457   2.762299   2.409971   1.421663
     7  H    1.064225   2.118460   3.408006   3.915161   3.472230
     8  H    2.159860   1.175339   2.205274   3.447039   3.919776
     9  H    3.415872   2.145971   1.123254   2.235480   3.466270
    10  H    3.959743   3.438301   2.221772   1.113161   2.124253
    11  H    3.468473   3.838757   3.399230   2.159966   1.096589
    12  H    2.188756   3.331700   3.824229   3.335767   2.096093
                    6          7          8          9         10
     6  C    0.000000
     7  H    2.202186   0.000000
     8  H    3.405570   2.447864   0.000000
     9  H    3.878100   4.261215   2.448954   0.000000
    10  H    3.386126   5.023073   4.411265   2.674383   0.000000
    11  H    2.178327   4.369687   5.009558   4.376422   2.416564
    12  H    1.065275   2.596773   4.322099   4.940997   4.195949
                   11         12
    11  H    0.000000
    12  H    2.403077   0.000000
 Symmetry turned off by external request.
 Stoichiometry    C6H6
 Framework group  C1[X(C6H6)]
 Deg. of freedom    30
 Full point group                 C1      NOp   1
 Rotational constants (GHZ):           5.8386941           5.5169176           2.8441044
 Standard basis: VSTO-5G (5D, 7F)
    30 basis functions,   180 primitive gaussians,    30 cartesian basis functions
    15 alpha electrons       15 beta electrons
       nuclear repulsion energy       119.5246575937 Hartrees.
 Integral buffers will be    131072 words long.
 Regular integral format.
 Two-electron integral symmetry is turned off.
 Do NDO integrals.
 One-electron integrals computed using PRISM.
 NBasis=    30 RedAO= F EigKep=  0.00D+00  NBF=    30
 NBsUse=    30 1.00D-04 EigRej=  0.00D+00 NBFU=    30
 Initial guess from the checkpoint file:  "geometry.chk"
 B after Tr=     0.000099    0.001209    0.000382
         Rot=    1.000000    0.000159   -0.000223   -0.000096 Ang=   0.03 deg.
 Keep J ints in memory in canonical form, NReq=861816.
 Overlap will be assumed to be unity.
 Requested convergence on RMS density matrix=1.00D-08 within  32 cycles.
 Requested convergence on MAX density matrix=1.00D-06.
 Requested convergence on             energy=1.00D-06.
 No special actions if energy rises.
 SCF Done:  E(RAM1) =  0.541097685823E-01 A.U. after   12 cycles
            NFock= 11  Conv=0.82D-08     -V/T= 1.0011
 QCSCF skips out because SCF is already converged.
 Range of M.O.s used for correlation:     1    30
 NBasis=    30 NAE=    15 NBE=    15 NFC=     0 NFV=     0
 NROrb=     30 NOA=    15 NOB=    15 NVA=    15 NVB=    15
 Keep J ints in memory in canonical form, NReq=862156.
 Generating guess from checkpoint file densities.
 Convergence on wavefunction:    0.001000000000000
 Iteration     1 Dimension    10 NMult     0 NNew     10
 CISAX will form    10 AO SS matrices at one time.
 Iteration     2 Dimension    20 NMult    10 NNew     10
 Iteration     3 Dimension    30 NMult    20 NNew     10
 Iteration     4 Dimension    40 NMult    30 NNew     10
 Iteration     5 Dimension    46 NMult    40 NNew      6
 Iteration     6 Dimension    50 NMult    46 NNew      4
 Iteration     7 Dimension    52 NMult    50 NNew      2
 Iteration     8 Dimension    54 NMult    52 NNew      2
 Iteration     9 Dimension    56 NMult    54 NNew      2
 Iteration    10 Dimension    58 NMult    56 NNew      2
 Iteration    11 Dimension    60 NMult    58 NNew      2
 Iteration    12 Dimension    62 NMult    60 NNew      2
 Iteration    13 Dimension    64 NMult    62 NNew      2
 ***********************************************************************
 Excited states from <AA,BB:AA,BB> singles matrix:
 ***********************************************************************
 
 Ground to excited state transition densities written to RWF  633
 Ground to excited state transition electric dipole moments (Au):
       state          X           Y           Z        Dip. S.      Osc.
         1         0.0240     -0.0634      0.0003      0.0046      0.0004
         2        -0.2118     -0.0450     -0.1830      0.0804      0.0081
         3         0.5234     -1.4780     -0.0713      2.4635      0.3237
         4         1.5104      0.5581     -0.0032      2.5928      0.3437
         5        -0.2088      0.2719     -0.0649      0.1218      0.0176
 Ground to excited state transition velocity dipole moments (Au):
       state          X           Y           Z        Dip. S.      Osc.
         1        -0.0020      0.0113     -0.0008      0.0001      0.0006
         2         0.0511      0.0079      0.0464      0.0048      0.0212
         3        -0.1583      0.4611     -0.0379      0.2391      0.8088
         4        -0.4612     -0.1769      0.0064      0.2440      0.8183
         5         0.0686     -0.0889     -0.1015      0.0229      0.0705
 Ground to excited state transition magnetic dipole moments (Au):
       state          X           Y           Z
         1         0.0296     -0.0278      0.0508
         2         0.0740      0.0875     -0.0931
         3         0.0744      0.0264      0.0130
         4        -0.0217      0.0427     -0.0789
         5        -0.1012      0.0899     -0.0608
 Ground to excited state transition velocity quadrupole moments (Au):
       state          XX          YY          ZZ          XY          XZ          YZ
         1        -0.0003      0.0009      0.0011      0.0020      0.0126      0.0164
         2         0.0098      0.0823     -0.0034     -0.0213     -0.0715      0.0547
         3        -0.0549      0.0458      0.0107     -0.0819     -0.0249      0.0788
         4         0.0690     -0.0517      0.0014     -0.0132      0.0799      0.0485
         5         0.0649     -0.0952      0.0038      0.0453      0.0526     -0.0108
 <0|del|b> * <b|rxdel|0> + <0|del|b> * <b|delr+rdel|0>
 Rotatory Strengths (R) in cgs (10**-40 erg-esu-cm/Gauss)
       state          XX          YY          ZZ    R(velocity)    E-M Angle
         1        -1.2653     -0.3249     -0.5035     -0.6979      123.38
         2        -9.4418      7.5390      2.5888      0.2287       89.18
         3        47.1347    -49.9653      2.5482     -0.0941       90.00
         4        10.6441    -22.7536     18.9640      2.2848       87.58
         5        -2.8272      5.0509    -30.8125     -9.5296      112.94
 1/2[<0|r|b>*<b|rxdel|0> + (<0|rxdel|b>*<b|r|0>)*]
 Rotatory Strengths (R) in cgs (10**-40 erg-esu-cm/Gauss)
       state          XX          YY          ZZ     R(length)
         1        -0.5025     -1.2487     -0.0126     -0.5879
         2        11.0800      2.7825    -12.0500      0.6042
         3       -27.5407     27.6387      0.6576      0.2519
         4        23.1494    -16.8590     -0.1813      2.0364
         5       -14.9435    -17.2760     -2.7930    -11.6708
  1/2[<0|del|b>*<b|r|0> + (<0|r|b>*<b|del|0>)*] (Au)
       state          X           Y           Z        Dip. S.   Osc.(frdel)
         1        -0.0000     -0.0007     -0.0000      0.0008      0.0005
         2        -0.0108     -0.0004     -0.0085      0.0197      0.0131
         3        -0.0829     -0.6815      0.0027      0.7617      0.5078
         4        -0.6966     -0.0987     -0.0000      0.7953      0.5302
         5        -0.0143     -0.0242      0.0066      0.0319      0.0213

 Excitation energies and oscillator strengths:
 
 Excited state symmetry could not be determined.
 Excited State   1:      Singlet-?Sym    3.7928 eV  326.89 nm  f=0.0004  <S**2>=0.000
       2 -> 22        -0.00184
       2 -> 23        -0.00274
       2 -> 24        -0.00145
       2 -> 25        -0.00148
       3 -> 23        -0.00150
       3 -> 24         0.00273
       3 -> 26         0.00208
       4 -> 16         0.00135
       4 -> 18         0.00196
       4 -> 27        -0.00269
       5 -> 17         0.00140
       5 -> 28         0.00219
       5 -> 29         0.00176
       6 -> 16        -0.00151
       7 -> 16        -0.00121
       7 -> 28        -0.00146
       7 -> 29         0.00201
       8 -> 16         0.00121
       8 -> 17         0.00130
       8 -> 23         0.00178
       9 -> 16         0.00149
       9 -> 18         0.00367
       9 -> 22        -0.00173
       9 -> 23        -0.00222
       9 -> 24        -0.00139
       9 -> 25        -0.00211
       9 -> 28         0.00160
      10 -> 18         0.00498
      10 -> 23         0.00183
      10 -> 24        -0.00209
      10 -> 26        -0.00200
      10 -> 28        -0.00107
      11 -> 16        -0.00312
      11 -> 17         0.00425
      11 -> 20         0.00161
      11 -> 22        -0.00232
      11 -> 23        -0.00282
      11 -> 25        -0.00311
      11 -> 26         0.00335
      11 -> 27        -0.00402
      11 -> 28        -0.00635
      11 -> 29         0.00114
      12 -> 16        -0.00115
      12 -> 18         0.00178
      12 -> 20        -0.00133
      12 -> 21         0.00105
      12 -> 27        -0.00114
      12 -> 28         0.00100
      13 -> 16        -0.00156
      13 -> 18         0.00168
      13 -> 20        -0.00119
      13 -> 27         0.00152
      14 -> 16        -0.48361
      14 -> 17        -0.01134
      14 -> 18         0.00707
      14 -> 19        -0.00499
      14 -> 20        -0.00121
      14 -> 22         0.00483
      14 -> 24         0.00101
      14 -> 26        -0.00205
      14 -> 27         0.00335
      14 -> 28         0.00240
      15 -> 16         0.01524
      15 -> 17        -0.52398
      15 -> 18         0.00486
      15 -> 19        -0.00560
      15 -> 20         0.00590
      15 -> 21         0.00145
      15 -> 23        -0.00136
      15 -> 24         0.00282
      15 -> 25        -0.00446
      15 -> 28        -0.00530
      15 -> 30        -0.00298
       2 <- 23        -0.00110
       4 <- 27        -0.00207
       5 <- 28         0.00173
       5 <- 29         0.00139
       7 <- 28        -0.00113
       7 <- 29         0.00145
       8 <- 23         0.00104
       9 <- 17        -0.00116
      10 <- 16        -0.00119
      11 <- 17         0.00113
      12 <- 16        -0.00421
      12 <- 17        -0.00342
      13 <- 16        -0.00224
      13 <- 17         0.00100
      14 <- 16        -0.07180
      14 <- 17        -0.00199
      14 <- 18         0.00258
      14 <- 19        -0.00109
      14 <- 24         0.00120
      14 <- 26         0.00103
      15 <- 16         0.00126
      15 <- 17        -0.06418
      15 <- 18         0.00162
      15 <- 19        -0.00215
      15 <- 21         0.00190
      15 <- 23         0.00102
      15 <- 24         0.00206
      15 <- 27         0.00111
 This state for optimization and/or second-order correction.
 Total Energy, E(TD-HF/TD-DFT) =  0.193493808979    
 Copying the excited state density for this state as the 1-particle RhoCI density.
 
 Excited state symmetry could not be determined.
 Excited State   2:      Singlet-?Sym    4.1344 eV  299.88 nm  f=0.0081  <S**2>=0.000
       1 -> 17         0.00132
       1 -> 19        -0.00147
       1 -> 21         0.00195
       2 -> 17        -0.00116
       2 -> 18        -0.00168
       2 -> 23         0.00149
       2 -> 24        -0.00202
       2 -> 26         0.00192
       3 -> 22        -0.00146
       3 -> 23        -0.00272
       3 -> 24        -0.00145
       3 -> 25         0.00196
       4 -> 16        -0.00243
       4 -> 21         0.00212
       4 -> 23         0.00221
       4 -> 26        -0.00161
       4 -> 28         0.00381
       4 -> 29         0.00233
       5 -> 16         0.00451
       5 -> 17         0.00443
       5 -> 18         0.00270
       5 -> 21        -0.00104
       5 -> 23        -0.00138
       5 -> 24        -0.00118
       5 -> 26         0.00140
       5 -> 27         0.00537
       6 -> 17        -0.00177
       6 -> 19         0.00112
       6 -> 20         0.00172
       6 -> 21        -0.00263
       6 -> 22        -0.00152
       6 -> 23        -0.00129
       7 -> 16        -0.00331
       7 -> 17        -0.00263
       7 -> 18        -0.00492
       7 -> 22         0.00235
       7 -> 23         0.00249
       7 -> 24        -0.00109
       8 -> 17         0.00154
       8 -> 19         0.00115
       8 -> 20        -0.00148
       8 -> 23        -0.00197
       8 -> 24         0.00430
       8 -> 25         0.00341
       8 -> 26         0.00109
       8 -> 27         0.00219
       8 -> 28         0.00365
       8 -> 29        -0.00175
       9 -> 16         0.00271
       9 -> 18         0.01171
       9 -> 19        -0.00156
       9 -> 20        -0.00210
       9 -> 21        -0.00168
       9 -> 23         0.00204
       9 -> 24        -0.00104
       9 -> 25         0.00328
       9 -> 26         0.00794
       9 -> 27        -0.00369
       9 -> 28         0.00102
       9 -> 29         0.00190
       9 -> 30        -0.00124
      10 -> 16         0.00191
      10 -> 18        -0.01525
      10 -> 19        -0.00193
      10 -> 20        -0.00156
      10 -> 21         0.00158
      10 -> 22         0.00427
      10 -> 23         0.00371
      10 -> 24         0.00299
      10 -> 25        -0.00310
      10 -> 27         0.00121
      10 -> 28         0.00256
      10 -> 29        -0.00102
      10 -> 30         0.00101
      11 -> 16        -0.00279
      11 -> 18        -0.10682
      11 -> 19         0.00682
      11 -> 20         0.00328
      11 -> 21         0.01058
      11 -> 22         0.00478
      11 -> 23        -0.00212
      11 -> 24         0.00192
      11 -> 26         0.00317
      11 -> 27         0.00249
      11 -> 28        -0.00235
      12 -> 16         0.00655
      12 -> 18        -0.00344
      12 -> 19         0.00304
      12 -> 20         0.00914
      12 -> 22        -0.00355
      12 -> 23         0.00548
      12 -> 26        -0.00190
      12 -> 27         0.00789
      12 -> 28         0.00448
      12 -> 29         0.00156
      12 -> 30         0.00451
      13 -> 16        -0.00126
      13 -> 18         0.01659
      13 -> 19         0.00611
      13 -> 20         0.00336
      13 -> 21         0.00357
      13 -> 22        -0.00765
      13 -> 23         0.00815
      13 -> 26        -0.00209
      13 -> 27        -0.00527
      13 -> 28        -0.00200
      13 -> 29        -0.00245
      13 -> 30         0.00131
      14 -> 16        -0.00928
      14 -> 17         0.42795
      14 -> 18        -0.00260
      14 -> 19         0.00447
      14 -> 20        -0.00448
      14 -> 21        -0.00538
      14 -> 22        -0.00267
      14 -> 24        -0.00428
      14 -> 25         0.00341
      14 -> 27        -0.00830
      14 -> 28        -0.00195
      14 -> 29        -0.00155
      15 -> 16        -0.55162
      15 -> 17        -0.01682
      15 -> 18         0.00145
      15 -> 19        -0.00265
      15 -> 21         0.00245
      15 -> 22         0.00530
      15 -> 23        -0.00245
      15 -> 24         0.00193
      15 -> 26        -0.00101
      15 -> 27         0.00626
      15 -> 28        -0.00692
      15 -> 29        -0.00257
       1 <- 19        -0.00278
       1 <- 21         0.00454
       1 <- 23         0.00106
       1 <- 30         0.00226
       2 <- 23         0.00300
       2 <- 24        -0.00479
       2 <- 26        -0.00102
       3 <- 17        -0.00102
       3 <- 22        -0.00338
       3 <- 23        -0.00603
       3 <- 24        -0.00322
       4 <- 16        -0.00179
       4 <- 21         0.00178
       4 <- 23         0.00141
       4 <- 26        -0.00126
       4 <- 28         0.00414
       4 <- 29         0.00300
       5 <- 16         0.00150
       5 <- 17         0.00213
       5 <- 20        -0.00104
       5 <- 24        -0.00108
       5 <- 26         0.00102
       5 <- 27         0.00592
       6 <- 21        -0.00179
       6 <- 30        -0.00176
       7 <- 16        -0.00154
       7 <- 17        -0.00102
       7 <- 18        -0.00191
       7 <- 22         0.00106
       7 <- 23         0.00120
       8 <- 23        -0.00153
       8 <- 24         0.00284
       8 <- 25         0.00180
       8 <- 27         0.00177
       8 <- 28         0.00430
       8 <- 29        -0.00369
       9 <- 16        -0.00139
       9 <- 18        -0.00204
       9 <- 20        -0.00105
       9 <- 23         0.00245
       9 <- 24        -0.00195
       9 <- 26         0.00125
       9 <- 27        -0.00125
      10 <- 17         0.00200
      10 <- 18         0.00234
      10 <- 19        -0.00137
      10 <- 20        -0.00104
      10 <- 22         0.00318
      10 <- 23         0.00464
      10 <- 24         0.00324
      10 <- 25         0.00114
      10 <- 27         0.00125
      10 <- 28         0.00111
      11 <- 16         0.00292
      11 <- 17         0.00187
      11 <- 18         0.01402
      11 <- 24        -0.00116
      12 <- 16        -0.00122
      12 <- 17         0.00247
      12 <- 20         0.00232
      12 <- 23         0.00254
      12 <- 26        -0.00113
      12 <- 27         0.00446
      12 <- 28         0.00391
      12 <- 29         0.00227
      12 <- 30         0.00179
      13 <- 18        -0.00129
      13 <- 19         0.00193
      13 <- 20         0.00166
      13 <- 21         0.00190
      13 <- 22        -0.00208
      13 <- 23         0.00304
      13 <- 26        -0.00109
      13 <- 27        -0.00452
      14 <- 16        -0.00156
      14 <- 17         0.02658
      14 <- 18        -0.00269
      14 <- 19         0.00202
      14 <- 21        -0.00201
      14 <- 22        -0.00125
      14 <- 23        -0.00116
      14 <- 24        -0.00201
      14 <- 27        -0.00183
      14 <- 29        -0.00102
      15 <- 18         0.00305
      15 <- 26         0.00139
 
 Excited state symmetry could not be determined.
 Excited State   3:      Singlet-?Sym    5.3632 eV  231.18 nm  f=0.3237  <S**2>=0.000
       1 -> 27         0.00250
       2 -> 19        -0.00235
       2 -> 20        -0.00180
       2 -> 21        -0.00267
       2 -> 22        -0.00539
       2 -> 25        -0.00144
       2 -> 28         0.00154
       3 -> 19        -0.00219
       3 -> 20        -0.00184
       3 -> 21        -0.00251
       3 -> 22        -0.00337
       3 -> 23         0.00139
       3 -> 24        -0.00136
       3 -> 25        -0.00143
       3 -> 26        -0.00195
       3 -> 27        -0.00104
       3 -> 28        -0.00144
       3 -> 29         0.00135
       4 -> 16        -0.00343
       4 -> 19        -0.00102
       4 -> 20        -0.00625
       4 -> 21         0.00315
       4 -> 29        -0.00155
       4 -> 30         0.00103
       5 -> 17         0.00281
       5 -> 19        -0.01283
       5 -> 20         0.00375
       5 -> 21         0.00944
       5 -> 22         0.00258
       5 -> 23         0.00103
       5 -> 24         0.00127
       5 -> 25        -0.00118
       5 -> 26         0.00121
       5 -> 27         0.00245
       5 -> 30         0.00856
       6 -> 16         0.00369
       6 -> 17         0.00197
       6 -> 19        -0.01003
       6 -> 20         0.00748
       6 -> 21        -0.00460
       6 -> 22         0.00514
       6 -> 23        -0.00139
       6 -> 24         0.00213
       6 -> 25        -0.00120
       6 -> 26        -0.00253
       6 -> 27        -0.00715
       6 -> 29        -0.00101
       7 -> 16         0.00210
       7 -> 17        -0.00173
       7 -> 18         0.02195
       7 -> 19        -0.00790
       7 -> 20        -0.00161
       7 -> 21        -0.00442
       7 -> 22        -0.00960
       7 -> 23        -0.00200
       7 -> 24        -0.02562
       7 -> 25        -0.01095
       7 -> 26        -0.00964
       7 -> 27        -0.00440
       7 -> 29        -0.00183
       7 -> 30         0.00103
       8 -> 16        -0.00595
       8 -> 18        -0.00582
       8 -> 19        -0.00384
       8 -> 20        -0.00560
       8 -> 21        -0.00105
       8 -> 22         0.01895
       8 -> 23         0.03492
       8 -> 25         0.01353
       8 -> 26        -0.02263
       8 -> 27         0.00439
       8 -> 28        -0.00438
       8 -> 29        -0.00111
       9 -> 16         0.00334
       9 -> 17         0.00404
       9 -> 18        -0.00211
       9 -> 19         0.00417
       9 -> 20        -0.00161
       9 -> 21        -0.00351
       9 -> 22        -0.00932
       9 -> 23        -0.01119
       9 -> 24         0.00405
       9 -> 25        -0.01021
       9 -> 26         0.00987
       9 -> 27         0.00263
       9 -> 28         0.01255
       9 -> 29        -0.01281
       9 -> 30        -0.00322
      10 -> 16        -0.00732
      10 -> 17        -0.00350
      10 -> 18        -0.00925
      10 -> 20         0.00767
      10 -> 21         0.00618
      10 -> 22         0.00760
      10 -> 23        -0.00443
      10 -> 24         0.01043
      10 -> 25         0.02002
      10 -> 26         0.01474
      10 -> 27         0.00268
      10 -> 28         0.01356
      10 -> 29        -0.01465
      10 -> 30         0.00394
      11 -> 17        -0.00771
      11 -> 18         0.00151
      11 -> 19         0.00228
      11 -> 20        -0.00314
      11 -> 21        -0.01101
      11 -> 22        -0.01053
      11 -> 23        -0.00874
      11 -> 24        -0.00677
      11 -> 25        -0.00754
      11 -> 27        -0.00187
      11 -> 30        -0.00655
      12 -> 16        -0.09542
      12 -> 17         0.05782
      12 -> 18        -0.00243
      12 -> 19        -0.02298
      12 -> 20        -0.04547
      12 -> 21         0.02156
      12 -> 22         0.01779
      12 -> 23        -0.00561
      12 -> 24        -0.00483
      12 -> 25         0.00530
      12 -> 26        -0.00635
      12 -> 27         0.00312
      12 -> 28         0.03229
      12 -> 29         0.02043
      12 -> 30         0.01167
      13 -> 16        -0.06127
      13 -> 17        -0.03796
      13 -> 18         0.01480
      13 -> 19         0.03955
      13 -> 20        -0.02349
      13 -> 21        -0.00716
      13 -> 22        -0.01650
      13 -> 23        -0.00147
      13 -> 24        -0.00834
      13 -> 25         0.00416
      13 -> 26         0.00978
      13 -> 27         0.04383
      13 -> 28        -0.00422
      13 -> 30        -0.02716
      14 -> 16         0.50572
      14 -> 17         0.06020
      14 -> 18         0.00771
      14 -> 20         0.01186
      14 -> 22        -0.00281
      14 -> 23         0.00106
      14 -> 24         0.01340
      14 -> 25         0.00477
      14 -> 26         0.00946
      14 -> 27        -0.00351
      14 -> 28        -0.00348
      14 -> 29        -0.00111
      14 -> 30         0.00228
      15 -> 16         0.05087
      15 -> 17        -0.46590
      15 -> 19         0.01490
      15 -> 20         0.00774
      15 -> 21        -0.01364
      15 -> 22        -0.01270
      15 -> 23        -0.01092
      15 -> 24        -0.01168
      15 -> 25        -0.01331
      15 -> 26        -0.00187
      15 -> 27         0.00171
      15 -> 28        -0.01080
      15 -> 29        -0.00364
      15 -> 30        -0.00926
       1 <- 27         0.00366
       2 <- 19        -0.00135
       2 <- 21        -0.00121
       2 <- 22        -0.00462
       2 <- 23        -0.00334
       2 <- 25        -0.00179
       2 <- 28         0.00177
       3 <- 19        -0.00140
       3 <- 20        -0.00146
       3 <- 21        -0.00168
       3 <- 22        -0.00203
       3 <- 23         0.00202
       3 <- 24        -0.00336
       3 <- 25        -0.00177
       3 <- 26        -0.00256
       3 <- 28        -0.00197
       3 <- 29         0.00157
       4 <- 20        -0.00370
       4 <- 21         0.00172
       5 <- 19        -0.00791
       5 <- 20         0.00254
       5 <- 21         0.00690
       5 <- 25        -0.00101
       5 <- 30         0.00536
       6 <- 19        -0.00445
       6 <- 20         0.00312
       6 <- 21        -0.00231
       6 <- 22         0.00254
       6 <- 27        -0.00145
       7 <- 18        -0.00183
       7 <- 19        -0.00245
       7 <- 22        -0.00341
       7 <- 23        -0.00107
       7 <- 24        -0.01080
       7 <- 25        -0.00385
       7 <- 26        -0.00341
       7 <- 27        -0.00141
       8 <- 16        -0.00101
       8 <- 19        -0.00133
       8 <- 20        -0.00237
       8 <- 21        -0.00111
       8 <- 22         0.00786
       8 <- 23         0.01553
       8 <- 25         0.00474
       8 <- 26        -0.00885
       8 <- 27         0.00180
       8 <- 28        -0.00226
       9 <- 17         0.00128
       9 <- 19         0.00136
       9 <- 21        -0.00193
       9 <- 22        -0.00402
       9 <- 23        -0.00515
       9 <- 25        -0.00510
       9 <- 26         0.00461
       9 <- 28         0.00427
       9 <- 29        -0.00404
       9 <- 30        -0.00130
      10 <- 20         0.00296
      10 <- 21         0.00230
      10 <- 22         0.00308
      10 <- 23        -0.00107
      10 <- 24         0.00491
      10 <- 25         0.00787
      10 <- 26         0.00679
      10 <- 28         0.00439
      10 <- 29        -0.00433
      10 <- 30         0.00180
      11 <- 16         0.00149
      11 <- 17        -0.00122
      11 <- 19         0.00230
      11 <- 23        -0.00121
      11 <- 24        -0.00188
      11 <- 25        -0.00212
      11 <- 30        -0.00124
      12 <- 16        -0.00391
      12 <- 17         0.00264
      12 <- 19        -0.00670
      12 <- 20        -0.01221
      12 <- 21         0.00696
      12 <- 22         0.00500
      12 <- 23        -0.00161
      12 <- 24        -0.00167
      12 <- 25         0.00128
      12 <- 26        -0.00159
      12 <- 28         0.01084
      12 <- 29         0.00733
      12 <- 30         0.00409
      13 <- 16        -0.00162
      13 <- 17        -0.00105
      13 <- 19         0.01213
      13 <- 20        -0.00716
      13 <- 21        -0.00412
      13 <- 22        -0.00451
      13 <- 24        -0.00249
      13 <- 25         0.00184
      13 <- 26         0.00282
      13 <- 27         0.01378
      13 <- 28        -0.00143
      13 <- 30        -0.01022
      14 <- 16        -0.08166
      14 <- 17        -0.01009
      14 <- 18         0.00166
      14 <- 20        -0.00217
      14 <- 21         0.00118
      15 <- 16        -0.01038
      15 <- 17         0.08694
      15 <- 18         0.00110
      15 <- 20        -0.00206
      15 <- 21        -0.00204
      15 <- 22         0.00142
      15 <- 23        -0.00121
      15 <- 24        -0.00211
      15 <- 27        -0.00169
 
 Excited state symmetry could not be determined.
 Excited State   4:      Singlet-?Sym    5.4101 eV  229.17 nm  f=0.3437  <S**2>=0.000
       1 -> 28        -0.00206
       1 -> 29        -0.00132
       2 -> 17        -0.00212
       2 -> 19         0.00134
       2 -> 21         0.00155
       2 -> 22         0.00307
       2 -> 24        -0.00324
       2 -> 26        -0.00163
       2 -> 28         0.00116
       2 -> 29        -0.00125
       3 -> 16         0.00236
       3 -> 19        -0.00310
       3 -> 20        -0.00215
       3 -> 21        -0.00272
       3 -> 22        -0.00331
       3 -> 23         0.00356
       3 -> 24         0.00267
       3 -> 25         0.00173
       3 -> 26        -0.00103
       3 -> 28         0.00117
       3 -> 29        -0.00106
       4 -> 16        -0.00584
       4 -> 17        -0.01054
       4 -> 18        -0.00343
       4 -> 19         0.00200
       4 -> 20        -0.00144
       4 -> 21        -0.01317
       4 -> 22         0.00507
       4 -> 23        -0.00511
       4 -> 24        -0.00181
       4 -> 27         0.00147
       4 -> 29        -0.00130
       4 -> 30        -0.00726
       5 -> 16        -0.00699
       5 -> 17         0.00436
       5 -> 20         0.00719
       5 -> 21        -0.00209
       5 -> 22        -0.00145
       5 -> 23         0.00133
       5 -> 27         0.00154
       5 -> 28         0.00137
       5 -> 29         0.00122
       6 -> 16         0.00311
       6 -> 17        -0.00204
       6 -> 19        -0.00663
       6 -> 20        -0.01364
       6 -> 22         0.00718
       6 -> 25         0.00136
       6 -> 26        -0.00135
       6 -> 28         0.00476
       6 -> 29         0.00259
       7 -> 16         0.00597
       7 -> 17        -0.00385
       7 -> 18        -0.00303
       7 -> 19         0.00183
       7 -> 20         0.00246
       7 -> 21         0.00601
       7 -> 22        -0.01285
       7 -> 23        -0.02445
       7 -> 24         0.00102
       7 -> 25        -0.00351
       7 -> 26         0.00535
       7 -> 28         0.00279
       7 -> 30         0.00131
       8 -> 16        -0.01028
       8 -> 17        -0.01310
       8 -> 18        -0.02794
       8 -> 19        -0.00101
       8 -> 20        -0.00244
       8 -> 22        -0.00782
       8 -> 23        -0.00559
       8 -> 24        -0.02880
       8 -> 25        -0.02038
       8 -> 26        -0.01617
       8 -> 27        -0.00153
       8 -> 28        -0.00174
       8 -> 29         0.00130
       9 -> 16        -0.01123
       9 -> 17        -0.01507
       9 -> 18        -0.00930
       9 -> 19         0.00402
       9 -> 20        -0.00815
       9 -> 21         0.00553
       9 -> 22         0.00404
       9 -> 24        -0.01731
       9 -> 25        -0.01718
       9 -> 26        -0.02066
       9 -> 27         0.00722
       9 -> 28         0.01020
       9 -> 29        -0.01228
       9 -> 30         0.00230
      10 -> 16        -0.01577
      10 -> 17        -0.01102
      10 -> 18        -0.01002
      10 -> 19         0.00735
      10 -> 20         0.00605
      10 -> 21         0.00186
      10 -> 22        -0.00480
      10 -> 23        -0.01868
      10 -> 24        -0.00884
      10 -> 25        -0.02217
      10 -> 26         0.01598
      10 -> 27        -0.00690
      10 -> 28        -0.01348
      10 -> 29         0.01351
      10 -> 30         0.00116
      11 -> 16         0.01430
      11 -> 17        -0.00792
      11 -> 18        -0.02103
      11 -> 19         0.00269
      11 -> 20        -0.00430
      11 -> 22         0.00391
      11 -> 23         0.00543
      11 -> 24        -0.00478
      11 -> 25         0.00175
      11 -> 26        -0.01025
      11 -> 27         0.00387
      11 -> 28         0.00307
      11 -> 29        -0.00378
      11 -> 30        -0.00173
      12 -> 16        -0.06851
      12 -> 17        -0.09561
      12 -> 18        -0.03846
      12 -> 19        -0.01707
      12 -> 20         0.01882
      12 -> 21        -0.03591
      12 -> 22         0.02190
      12 -> 23        -0.01750
      12 -> 24        -0.00101
      12 -> 25        -0.00543
      12 -> 26        -0.01820
      12 -> 27        -0.04127
      12 -> 28         0.00264
      12 -> 29        -0.01071
      12 -> 30        -0.02901
      13 -> 16         0.00925
      13 -> 17        -0.03444
      13 -> 18        -0.00672
      13 -> 19        -0.00605
      13 -> 20        -0.04143
      13 -> 21         0.00586
      13 -> 22         0.01793
      13 -> 23        -0.01553
      13 -> 24        -0.00740
      13 -> 25         0.00576
      13 -> 26        -0.00232
      13 -> 28         0.02948
      13 -> 29         0.02472
      13 -> 30        -0.01464
      14 -> 16        -0.05922
      14 -> 17         0.54143
      14 -> 18         0.01800
      14 -> 21         0.00443
      14 -> 23         0.00976
      14 -> 24         0.00499
      14 -> 25         0.00926
      14 -> 27         0.00176
      14 -> 29        -0.00237
      14 -> 30         0.00768
      15 -> 16         0.42315
      15 -> 17         0.05483
      15 -> 18         0.02834
      15 -> 19        -0.00262
      15 -> 22        -0.00732
      15 -> 23        -0.01078
      15 -> 24        -0.00174
      15 -> 25        -0.00161
      15 -> 26         0.00944
      15 -> 27        -0.00450
      15 -> 28         0.00116
      15 -> 29         0.00289
      15 -> 30         0.00292
       1 <- 20         0.00150
       1 <- 22        -0.00108
       1 <- 28        -0.00272
       1 <- 29        -0.00232
       2 <- 22         0.00147
       2 <- 23         0.00101
       2 <- 24        -0.00519
       2 <- 25        -0.00143
       2 <- 26        -0.00287
       2 <- 28         0.00119
       2 <- 29        -0.00240
       3 <- 19        -0.00204
       3 <- 20        -0.00122
       3 <- 21        -0.00149
       3 <- 23         0.00413
       3 <- 24         0.00220
       3 <- 25         0.00156
       3 <- 26        -0.00122
       3 <- 28         0.00112
       3 <- 29        -0.00163
       4 <- 18        -0.00139
       4 <- 19         0.00206
       4 <- 20        -0.00134
       4 <- 21        -0.00868
       4 <- 22         0.00323
       4 <- 23        -0.00325
       4 <- 30        -0.00478
       5 <- 20         0.00364
       5 <- 23         0.00131
       6 <- 19        -0.00262
       6 <- 20        -0.00541
       6 <- 22         0.00294
       7 <- 21         0.00214
       7 <- 22        -0.00530
       7 <- 23        -0.00990
       7 <- 25        -0.00126
       7 <- 26         0.00160
       8 <- 17        -0.00122
       8 <- 19        -0.00144
       8 <- 22        -0.00354
       8 <- 23        -0.00184
       8 <- 24        -0.01317
       8 <- 25        -0.00723
       8 <- 26        -0.00639
       9 <- 16        -0.00113
       9 <- 19         0.00140
       9 <- 20        -0.00274
       9 <- 21         0.00172
       9 <- 24        -0.00833
       9 <- 25        -0.00726
       9 <- 26        -0.00889
       9 <- 27         0.00258
       9 <- 28         0.00300
       9 <- 29        -0.00436
       9 <- 30         0.00104
      10 <- 17        -0.00124
      10 <- 19         0.00232
      10 <- 20         0.00191
      10 <- 22        -0.00228
      10 <- 23        -0.00756
      10 <- 24        -0.00279
      10 <- 25        -0.00768
      10 <- 26         0.00635
      10 <- 27        -0.00237
      10 <- 28        -0.00377
      10 <- 29         0.00447
      11 <- 16        -0.00134
      11 <- 18         0.00307
      11 <- 20        -0.00198
      11 <- 26        -0.00270
      11 <- 27         0.00106
      12 <- 16        -0.00350
      12 <- 17        -0.00442
      12 <- 18        -0.00268
      12 <- 19        -0.00368
      12 <- 20         0.00416
      12 <- 21        -0.01252
      12 <- 22         0.00662
      12 <- 23        -0.00519
      12 <- 26        -0.00562
      12 <- 27        -0.01361
      12 <- 28         0.00128
      12 <- 29        -0.00282
      12 <- 30        -0.01003
      13 <- 16         0.00207
      13 <- 17        -0.00222
      13 <- 18        -0.00112
      13 <- 20        -0.01153
      13 <- 22         0.00515
      13 <- 23        -0.00514
      13 <- 24        -0.00185
      13 <- 25         0.00201
      13 <- 28         0.01003
      13 <- 29         0.00788
      13 <- 30        -0.00535
      14 <- 16         0.00856
      14 <- 17        -0.08071
      14 <- 18         0.00168
      14 <- 19        -0.00295
      14 <- 22         0.00233
      14 <- 24         0.00111
      14 <- 28         0.00116
      15 <- 16        -0.08732
      15 <- 17        -0.01026
      15 <- 19        -0.00193
      15 <- 20         0.00297
      15 <- 22         0.00141
      15 <- 23        -0.00101
      15 <- 24         0.00178
      15 <- 28        -0.00124
 
 Excited state symmetry could not be determined.
 Excited State   5:      Singlet-?Sym    5.8906 eV  210.48 nm  f=0.0176  <S**2>=0.000
       1 -> 16        -0.00245
       1 -> 17         0.00313
       2 -> 18        -0.00793
       2 -> 21         0.00114
       2 -> 22         0.00140
       3 -> 16         0.00261
       3 -> 17         0.00142
       3 -> 18         0.00508
       4 -> 16        -0.00595
       4 -> 17        -0.00870
       5 -> 16         0.01532
       5 -> 17        -0.00791
       5 -> 18        -0.00163
       5 -> 19         0.00319
       5 -> 20        -0.00197
       5 -> 21        -0.00127
       5 -> 22        -0.00179
       6 -> 16         0.01973
       6 -> 17        -0.02114
       6 -> 18         0.00362
       6 -> 19         0.00240
       6 -> 20        -0.00251
       6 -> 21         0.00102
       6 -> 23         0.00106
       6 -> 25         0.00123
       6 -> 27         0.00157
       6 -> 28         0.00188
       6 -> 30         0.00142
       7 -> 16         0.02670
       7 -> 17        -0.00337
       7 -> 18         0.07370
       7 -> 21        -0.00543
       7 -> 22         0.00182
       7 -> 23         0.00335
       7 -> 24         0.00247
       7 -> 25         0.00342
       7 -> 26         0.00128
       8 -> 16        -0.00633
       8 -> 17        -0.00656
       8 -> 18         0.01594
       8 -> 20         0.00126
       8 -> 21        -0.00314
       8 -> 22        -0.00326
       8 -> 23        -0.00651
       8 -> 24         0.00135
       8 -> 26         0.00444
       8 -> 28         0.00380
       8 -> 30        -0.00132
       9 -> 16        -0.02169
       9 -> 17        -0.01128
       9 -> 18        -0.09276
       9 -> 21         0.00458
       9 -> 22         0.00231
       9 -> 23         0.00397
       9 -> 24         0.00176
       9 -> 25         0.00249
       9 -> 27         0.00164
       9 -> 28        -0.00222
       9 -> 29         0.00288
      10 -> 16        -0.02008
      10 -> 17        -0.01092
      10 -> 18        -0.02912
      10 -> 19         0.00359
      10 -> 20         0.00149
      10 -> 21         0.00262
      10 -> 23        -0.00271
      10 -> 24         0.00118
      10 -> 25        -0.00663
      10 -> 26        -0.00243
      10 -> 27        -0.00113
      10 -> 28        -0.00623
      10 -> 29         0.00167
      11 -> 16         0.00310
      11 -> 18        -0.00641
      11 -> 19         0.00951
      11 -> 20         0.00754
      11 -> 21         0.01218
      11 -> 22         0.01023
      11 -> 23        -0.01363
      11 -> 24         0.00677
      11 -> 25         0.00510
      11 -> 26         0.00220
      11 -> 28         0.00118
      11 -> 30         0.00232
      12 -> 16        -0.24824
      12 -> 17        -0.03369
      12 -> 18        -0.03765
      12 -> 19         0.00821
      12 -> 20         0.01008
      12 -> 22        -0.00261
      12 -> 25        -0.00271
      12 -> 26         0.00148
      12 -> 27         0.00437
      12 -> 28        -0.00955
      12 -> 29        -0.00218
      12 -> 30        -0.00252
      13 -> 16        -0.61061
      13 -> 17        -0.15803
      13 -> 18         0.01442
      13 -> 19        -0.01117
      13 -> 20         0.00834
      13 -> 21         0.00160
      13 -> 22         0.00414
      13 -> 23         0.00282
      13 -> 24         0.00273
      13 -> 25        -0.00380
      13 -> 26        -0.00530
      13 -> 27        -0.00591
      13 -> 28        -0.00223
      13 -> 29        -0.00291
      13 -> 30         0.00668
      14 -> 16        -0.06633
      14 -> 17        -0.03638
      14 -> 18        -0.00660
      14 -> 19         0.03367
      14 -> 20        -0.03005
      14 -> 21        -0.01551
      14 -> 23        -0.00184
      14 -> 24        -0.00446
      14 -> 25         0.00281
      14 -> 26        -0.00250
      14 -> 27         0.00250
      14 -> 28         0.00454
      14 -> 29         0.00272
      14 -> 30        -0.01392
      15 -> 16        -0.02872
      15 -> 17         0.06152
      15 -> 18         0.04994
      15 -> 19        -0.02383
      15 -> 20        -0.03032
      15 -> 21        -0.02725
      15 -> 22         0.02834
      15 -> 23        -0.01200
      15 -> 24        -0.00541
      15 -> 25         0.00560
      15 -> 26        -0.00362
      15 -> 27         0.00673
      15 -> 28        -0.00319
      15 -> 30        -0.00702
       5 <- 19         0.00121
       5 <- 21        -0.00119
       7 <- 23         0.00124
       7 <- 24         0.00176
       8 <- 20         0.00102
       8 <- 22        -0.00104
       8 <- 23        -0.00272
       8 <- 24         0.00106
       8 <- 26         0.00193
       9 <- 18         0.00113
       9 <- 19        -0.00113
       9 <- 23         0.00110
       9 <- 25         0.00128
       9 <- 29         0.00118
      10 <- 24        -0.00127
      10 <- 26        -0.00177
      10 <- 30        -0.00102
      11 <- 16        -0.00369
      11 <- 19         0.00334
      11 <- 20         0.00204
      11 <- 21         0.00331
      11 <- 22         0.00489
      11 <- 23        -0.00252
      11 <- 25         0.00115
      12 <- 16         0.00139
      12 <- 19         0.00203
      12 <- 20         0.00131
      12 <- 28        -0.00257
      13 <- 16         0.00242
      13 <- 19        -0.00199
      13 <- 20         0.00195
      13 <- 27        -0.00166
      13 <- 30         0.00188
      14 <- 16         0.01110
      14 <- 17         0.00676
      14 <- 18         0.00123
      14 <- 19         0.00828
      14 <- 20        -0.00903
      14 <- 22        -0.00168
      14 <- 24        -0.00153
      14 <- 25         0.00177
      14 <- 26         0.00191
      14 <- 27         0.00580
      14 <- 28         0.00183
      14 <- 29         0.00186
      14 <- 30        -0.00290
      15 <- 16         0.00638
      15 <- 17        -0.01643
      15 <- 18        -0.00600
      15 <- 19        -0.00773
      15 <- 20        -0.00788
      15 <- 21        -0.00318
      15 <- 22         0.00988
      15 <- 23        -0.00658
      15 <- 24        -0.00122
      15 <- 26        -0.00155
      15 <- 27        -0.00337
      15 <- 28         0.00384
      15 <- 29         0.00312
      15 <- 30        -0.00238
 SavETr:  write IOETrn=   770 NScale= 10 NData=  16 NLR=1 NState=    5 LETran=     100.

 **********************************************************************

            Population analysis using the SCF Density.

 **********************************************************************

 Alpha  occ. eigenvalues --   -1.43731  -1.16231  -1.13974  -0.85578  -0.83446
 Alpha  occ. eigenvalues --   -0.65518  -0.59083  -0.56481  -0.52679  -0.51272
 Alpha  occ. eigenvalues --   -0.48925  -0.43663  -0.43200  -0.35837  -0.34920
 Alpha virt. eigenvalues --    0.01688   0.02124   0.10700   0.13849   0.14553
 Alpha virt. eigenvalues --    0.14883   0.15481   0.16809   0.17049   0.18451
 Alpha virt. eigenvalues --    0.19068   0.20218   0.20843   0.21151   0.22445
          Condensed to atoms (all electrons):
               1          2          3          4          5          6
     1  C    4.121376   0.000000   0.000000   0.000000   0.000000   0.000000
     2  C    0.000000   4.138402   0.000000   0.000000   0.000000   0.000000
     3  C    0.000000   0.000000   4.127866   0.000000   0.000000   0.000000
     4  C    0.000000   0.000000   0.000000   4.121996   0.000000   0.000000
     5  C    0.000000   0.000000   0.000000   0.000000   4.143628   0.000000
     6  C    0.000000   0.000000   0.000000   0.000000   0.000000   4.128123
     7  H    0.000000   0.000000   0.000000   0.000000   0.000000   0.000000
     8  H    0.000000   0.000000   0.000000   0.000000   0.000000   0.000000
     9  H    0.000000   0.000000   0.000000   0.000000   0.000000   0.000000
    10  H    0.000000   0.000000   0.000000   0.000000   0.000000   0.000000
    11  H    0.000000   0.000000   0.000000   0.000000   0.000000   0.000000
    12  H    0.000000   0.000000   0.000000   0.000000   0.000000   0.000000
               7          8          9         10         11         12
     1  C    0.000000   0.000000   0.000000   0.000000   0.000000   0.000000
     2  C    0.000000   0.000000   0.000000   0.000000   0.000000   0.000000
     3  C    0.000000   0.000000   0.000000   0.000000   0.000000   0.000000
     4  C    0.000000   0.000000   0.000000   0.000000   0.000000   0.000000
     5  C    0.000000   0.000000   0.000000   0.000000   0.000000   0.000000
     6  C    0.000000   0.000000   0.000000   0.000000   0.000000   0.000000
     7  H    0.859976   0.000000   0.000000   0.000000   0.000000   0.000000
     8  H    0.000000   0.879589   0.000000   0.000000   0.000000   0.000000
     9  H    0.000000   0.000000   0.862340   0.000000   0.000000   0.000000
    10  H    0.000000   0.000000   0.000000   0.870546   0.000000   0.000000
    11  H    0.000000   0.000000   0.000000   0.000000   0.866027   0.000000
    12  H    0.000000   0.000000   0.000000   0.000000   0.000000   0.880131
 Mulliken charges:
               1
     1  C   -0.121376
     2  C   -0.138402
     3  C   -0.127866
     4  C   -0.121996
     5  C   -0.143628
     6  C   -0.128123
     7  H    0.140024
     8  H    0.120411
     9  H    0.137660
    10  H    0.129454
    11  H    0.133973
    12  H    0.119869
 Sum of Mulliken charges =   0.00000
 Mulliken charges with hydrogens summed into heavy atoms:
               1
     1  C    0.018648
     2  C   -0.017991
     3  C    0.009794
     4  C    0.007458
     5  C   -0.009654
     6  C   -0.008254
 Charge=              0.0000 electrons
 Dipole moment (field-independent basis, Debye):
    X=              0.0721    Y=             -0.0294    Z=             -0.1973  Tot=              0.2121
 N-N= 1.195246575937D+02 E-N=-1.704243361452D+02  KE=-4.782599407306D+01

 Test job not archived.
 1\1\GINC-BHC0189\SP\RAM1 TD-Full\STO-5G\C6H6\BWEIGHT\21-Mar-2025\0\\# 
 AM1/STO-5G SCF=XQC TD=(read,singlets,nstates=5,root=1) nosym IOp(9/40=
 3) guess=read\\MD Step 21\\0,1\C,0,-0.7037086,-1.26092753,0.00869175\C
 ,0,0.65369908,-1.17599728,0.03253968\C,0,1.3941922,0.00851821,-0.01585
 844\C,0,0.70758262,1.21672837,-0.01945746\C,0,-0.68456136,1.22972993,0
 .09321105\C,0,-1.36773712,-0.0078231,-0.0579799\H,0,-1.19891997,-2.202
 84191,-0.00305933\H,0,1.24204053,-2.18280443,0.17956295\H,0,2.50898134
 ,-0.10494027,-0.09377962\H,0,1.18349118,2.21767466,-0.1231114\H,0,-1.2
 3188948,2.1662427,-0.06767331\H,0,-2.42845923,0.08246378,-0.09707364\\
 Version=ES64L-G16RevC.01\HF=0.0541098\RMSD=8.205e-09\PG=C01 [X(C6H6)]\
 \@


 IF I AM NOT FOR MYSELF, WHO WILL BE?
 BUT IF I AM ONLY FOR MYSELF, WHAT AM I?
 THOUGH A SEEKER SINCE MY BIRTH,
 HERE IS ALL I'VE LEARNED ON EARTH,
 THIS IS THE GIST OF WHAT I KNOW:
 GIVE ADVICE AND BUY A FOE.

 PRESSED FOR RULES AND VERITIES,
 ALL I RECOLLECT ARE THESE:
 FEED A COLD TO STARVE A FEVER,
 ARGUE WITH NO TRUE-BELIEVER.
 THINK-TOO-LONG IS NEVER-ACT,
 SCRATCH A MYTH AND FIND A FACT.

 STITCH IN TIME SAVES TWENTY STITCHES,
 GIVE THE RICH TO PLEASE THEM, RICHES.
 GIVE TO LOVE YOU HEARTH AND HALL,
 BUT DO NOT GIVE ADVICE AT ALL.

                                  -- HILLEL
 Job cpu time:       0 days  0 hours  0 minutes  1.1 seconds.
 Elapsed time:       0 days  0 hours  0 minutes  0.9 seconds.
 File lengths (MBytes):  RWF=     34 Int=      0 D2E=      0 Chk=      2 Scr=      1
 Normal termination of Gaussian 16 at Fri Mar 21 15:03:20 2025.
