 Entering Gaussian System, Link 0=g16
 Initial command:
 /software/gaussian/g16-c01/avx2/g16/l1.exe "/local_scratch/28554362/Gau-3164.inp" -scrdir="/local_scratch/28554362/"
 Entering Link 1 = /software/gaussian/g16-c01/avx2/g16/l1.exe PID=      3198.
  
 Copyright (c) 1988-2019, Gaussian, Inc.  All Rights Reserved.
  
 This is part of the Gaussian(R) 16 program.  It is based on
 the Gaussian(R) 09 system (copyright 2009, Gaussian, Inc.),
 the Gaussian(R) 03 system (copyright 2003, Gaussian, Inc.),
 the Gaussian(R) 98 system (copyright 1998, Gaussian, Inc.),
 the Gaussian(R) 94 system (copyright 1995, Gaussian, Inc.),
 the Gaussian 92(TM) system (copyright 1992, Gaussian, Inc.),
 the Gaussian 90(TM) system (copyright 1990, Gaussian, Inc.),
 the Gaussian 88(TM) system (copyright 1988, Gaussian, Inc.),
 the Gaussian 86(TM) system (copyright 1986, Carnegie Mellon
 University), and the Gaussian 82(TM) system (copyright 1983,
 Carnegie Mellon University). Gaussian is a federally registered
 trademark of Gaussian, Inc.
  
 This software contains proprietary and confidential information,
 including trade secrets, belonging to Gaussian, Inc.
  
 This software is provided under written license and may be
 used, copied, transmitted, or stored only in accord with that
 written license.
  
 The following legend is applicable only to US Government
 contracts under FAR:
  
                    RESTRICTED RIGHTS LEGEND
  
 Use, reproduction and disclosure by the US Government is
 subject to restrictions as set forth in subparagraphs (a)
 and (c) of the Commercial Computer Software - Restricted
 Rights clause in FAR 52.227-19.
  
 Gaussian, Inc.
 340 Quinnipiac St., Bldg. 40, Wallingford CT 06492
  
  
 ---------------------------------------------------------------
 Warning -- This program may not be used in any manner that
 competes with the business of Gaussian, Inc. or will provide
 assistance to any competitor of Gaussian, Inc.  The licensee
 of this program is prohibited from giving any competitor of
 Gaussian, Inc. access to this program.  By using this program,
 the user acknowledges that Gaussian, Inc. is engaged in the
 business of creating and licensing software in the field of
 computational chemistry and represents and warrants to the
 licensee that it is not a competitor of Gaussian, Inc. and that
 it will not use this program in any manner prohibited above.
 ---------------------------------------------------------------
  

 Cite this work as:
 Gaussian 16, Revision C.01,
 M. J. Frisch, G. W. Trucks, H. B. Schlegel, G. E. Scuseria, 
 M. A. Robb, J. R. Cheeseman, G. Scalmani, V. Barone, 
 G. A. Petersson, H. Nakatsuji, X. Li, M. Caricato, A. V. Marenich, 
 J. Bloino, B. G. Janesko, R. Gomperts, B. Mennucci, H. P. Hratchian, 
 J. V. Ortiz, A. F. Izmaylov, J. L. Sonnenberg, D. Williams-Young, 
 F. Ding, F. Lipparini, F. Egidi, J. Goings, B. Peng, A. Petrone, 
 T. Henderson, D. Ranasinghe, V. G. Zakrzewski, J. Gao, N. Rega, 
 G. Zheng, W. Liang, M. Hada, M. Ehara, K. Toyota, R. Fukuda, 
 J. Hasegawa, M. Ishida, T. Nakajima, Y. Honda, O. Kitao, H. Nakai, 
 T. Vreven, K. Throssell, J. A. Montgomery, Jr., J. E. Peralta, 
 F. Ogliaro, M. J. Bearpark, J. J. Heyd, E. N. Brothers, K. N. Kudin, 
 V. N. Staroverov, T. A. Keith, R. Kobayashi, J. Normand, 
 K. Raghavachari, A. P. Rendell, J. C. Burant, S. S. Iyengar, 
 J. Tomasi, M. Cossi, J. M. Millam, M. Klene, C. Adamo, R. Cammi, 
 J. W. Ochterski, R. L. Martin, K. Morokuma, O. Farkas, 
 J. B. Foresman, and D. J. Fox, Gaussian, Inc., Wallingford CT, 2019.
 
 ******************************************
 Gaussian 16:  ES64L-G16RevC.01  3-Jul-2019
                21-Mar-2025 
 ******************************************
 %oldchk=../TD_OLD_S1/geometry.chk
 %chk=geometry.chk
 %nprocshared=1
 Will use up to    1 processors via shared memory.
 %mem=2GB
 Copying data from "../TD_OLD_S1/geometry.chk" to current chk file "geometry.chk"
 IOpt=  2 FromEx=T IUOpen= 4 IOptOp= 5 NList=   0 IFRang= 0 IUIn= 4 IUOut= 2.
 ----------------------------------------------------------------------
 # AM1/STO-5G SCF=XQC TD=(read,singlets,nstates=5,root=1) nosym IOp(9/4
 0=3) guess=read
 ----------------------------------------------------------------------
 1/38=1,172=1/1;
 2/12=2,15=1,17=6,18=5,40=1/2;
 3/5=2,6=5,25=1,41=700000,116=-2/1,2,3,8;
 4/5=1,35=1/1;
 5/5=2,8=3,13=1,35=1,38=6/2,8;
 8/6=1,10=90,107=1,108=5/1;
 9/8=1,40=3,41=5,42=1,48=1,49=13,70=2/14;
 6/7=2,8=2,9=2,10=2/1;
 99/5=1,9=1/99;
 ----------
 MD Step 16
 ----------
 Symbolic Z-matrix:
 Charge =  0 Multiplicity = 1
 C                    -0.69567  -1.19792   0.05103 
 C                     0.71985  -1.1966   -0.04216 
 C                     1.38676  -0.01392   0.0196 
 C                     0.69051   1.20158   0.02364 
 C                    -0.71619   1.20829  -0.05193 
 C                    -1.38934   0.00824   0.02332 
 H                    -1.28975  -2.07891   0.01613 
 H                     1.24091  -2.15276  -0.21096 
 H                     2.46154   0.0451    0.18443 
 H                     1.28719   2.08113  -0.03696 
 H                    -1.27498   2.16267  -0.09679 
 H                    -2.47664  -0.00814  -0.05136 
 
                          Input orientation:                          
 ---------------------------------------------------------------------
 Center     Atomic      Atomic             Coordinates (Angstroms)
 Number     Number       Type             X           Y           Z
 ---------------------------------------------------------------------
      1          6           0       -0.695666   -1.197924    0.051026
      2          6           0        0.719847   -1.196600   -0.042158
      3          6           0        1.386756   -0.013920    0.019595
      4          6           0        0.690512    1.201577    0.023639
      5          6           0       -0.716187    1.208291   -0.051926
      6          6           0       -1.389336    0.008240    0.023324
      7          1           0       -1.289751   -2.078911    0.016130
      8          1           0        1.240905   -2.152762   -0.210959
      9          1           0        2.461540    0.045102    0.184432
     10          1           0        1.287195    2.081127   -0.036963
     11          1           0       -1.274980    2.162675   -0.096789
     12          1           0       -2.476635   -0.008137   -0.051355
 ---------------------------------------------------------------------
                    Distance matrix (angstroms):
                    1          2          3          4          5
     1  C    0.000000
     2  C    1.418578   0.000000
     3  C    2.395692   1.359159   0.000000
     4  C    2.771254   2.399259   1.400788   0.000000
     5  C    2.408504   2.801034   2.433369   1.408743   0.000000
     6  C    1.391682   2.429935   2.776184   2.397879   1.378011
     7  H    1.063152   2.195531   3.380517   3.831854   3.337559
     8  H    2.175009   1.101926   2.156171   3.407281   3.892580
     9  H    3.395713   2.150968   1.088952   2.121281   3.392171
    10  H    3.832970   3.326471   2.098174   1.064571   2.185316
    11  H    3.413368   3.907307   3.440342   2.191203   1.106848
    12  H    2.144277   3.410283   3.864047   3.391144   2.139831
                    6          7          8          9         10
     6  C    0.000000
     7  H    2.089538   0.000000
     8  H    3.412183   2.541898   0.000000
     9  H    3.854422   4.314156   2.544974   0.000000
    10  H    3.385899   4.893811   4.237716   2.360827   0.000000
    11  H    2.160808   4.243115   4.996570   4.304043   2.564171
    12  H    1.089983   2.387751   4.294764   4.944088   4.304840
                   11         12
    11  H    0.000000
    12  H    2.481625   0.000000
 Symmetry turned off by external request.
 Stoichiometry    C6H6
 Framework group  C1[X(C6H6)]
 Deg. of freedom    30
 Full point group                 C1      NOp   1
 Rotational constants (GHZ):           5.8077570           5.6343656           2.8661488
 Standard basis: VSTO-5G (5D, 7F)
    30 basis functions,   180 primitive gaussians,    30 cartesian basis functions
    15 alpha electrons       15 beta electrons
       nuclear repulsion energy       119.9145597292 Hartrees.
 Integral buffers will be    131072 words long.
 Regular integral format.
 Two-electron integral symmetry is turned off.
 Do NDO integrals.
 One-electron integrals computed using PRISM.
 NBasis=    30 RedAO= F EigKep=  0.00D+00  NBF=    30
 NBsUse=    30 1.00D-04 EigRej=  0.00D+00 NBFU=    30
 Initial guess from the checkpoint file:  "geometry.chk"
 B after Tr=     0.000724   -0.000799   -0.000480
         Rot=    1.000000    0.000224   -0.000146   -0.000087 Ang=   0.03 deg.
 Keep J ints in memory in canonical form, NReq=861816.
 Overlap will be assumed to be unity.
 Requested convergence on RMS density matrix=1.00D-08 within  32 cycles.
 Requested convergence on MAX density matrix=1.00D-06.
 Requested convergence on             energy=1.00D-06.
 No special actions if energy rises.
 SCF Done:  E(RAM1) =  0.449139471056E-01 A.U. after   12 cycles
            NFock= 11  Conv=0.47D-08     -V/T= 1.0009
 QCSCF skips out because SCF is already converged.
 Range of M.O.s used for correlation:     1    30
 NBasis=    30 NAE=    15 NBE=    15 NFC=     0 NFV=     0
 NROrb=     30 NOA=    15 NOB=    15 NVA=    15 NVB=    15
 Keep J ints in memory in canonical form, NReq=862156.
 Generating guess from checkpoint file densities.
 Convergence on wavefunction:    0.001000000000000
 Iteration     1 Dimension    10 NMult     0 NNew     10
 CISAX will form    10 AO SS matrices at one time.
 Iteration     2 Dimension    20 NMult    10 NNew     10
 Iteration     3 Dimension    30 NMult    20 NNew     10
 Iteration     4 Dimension    38 NMult    30 NNew      8
 Iteration     5 Dimension    42 NMult    38 NNew      4
 Iteration     6 Dimension    46 NMult    42 NNew      4
 Iteration     7 Dimension    48 NMult    46 NNew      2
 Iteration     8 Dimension    50 NMult    48 NNew      2
 Iteration     9 Dimension    52 NMult    50 NNew      2
 ***********************************************************************
 Excited states from <AA,BB:AA,BB> singles matrix:
 ***********************************************************************
 
 Ground to excited state transition densities written to RWF  633
 Ground to excited state transition electric dipole moments (Au):
       state          X           Y           Z        Dip. S.      Osc.
         1         0.0155     -0.0333     -0.0006      0.0013      0.0001
         2        -0.2109     -0.1598     -0.0420      0.0718      0.0073
         3         1.3840     -0.6808     -0.0157      2.3791      0.3138
         4        -0.6326     -1.4120      0.0508      2.3963      0.3183
         5         0.3053     -0.3861     -0.0281      0.2431      0.0354
 Ground to excited state transition velocity dipole moments (Au):
       state          X           Y           Z        Dip. S.      Osc.
         1        -0.0019      0.0058      0.0002      0.0000      0.0002
         2         0.0515      0.0389     -0.0152      0.0044      0.0193
         3        -0.4335      0.2078     -0.0147      0.2313      0.7794
         4         0.1977      0.4351      0.0272      0.2291      0.7667
         5        -0.1069      0.1302     -0.0479      0.0307      0.0936
 Ground to excited state transition magnetic dipole moments (Au):
       state          X           Y           Z
         1        -0.0032     -0.0228     -0.0125
         2         0.0926     -0.0002     -0.0608
         3        -0.0256      0.0470      0.0366
         4         0.0206     -0.0667     -0.0146
         5         0.0104      0.0015     -0.0898
 Ground to excited state transition velocity quadrupole moments (Au):
       state          XX          YY          ZZ          XY          XZ          YZ
         1        -0.0005      0.0001     -0.0010     -0.0010      0.0150      0.0043
         2         0.0004     -0.0079     -0.0002      0.0049     -0.0150      0.0718
         3        -0.0011      0.0253     -0.0104      0.0136      0.0086     -0.0575
         4         0.0377     -0.0290     -0.0086      0.0118      0.0839     -0.0071
         5         0.0220     -0.0746      0.0181     -0.1295      0.0127     -0.0261
 <0|del|b> * <b|rxdel|0> + <0|del|b> * <b|delr+rdel|0>
 Rotatory Strengths (R) in cgs (10**-40 erg-esu-cm/Gauss)
       state          XX          YY          ZZ    R(velocity)    E-M Angle
         1        -0.5585     -0.0117     -0.0787     -0.2163       90.00
         2         3.3219     22.0151      1.1173      8.8181       39.26
         3        12.9114     63.7475     -4.0830     24.1920       49.33
         4      -116.4432      3.4580     23.0065    -29.9929      137.95
         5        14.6423     -0.3565     -3.3029      3.6610       77.63
 1/2[<0|r|b>*<b|rxdel|0> + (<0|rxdel|b>*<b|r|0>)*]
 Rotatory Strengths (R) in cgs (10**-40 erg-esu-cm/Gauss)
       state          XX          YY          ZZ     R(length)
         1         0.0346     -0.5376     -0.0053     -0.1694
         2        13.8063     -0.0190     -1.8061      3.9937
         3        25.0349     22.6025      0.4072     16.0149
         4         9.2115    -66.6108      0.5254    -18.9580
         5        -2.2403      0.4173     -1.7828     -1.2019
  1/2[<0|del|b>*<b|r|0> + (<0|r|b>*<b|del|0>)*] (Au)
       state          X           Y           Z        Dip. S.   Osc.(frdel)
         1        -0.0000     -0.0002     -0.0000      0.0002      0.0001
         2        -0.0109     -0.0062      0.0006      0.0164      0.0110
         3        -0.6000     -0.1414      0.0002      0.7411      0.4941
         4        -0.1251     -0.6144      0.0014      0.7380      0.4920
         5        -0.0326     -0.0503      0.0013      0.0815      0.0544

 Excitation energies and oscillator strengths:
 
 Excited state symmetry could not be determined.
 Excited State   1:      Singlet-?Sym    3.8212 eV  324.47 nm  f=0.0001  <S**2>=0.000
       2 -> 23        -0.00322
       2 -> 24        -0.00175
       2 -> 26         0.00121
       3 -> 23         0.00127
       3 -> 24        -0.00302
       3 -> 25         0.00132
       3 -> 26        -0.00162
       4 -> 17         0.00192
       4 -> 18        -0.00112
       4 -> 27         0.00277
       5 -> 16        -0.00390
       5 -> 18         0.00165
       5 -> 28         0.00266
       7 -> 16         0.00178
       7 -> 29         0.00253
       8 -> 17         0.00154
       8 -> 18        -0.00762
       8 -> 22         0.00105
       9 -> 18         0.00369
       9 -> 23        -0.00292
       9 -> 24        -0.00260
       9 -> 25         0.00149
       9 -> 26         0.00148
      10 -> 18        -0.00131
      10 -> 23        -0.00193
      10 -> 24         0.00215
      10 -> 25        -0.00113
      10 -> 26         0.00186
      11 -> 19        -0.00185
      11 -> 23         0.00206
      11 -> 26        -0.00266
      11 -> 27        -0.00431
      11 -> 28        -0.00122
      12 -> 16         0.00113
      12 -> 18         0.00132
      13 -> 16        -0.00393
      13 -> 28        -0.00131
      14 -> 16        -0.49553
      14 -> 17        -0.01808
      14 -> 19        -0.00118
      14 -> 20        -0.00344
      14 -> 22        -0.00115
      14 -> 23        -0.00239
      14 -> 24        -0.00141
      14 -> 25        -0.00188
      14 -> 26        -0.00148
      14 -> 29         0.00148
      14 -> 30         0.00139
      15 -> 16         0.02128
      15 -> 17        -0.51250
      15 -> 19        -0.00323
      15 -> 20         0.00250
      15 -> 22         0.00239
      15 -> 23        -0.00136
      15 -> 26         0.00247
      15 -> 27         0.00490
      15 -> 28        -0.00103
      15 -> 29        -0.00251
      15 -> 30        -0.00114
       2 <- 23        -0.00117
       4 <- 27         0.00214
       5 <- 28         0.00218
       7 <- 29         0.00195
       8 <- 22         0.00110
       9 <- 17        -0.00128
      10 <- 16        -0.00170
      12 <- 16         0.00171
      12 <- 17         0.00185
      13 <- 16        -0.00723
      14 <- 16        -0.06950
      14 <- 17        -0.00293
      14 <- 20        -0.00224
      14 <- 24        -0.00172
      15 <- 16         0.00215
      15 <- 17        -0.06620
      15 <- 19        -0.00310
      15 <- 20         0.00194
      15 <- 22         0.00125
      15 <- 23         0.00116
 This state for optimization and/or second-order correction.
 Total Energy, E(TD-HF/TD-DFT) =  0.185338838355    
 Copying the excited state density for this state as the 1-particle RhoCI density.
 
 Excited state symmetry could not be determined.
 Excited State   2:      Singlet-?Sym    4.1375 eV  299.66 nm  f=0.0073  <S**2>=0.000
       1 -> 20        -0.00212
       2 -> 24        -0.00195
       2 -> 25        -0.00218
       2 -> 26         0.00121
       3 -> 16        -0.00166
       3 -> 23         0.00298
       3 -> 25         0.00122
       3 -> 26         0.00193
       4 -> 18        -0.00229
       4 -> 21        -0.00154
       4 -> 28         0.00461
       5 -> 17        -0.00187
       5 -> 20         0.00192
       5 -> 21         0.00141
       5 -> 27        -0.00496
       6 -> 20        -0.00320
       6 -> 28         0.00110
       7 -> 16        -0.00278
       7 -> 17        -0.00126
       7 -> 18         0.00116
       7 -> 22        -0.00185
       7 -> 24         0.00316
       7 -> 25        -0.00104
       8 -> 23        -0.00643
       8 -> 25        -0.00243
       8 -> 26         0.00412
       8 -> 29        -0.00236
       9 -> 16        -0.00291
       9 -> 18         0.00708
       9 -> 23         0.00165
       9 -> 24        -0.00112
       9 -> 25        -0.00716
       9 -> 26         0.00668
       9 -> 29         0.00427
      10 -> 16         0.00225
      10 -> 18         0.01251
      10 -> 23        -0.00490
      10 -> 24        -0.00335
      10 -> 25        -0.00373
      10 -> 26        -0.00368
      10 -> 29        -0.00126
      11 -> 16        -0.00136
      11 -> 17        -0.00156
      11 -> 18         0.10705
      11 -> 19        -0.01000
      11 -> 20        -0.00160
      11 -> 22         0.01040
      11 -> 24        -0.00140
      11 -> 28         0.00314
      12 -> 16         0.00563
      12 -> 18         0.00221
      12 -> 19        -0.00621
      12 -> 20        -0.00646
      12 -> 21         0.01581
      12 -> 22        -0.00651
      12 -> 27        -0.00197
      12 -> 30         0.00469
      13 -> 16         0.00176
      13 -> 17         0.00201
      13 -> 18        -0.02394
      13 -> 19        -0.00554
      13 -> 20        -0.00259
      13 -> 22        -0.00199
      13 -> 27         0.01089
      13 -> 28        -0.00248
      13 -> 30        -0.00148
      14 -> 16         0.01755
      14 -> 17        -0.42548
      14 -> 18         0.00324
      14 -> 19        -0.00350
      14 -> 20         0.00366
      14 -> 21         0.00196
      14 -> 22         0.00194
      14 -> 23         0.00250
      14 -> 26         0.00216
      14 -> 27         0.00152
      14 -> 29         0.00104
      15 -> 16         0.55326
      15 -> 17         0.02106
      15 -> 20         0.00249
      15 -> 21         0.00356
      15 -> 22         0.00237
      15 -> 23         0.00313
      15 -> 24         0.00279
      15 -> 25         0.00409
      15 -> 28         0.00209
       1 <- 20        -0.00464
       1 <- 21        -0.00258
       1 <- 22         0.00124
       1 <- 30        -0.00210
       2 <- 23         0.00220
       2 <- 24        -0.00525
       2 <- 26        -0.00104
       3 <- 23         0.00684
       3 <- 24         0.00326
       4 <- 28         0.00516
       5 <- 19        -0.00155
       5 <- 20         0.00194
       5 <- 27        -0.00578
       6 <- 20        -0.00206
       6 <- 30        -0.00145
       7 <- 16        -0.00131
       7 <- 24         0.00143
       8 <- 23        -0.00397
       8 <- 25        -0.00143
       8 <- 26         0.00220
       8 <- 29        -0.00502
       9 <- 16         0.00114
       9 <- 18        -0.00108
       9 <- 23         0.00239
       9 <- 24        -0.00265
       9 <- 25        -0.00157
       9 <- 29         0.00191
      10 <- 17        -0.00189
      10 <- 18        -0.00177
      10 <- 23        -0.00531
      10 <- 24        -0.00424
      11 <- 18        -0.01362
      12 <- 19        -0.00207
      12 <- 20        -0.00151
      12 <- 21         0.00551
      12 <- 22        -0.00240
      12 <- 27        -0.00212
      12 <- 28        -0.00220
      12 <- 30         0.00180
      13 <- 17        -0.00396
      13 <- 18         0.00240
      13 <- 19        -0.00193
      13 <- 20        -0.00145
      13 <- 27         0.00696
      13 <- 28        -0.00220
      14 <- 17        -0.02849
      14 <- 19        -0.00324
      14 <- 20         0.00206
      14 <- 23         0.00138
      14 <- 24         0.00120
      15 <- 20         0.00189
      15 <- 22         0.00115
      15 <- 24         0.00150
 
 Excited state symmetry could not be determined.
 Excited State   3:      Singlet-?Sym    5.3836 eV  230.30 nm  f=0.3138  <S**2>=0.000
       1 -> 17        -0.00195
       1 -> 19        -0.00114
       1 -> 27        -0.00225
       2 -> 16         0.00104
       2 -> 17         0.00120
       2 -> 18        -0.00451
       2 -> 21         0.00280
       2 -> 22         0.00587
       2 -> 24        -0.00250
       2 -> 25         0.00198
       3 -> 17         0.00141
       3 -> 18        -0.00124
       3 -> 22         0.00164
       3 -> 23        -0.00224
       3 -> 26         0.00231
       3 -> 29        -0.00216
       4 -> 16         0.00524
       4 -> 17        -0.00164
       4 -> 18        -0.00275
       4 -> 19        -0.00630
       4 -> 20        -0.00440
       4 -> 21        -0.00135
       4 -> 27         0.00127
       4 -> 30        -0.00248
       5 -> 16         0.01209
       5 -> 17        -0.00307
       5 -> 19         0.00145
       5 -> 20        -0.01476
       5 -> 21        -0.00171
       5 -> 27        -0.00181
       5 -> 30        -0.00802
       6 -> 17        -0.00778
       6 -> 19        -0.01564
       6 -> 20         0.00242
       6 -> 22         0.00176
       6 -> 27        -0.00605
       6 -> 28         0.00203
       7 -> 17         0.00184
       7 -> 18         0.00685
       7 -> 19        -0.00107
       7 -> 21        -0.00109
       7 -> 23         0.01929
       7 -> 24        -0.01821
       7 -> 25         0.00626
       7 -> 26        -0.01086
       7 -> 27         0.00115
       8 -> 16        -0.00708
       8 -> 17         0.00751
       8 -> 18         0.01705
       8 -> 19        -0.00662
       8 -> 20         0.00177
       8 -> 22         0.00303
       8 -> 23         0.02830
       8 -> 24         0.02745
       8 -> 25        -0.01396
       8 -> 26        -0.01286
       8 -> 29         0.00179
       9 -> 16         0.01079
       9 -> 17         0.00693
       9 -> 18        -0.03554
       9 -> 19         0.00664
       9 -> 21         0.00366
       9 -> 22         0.00344
       9 -> 23        -0.01227
       9 -> 24        -0.01906
       9 -> 25         0.02039
       9 -> 26         0.00970
      10 -> 17        -0.00306
      10 -> 18         0.00102
      10 -> 19        -0.00136
      10 -> 20         0.00138
      10 -> 21         0.00119
      10 -> 22         0.00294
      10 -> 23         0.01431
      10 -> 24        -0.00677
      10 -> 25         0.01572
      10 -> 26        -0.02128
      10 -> 27        -0.00123
      10 -> 29         0.02516
      11 -> 16        -0.00588
      11 -> 17         0.00312
      11 -> 18         0.01276
      11 -> 20         0.00326
      11 -> 21         0.00164
      11 -> 22        -0.00259
      11 -> 23         0.00401
      11 -> 24        -0.00201
      11 -> 26        -0.00406
      11 -> 28        -0.00112
      11 -> 29        -0.00290
      11 -> 30         0.00489
      12 -> 16         0.01444
      12 -> 17        -0.04130
      12 -> 18         0.01732
      12 -> 19         0.04618
      12 -> 20        -0.01201
      12 -> 21        -0.00185
      12 -> 23         0.00234
      12 -> 24         0.00127
      12 -> 27         0.03456
      12 -> 28        -0.01712
      12 -> 30        -0.00322
      13 -> 16        -0.14005
      13 -> 17         0.04989
      13 -> 18         0.01104
      13 -> 19         0.00670
      13 -> 20         0.05306
      13 -> 21        -0.02088
      13 -> 22         0.00846
      13 -> 23        -0.00137
      13 -> 25         0.00139
      13 -> 26        -0.00212
      13 -> 27        -0.02044
      13 -> 28        -0.03963
      13 -> 30         0.02748
      14 -> 16         0.44273
      14 -> 17        -0.24261
      14 -> 19         0.00422
      14 -> 20        -0.00650
      14 -> 21         0.01136
      14 -> 22        -0.00632
      14 -> 23         0.00521
      14 -> 24        -0.01099
      14 -> 25         0.00781
      14 -> 26        -0.00458
      14 -> 27         0.01180
      14 -> 28         0.00795
      14 -> 29        -0.00504
      15 -> 16        -0.18576
      15 -> 17        -0.42698
      15 -> 18         0.01242
      15 -> 19         0.01008
      15 -> 20        -0.00426
      15 -> 21        -0.00156
      15 -> 24         0.00462
      15 -> 25        -0.00488
      15 -> 26         0.00199
      15 -> 27         0.00988
      15 -> 28        -0.00531
      15 -> 29         0.00249
      15 -> 30        -0.00197
       1 <- 19        -0.00165
       1 <- 27        -0.00336
       1 <- 28         0.00142
       2 <- 21         0.00168
       2 <- 22         0.00368
       2 <- 23        -0.00139
       2 <- 24        -0.00476
       2 <- 25         0.00208
       3 <- 23        -0.00396
       3 <- 24         0.00130
       3 <- 26         0.00274
       3 <- 29        -0.00270
       4 <- 18        -0.00110
       4 <- 19        -0.00358
       4 <- 20        -0.00298
       4 <- 30        -0.00143
       5 <- 20        -0.00965
       5 <- 21        -0.00197
       5 <- 22         0.00110
       5 <- 28         0.00102
       5 <- 30        -0.00470
       6 <- 18        -0.00113
       6 <- 19        -0.00647
       6 <- 27        -0.00106
       7 <- 23         0.00810
       7 <- 24        -0.00771
       7 <- 25         0.00181
       7 <- 26        -0.00412
       8 <- 16        -0.00105
       8 <- 19        -0.00192
       8 <- 23         0.01239
       8 <- 24         0.01175
       8 <- 25        -0.00458
       8 <- 26        -0.00452
       9 <- 19         0.00129
       9 <- 21         0.00103
       9 <- 22         0.00205
       9 <- 23        -0.00537
       9 <- 24        -0.00853
       9 <- 25         0.00816
       9 <- 26         0.00356
      10 <- 16        -0.00149
      10 <- 23         0.00540
      10 <- 24        -0.00336
      10 <- 25         0.00570
      10 <- 26        -0.00873
      10 <- 29         0.00788
      11 <- 18        -0.00138
      11 <- 20         0.00191
      11 <- 25        -0.00167
      11 <- 26         0.00106
      11 <- 27        -0.00122
      11 <- 30         0.00115
      12 <- 17        -0.00207
      12 <- 18         0.00235
      12 <- 19         0.01311
      12 <- 20        -0.00359
      12 <- 27         0.01127
      12 <- 28        -0.00596
      12 <- 30        -0.00148
      13 <- 16        -0.00665
      13 <- 17         0.00248
      13 <- 18         0.00183
      13 <- 19         0.00215
      13 <- 20         0.01693
      13 <- 21        -0.00440
      13 <- 22         0.00149
      13 <- 27        -0.00626
      13 <- 28        -0.01318
      13 <- 30         0.00983
      14 <- 16        -0.07410
      14 <- 17         0.03485
      14 <- 22        -0.00109
      14 <- 24        -0.00176
      15 <- 16         0.03780
      15 <- 17         0.07435
      15 <- 18         0.00146
      15 <- 19         0.00410
      15 <- 27         0.00157
      15 <- 28        -0.00131
 
 Excited state symmetry could not be determined.
 Excited State   4:      Singlet-?Sym    5.4222 eV  228.66 nm  f=0.3183  <S**2>=0.000
       1 -> 16        -0.00163
       1 -> 28         0.00202
       2 -> 18         0.00106
       2 -> 22        -0.00163
       2 -> 23        -0.00196
       2 -> 26         0.00130
       2 -> 29         0.00189
       3 -> 17         0.00268
       3 -> 18        -0.00531
       3 -> 21         0.00308
       3 -> 22         0.00631
       3 -> 23         0.00164
       3 -> 24         0.00263
       3 -> 25        -0.00120
       4 -> 16        -0.00205
       4 -> 18        -0.00132
       4 -> 19        -0.00248
       4 -> 20        -0.00635
       4 -> 21        -0.01035
       4 -> 22         0.00487
       4 -> 27         0.00184
       4 -> 28         0.00323
       4 -> 30        -0.00637
       5 -> 16         0.00701
       5 -> 17         0.00666
       5 -> 18        -0.00185
       5 -> 19        -0.00604
       5 -> 20         0.00271
       5 -> 21         0.00328
       5 -> 22        -0.00152
       5 -> 28        -0.00286
       5 -> 30         0.00228
       6 -> 16        -0.00896
       6 -> 19        -0.00477
       6 -> 20        -0.00744
       6 -> 21         0.00879
       6 -> 22        -0.00316
       6 -> 27         0.00284
       6 -> 28         0.00517
       6 -> 30        -0.00134
       7 -> 16        -0.00186
       7 -> 17         0.00479
       7 -> 18        -0.01367
       7 -> 19        -0.00343
       7 -> 20         0.00118
       7 -> 23         0.02017
       7 -> 24         0.01921
       7 -> 25        -0.00485
       7 -> 26        -0.00121
       7 -> 29        -0.00106
       8 -> 16        -0.00720
       8 -> 17        -0.00196
       8 -> 18         0.01320
       8 -> 20        -0.00184
       8 -> 21         0.00106
       8 -> 23        -0.02241
       8 -> 24         0.01931
       8 -> 25        -0.01431
       8 -> 26         0.02355
       9 -> 17        -0.00179
       9 -> 18        -0.00198
       9 -> 20        -0.00215
       9 -> 21         0.00139
       9 -> 22        -0.00280
       9 -> 23        -0.00759
       9 -> 24         0.00377
       9 -> 25        -0.00222
       9 -> 26         0.01509
       9 -> 27        -0.00356
       9 -> 28        -0.00321
       9 -> 29         0.02530
      10 -> 16        -0.00156
      10 -> 17        -0.02171
      10 -> 18         0.03768
      10 -> 21        -0.00572
      10 -> 22        -0.01055
      10 -> 23        -0.01092
      10 -> 24        -0.02063
      10 -> 25         0.02013
      10 -> 26         0.00454
      10 -> 28         0.00132
      10 -> 29        -0.00208
      11 -> 16        -0.00312
      11 -> 17         0.00593
      11 -> 18        -0.02188
      11 -> 19        -0.00225
      11 -> 20         0.00613
      11 -> 21         0.00247
      11 -> 22         0.00220
      11 -> 23         0.01679
      11 -> 24         0.01363
      11 -> 25        -0.00791
      11 -> 26        -0.00808
      11 -> 28        -0.00272
      11 -> 29        -0.00207
      11 -> 30         0.00174
      12 -> 16         0.03649
      12 -> 17         0.00651
      12 -> 19        -0.00483
      12 -> 21         0.04369
      12 -> 22        -0.01913
      12 -> 24         0.00132
      12 -> 25        -0.00306
      12 -> 26         0.00358
      12 -> 27         0.01795
      12 -> 28         0.02381
      12 -> 29         0.00423
      12 -> 30         0.03091
      13 -> 16        -0.06688
      13 -> 17        -0.14358
      13 -> 18         0.03323
      13 -> 19         0.05523
      13 -> 20        -0.00951
      13 -> 21         0.00191
      13 -> 22        -0.00589
      13 -> 24        -0.00173
      13 -> 25         0.00265
      13 -> 26         0.00199
      13 -> 27         0.03477
      13 -> 28        -0.02010
      13 -> 29         0.00102
      13 -> 30         0.00164
      14 -> 16         0.21550
      14 -> 17         0.48294
      14 -> 18        -0.03007
      14 -> 19        -0.02503
      14 -> 20         0.00389
      14 -> 21         0.00404
      14 -> 22         0.00354
      14 -> 23         0.01580
      14 -> 24         0.00870
      14 -> 25        -0.00723
      14 -> 26        -0.01125
      14 -> 27        -0.01530
      14 -> 28         0.01211
      14 -> 30         0.00169
      15 -> 16         0.37880
      15 -> 17        -0.20905
      15 -> 18         0.00631
      15 -> 19         0.00458
      15 -> 20        -0.02445
      15 -> 21        -0.00124
      15 -> 23        -0.01446
      15 -> 24        -0.00941
      15 -> 25         0.00531
      15 -> 26         0.00722
      15 -> 27         0.00963
      15 -> 28         0.00833
      15 -> 29        -0.00543
      15 -> 30        -0.01046
       1 <- 21         0.00162
       1 <- 27         0.00140
       1 <- 28         0.00326
       2 <- 23        -0.00433
       2 <- 24         0.00190
       2 <- 26         0.00256
       2 <- 29         0.00326
       3 <- 21         0.00177
       3 <- 22         0.00417
       3 <- 23         0.00143
       3 <- 24         0.00422
       3 <- 25        -0.00153
       4 <- 19        -0.00149
       4 <- 20        -0.00510
       4 <- 21        -0.00706
       4 <- 22         0.00345
       4 <- 30        -0.00449
       5 <- 19        -0.00342
       5 <- 20         0.00212
       5 <- 21         0.00239
       5 <- 30         0.00160
       6 <- 19        -0.00209
       6 <- 20        -0.00346
       6 <- 21         0.00393
       6 <- 22        -0.00157
       7 <- 19        -0.00164
       7 <- 23         0.00821
       7 <- 24         0.00793
       7 <- 25        -0.00116
       8 <- 23        -0.01020
       8 <- 24         0.00961
       8 <- 25        -0.00506
       8 <- 26         0.00933
       8 <- 29         0.00126
       9 <- 16        -0.00161
       9 <- 20        -0.00101
       9 <- 23        -0.00466
       9 <- 24         0.00177
       9 <- 25        -0.00244
       9 <- 26         0.00808
       9 <- 29         0.00820
      10 <- 17        -0.00205
      10 <- 19         0.00123
      10 <- 21        -0.00204
      10 <- 22        -0.00461
      10 <- 23        -0.00469
      10 <- 24        -0.00870
      10 <- 25         0.00813
      10 <- 26         0.00166
      11 <- 17        -0.00329
      11 <- 18         0.00302
      11 <- 19         0.00118
      11 <- 23         0.00250
      11 <- 24         0.00194
      12 <- 16         0.00288
      12 <- 19        -0.00125
      12 <- 20         0.00169
      12 <- 21         0.01431
      12 <- 22        -0.00647
      12 <- 26         0.00110
      12 <- 27         0.00629
      12 <- 28         0.00824
      12 <- 29         0.00118
      12 <- 30         0.01171
      13 <- 16        -0.00266
      13 <- 17        -0.00533
      13 <- 18         0.00273
      13 <- 19         0.01502
      13 <- 20        -0.00171
      13 <- 22        -0.00185
      13 <- 27         0.01098
      13 <- 28        -0.00675
      14 <- 16        -0.03685
      14 <- 17        -0.07185
      14 <- 18         0.00314
      15 <- 16        -0.07795
      15 <- 17         0.03736
      15 <- 18        -0.00106
      15 <- 20        -0.00535
      15 <- 22        -0.00113
      15 <- 24        -0.00131
      15 <- 26        -0.00110
      15 <- 27         0.00109
      15 <- 28         0.00152
 
 Excited state symmetry could not be determined.
 Excited State   5:      Singlet-?Sym    5.9447 eV  208.56 nm  f=0.0354  <S**2>=0.000
       1 -> 17         0.00386
       2 -> 18         0.00860
       2 -> 22         0.00274
       3 -> 18         0.00292
       3 -> 21         0.00130
       3 -> 22         0.00162
       4 -> 16        -0.01561
       4 -> 17         0.01583
       4 -> 19        -0.00208
       4 -> 20        -0.00280
       4 -> 21        -0.00245
       4 -> 30        -0.00142
       5 -> 16        -0.04049
       5 -> 18        -0.00123
       5 -> 20        -0.00452
       5 -> 23         0.00169
       5 -> 30        -0.00174
       6 -> 17         0.02909
       6 -> 19        -0.00494
       6 -> 22        -0.00128
       6 -> 23        -0.00145
       6 -> 27        -0.00138
       6 -> 28         0.00134
       6 -> 29        -0.00134
       7 -> 16         0.00252
       7 -> 18         0.03041
       7 -> 19        -0.00235
       7 -> 21        -0.00239
       7 -> 22         0.00357
       7 -> 23         0.00973
       7 -> 24        -0.00397
       7 -> 26        -0.00303
       7 -> 27        -0.00251
       7 -> 28        -0.00191
       8 -> 16        -0.00389
       8 -> 18        -0.08245
       8 -> 19         0.00860
       8 -> 20        -0.00151
       8 -> 22        -0.00804
       8 -> 23         0.00557
       8 -> 24         0.01270
       8 -> 25        -0.00460
       8 -> 27         0.00103
       8 -> 30        -0.00104
       9 -> 16         0.00530
       9 -> 17         0.00426
       9 -> 18         0.09584
       9 -> 19        -0.00837
       9 -> 21         0.00129
       9 -> 22         0.01110
       9 -> 23        -0.00584
       9 -> 24        -0.00574
       9 -> 25         0.00357
       9 -> 26         0.00529
       9 -> 27        -0.00141
       9 -> 28         0.00140
       9 -> 29         0.00367
      10 -> 17        -0.00319
      10 -> 18        -0.00525
      10 -> 19         0.00202
      10 -> 21        -0.00118
      10 -> 23         0.00130
      10 -> 24        -0.00286
      10 -> 25         0.00855
      10 -> 26        -0.00594
      10 -> 27         0.00407
      10 -> 29         0.00665
      11 -> 16         0.01484
      11 -> 17        -0.00383
      11 -> 18        -0.00710
      11 -> 20         0.00385
      11 -> 21         0.00417
      11 -> 22         0.00563
      11 -> 23        -0.00776
      11 -> 24         0.01310
      11 -> 28        -0.00172
      11 -> 29        -0.00912
      11 -> 30         0.00286
      12 -> 16         0.13145
      12 -> 17        -0.00880
      12 -> 18         0.00920
      12 -> 19         0.01395
      12 -> 20        -0.00285
      12 -> 21         0.00754
      12 -> 22         0.00132
      12 -> 23         0.00170
      12 -> 25         0.00208
      12 -> 27         0.01449
      12 -> 28        -0.00191
      12 -> 29         0.00237
      12 -> 30         0.00379
      13 -> 16         0.65609
      13 -> 17         0.04675
      13 -> 18         0.01313
      13 -> 19         0.00982
      13 -> 20         0.01461
      13 -> 21        -0.00601
      13 -> 22         0.00306
      13 -> 23         0.00102
      13 -> 24        -0.00332
      13 -> 25         0.00385
      13 -> 28        -0.01315
      13 -> 29        -0.00356
      13 -> 30         0.00745
      14 -> 16         0.10832
      14 -> 17         0.00329
      14 -> 18         0.01136
      14 -> 19        -0.02429
      14 -> 20        -0.04345
      14 -> 21        -0.00988
      14 -> 22         0.00765
      14 -> 23         0.00436
      14 -> 24        -0.00314
      14 -> 26        -0.00356
      14 -> 27        -0.00197
      14 -> 28         0.01315
      14 -> 30        -0.01422
      15 -> 17        -0.10612
      15 -> 18        -0.04065
      15 -> 19         0.01395
      15 -> 20         0.01371
      15 -> 21        -0.00620
      15 -> 23        -0.00689
      15 -> 24        -0.00437
      15 -> 25         0.00277
      15 -> 26         0.00255
      15 -> 27        -0.01252
      15 -> 28         0.00777
      15 -> 30         0.00223
       3 <- 21         0.00100
       4 <- 17        -0.00164
       4 <- 19        -0.00129
       4 <- 20        -0.00137
       4 <- 21        -0.00133
       5 <- 16         0.00112
       5 <- 20        -0.00224
       5 <- 30        -0.00101
       6 <- 17        -0.00118
       6 <- 19        -0.00179
       7 <- 23         0.00325
       7 <- 24        -0.00105
       7 <- 26        -0.00107
       7 <- 28        -0.00112
       8 <- 18         0.00158
       8 <- 23         0.00204
       8 <- 24         0.00439
       8 <- 25        -0.00191
       9 <- 18        -0.00160
       9 <- 23        -0.00215
       9 <- 24        -0.00172
       9 <- 25         0.00178
       9 <- 26         0.00179
      10 <- 24        -0.00195
      10 <- 25         0.00268
      10 <- 26        -0.00220
      10 <- 29         0.00139
      11 <- 16         0.00432
      11 <- 21         0.00103
      11 <- 22         0.00307
      11 <- 24         0.00120
      11 <- 29        -0.00430
      12 <- 17        -0.00124
      12 <- 19         0.00375
      12 <- 21         0.00225
      12 <- 27         0.00411
      12 <- 30         0.00119
      13 <- 16        -0.00496
      13 <- 19         0.00168
      13 <- 20         0.00326
      13 <- 28        -0.00333
      13 <- 30         0.00230
      14 <- 16        -0.01931
      14 <- 18        -0.00246
      14 <- 19        -0.00908
      14 <- 20        -0.00936
      14 <- 21         0.00256
      14 <- 28         0.00713
      14 <- 30        -0.00298
      15 <- 17         0.02826
      15 <- 18         0.00528
      15 <- 19        -0.00118
      15 <- 20         0.00623
      15 <- 21        -0.00519
      15 <- 22         0.00298
      15 <- 27        -0.00653
      15 <- 28        -0.00104
 SavETr:  write IOETrn=   770 NScale= 10 NData=  16 NLR=1 NState=    5 LETran=     100.

 **********************************************************************

            Population analysis using the SCF Density.

 **********************************************************************

 Alpha  occ. eigenvalues --   -1.44600  -1.16675  -1.14895  -0.85875  -0.84252
 Alpha  occ. eigenvalues --   -0.65939  -0.59676  -0.56704  -0.52511  -0.51947
 Alpha  occ. eigenvalues --   -0.49303  -0.44236  -0.43421  -0.35991  -0.35018
 Alpha virt. eigenvalues --    0.01560   0.02299   0.10704   0.14591   0.14855
 Alpha virt. eigenvalues --    0.15622   0.15758   0.16774   0.17230   0.18844
 Alpha virt. eigenvalues --    0.19035   0.20492   0.20841   0.20991   0.22560
          Condensed to atoms (all electrons):
               1          2          3          4          5          6
     1  C    4.130338   0.000000   0.000000   0.000000   0.000000   0.000000
     2  C    0.000000   4.121692   0.000000   0.000000   0.000000   0.000000
     3  C    0.000000   0.000000   4.132804   0.000000   0.000000   0.000000
     4  C    0.000000   0.000000   0.000000   4.131448   0.000000   0.000000
     5  C    0.000000   0.000000   0.000000   0.000000   4.126786   0.000000
     6  C    0.000000   0.000000   0.000000   0.000000   0.000000   4.134084
     7  H    0.000000   0.000000   0.000000   0.000000   0.000000   0.000000
     8  H    0.000000   0.000000   0.000000   0.000000   0.000000   0.000000
     9  H    0.000000   0.000000   0.000000   0.000000   0.000000   0.000000
    10  H    0.000000   0.000000   0.000000   0.000000   0.000000   0.000000
    11  H    0.000000   0.000000   0.000000   0.000000   0.000000   0.000000
    12  H    0.000000   0.000000   0.000000   0.000000   0.000000   0.000000
               7          8          9         10         11         12
     1  C    0.000000   0.000000   0.000000   0.000000   0.000000   0.000000
     2  C    0.000000   0.000000   0.000000   0.000000   0.000000   0.000000
     3  C    0.000000   0.000000   0.000000   0.000000   0.000000   0.000000
     4  C    0.000000   0.000000   0.000000   0.000000   0.000000   0.000000
     5  C    0.000000   0.000000   0.000000   0.000000   0.000000   0.000000
     6  C    0.000000   0.000000   0.000000   0.000000   0.000000   0.000000
     7  H    0.871615   0.000000   0.000000   0.000000   0.000000   0.000000
     8  H    0.000000   0.867796   0.000000   0.000000   0.000000   0.000000
     9  H    0.000000   0.000000   0.871081   0.000000   0.000000   0.000000
    10  H    0.000000   0.000000   0.000000   0.872182   0.000000   0.000000
    11  H    0.000000   0.000000   0.000000   0.000000   0.867409   0.000000
    12  H    0.000000   0.000000   0.000000   0.000000   0.000000   0.872765
 Mulliken charges:
               1
     1  C   -0.130338
     2  C   -0.121692
     3  C   -0.132804
     4  C   -0.131448
     5  C   -0.126786
     6  C   -0.134084
     7  H    0.128385
     8  H    0.132204
     9  H    0.128919
    10  H    0.127818
    11  H    0.132591
    12  H    0.127235
 Sum of Mulliken charges =  -0.00000
 Mulliken charges with hydrogens summed into heavy atoms:
               1
     1  C   -0.001952
     2  C    0.010512
     3  C   -0.003885
     4  C   -0.003630
     5  C    0.005805
     6  C   -0.006849
 Charge=              0.0000 electrons
 Dipole moment (field-independent basis, Debye):
    X=             -0.0172    Y=              0.0041    Z=             -0.1581  Tot=              0.1591
 N-N= 1.199145597292D+02 E-N=-1.710378093508D+02  KE=-4.788059240931D+01

 Test job not archived.
 1\1\GINC-BHC0165\SP\RAM1 TD-Full\STO-5G\C6H6\BWEIGHT\21-Mar-2025\0\\# 
 AM1/STO-5G SCF=XQC TD=(read,singlets,nstates=5,root=1) nosym IOp(9/40=
 3) guess=read\\MD Step 16\\0,1\C,0,-0.69566647,-1.19792418,0.05102636\
 C,0,0.71984725,-1.19660016,-0.04215837\C,0,1.38675635,-0.01392,0.01959
 508\C,0,0.690512,1.20157733,0.02363942\C,0,-0.71618703,1.20829052,-0.0
 5192552\C,0,-1.38933649,0.00824027,0.02332449\H,0,-1.28975101,-2.07891
 125,0.01613007\H,0,1.24090545,-2.15276233,-0.21095919\H,0,2.46154048,0
 .04510191,0.18443229\H,0,1.28719477,2.08112741,-0.03696251\H,0,-1.2749
 8037,2.1626748,-0.09678882\H,0,-2.4766353,-0.00813738,-0.05135541\\Ver
 sion=ES64L-G16RevC.01\HF=0.0449139\RMSD=4.669e-09\PG=C01 [X(C6H6)]\\@


 A MAN IS EXACTLY AS GREAT AS THE TIDE SURGING
 BENEATH HIM.      - BISMARCK
 Job cpu time:       0 days  0 hours  0 minutes  1.1 seconds.
 Elapsed time:       0 days  0 hours  0 minutes  0.8 seconds.
 File lengths (MBytes):  RWF=     34 Int=      0 D2E=      0 Chk=      2 Scr=      1
 Normal termination of Gaussian 16 at Fri Mar 21 15:21:52 2025.
