%chk=geometry.chk
%mem=5GB
%nprocshared=1

# OPT B3LYP/6-31G*

TitleMe

0 1
C      0.0000000000       -0.0000000000        0.6701369347
C      0.0000000000       -0.0000000000       -0.6701369347
H      0.0000000000        0.9227854363       -1.2349598346
H      0.0000000000        0.9227854363        1.2349598346
H      0.0000000000       -0.9227854363        1.2349598346
H      0.0000000000       -0.9227854363       -1.2349598346






