 Entering Gaussian System, Link 0=g16
 Initial command:
 /software/gaussian/g16-c01/avx2/g16/l1.exe "/local_scratch/28554156/Gau-28247.inp" -scrdir="/local_scratch/28554156/"
 Entering Link 1 = /software/gaussian/g16-c01/avx2/g16/l1.exe PID=     28270.
  
 Copyright (c) 1988-2019, Gaussian, Inc.  All Rights Reserved.
  
 This is part of the Gaussian(R) 16 program.  It is based on
 the Gaussian(R) 09 system (copyright 2009, Gaussian, Inc.),
 the Gaussian(R) 03 system (copyright 2003, Gaussian, Inc.),
 the Gaussian(R) 98 system (copyright 1998, Gaussian, Inc.),
 the Gaussian(R) 94 system (copyright 1995, Gaussian, Inc.),
 the Gaussian 92(TM) system (copyright 1992, Gaussian, Inc.),
 the Gaussian 90(TM) system (copyright 1990, Gaussian, Inc.),
 the Gaussian 88(TM) system (copyright 1988, Gaussian, Inc.),
 the Gaussian 86(TM) system (copyright 1986, Carnegie Mellon
 University), and the Gaussian 82(TM) system (copyright 1983,
 Carnegie Mellon University). Gaussian is a federally registered
 trademark of Gaussian, Inc.
  
 This software contains proprietary and confidential information,
 including trade secrets, belonging to Gaussian, Inc.
  
 This software is provided under written license and may be
 used, copied, transmitted, or stored only in accord with that
 written license.
  
 The following legend is applicable only to US Government
 contracts under FAR:
  
                    RESTRICTED RIGHTS LEGEND
  
 Use, reproduction and disclosure by the US Government is
 subject to restrictions as set forth in subparagraphs (a)
 and (c) of the Commercial Computer Software - Restricted
 Rights clause in FAR 52.227-19.
  
 Gaussian, Inc.
 340 Quinnipiac St., Bldg. 40, Wallingford CT 06492
  
  
 ---------------------------------------------------------------
 Warning -- This program may not be used in any manner that
 competes with the business of Gaussian, Inc. or will provide
 assistance to any competitor of Gaussian, Inc.  The licensee
 of this program is prohibited from giving any competitor of
 Gaussian, Inc. access to this program.  By using this program,
 the user acknowledges that Gaussian, Inc. is engaged in the
 business of creating and licensing software in the field of
 computational chemistry and represents and warrants to the
 licensee that it is not a competitor of Gaussian, Inc. and that
 it will not use this program in any manner prohibited above.
 ---------------------------------------------------------------
  

 Cite this work as:
 Gaussian 16, Revision C.01,
 M. J. Frisch, G. W. Trucks, H. B. Schlegel, G. E. Scuseria, 
 M. A. Robb, J. R. Cheeseman, G. Scalmani, V. Barone, 
 G. A. Petersson, H. Nakatsuji, X. Li, M. Caricato, A. V. Marenich, 
 J. Bloino, B. G. Janesko, R. Gomperts, B. Mennucci, H. P. Hratchian, 
 J. V. Ortiz, A. F. Izmaylov, J. L. Sonnenberg, D. Williams-Young, 
 F. Ding, F. Lipparini, F. Egidi, J. Goings, B. Peng, A. Petrone, 
 T. Henderson, D. Ranasinghe, V. G. Zakrzewski, J. Gao, N. Rega, 
 G. Zheng, W. Liang, M. Hada, M. Ehara, K. Toyota, R. Fukuda, 
 J. Hasegawa, M. Ishida, T. Nakajima, Y. Honda, O. Kitao, H. Nakai, 
 T. Vreven, K. Throssell, J. A. Montgomery, Jr., J. E. Peralta, 
 F. Ogliaro, M. J. Bearpark, J. J. Heyd, E. N. Brothers, K. N. Kudin, 
 V. N. Staroverov, T. A. Keith, R. Kobayashi, J. Normand, 
 K. Raghavachari, A. P. Rendell, J. C. Burant, S. S. Iyengar, 
 J. Tomasi, M. Cossi, J. M. Millam, M. Klene, C. Adamo, R. Cammi, 
 J. W. Ochterski, R. L. Martin, K. Morokuma, O. Farkas, 
 J. B. Foresman, and D. J. Fox, Gaussian, Inc., Wallingford CT, 2019.
 
 ******************************************
 Gaussian 16:  ES64L-G16RevC.01  3-Jul-2019
                21-Mar-2025 
 ******************************************
 %oldchk=../GS_OLD/geometry.chk
 %chk=geometry.chk
 %nprocshared=1
 Will use up to    1 processors via shared memory.
 %mem=2GB
 Copying data from "../GS_OLD/geometry.chk" to current chk file "geometry.chk"
 IOpt=  2 FromEx=T IUOpen= 4 IOptOp= 5 NList=   0 IFRang= 0 IUIn= 4 IUOut= 2.
 -------------------------------------------
 # AM1/STO-5G SCF=XQC FORCE nosym guess=read
 -------------------------------------------
 1/10=7,30=1,38=1/1,3;
 2/12=2,15=1,17=6,18=5,40=1/2;
 3/5=2,6=5,25=1,41=700000,71=1,116=-2/1,2,3;
 4/5=1,35=1/1;
 5/5=2,8=3,13=1,35=1,38=6/2,8;
 6/7=2,8=2,9=2,10=2,28=1/1;
 7/29=1,30=1/1,2,3,16;
 1/10=7,30=1/3;
 99//99;
 ----------
 MD Step 25
 ----------
 Symbolic Z-matrix:
 Charge =  0 Multiplicity = 1
 C                    -0.70628  -1.24219  -0.04977 
 C                     0.65985  -1.21405   0.05171 
 C                     1.41564   0.02375   0.05454 
 C                     0.71081   1.23496  -0.0963 
 C                    -0.71106   1.20027   0.08363 
 C                    -1.39792   0.00036  -0.00428 
 H                    -1.19899  -2.28285  -0.11363 
 H                     1.24607  -2.14718   0.00799 
 H                     2.5064   -0.14179   0.07131 
 H                     1.24535   2.14486  -0.25352 
 H                    -1.1917    2.13405   0.06864 
 H                    -2.52664   0.08614  -0.1023 
 

 GradGradGradGradGradGradGradGradGradGradGradGradGradGradGradGradGradGrad
 Berny optimization.
 Initialization pass.
 Trust Radius=3.00D-01 FncErr=1.00D-07 GrdErr=1.00D-07 EigMax=2.50D+02 EigMin=1.00D-04
 Number of steps in this run=      2 maximum allowed number of steps=      2.
 GradGradGradGradGradGradGradGradGradGradGradGradGradGradGradGradGradGrad

                          Input orientation:                          
 ---------------------------------------------------------------------
 Center     Atomic      Atomic             Coordinates (Angstroms)
 Number     Number       Type             X           Y           Z
 ---------------------------------------------------------------------
      1          6           0       -0.706278   -1.242193   -0.049772
      2          6           0        0.659849   -1.214048    0.051712
      3          6           0        1.415638    0.023750    0.054544
      4          6           0        0.710812    1.234961   -0.096304
      5          6           0       -0.711060    1.200274    0.083630
      6          6           0       -1.397920    0.000356   -0.004280
      7          1           0       -1.198989   -2.282845   -0.113626
      8          1           0        1.246069   -2.147179    0.007992
      9          1           0        2.506402   -0.141788    0.071311
     10          1           0        1.245345    2.144861   -0.253522
     11          1           0       -1.191701    2.134046    0.068643
     12          1           0       -2.526639    0.086140   -0.102303
 ---------------------------------------------------------------------
                    Distance matrix (angstroms):
                    1          2          3          4          5
     1  C    0.000000
     2  C    1.370180   0.000000
     3  C    2.473059   1.450300   0.000000
     4  C    2.854225   2.454007   1.409456   0.000000
     5  C    2.446113   2.776574   2.430617   1.433631   0.000000
     6  C    1.422802   2.390047   2.814270   2.445295   1.385391
     7  H    1.153169   2.150568   3.490694   4.002824   3.522657
     8  H    2.152671   1.102859   2.178039   3.425820   3.878339
     9  H    3.398068   2.135389   1.103382   2.268850   3.486165
    10  H    3.914394   3.423192   2.150120   1.066940   2.198508
    11  H    3.413012   3.825998   3.354365   2.110715   1.050319
    12  H    2.254094   3.444984   3.945889   3.435245   2.138269
                    6          7          8          9         10
     6  C    0.000000
     7  H    2.294458   0.000000
     8  H    3.406278   2.451837   0.000000
     9  H    3.907640   4.283486   2.369397   0.000000
    10  H    3.412898   5.059538   4.299999   2.631453   0.000000
    11  H    2.144872   4.420657   4.926996   4.342281   2.458272
    12  H    1.136210   2.715672   4.385567   5.041190   4.299891
                   11         12
    11  H    0.000000
    12  H    2.450551   0.000000
 Symmetry turned off by external request.
 Stoichiometry    C6H6
 Framework group  C1[X(C6H6)]
 Deg. of freedom    30
 Full point group                 C1      NOp   1
 Rotational constants (GHZ):           5.6604302           5.4897714           2.7988300
 Standard basis: VSTO-5G (5D, 7F)
    30 basis functions,   180 primitive gaussians,    30 cartesian basis functions
    15 alpha electrons       15 beta electrons
       nuclear repulsion energy       119.0004528053 Hartrees.
 Integral buffers will be    131072 words long.
 Regular integral format.
 Two-electron integral symmetry is turned off.
 Do NDO integrals.
 One-electron integrals computed using PRISM.
 NBasis=    30 RedAO= F EigKep=  0.00D+00  NBF=    30
 NBsUse=    30 1.00D-04 EigRej=  0.00D+00 NBFU=    30
 Initial guess from the checkpoint file:  "geometry.chk"
 B after Tr=    -0.002345   -0.000706    0.000882
         Rot=    1.000000    0.000345   -0.000260    0.000107 Ang=   0.05 deg.
 Keep J ints in memory in canonical form, NReq=861816.
 Overlap will be assumed to be unity.
 Requested convergence on RMS density matrix=1.00D-08 within  32 cycles.
 Requested convergence on MAX density matrix=1.00D-06.
 Requested convergence on             energy=1.00D-06.
 No special actions if energy rises.
 SCF Done:  E(RAM1) =  0.552478633164E-01 A.U. after   12 cycles
            NFock= 11  Conv=0.99D-08     -V/T= 1.0012
 QCSCF skips out because SCF is already converged.

 **********************************************************************

            Population analysis using the SCF Density.

 **********************************************************************

 Alpha  occ. eigenvalues --   -1.41941  -1.15141  -1.13679  -0.84774  -0.83830
 Alpha  occ. eigenvalues --   -0.65007  -0.59725  -0.56066  -0.52115  -0.51448
 Alpha  occ. eigenvalues --   -0.48334  -0.43736  -0.43483  -0.35261  -0.34768
 Alpha virt. eigenvalues --    0.01760   0.01992   0.10466   0.13936   0.14434
 Alpha virt. eigenvalues --    0.15086   0.15631   0.16313   0.17024   0.18714
 Alpha virt. eigenvalues --    0.19044   0.20261   0.20645   0.21023   0.22484
          Condensed to atoms (all electrons):
               1          2          3          4          5          6
     1  C    4.126972   0.000000   0.000000   0.000000   0.000000   0.000000
     2  C    0.000000   4.145735   0.000000   0.000000   0.000000   0.000000
     3  C    0.000000   0.000000   4.138620   0.000000   0.000000   0.000000
     4  C    0.000000   0.000000   0.000000   4.124597   0.000000   0.000000
     5  C    0.000000   0.000000   0.000000   0.000000   4.130707   0.000000
     6  C    0.000000   0.000000   0.000000   0.000000   0.000000   4.123169
     7  H    0.000000   0.000000   0.000000   0.000000   0.000000   0.000000
     8  H    0.000000   0.000000   0.000000   0.000000   0.000000   0.000000
     9  H    0.000000   0.000000   0.000000   0.000000   0.000000   0.000000
    10  H    0.000000   0.000000   0.000000   0.000000   0.000000   0.000000
    11  H    0.000000   0.000000   0.000000   0.000000   0.000000   0.000000
    12  H    0.000000   0.000000   0.000000   0.000000   0.000000   0.000000
               7          8          9         10         11         12
     1  C    0.000000   0.000000   0.000000   0.000000   0.000000   0.000000
     2  C    0.000000   0.000000   0.000000   0.000000   0.000000   0.000000
     3  C    0.000000   0.000000   0.000000   0.000000   0.000000   0.000000
     4  C    0.000000   0.000000   0.000000   0.000000   0.000000   0.000000
     5  C    0.000000   0.000000   0.000000   0.000000   0.000000   0.000000
     6  C    0.000000   0.000000   0.000000   0.000000   0.000000   0.000000
     7  H    0.859872   0.000000   0.000000   0.000000   0.000000   0.000000
     8  H    0.000000   0.875664   0.000000   0.000000   0.000000   0.000000
     9  H    0.000000   0.000000   0.864172   0.000000   0.000000   0.000000
    10  H    0.000000   0.000000   0.000000   0.867857   0.000000   0.000000
    11  H    0.000000   0.000000   0.000000   0.000000   0.874036   0.000000
    12  H    0.000000   0.000000   0.000000   0.000000   0.000000   0.868597
 Mulliken charges:
               1
     1  C   -0.126972
     2  C   -0.145735
     3  C   -0.138620
     4  C   -0.124597
     5  C   -0.130707
     6  C   -0.123169
     7  H    0.140128
     8  H    0.124336
     9  H    0.135828
    10  H    0.132143
    11  H    0.125964
    12  H    0.131403
 Sum of Mulliken charges =  -0.00000
 Mulliken charges with hydrogens summed into heavy atoms:
               1
     1  C    0.013156
     2  C   -0.021400
     3  C   -0.002792
     4  C    0.007546
     5  C   -0.004743
     6  C    0.008233
 Charge=             -0.0000 electrons
 Dipole moment (field-independent basis, Debye):
    X=              0.0236    Y=             -0.1067    Z=             -0.2670  Tot=              0.2885
 N-N= 1.190004528053D+02 E-N=-1.695078995757D+02  KE=-4.779634659246D+01
 Calling FoFJK, ICntrl=      2127 FMM=F ISym2X=0 I1Cent= 0 IOpClX= 0 NMat=1 NMatS=1 NMatT=0.
 -------------------------------------------------------------------
 Center     Atomic                   Forces (Hartrees/Bohr)
 Number     Number              X              Y              Z
 -------------------------------------------------------------------
      1        6          -0.024357911   -0.002225295    0.006600406
      2        6           0.036769320    0.029213328   -0.005738275
      3        6          -0.040686990   -0.021908632   -0.014382653
      4        6          -0.008530740   -0.055277944    0.031303855
      5        6           0.046836808   -0.029139988   -0.029436973
      6        6          -0.016942008   -0.010286333   -0.001338257
      7        1           0.005459143    0.034951579    0.000381357
      8        1          -0.001575798    0.000589416    0.004346625
      9        1          -0.003917435    0.013830285   -0.000609770
     10        1           0.007416141    0.019677054   -0.000843542
     11        1          -0.022091230    0.030548713    0.003829460
     12        1           0.021620699   -0.009972184    0.005887768
 -------------------------------------------------------------------
 Cartesian Forces:  Max     0.055277944 RMS     0.022107964

 GradGradGradGradGradGradGradGradGradGradGradGradGradGradGradGradGradGrad
 Berny optimization.
 Search for a local minimum.
 Step number   1 out of a maximum of    2
 All quantities printed in internal units (Hartrees-Bohrs-Radians)
 Second derivative matrix not updated -- first step.
 ITU=  0
     Eigenvalues ---    0.01285   0.01503   0.02878   0.03921   0.06194
     Eigenvalues ---    0.06465   0.06600   0.07101   0.07275   0.08895
     Eigenvalues ---    0.09498   0.10215   0.11336   0.15183   0.17709
     Eigenvalues ---    0.26880   0.27823   0.28300   0.37596   0.40249
     Eigenvalues ---    0.43272   0.63790   0.65286   0.94870   1.04584
     Eigenvalues ---    1.14402   1.19932   1.38333   1.53040   1.54123
 Quadratic step=6.958D-01 exceeds max=3.000D-01 adjusted using Lamda=-6.340D-02.
 Angle between NR and scaled steps=  31.63 degrees.
 Angle between quadratic step and forces=  45.62 degrees.
 Linear search not attempted -- first point.
 B after Tr=     0.001016   -0.008335   -0.006599
         Rot=    1.000000    0.000247    0.000361    0.000515 Ang=   0.08 deg.
 Variable       Old X    -DE/DX   Delta X   Delta X   Delta X     New X
                                 (Linear)    (Quad)   (Total)
    X1       -1.33467  -0.02436   0.00000  -0.00016  -0.00147  -1.33614
    Y1       -2.34740  -0.00223   0.00000   0.03964   0.03265  -2.31475
    Z1       -0.09406   0.00660   0.00000   0.02928   0.02286  -0.07120
    X2        1.24693   0.03677   0.00000   0.02847   0.02710   1.27403
    Y2       -2.29422   0.02921   0.00000   0.02249   0.01288  -2.28134
    Z2        0.09772  -0.00574   0.00000  -0.03157  -0.03612   0.06160
    X3        2.67517  -0.04069   0.00000  -0.04785  -0.04688   2.62829
    Y3        0.04488  -0.02191   0.00000  -0.04434  -0.05536  -0.01047
    Z3        0.10307  -0.01438   0.00000  -0.04385  -0.04855   0.05453
    X4        1.34324  -0.00853   0.00000  -0.00074   0.00267   1.34591
    Y4        2.33374  -0.05528   0.00000  -0.07823  -0.08800   2.24574
    Z4       -0.18199   0.03130   0.00000   0.07583   0.06909  -0.11289
    X5       -1.34371   0.04684   0.00000   0.03079   0.03408  -1.30963
    Y5        2.26819  -0.02914   0.00000  -0.02867  -0.03563   2.23256
    Z5        0.15804  -0.02944   0.00000  -0.09718  -0.10584   0.05220
    X6       -2.64169  -0.01694   0.00000   0.00171   0.00274  -2.63895
    Y6        0.00067  -0.01029   0.00000  -0.01123  -0.01686  -0.01618
    Z6       -0.00809  -0.00134   0.00000  -0.01150  -0.02000  -0.02809
    X7       -2.26576   0.00546   0.00000  -0.02183  -0.02497  -2.29074
    Y7       -4.31395   0.03495   0.00000   0.15136   0.14530  -4.16866
    Z7       -0.21472   0.00038   0.00000   0.02941   0.02321  -0.19151
    X8        2.35473  -0.00158   0.00000   0.01003   0.00685   2.36158
    Y8       -4.05758   0.00059   0.00000   0.01320   0.00245  -4.05513
    Z8        0.01510   0.00435   0.00000   0.02487   0.02197   0.03707
    X9        4.73641  -0.00392   0.00000  -0.03774  -0.03699   4.69942
    Y9       -0.26794   0.01383   0.00000   0.08215   0.06902  -0.19892
    Z9        0.13476  -0.00061   0.00000  -0.02558  -0.02869   0.10606
   X10        2.35336   0.00742   0.00000   0.00440   0.00987   2.36323
   Y10        4.05320   0.01968   0.00000  -0.01007  -0.02103   4.03217
   Z10       -0.47909  -0.00084   0.00000   0.08923   0.08234  -0.39675
   X11       -2.25199  -0.02209   0.00000  -0.03334  -0.02821  -2.28020
   Y11        4.03276   0.03055   0.00000   0.03697   0.03105   4.06381
   Z11        0.12972   0.00383   0.00000  -0.01392  -0.02417   0.10554
   X12       -4.77466   0.02162   0.00000   0.05402   0.05523  -4.71942
   Y12        0.16278  -0.00997   0.00000  -0.07294  -0.07648   0.08630
   Z12       -0.19332   0.00589   0.00000   0.05396   0.04391  -0.14942
         Item               Value     Threshold  Converged?
 Maximum Force            0.055278     0.000450     NO 
 RMS     Force            0.022108     0.000300     NO 
 Maximum Displacement     0.145295     0.001800     NO 
 RMS     Displacement     0.049587     0.001200     NO 
 Predicted change in Energy=-1.678498D-02
 GradGradGradGradGradGradGradGradGradGradGradGradGradGradGradGradGradGrad

 Unable to Open any file for archive entry.
 1\1\GINC-BHC0189\Force\RAM1\ZDO\C6H6\BWEIGHT\21-Mar-2025\0\\# AM1/STO-
 5G SCF=XQC FORCE nosym guess=read\\MD Step 25\\0,1\C,-0.70627805,-1.24
 219316,-0.04977233\C,0.65984889,-1.2140478,0.0517121\C,1.41563807,0.02
 375046,0.05454386\C,0.71081168,1.23496067,-0.09630438\C,-0.71105984,1.
 20027434,0.08363012\C,-1.39791991,0.00035597,-0.00427984\H,-1.19898933
 ,-2.28284546,-0.1136263\H,1.24606876,-2.14717874,0.00799152\H,2.506402
 36,-0.1417883,0.07131132\H,1.24534501,2.14486096,-0.25352203\H,-1.1917
 015,2.13404608,0.06864261\H,-2.52663885,0.08614001,-0.1023027\\Version
 =ES64L-G16RevC.01\HF=0.0552479\RMSD=9.928e-09\RMSF=2.211e-02\Dipole=0.
 0092924,-0.0419915,-0.1050587\PG=C01 [X(C6H6)]\\@
 The archive entry for this job was punched.


 ADVERTISING--  HE WHO HAS SOMETHING TO SELL AND GOES AND WHISPERS
                IN A WELL, IS NOT SO APT TO GET THE DOLLARS AS HE
                WHO CLIMBS A TREE AND HOLLERS.

                   -- FROM THE BACK OF A SUGAR PACKET
 Job cpu time:       0 days  0 hours  0 minutes  1.2 seconds.
 Elapsed time:       0 days  0 hours  0 minutes  0.9 seconds.
 File lengths (MBytes):  RWF=      6 Int=      0 D2E=      0 Chk=      2 Scr=      1
 Normal termination of Gaussian 16 at Fri Mar 21 15:03:36 2025.
