 Entering Gaussian System, Link 0=g16
 Initial command:
 /software/gaussian/g16-c01/avx2/g16/l1.exe "/local_scratch/28554177/Gau-25250.inp" -scrdir="/local_scratch/28554177/"
 Entering Link 1 = /software/gaussian/g16-c01/avx2/g16/l1.exe PID=     25278.
  
 Copyright (c) 1988-2019, Gaussian, Inc.  All Rights Reserved.
  
 This is part of the Gaussian(R) 16 program.  It is based on
 the Gaussian(R) 09 system (copyright 2009, Gaussian, Inc.),
 the Gaussian(R) 03 system (copyright 2003, Gaussian, Inc.),
 the Gaussian(R) 98 system (copyright 1998, Gaussian, Inc.),
 the Gaussian(R) 94 system (copyright 1995, Gaussian, Inc.),
 the Gaussian 92(TM) system (copyright 1992, Gaussian, Inc.),
 the Gaussian 90(TM) system (copyright 1990, Gaussian, Inc.),
 the Gaussian 88(TM) system (copyright 1988, Gaussian, Inc.),
 the Gaussian 86(TM) system (copyright 1986, Carnegie Mellon
 University), and the Gaussian 82(TM) system (copyright 1983,
 Carnegie Mellon University). Gaussian is a federally registered
 trademark of Gaussian, Inc.
  
 This software contains proprietary and confidential information,
 including trade secrets, belonging to Gaussian, Inc.
  
 This software is provided under written license and may be
 used, copied, transmitted, or stored only in accord with that
 written license.
  
 The following legend is applicable only to US Government
 contracts under FAR:
  
                    RESTRICTED RIGHTS LEGEND
  
 Use, reproduction and disclosure by the US Government is
 subject to restrictions as set forth in subparagraphs (a)
 and (c) of the Commercial Computer Software - Restricted
 Rights clause in FAR 52.227-19.
  
 Gaussian, Inc.
 340 Quinnipiac St., Bldg. 40, Wallingford CT 06492
  
  
 ---------------------------------------------------------------
 Warning -- This program may not be used in any manner that
 competes with the business of Gaussian, Inc. or will provide
 assistance to any competitor of Gaussian, Inc.  The licensee
 of this program is prohibited from giving any competitor of
 Gaussian, Inc. access to this program.  By using this program,
 the user acknowledges that Gaussian, Inc. is engaged in the
 business of creating and licensing software in the field of
 computational chemistry and represents and warrants to the
 licensee that it is not a competitor of Gaussian, Inc. and that
 it will not use this program in any manner prohibited above.
 ---------------------------------------------------------------
  

 Cite this work as:
 Gaussian 16, Revision C.01,
 M. J. Frisch, G. W. Trucks, H. B. Schlegel, G. E. Scuseria, 
 M. A. Robb, J. R. Cheeseman, G. Scalmani, V. Barone, 
 G. A. Petersson, H. Nakatsuji, X. Li, M. Caricato, A. V. Marenich, 
 J. Bloino, B. G. Janesko, R. Gomperts, B. Mennucci, H. P. Hratchian, 
 J. V. Ortiz, A. F. Izmaylov, J. L. Sonnenberg, D. Williams-Young, 
 F. Ding, F. Lipparini, F. Egidi, J. Goings, B. Peng, A. Petrone, 
 T. Henderson, D. Ranasinghe, V. G. Zakrzewski, J. Gao, N. Rega, 
 G. Zheng, W. Liang, M. Hada, M. Ehara, K. Toyota, R. Fukuda, 
 J. Hasegawa, M. Ishida, T. Nakajima, Y. Honda, O. Kitao, H. Nakai, 
 T. Vreven, K. Throssell, J. A. Montgomery, Jr., J. E. Peralta, 
 F. Ogliaro, M. J. Bearpark, J. J. Heyd, E. N. Brothers, K. N. Kudin, 
 V. N. Staroverov, T. A. Keith, R. Kobayashi, J. Normand, 
 K. Raghavachari, A. P. Rendell, J. C. Burant, S. S. Iyengar, 
 J. Tomasi, M. Cossi, J. M. Millam, M. Klene, C. Adamo, R. Cammi, 
 J. W. Ochterski, R. L. Martin, K. Morokuma, O. Farkas, 
 J. B. Foresman, and D. J. Fox, Gaussian, Inc., Wallingford CT, 2019.
 
 ******************************************
 Gaussian 16:  ES64L-G16RevC.01  3-Jul-2019
                21-Mar-2025 
 ******************************************
 %oldchk=../GS_OLD/geometry.chk
 %chk=geometry.chk
 %nprocshared=1
 Will use up to    1 processors via shared memory.
 %mem=2GB
 Copying data from "../GS_OLD/geometry.chk" to current chk file "geometry.chk"
 IOpt=  2 FromEx=T IUOpen= 4 IOptOp= 5 NList=   0 IFRang= 0 IUIn= 4 IUOut= 2.
 -------------------------------------------
 # AM1/STO-5G SCF=XQC FORCE nosym guess=read
 -------------------------------------------
 1/10=7,30=1,38=1/1,3;
 2/12=2,15=1,17=6,18=5,40=1/2;
 3/5=2,6=5,25=1,41=700000,71=1,116=-2/1,2,3;
 4/5=1,35=1/1;
 5/5=2,8=3,13=1,35=1,38=6/2,8;
 6/7=2,8=2,9=2,10=2,28=1/1;
 7/29=1,30=1/1,2,3,16;
 1/10=7,30=1/3;
 99//99;
 ----------
 MD Step 24
 ----------
 Symbolic Z-matrix:
 Charge =  0 Multiplicity = 1
 C                    -0.70868  -1.20406  -0.00152 
 C                     0.71146  -1.21005   0.04992 
 C                     1.3777   -0.00582  -0.07289 
 C                     0.7116    1.22308   0.0172 
 C                    -0.68478   1.209     0.00202 
 C                    -1.41493  -0.02094  -0.02531 
 H                    -1.20095  -2.14992   0.01667 
 H                     1.2004   -2.20948   0.12833 
 H                     2.44899   0.01536  -0.06536 
 H                     1.31711   2.09642   0.25801 
 H                    -1.20618   2.16901  -0.01688 
 H                    -2.51093   0.02541  -0.07727 
 

 GradGradGradGradGradGradGradGradGradGradGradGradGradGradGradGradGradGrad
 Berny optimization.
 Initialization pass.
 Trust Radius=3.00D-01 FncErr=1.00D-07 GrdErr=1.00D-07 EigMax=2.50D+02 EigMin=1.00D-04
 Number of steps in this run=      2 maximum allowed number of steps=      2.
 GradGradGradGradGradGradGradGradGradGradGradGradGradGradGradGradGradGrad

                          Input orientation:                          
 ---------------------------------------------------------------------
 Center     Atomic      Atomic             Coordinates (Angstroms)
 Number     Number       Type             X           Y           Z
 ---------------------------------------------------------------------
      1          6           0       -0.708680   -1.204057   -0.001523
      2          6           0        0.711457   -1.210050    0.049923
      3          6           0        1.377702   -0.005817   -0.072893
      4          6           0        0.711602    1.223077    0.017201
      5          6           0       -0.684782    1.208999    0.002016
      6          6           0       -1.414930   -0.020943   -0.025306
      7          1           0       -1.200955   -2.149920    0.016666
      8          1           0        1.200396   -2.209481    0.128326
      9          1           0        2.448987    0.015362   -0.065360
     10          1           0        1.317111    2.096425    0.258007
     11          1           0       -1.206182    2.169009   -0.016879
     12          1           0       -2.510932    0.025408   -0.077271
 ---------------------------------------------------------------------
                    Distance matrix (angstroms):
                    1          2          3          4          5
     1  C    0.000000
     2  C    1.421081   0.000000
     3  C    2.407045   1.381718   0.000000
     4  C    2.812212   2.433347   1.400709   0.000000
     5  C    2.413178   2.793488   2.394834   1.396537   0.000000
     6  C    1.378084   2.437449   2.793079   2.464048   1.430602
     7  H    1.066453   2.131145   3.354798   3.877497   3.398381
     8  H    2.161553   1.115380   2.219924   3.468966   3.905875
     9  H    3.385546   2.129304   1.071521   2.117522   3.354074
    10  H    3.881284   3.367921   2.128987   1.089663   2.204684
    11  H    3.409593   3.885851   3.377790   2.138655   1.092627
    12  H    2.182987   3.453450   3.888762   3.439195   2.177613
                    6          7          8          9         10
     6  C    0.000000
     7  H    2.140115   0.000000
     8  H    3.413684   2.404683   0.000000
     9  H    3.864295   4.244673   2.558597   0.000000
    10  H    3.468078   4.942706   4.309439   2.390927   0.000000
    11  H    2.199895   4.319063   4.998388   4.242736   2.539260
    12  H    1.098211   2.541046   4.337160   4.959943   4.365253
                   11         12
    11  H    0.000000
    12  H    2.510189   0.000000
 Symmetry turned off by external request.
 Stoichiometry    C6H6
 Framework group  C1[X(C6H6)]
 Deg. of freedom    30
 Full point group                 C1      NOp   1
 Rotational constants (GHZ):           5.7014138           5.6094226           2.8337871
 Standard basis: VSTO-5G (5D, 7F)
    30 basis functions,   180 primitive gaussians,    30 cartesian basis functions
    15 alpha electrons       15 beta electrons
       nuclear repulsion energy       119.5298295148 Hartrees.
 Integral buffers will be    131072 words long.
 Regular integral format.
 Two-electron integral symmetry is turned off.
 Do NDO integrals.
 One-electron integrals computed using PRISM.
 NBasis=    30 RedAO= F EigKep=  0.00D+00  NBF=    30
 NBsUse=    30 1.00D-04 EigRej=  0.00D+00 NBFU=    30
 Initial guess from the checkpoint file:  "geometry.chk"
 B after Tr=     0.001126    0.000708    0.000982
         Rot=    1.000000    0.000051    0.000569    0.000177 Ang=   0.07 deg.
 Keep J ints in memory in canonical form, NReq=861816.
 Overlap will be assumed to be unity.
 Requested convergence on RMS density matrix=1.00D-08 within  32 cycles.
 Requested convergence on MAX density matrix=1.00D-06.
 Requested convergence on             energy=1.00D-06.
 No special actions if energy rises.
 SCF Done:  E(RAM1) =  0.449600211711E-01 A.U. after   12 cycles
            NFock= 11  Conv=0.34D-08     -V/T= 1.0009
 QCSCF skips out because SCF is already converged.

 **********************************************************************

            Population analysis using the SCF Density.

 **********************************************************************

 Alpha  occ. eigenvalues --   -1.43414  -1.15939  -1.14524  -0.84996  -0.84659
 Alpha  occ. eigenvalues --   -0.65607  -0.59823  -0.56416  -0.52504  -0.51808
 Alpha  occ. eigenvalues --   -0.48829  -0.44096  -0.43480  -0.35568  -0.35029
 Alpha virt. eigenvalues --    0.01760   0.02015   0.10578   0.14662   0.14810
 Alpha virt. eigenvalues --    0.14980   0.15830   0.16901   0.17188   0.18734
 Alpha virt. eigenvalues --    0.18960   0.20573   0.20690   0.20934   0.22502
          Condensed to atoms (all electrons):
               1          2          3          4          5          6
     1  C    4.130793   0.000000   0.000000   0.000000   0.000000   0.000000
     2  C    0.000000   4.132648   0.000000   0.000000   0.000000   0.000000
     3  C    0.000000   0.000000   4.127879   0.000000   0.000000   0.000000
     4  C    0.000000   0.000000   0.000000   4.133120   0.000000   0.000000
     5  C    0.000000   0.000000   0.000000   0.000000   4.131019   0.000000
     6  C    0.000000   0.000000   0.000000   0.000000   0.000000   4.125848
     7  H    0.000000   0.000000   0.000000   0.000000   0.000000   0.000000
     8  H    0.000000   0.000000   0.000000   0.000000   0.000000   0.000000
     9  H    0.000000   0.000000   0.000000   0.000000   0.000000   0.000000
    10  H    0.000000   0.000000   0.000000   0.000000   0.000000   0.000000
    11  H    0.000000   0.000000   0.000000   0.000000   0.000000   0.000000
    12  H    0.000000   0.000000   0.000000   0.000000   0.000000   0.000000
               7          8          9         10         11         12
     1  C    0.000000   0.000000   0.000000   0.000000   0.000000   0.000000
     2  C    0.000000   0.000000   0.000000   0.000000   0.000000   0.000000
     3  C    0.000000   0.000000   0.000000   0.000000   0.000000   0.000000
     4  C    0.000000   0.000000   0.000000   0.000000   0.000000   0.000000
     5  C    0.000000   0.000000   0.000000   0.000000   0.000000   0.000000
     6  C    0.000000   0.000000   0.000000   0.000000   0.000000   0.000000
     7  H    0.875384   0.000000   0.000000   0.000000   0.000000   0.000000
     8  H    0.000000   0.863544   0.000000   0.000000   0.000000   0.000000
     9  H    0.000000   0.000000   0.879340   0.000000   0.000000   0.000000
    10  H    0.000000   0.000000   0.000000   0.862547   0.000000   0.000000
    11  H    0.000000   0.000000   0.000000   0.000000   0.873112   0.000000
    12  H    0.000000   0.000000   0.000000   0.000000   0.000000   0.864766
 Mulliken charges:
               1
     1  C   -0.130793
     2  C   -0.132648
     3  C   -0.127879
     4  C   -0.133120
     5  C   -0.131019
     6  C   -0.125848
     7  H    0.124616
     8  H    0.136456
     9  H    0.120660
    10  H    0.137453
    11  H    0.126888
    12  H    0.135234
 Sum of Mulliken charges =  -0.00000
 Mulliken charges with hydrogens summed into heavy atoms:
               1
     1  C   -0.006177
     2  C    0.003808
     3  C   -0.007219
     4  C    0.004333
     5  C   -0.004132
     6  C    0.009386
 Charge=             -0.0000 electrons
 Dipole moment (field-independent basis, Debye):
    X=             -0.0051    Y=             -0.0234    Z=              0.1949  Tot=              0.1964
 N-N= 1.195298295148D+02 E-N=-1.703863707069D+02  KE=-4.784952044809D+01
 Calling FoFJK, ICntrl=      2127 FMM=F ISym2X=0 I1Cent= 0 IOpClX= 0 NMat=1 NMatS=1 NMatT=0.
 -------------------------------------------------------------------
 Center     Atomic                   Forces (Hartrees/Bohr)
 Number     Number              X              Y              Z
 -------------------------------------------------------------------
      1        6           0.025234402    0.008845728    0.006924530
      2        6          -0.023865116   -0.007394485   -0.014294489
      3        6          -0.001436517   -0.005068317    0.019372355
      4        6          -0.021730534   -0.018844423    0.004605076
      5        6          -0.000461803   -0.013215562   -0.002553537
      6        6           0.019602734    0.034740409   -0.004266384
      7        1          -0.014260275   -0.020749521    0.000309324
      8        1           0.001016140    0.013645083   -0.002071268
      9        1           0.023069433   -0.001846326   -0.003006811
     10        1          -0.001923234    0.010563815   -0.008484731
     11        1          -0.005984028    0.001815752    0.002576616
     12        1           0.000738798   -0.002492153    0.000889320
 -------------------------------------------------------------------
 Cartesian Forces:  Max     0.034740409 RMS     0.013170442

 GradGradGradGradGradGradGradGradGradGradGradGradGradGradGradGradGradGrad
 Berny optimization.
 Search for a local minimum.
 Step number   1 out of a maximum of    2
 All quantities printed in internal units (Hartrees-Bohrs-Radians)
 Second derivative matrix not updated -- first step.
 ITU=  0
     Eigenvalues ---    0.01444   0.01608   0.03155   0.04187   0.06553
     Eigenvalues ---    0.06711   0.06995   0.07172   0.07259   0.09233
     Eigenvalues ---    0.09527   0.11126   0.11483   0.16087   0.18272
     Eigenvalues ---    0.27747   0.28962   0.29847   0.40538   0.42215
     Eigenvalues ---    0.43983   0.66608   0.68551   0.98250   1.07873
     Eigenvalues ---    1.18546   1.22005   1.45066   1.55017   1.58671
 Quadratic step=4.716D-01 exceeds max=3.000D-01 adjusted using Lamda=-2.242D-02.
 Angle between NR and scaled steps=  16.32 degrees.
 Angle between quadratic step and forces=  52.48 degrees.
 Linear search not attempted -- first point.
 B after Tr=     0.001984   -0.002017    0.007566
         Rot=    0.999999   -0.000730    0.001437    0.000551 Ang=  -0.20 deg.
 Variable       Old X    -DE/DX   Delta X   Delta X   Delta X     New X
                                 (Linear)    (Quad)   (Total)
    X1       -1.33921   0.02523   0.00000   0.00797   0.00744  -1.33177
    Y1       -2.27534   0.00885   0.00000   0.00511   0.00455  -2.27079
    Z1       -0.00288   0.00692   0.00000   0.01257   0.01300   0.01012
    X2        1.34446  -0.02387   0.00000  -0.02261  -0.02330   1.32116
    Y2       -2.28666  -0.00739   0.00000  -0.01165  -0.01519  -2.30186
    Z2        0.09434  -0.01429   0.00000  -0.04722  -0.03921   0.05513
    X3        2.60348  -0.00144   0.00000   0.03014   0.03216   2.63564
    Y3       -0.01099  -0.00507   0.00000  -0.02409  -0.02897  -0.03996
    Z3       -0.13775   0.01937   0.00000   0.10605   0.12113  -0.01662
    X4        1.34473  -0.02173   0.00000  -0.03172  -0.02741   1.31733
    Y4        2.31128  -0.01884   0.00000  -0.03646  -0.04001   2.27127
    Z4        0.03251   0.00461   0.00000   0.02503   0.03970   0.07220
    X5       -1.29405  -0.00046   0.00000  -0.00673  -0.00223  -1.29628
    Y5        2.28468  -0.01322   0.00000  -0.00195  -0.00254   2.28214
    Z5        0.00381  -0.00255   0.00000  -0.00313   0.00403   0.00784
    X6       -2.67383   0.01960   0.00000   0.04576   0.04791  -2.62592
    Y6       -0.03958   0.03474   0.00000   0.04433   0.04529   0.00572
    Z6       -0.04782  -0.00427   0.00000  -0.00248  -0.00246  -0.05028
    X7       -2.26948  -0.01426   0.00000  -0.06625  -0.06888  -2.33836
    Y7       -4.06276  -0.02075   0.00000  -0.02732  -0.02682  -4.08958
    Z7        0.03149   0.00031   0.00000   0.01213   0.00700   0.03850
    X8        2.26842   0.00102   0.00000   0.01550   0.01252   2.28094
    Y8       -4.17531   0.01365   0.00000   0.04157   0.03683  -4.13848
    Z8        0.24250  -0.00207   0.00000  -0.10104  -0.09295   0.14955
    X9        4.62791   0.02307   0.00000   0.08763   0.08982   4.71774
    Y9        0.02903  -0.00185   0.00000  -0.03793  -0.04503  -0.01600
    Z9       -0.12351  -0.00301   0.00000   0.03977   0.06088  -0.06264
   X10        2.48898  -0.00192   0.00000  -0.07777  -0.07232   2.41666
   Y10        3.96167   0.01056   0.00000   0.06664   0.06147   4.02314
   Z10        0.48756  -0.00848   0.00000  -0.15502  -0.13464   0.35292
   X11       -2.27935  -0.00598   0.00000  -0.04808  -0.04151  -2.32087
   Y11        4.09883   0.00182   0.00000  -0.01057  -0.00999   4.08885
   Z11       -0.03190   0.00258   0.00000   0.00577   0.01262  -0.01928
   X12       -4.74497   0.00074   0.00000   0.04335   0.04580  -4.69917
   Y12        0.04801  -0.00249   0.00000   0.01704   0.02041   0.06842
   Z12       -0.14602   0.00089   0.00000   0.01677   0.01092  -0.13511
         Item               Value     Threshold  Converged?
 Maximum Force            0.034740     0.000450     NO 
 RMS     Force            0.013170     0.000300     NO 
 Maximum Displacement     0.134644     0.001800     NO 
 RMS     Displacement     0.049618     0.001200     NO 
 Predicted change in Energy=-8.256040D-03
 GradGradGradGradGradGradGradGradGradGradGradGradGradGradGradGradGradGrad

 Unable to Open any file for archive entry.
 1\1\GINC-BHC0189\Force\RAM1\ZDO\C6H6\BWEIGHT\21-Mar-2025\0\\# AM1/STO-
 5G SCF=XQC FORCE nosym guess=read\\MD Step 24\\0,1\C,-0.70868007,-1.20
 405722,-0.00152336\C,0.71145655,-1.2100495,0.04992303\C,1.37770201,-0.
 00581672,-0.07289277\C,0.7116021,1.22307735,0.01720099\C,-0.6847817,1.
 20899943,0.00201633\C,-1.41493043,-0.02094275,-0.02530601\H,-1.2009547
 3,-2.14992024,0.01666572\H,1.20039616,-2.20948111,0.12832553\H,2.44898
 685,0.01536229,-0.06536013\H,1.3171112,2.09642475,0.25800711\H,-1.2061
 8195,2.16900931,-0.0168791\H,-2.51093175,0.02540786,-0.07727143\\Versi
 on=ES64L-G16RevC.01\HF=0.04496\RMSD=3.378e-09\RMSF=1.317e-02\Dipole=-0
 .0020062,-0.0092173,0.0766764\PG=C01 [X(C6H6)]\\@
 The archive entry for this job was punched.


 Money is a good servant but a bad master.
                        -- French Proverb
 Job cpu time:       0 days  0 hours  0 minutes  1.2 seconds.
 Elapsed time:       0 days  0 hours  0 minutes  0.9 seconds.
 File lengths (MBytes):  RWF=      6 Int=      0 D2E=      0 Chk=      2 Scr=      1
 Normal termination of Gaussian 16 at Fri Mar 21 15:03:15 2025.
