12
charge=0 
 C                 -2.70396275    1.78321676    0.00000000
 C                 -1.30880275    1.78321676    0.00000000
 C                 -0.61126475    2.99096776    0.00000000
 C                 -1.30891875    4.19947676   -0.00119900
 C                 -2.70374375    4.19939876   -0.00167800
 C                 -3.40134475    2.99119276   -0.00068200
 H                 -3.25372175    0.83089976    0.00045000
 H                 -0.75929475    0.83070376    0.00131500
 H                  0.48841525    2.99104776    0.00063400
 H                 -0.75871875    5.15161976   -0.00125800
 H                 -3.25386575    5.15167976   -0.00263100
 H                 -4.50094875    2.99137576   -0.00086200
