 Entering Gaussian System, Link 0=g16
 Initial command:
 /software/gaussian/g16-c01/avx2/g16/l1.exe "/local_scratch/28554377/Gau-11494.inp" -scrdir="/local_scratch/28554377/"
 Entering Link 1 = /software/gaussian/g16-c01/avx2/g16/l1.exe PID=     11500.
  
 Copyright (c) 1988-2019, Gaussian, Inc.  All Rights Reserved.
  
 This is part of the Gaussian(R) 16 program.  It is based on
 the Gaussian(R) 09 system (copyright 2009, Gaussian, Inc.),
 the Gaussian(R) 03 system (copyright 2003, Gaussian, Inc.),
 the Gaussian(R) 98 system (copyright 1998, Gaussian, Inc.),
 the Gaussian(R) 94 system (copyright 1995, Gaussian, Inc.),
 the Gaussian 92(TM) system (copyright 1992, Gaussian, Inc.),
 the Gaussian 90(TM) system (copyright 1990, Gaussian, Inc.),
 the Gaussian 88(TM) system (copyright 1988, Gaussian, Inc.),
 the Gaussian 86(TM) system (copyright 1986, Carnegie Mellon
 University), and the Gaussian 82(TM) system (copyright 1983,
 Carnegie Mellon University). Gaussian is a federally registered
 trademark of Gaussian, Inc.
  
 This software contains proprietary and confidential information,
 including trade secrets, belonging to Gaussian, Inc.
  
 This software is provided under written license and may be
 used, copied, transmitted, or stored only in accord with that
 written license.
  
 The following legend is applicable only to US Government
 contracts under FAR:
  
                    RESTRICTED RIGHTS LEGEND
  
 Use, reproduction and disclosure by the US Government is
 subject to restrictions as set forth in subparagraphs (a)
 and (c) of the Commercial Computer Software - Restricted
 Rights clause in FAR 52.227-19.
  
 Gaussian, Inc.
 340 Quinnipiac St., Bldg. 40, Wallingford CT 06492
  
  
 ---------------------------------------------------------------
 Warning -- This program may not be used in any manner that
 competes with the business of Gaussian, Inc. or will provide
 assistance to any competitor of Gaussian, Inc.  The licensee
 of this program is prohibited from giving any competitor of
 Gaussian, Inc. access to this program.  By using this program,
 the user acknowledges that Gaussian, Inc. is engaged in the
 business of creating and licensing software in the field of
 computational chemistry and represents and warrants to the
 licensee that it is not a competitor of Gaussian, Inc. and that
 it will not use this program in any manner prohibited above.
 ---------------------------------------------------------------
  

 Cite this work as:
 Gaussian 16, Revision C.01,
 M. J. Frisch, G. W. Trucks, H. B. Schlegel, G. E. Scuseria, 
 M. A. Robb, J. R. Cheeseman, G. Scalmani, V. Barone, 
 G. A. Petersson, H. Nakatsuji, X. Li, M. Caricato, A. V. Marenich, 
 J. Bloino, B. G. Janesko, R. Gomperts, B. Mennucci, H. P. Hratchian, 
 J. V. Ortiz, A. F. Izmaylov, J. L. Sonnenberg, D. Williams-Young, 
 F. Ding, F. Lipparini, F. Egidi, J. Goings, B. Peng, A. Petrone, 
 T. Henderson, D. Ranasinghe, V. G. Zakrzewski, J. Gao, N. Rega, 
 G. Zheng, W. Liang, M. Hada, M. Ehara, K. Toyota, R. Fukuda, 
 J. Hasegawa, M. Ishida, T. Nakajima, Y. Honda, O. Kitao, H. Nakai, 
 T. Vreven, K. Throssell, J. A. Montgomery, Jr., J. E. Peralta, 
 F. Ogliaro, M. J. Bearpark, J. J. Heyd, E. N. Brothers, K. N. Kudin, 
 V. N. Staroverov, T. A. Keith, R. Kobayashi, J. Normand, 
 K. Raghavachari, A. P. Rendell, J. C. Burant, S. S. Iyengar, 
 J. Tomasi, M. Cossi, J. M. Millam, M. Klene, C. Adamo, R. Cammi, 
 J. W. Ochterski, R. L. Martin, K. Morokuma, O. Farkas, 
 J. B. Foresman, and D. J. Fox, Gaussian, Inc., Wallingford CT, 2019.
 
 ******************************************
 Gaussian 16:  ES64L-G16RevC.01  3-Jul-2019
                21-Mar-2025 
 ******************************************
 %oldchk=../GS_OLD/geometry.chk
 %chk=geometry.chk
 %nprocshared=1
 Will use up to    1 processors via shared memory.
 %mem=2GB
 Copying data from "../GS_OLD/geometry.chk" to current chk file "geometry.chk"
 IOpt=  2 FromEx=T IUOpen= 4 IOptOp= 5 NList=   0 IFRang= 0 IUIn= 4 IUOut= 2.
 -------------------------------------------
 # AM1/STO-5G SCF=XQC FORCE nosym guess=read
 -------------------------------------------
 1/10=7,30=1,38=1/1,3;
 2/12=2,15=1,17=6,18=5,40=1/2;
 3/5=2,6=5,25=1,41=700000,71=1,116=-2/1,2,3;
 4/5=1,35=1/1;
 5/5=2,8=3,13=1,35=1,38=6/2,8;
 6/7=2,8=2,9=2,10=2,28=1/1;
 7/29=1,30=1/1,2,3,16;
 1/10=7,30=1/3;
 99//99;
 ----------
 MD Step 18
 ----------
 Symbolic Z-matrix:
 Charge =  0 Multiplicity = 1
 C                    -0.71884  -1.21276  -0.01915 
 C                     0.68224  -1.21035   0.01445 
 C                     1.42522  -0.00465   0.00998 
 C                     0.67505   1.20299   0.00196 
 C                    -0.71629   1.23352  -0.01942 
 C                    -1.36038   0.00019  -0.01063 
 H                    -1.28973  -2.139     0.02417 
 H                     1.24259  -2.19526   0.02736 
 H                     2.50667   0.04439  -0.02795 
 H                     1.2364    2.2195   -0.08629 
 H                    -1.29883   2.18715  -0.00796 
 H                    -2.44727  -0.02574   0.0341 
 

 GradGradGradGradGradGradGradGradGradGradGradGradGradGradGradGradGradGrad
 Berny optimization.
 Initialization pass.
 Trust Radius=3.00D-01 FncErr=1.00D-07 GrdErr=1.00D-07 EigMax=2.50D+02 EigMin=1.00D-04
 Number of steps in this run=      2 maximum allowed number of steps=      2.
 GradGradGradGradGradGradGradGradGradGradGradGradGradGradGradGradGradGrad

                          Input orientation:                          
 ---------------------------------------------------------------------
 Center     Atomic      Atomic             Coordinates (Angstroms)
 Number     Number       Type             X           Y           Z
 ---------------------------------------------------------------------
      1          6           0       -0.718835   -1.212759   -0.019146
      2          6           0        0.682236   -1.210350    0.014448
      3          6           0        1.425217   -0.004647    0.009982
      4          6           0        0.675047    1.202989    0.001961
      5          6           0       -0.716285    1.233517   -0.019418
      6          6           0       -1.360375    0.000195   -0.010632
      7          1           0       -1.289726   -2.139003    0.024171
      8          1           0        1.242587   -2.195261    0.027360
      9          1           0        2.506666    0.044395   -0.027950
     10          1           0        1.236395    2.219497   -0.086285
     11          1           0       -1.298830    2.187145   -0.007963
     12          1           0       -2.447269   -0.025744    0.034100
 ---------------------------------------------------------------------
                    Distance matrix (angstroms):
                    1          2          3          4          5
     1  C    0.000000
     2  C    1.401476   0.000000
     3  C    2.461168   1.416249   0.000000
     4  C    2.789121   2.413382   1.421690   0.000000
     5  C    2.446277   2.815936   2.473852   1.391832   0.000000
     6  C    1.372189   2.374512   2.785673   2.364280   1.391407
     7  H    1.088908   2.179708   3.453490   3.876821   3.421202
     8  H    2.194232   1.133230   2.198283   3.445410   3.949163
     9  H    3.461846   2.214662   1.083225   2.167501   3.435331
    10  H    3.950673   3.475787   2.234220   1.164555   2.188513
    11  H    3.449039   3.932951   3.496385   2.205642   1.117541
    12  H    2.097457   3.346264   3.872619   3.355544   2.141240
                    6          7          8          9         10
     6  C    0.000000
     7  H    2.140647   0.000000
     8  H    3.405420   2.532940   0.000000
     9  H    3.867333   4.379787   2.572356   0.000000
    10  H    3.416759   5.038851   4.416226   2.519537   0.000000
    11  H    2.187818   4.326278   5.066117   4.367332   2.536641
    12  H    1.088123   2.409537   4.280408   4.954820   4.315667
                   11         12
    11  H    0.000000
    12  H    2.493503   0.000000
 Symmetry turned off by external request.
 Stoichiometry    C6H6
 Framework group  C1[X(C6H6)]
 Deg. of freedom    30
 Full point group                 C1      NOp   1
 Rotational constants (GHZ):           5.6914481           5.6035345           2.8241171
 Standard basis: VSTO-5G (5D, 7F)
    30 basis functions,   180 primitive gaussians,    30 cartesian basis functions
    15 alpha electrons       15 beta electrons
       nuclear repulsion energy       119.3069071571 Hartrees.
 Integral buffers will be    131072 words long.
 Regular integral format.
 Two-electron integral symmetry is turned off.
 Do NDO integrals.
 One-electron integrals computed using PRISM.
 NBasis=    30 RedAO= F EigKep=  0.00D+00  NBF=    30
 NBsUse=    30 1.00D-04 EigRej=  0.00D+00 NBFU=    30
 Initial guess from the checkpoint file:  "geometry.chk"
 B after Tr=     0.000617   -0.001716    0.000834
         Rot=    1.000000   -0.000082    0.000410   -0.000231 Ang=  -0.05 deg.
 Keep J ints in memory in canonical form, NReq=861816.
 Overlap will be assumed to be unity.
 Requested convergence on RMS density matrix=1.00D-08 within  32 cycles.
 Requested convergence on MAX density matrix=1.00D-06.
 Requested convergence on             energy=1.00D-06.
 No special actions if energy rises.
 SCF Done:  E(RAM1) =  0.444765456245E-01 A.U. after   13 cycles
            NFock= 12  Conv=0.19D-08     -V/T= 1.0009
 QCSCF skips out because SCF is already converged.

 **********************************************************************

            Population analysis using the SCF Density.

 **********************************************************************

 Alpha  occ. eigenvalues --   -1.43234  -1.14910  -1.14659  -0.84723  -0.83983
 Alpha  occ. eigenvalues --   -0.65370  -0.58844  -0.56361  -0.51999  -0.51897
 Alpha  occ. eigenvalues --   -0.48912  -0.43536  -0.43254  -0.35413  -0.35223
 Alpha virt. eigenvalues --    0.01951   0.02120   0.10898   0.14185   0.14367
 Alpha virt. eigenvalues --    0.15001   0.15100   0.16464   0.17011   0.18724
 Alpha virt. eigenvalues --    0.18867   0.20446   0.20691   0.21134   0.22490
          Condensed to atoms (all electrons):
               1          2          3          4          5          6
     1  C    4.130368   0.000000   0.000000   0.000000   0.000000   0.000000
     2  C    0.000000   4.128522   0.000000   0.000000   0.000000   0.000000
     3  C    0.000000   0.000000   4.129923   0.000000   0.000000   0.000000
     4  C    0.000000   0.000000   0.000000   4.136259   0.000000   0.000000
     5  C    0.000000   0.000000   0.000000   0.000000   4.130320   0.000000
     6  C    0.000000   0.000000   0.000000   0.000000   0.000000   4.130312
     7  H    0.000000   0.000000   0.000000   0.000000   0.000000   0.000000
     8  H    0.000000   0.000000   0.000000   0.000000   0.000000   0.000000
     9  H    0.000000   0.000000   0.000000   0.000000   0.000000   0.000000
    10  H    0.000000   0.000000   0.000000   0.000000   0.000000   0.000000
    11  H    0.000000   0.000000   0.000000   0.000000   0.000000   0.000000
    12  H    0.000000   0.000000   0.000000   0.000000   0.000000   0.000000
               7          8          9         10         11         12
     1  C    0.000000   0.000000   0.000000   0.000000   0.000000   0.000000
     2  C    0.000000   0.000000   0.000000   0.000000   0.000000   0.000000
     3  C    0.000000   0.000000   0.000000   0.000000   0.000000   0.000000
     4  C    0.000000   0.000000   0.000000   0.000000   0.000000   0.000000
     5  C    0.000000   0.000000   0.000000   0.000000   0.000000   0.000000
     6  C    0.000000   0.000000   0.000000   0.000000   0.000000   0.000000
     7  H    0.864154   0.000000   0.000000   0.000000   0.000000   0.000000
     8  H    0.000000   0.872971   0.000000   0.000000   0.000000   0.000000
     9  H    0.000000   0.000000   0.860625   0.000000   0.000000   0.000000
    10  H    0.000000   0.000000   0.000000   0.874738   0.000000   0.000000
    11  H    0.000000   0.000000   0.000000   0.000000   0.858894   0.000000
    12  H    0.000000   0.000000   0.000000   0.000000   0.000000   0.882914
 Mulliken charges:
               1
     1  C   -0.130368
     2  C   -0.128522
     3  C   -0.129923
     4  C   -0.136259
     5  C   -0.130320
     6  C   -0.130312
     7  H    0.135846
     8  H    0.127029
     9  H    0.139375
    10  H    0.125262
    11  H    0.141106
    12  H    0.117086
 Sum of Mulliken charges =  -0.00000
 Mulliken charges with hydrogens summed into heavy atoms:
               1
     1  C    0.005478
     2  C   -0.001493
     3  C    0.009453
     4  C   -0.010998
     5  C    0.010786
     6  C   -0.013226
 Charge=              0.0000 electrons
 Dipole moment (field-independent basis, Debye):
    X=              0.0430    Y=              0.0481    Z=             -0.0079  Tot=              0.0650
 N-N= 1.193069071571D+02 E-N=-1.700636473305D+02  KE=-4.781486123979D+01
 Calling FoFJK, ICntrl=      2127 FMM=F ISym2X=0 I1Cent= 0 IOpClX= 0 NMat=1 NMatS=1 NMatT=0.
 -------------------------------------------------------------------
 Center     Atomic                   Forces (Hartrees/Bohr)
 Number     Number              X              Y              Z
 -------------------------------------------------------------------
      1        6           0.032123333   -0.001667052    0.007425922
      2        6           0.029663130   -0.005899187   -0.002629224
      3        6          -0.053822651    0.004908378   -0.001995890
      4        6           0.034407410    0.025615058   -0.011110905
      5        6           0.010878687   -0.001903708    0.004539655
      6        6          -0.029326809    0.013486682    0.000732346
      7        1          -0.001379408   -0.006992409   -0.002284901
      8        1          -0.010446243    0.018276179   -0.000156692
      9        1           0.007380236   -0.004073600    0.001990101
     10        1          -0.015262237   -0.033474622    0.006399844
     11        1           0.008693233   -0.011304963   -0.001153392
     12        1          -0.012908681    0.003029244   -0.001756864
 -------------------------------------------------------------------
 Cartesian Forces:  Max     0.053822651 RMS     0.017027081

 GradGradGradGradGradGradGradGradGradGradGradGradGradGradGradGradGradGrad
 Berny optimization.
 Search for a local minimum.
 Step number   1 out of a maximum of    2
 All quantities printed in internal units (Hartrees-Bohrs-Radians)
 Second derivative matrix not updated -- first step.
 ITU=  0
     Eigenvalues ---    0.01467   0.01536   0.03136   0.04138   0.06236
     Eigenvalues ---    0.06590   0.06653   0.06906   0.07117   0.09227
     Eigenvalues ---    0.09454   0.10804   0.11227   0.15526   0.17827
     Eigenvalues ---    0.27360   0.28762   0.28894   0.38522   0.41015
     Eigenvalues ---    0.43053   0.62535   0.65643   0.93544   1.05360
     Eigenvalues ---    1.16442   1.19686   1.42049   1.55472   1.59997
 Quadratic step=3.344D-01 exceeds max=3.000D-01 adjusted using Lamda=-1.027D-02.
 Angle between NR and scaled steps=   4.41 degrees.
 Angle between quadratic step and forces=  51.27 degrees.
 Linear search not attempted -- first point.
 B after Tr=    -0.001933    0.003867   -0.000777
         Rot=    0.999999    0.000764   -0.001320   -0.000321 Ang=   0.18 deg.
 Variable       Old X    -DE/DX   Delta X   Delta X   Delta X     New X
                                 (Linear)    (Quad)   (Total)
    X1       -1.35840   0.03212   0.00000   0.03891   0.03846  -1.31994
    Y1       -2.29178  -0.00167   0.00000   0.01335   0.01639  -2.27540
    Z1       -0.03618   0.00743   0.00000   0.03975   0.04593   0.00975
    X2        1.28924   0.02966   0.00000   0.02859   0.02815   1.31739
    Y2       -2.28723  -0.00590   0.00000   0.03220   0.03694  -2.25029
    Z2        0.02730  -0.00263   0.00000  -0.01011  -0.01093   0.01637
    X3        2.69327  -0.05382   0.00000  -0.06903  -0.07100   2.62227
    Y3       -0.00878   0.00491   0.00000   0.01718   0.02271   0.01393
    Z3        0.01886  -0.00200   0.00000  -0.02573  -0.03345  -0.01458
    X4        1.27565   0.03441   0.00000   0.02274   0.01926   1.29491
    Y4        2.27332   0.02562   0.00000  -0.00122   0.00343   2.27675
    Z4        0.00371  -0.01111   0.00000  -0.03646  -0.04413  -0.04042
    X5       -1.35358   0.01088   0.00000   0.02746   0.02397  -1.32961
    Y5        2.33101  -0.00190   0.00000  -0.02558  -0.02261   2.30840
    Z5       -0.03669   0.00454   0.00000   0.00756   0.00677  -0.02993
    X6       -2.57074  -0.02933   0.00000  -0.07222  -0.07417  -2.64490
    Y6        0.00037   0.01349   0.00000   0.01024   0.01241   0.01278
    Z6       -0.02009   0.00073   0.00000   0.01571   0.02189   0.00180
    X7       -2.43723  -0.00138   0.00000   0.08550   0.08630  -2.35093
    Y7       -4.04213  -0.00699   0.00000  -0.04019  -0.03776  -4.07989
    Z7        0.04568  -0.00228   0.00000  -0.00861   0.00305   0.04873
    X8        2.34815  -0.01045   0.00000   0.01907   0.01983   2.36798
    Y8       -4.14844   0.01828   0.00000   0.10352   0.10897  -4.03948
    Z8        0.05170  -0.00016   0.00000  -0.01338  -0.01424   0.03747
    X9        4.73691   0.00738   0.00000  -0.04343  -0.04547   4.69144
    Y9        0.08389  -0.00407   0.00000  -0.03323  -0.02640   0.05749
    Z9       -0.05282   0.00199   0.00000   0.03011   0.01687  -0.03595
   X10        2.33645  -0.01526   0.00000   0.00594   0.00110   2.33755
   Y10        4.19424  -0.03347   0.00000  -0.13357  -0.12837   4.06587
   Z10       -0.16306   0.00640   0.00000   0.05686   0.04370  -0.11935
   X11       -2.45443   0.00869   0.00000   0.08868   0.08406  -2.37038
   Y11        4.13311  -0.01130   0.00000  -0.03741  -0.03510   4.09801
   Z11       -0.01505  -0.00115   0.00000  -0.00813  -0.00891  -0.02396
   X12       -4.62467  -0.01291   0.00000  -0.10865  -0.11049  -4.73516
   Y12       -0.04865   0.00303   0.00000   0.04852   0.04940   0.00075
   Z12        0.06444  -0.00176   0.00000  -0.03828  -0.02656   0.03788
         Item               Value     Threshold  Converged?
 Maximum Force            0.053823     0.000450     NO 
 RMS     Force            0.017027     0.000300     NO 
 Maximum Displacement     0.128375     0.001800     NO 
 RMS     Displacement     0.049702     0.001200     NO 
 Predicted change in Energy=-1.005341D-02
 GradGradGradGradGradGradGradGradGradGradGradGradGradGradGradGradGradGrad

 Unable to Open any file for archive entry.
 1\1\GINC-BHC0189\Force\RAM1\ZDO\C6H6\BWEIGHT\21-Mar-2025\0\\# AM1/STO-
 5G SCF=XQC FORCE nosym guess=read\\MD Step 18\\0,1\C,-0.71883544,-1.21
 275935,-0.01914631\C,0.68223585,-1.21035034,0.01444752\C,1.42521703,-0
 .00464659,0.0099823\C,0.6750474,1.20298865,0.00196118\C,-0.71628517,1.
 23351678,-0.01941799\C,-1.36037542,0.00019473,-0.01063173\H,-1.2897261
 8,-2.13900315,0.02417058\H,1.24258746,-2.1952614,0.02735963\H,2.506666
 23,0.04439457,-0.02795016\H,1.23639503,2.21949746,-0.08628513\H,-1.298
 83043,2.18714549,-0.00796303\H,-2.44726923,-0.02574358,0.03409985\\Ver
 sion=ES64L-G16RevC.01\HF=0.0444765\RMSD=1.925e-09\RMSF=1.703e-02\Dipol
 e=0.0169322,0.0189154,-0.00312\PG=C01 [X(C6H6)]\\@
 The archive entry for this job was punched.


 I take a simple view of life: keep your eyes open and get on with it.
 -- Laurence Olivier
 Job cpu time:       0 days  0 hours  0 minutes  1.2 seconds.
 Elapsed time:       0 days  0 hours  0 minutes  0.9 seconds.
 File lengths (MBytes):  RWF=      6 Int=      0 D2E=      0 Chk=      2 Scr=      1
 Normal termination of Gaussian 16 at Fri Mar 21 15:21:42 2025.
