 Entering Gaussian System, Link 0=g16
 Initial command:
 /software/gaussian/g16-c01/avx2/g16/l1.exe "/local_scratch/28554177/Gau-28531.inp" -scrdir="/local_scratch/28554177/"
 Entering Link 1 = /software/gaussian/g16-c01/avx2/g16/l1.exe PID=     28545.
  
 Copyright (c) 1988-2019, Gaussian, Inc.  All Rights Reserved.
  
 This is part of the Gaussian(R) 16 program.  It is based on
 the Gaussian(R) 09 system (copyright 2009, Gaussian, Inc.),
 the Gaussian(R) 03 system (copyright 2003, Gaussian, Inc.),
 the Gaussian(R) 98 system (copyright 1998, Gaussian, Inc.),
 the Gaussian(R) 94 system (copyright 1995, Gaussian, Inc.),
 the Gaussian 92(TM) system (copyright 1992, Gaussian, Inc.),
 the Gaussian 90(TM) system (copyright 1990, Gaussian, Inc.),
 the Gaussian 88(TM) system (copyright 1988, Gaussian, Inc.),
 the Gaussian 86(TM) system (copyright 1986, Carnegie Mellon
 University), and the Gaussian 82(TM) system (copyright 1983,
 Carnegie Mellon University). Gaussian is a federally registered
 trademark of Gaussian, Inc.
  
 This software contains proprietary and confidential information,
 including trade secrets, belonging to Gaussian, Inc.
  
 This software is provided under written license and may be
 used, copied, transmitted, or stored only in accord with that
 written license.
  
 The following legend is applicable only to US Government
 contracts under FAR:
  
                    RESTRICTED RIGHTS LEGEND
  
 Use, reproduction and disclosure by the US Government is
 subject to restrictions as set forth in subparagraphs (a)
 and (c) of the Commercial Computer Software - Restricted
 Rights clause in FAR 52.227-19.
  
 Gaussian, Inc.
 340 Quinnipiac St., Bldg. 40, Wallingford CT 06492
  
  
 ---------------------------------------------------------------
 Warning -- This program may not be used in any manner that
 competes with the business of Gaussian, Inc. or will provide
 assistance to any competitor of Gaussian, Inc.  The licensee
 of this program is prohibited from giving any competitor of
 Gaussian, Inc. access to this program.  By using this program,
 the user acknowledges that Gaussian, Inc. is engaged in the
 business of creating and licensing software in the field of
 computational chemistry and represents and warrants to the
 licensee that it is not a competitor of Gaussian, Inc. and that
 it will not use this program in any manner prohibited above.
 ---------------------------------------------------------------
  

 Cite this work as:
 Gaussian 16, Revision C.01,
 M. J. Frisch, G. W. Trucks, H. B. Schlegel, G. E. Scuseria, 
 M. A. Robb, J. R. Cheeseman, G. Scalmani, V. Barone, 
 G. A. Petersson, H. Nakatsuji, X. Li, M. Caricato, A. V. Marenich, 
 J. Bloino, B. G. Janesko, R. Gomperts, B. Mennucci, H. P. Hratchian, 
 J. V. Ortiz, A. F. Izmaylov, J. L. Sonnenberg, D. Williams-Young, 
 F. Ding, F. Lipparini, F. Egidi, J. Goings, B. Peng, A. Petrone, 
 T. Henderson, D. Ranasinghe, V. G. Zakrzewski, J. Gao, N. Rega, 
 G. Zheng, W. Liang, M. Hada, M. Ehara, K. Toyota, R. Fukuda, 
 J. Hasegawa, M. Ishida, T. Nakajima, Y. Honda, O. Kitao, H. Nakai, 
 T. Vreven, K. Throssell, J. A. Montgomery, Jr., J. E. Peralta, 
 F. Ogliaro, M. J. Bearpark, J. J. Heyd, E. N. Brothers, K. N. Kudin, 
 V. N. Staroverov, T. A. Keith, R. Kobayashi, J. Normand, 
 K. Raghavachari, A. P. Rendell, J. C. Burant, S. S. Iyengar, 
 J. Tomasi, M. Cossi, J. M. Millam, M. Klene, C. Adamo, R. Cammi, 
 J. W. Ochterski, R. L. Martin, K. Morokuma, O. Farkas, 
 J. B. Foresman, and D. J. Fox, Gaussian, Inc., Wallingford CT, 2019.
 
 ******************************************
 Gaussian 16:  ES64L-G16RevC.01  3-Jul-2019
                21-Mar-2025 
 ******************************************
 %oldchk=../TD_OLD_S1/geometry.chk
 %chk=geometry.chk
 %nprocshared=1
 Will use up to    1 processors via shared memory.
 %mem=2GB
 Copying data from "../TD_OLD_S1/geometry.chk" to current chk file "geometry.chk"
 IOpt=  2 FromEx=T IUOpen= 4 IOptOp= 5 NList=   0 IFRang= 0 IUIn= 4 IUOut= 2.
 ----------------------------------------------------------------------
 # AM1/STO-5G SCF=XQC TD=(read,singlets,nstates=5,root=1) nosym IOp(9/4
 0=3) guess=read
 ----------------------------------------------------------------------
 1/38=1,172=1/1;
 2/12=2,15=1,17=6,18=5,40=1/2;
 3/5=2,6=5,25=1,41=700000,116=-2/1,2,3,8;
 4/5=1,35=1/1;
 5/5=2,8=3,13=1,35=1,38=6/2,8;
 8/6=1,10=90,107=1,108=5/1;
 9/8=1,40=3,41=5,42=1,48=1,49=13,70=2/14;
 6/7=2,8=2,9=2,10=2/1;
 99/5=1,9=1/99;
 ----------
 MD Step 25
 ----------
 Symbolic Z-matrix:
 Charge =  0 Multiplicity = 1
 C                    -0.70871  -1.20129   0.00455 
 C                     0.7104   -1.20355   0.04076 
 C                     1.37828  -0.0045   -0.07202 
 C                     0.71075   1.21304   0.01722 
 C                    -0.68744   1.20866   0.00014 
 C                    -1.41523  -0.02387  -0.02452 
 H                    -1.19891  -2.17186   0.01645 
 H                     1.18483  -2.17349   0.15023 
 H                     2.48644   0.01022  -0.05291 
 H                     1.31854   2.09516   0.27381 
 H                    -1.20485   2.15979  -0.01677 
 H                    -2.48611   0.05917  -0.08822 
 
                          Input orientation:                          
 ---------------------------------------------------------------------
 Center     Atomic      Atomic             Coordinates (Angstroms)
 Number     Number       Type             X           Y           Z
 ---------------------------------------------------------------------
      1          6           0       -0.708713   -1.201287    0.004554
      2          6           0        0.710401   -1.203547    0.040760
      3          6           0        1.378277   -0.004497   -0.072021
      4          6           0        0.710750    1.213044    0.017223
      5          6           0       -0.687443    1.208663    0.000140
      6          6           0       -1.415227   -0.023868   -0.024520
      7          1           0       -1.198905   -2.171860    0.016452
      8          1           0        1.184832   -2.173490    0.150234
      9          1           0        2.486439    0.010223   -0.052912
     10          1           0        1.318542    2.095163    0.273810
     11          1           0       -1.204850    2.159787   -0.016767
     12          1           0       -2.486106    0.059170   -0.088216
 ---------------------------------------------------------------------
                    Distance matrix (angstroms):
                    1          2          3          4          5
     1  C    0.000000
     2  C    1.419577   0.000000
     3  C    2.407010   1.377135   0.000000
     4  C    2.800719   2.416705   1.391389   0.000000
     5  C    2.410048   2.788257   2.396699   1.398304   0.000000
     6  C    1.373434   2.431912   2.793975   2.459974   1.431577
     7  H    1.087402   2.140951   3.368555   3.886432   3.419035
     8  H    2.133522   1.085292   2.188915   3.422142   3.868708
     9  H    3.417610   2.153213   1.108425   2.145873   3.393023
    10  H    3.879284   3.362385   2.128788   1.101536   2.210148
    11  H    3.397561   3.870854   3.370419   2.137054   1.082881
    12  H    2.180936   3.439294   3.864941   3.400357   2.136429
                    6          7          8          9         10
     6  C    0.000000
     7  H    2.159246   0.000000
     8  H    3.378124   2.387489   0.000000
     9  H    3.901919   4.283464   2.550304   0.000000
    10  H    3.471712   4.960973   4.272534   2.411992   0.000000
    11  H    2.193780   4.331778   4.951339   4.271715   2.540889
    12  H    1.075980   2.577855   4.303187   4.972911   4.330320
                   11         12
    11  H    0.000000
    12  H    2.461567   0.000000
 Symmetry turned off by external request.
 Stoichiometry    C6H6
 Framework group  C1[X(C6H6)]
 Deg. of freedom    30
 Full point group                 C1      NOp   1
 Rotational constants (GHZ):           5.7257102           5.6239799           2.8436085
 Standard basis: VSTO-5G (5D, 7F)
    30 basis functions,   180 primitive gaussians,    30 cartesian basis functions
    15 alpha electrons       15 beta electrons
       nuclear repulsion energy       119.6309838781 Hartrees.
 Integral buffers will be    131072 words long.
 Regular integral format.
 Two-electron integral symmetry is turned off.
 Do NDO integrals.
 One-electron integrals computed using PRISM.
 NBasis=    30 RedAO= F EigKep=  0.00D+00  NBF=    30
 NBsUse=    30 1.00D-04 EigRej=  0.00D+00 NBFU=    30
 Initial guess from the checkpoint file:  "geometry.chk"
 B after Tr=     0.001155    0.000719    0.000873
         Rot=    1.000000    0.000080    0.000513    0.000129 Ang=   0.06 deg.
 Keep J ints in memory in canonical form, NReq=861816.
 Overlap will be assumed to be unity.
 Requested convergence on RMS density matrix=1.00D-08 within  32 cycles.
 Requested convergence on MAX density matrix=1.00D-06.
 Requested convergence on             energy=1.00D-06.
 No special actions if energy rises.
 SCF Done:  E(RAM1) =  0.444862877066E-01 A.U. after   12 cycles
            NFock= 11  Conv=0.70D-08     -V/T= 1.0009
 QCSCF skips out because SCF is already converged.
 Range of M.O.s used for correlation:     1    30
 NBasis=    30 NAE=    15 NBE=    15 NFC=     0 NFV=     0
 NROrb=     30 NOA=    15 NOB=    15 NVA=    15 NVB=    15
 Keep J ints in memory in canonical form, NReq=862156.
 Generating guess from checkpoint file densities.
 Convergence on wavefunction:    0.001000000000000
 Iteration     1 Dimension    10 NMult     0 NNew     10
 CISAX will form    10 AO SS matrices at one time.
 Iteration     2 Dimension    20 NMult    10 NNew     10
 Iteration     3 Dimension    30 NMult    20 NNew     10
 Iteration     4 Dimension    40 NMult    30 NNew     10
 Iteration     5 Dimension    46 NMult    40 NNew      6
 Iteration     6 Dimension    50 NMult    46 NNew      4
 Iteration     7 Dimension    52 NMult    50 NNew      2
 Iteration     8 Dimension    54 NMult    52 NNew      2
 Iteration     9 Dimension    56 NMult    54 NNew      2
 Iteration    10 Dimension    58 NMult    56 NNew      2
 ***********************************************************************
 Excited states from <AA,BB:AA,BB> singles matrix:
 ***********************************************************************
 
 Ground to excited state transition densities written to RWF  633
 Ground to excited state transition electric dipole moments (Au):
       state          X           Y           Z        Dip. S.      Osc.
         1         0.0227      0.0388     -0.0022      0.0020      0.0002
         2        -0.1514      0.1108     -0.0590      0.0387      0.0039
         3         1.3791      0.6772     -0.0621      2.3645      0.3087
         4         0.6928     -1.4013      0.0041      2.4437      0.3214
         5        -0.1506     -0.1296      0.0601      0.0431      0.0063
 Ground to excited state transition velocity dipole moments (Au):
       state          X           Y           Z        Dip. S.      Osc.
         1        -0.0037     -0.0080      0.0001      0.0001      0.0004
         2         0.0365     -0.0274      0.0465      0.0042      0.0187
         3        -0.4265     -0.2113     -0.0188      0.2269      0.7726
         4        -0.2149      0.4306      0.0028      0.2316      0.7826
         5         0.0543      0.0438      0.0671      0.0094      0.0287
 Ground to excited state transition magnetic dipole moments (Au):
       state          X           Y           Z
         1         0.0077     -0.0092     -0.0002
         2        -0.0267     -0.0527     -0.1860
         3        -0.0048     -0.0841     -0.0181
         4        -0.0008     -0.0504     -0.0612
         5         0.0005      0.0452     -0.0336
 Ground to excited state transition velocity quadrupole moments (Au):
       state          XX          YY          ZZ          XY          XZ          YZ
         1         0.0047     -0.0052     -0.0002     -0.0004      0.0040      0.0114
         2         0.0398     -0.0293      0.0065      0.0225      0.0531     -0.0137
         3         0.0310      0.0282     -0.0135     -0.0595      0.0663     -0.0322
         4        -0.0005      0.0119     -0.0036     -0.0239      0.0205      0.0428
         5        -0.0913      0.0954     -0.0089     -0.0712      0.0072     -0.0052
 <0|del|b> * <b|rxdel|0> + <0|del|b> * <b|delr+rdel|0>
 Rotatory Strengths (R) in cgs (10**-40 erg-esu-cm/Gauss)
       state          XX          YY          ZZ    R(velocity)    E-M Angle
         1         0.2695     -0.1783      0.1398      0.0770       90.00
         2       -10.9998    -26.1304     -1.1364    -12.7555      130.04
         3        60.0311     27.0793    -14.3531     24.2524       60.60
         4       -55.1435    -16.3549     -6.2315    -25.9100      124.64
         5        -8.7167      3.6828      4.2263     -0.2692       92.61
 1/2[<0|r|b>*<b|rxdel|0> + (<0|rxdel|b>*<b|r|0>)*]
 Rotatory Strengths (R) in cgs (10**-40 erg-esu-cm/Gauss)
       state          XX          YY          ZZ     R(length)
         1        -0.1244      0.2528     -0.0003      0.0427
         2        -2.8610      4.1278     -7.7599     -2.1643
         3         4.6548     40.2702     -0.7952     14.7100
         4         0.4130    -49.9352      0.1781    -16.4480
         5         0.0512      4.1456      1.4271      1.8747
  1/2[<0|del|b>*<b|r|0> + (<0|r|b>*<b|del|0>)*] (Au)
       state          X           Y           Z        Dip. S.   Osc.(frdel)
         1        -0.0001     -0.0003     -0.0000      0.0004      0.0003
         2        -0.0055     -0.0030     -0.0027      0.0113      0.0075
         3        -0.5882     -0.1431      0.0012      0.7302      0.4868
         4        -0.1489     -0.6034      0.0000      0.7523      0.5015
         5        -0.0082     -0.0057      0.0040      0.0098      0.0065

 Excitation energies and oscillator strengths:
 
 Excited state symmetry could not be determined.
 Excited State   1:      Singlet-?Sym    3.7970 eV  326.54 nm  f=0.0002  <S**2>=0.000
       2 -> 23         0.00338
       2 -> 25        -0.00154
       3 -> 24         0.00328
       3 -> 26         0.00185
       4 -> 17        -0.00309
       4 -> 18        -0.00135
       4 -> 27         0.00238
       4 -> 28         0.00127
       5 -> 16        -0.00281
       5 -> 17         0.00229
       5 -> 18         0.00127
       5 -> 28        -0.00242
       6 -> 16         0.00133
       7 -> 16         0.00157
       7 -> 29        -0.00225
       8 -> 17         0.00159
       8 -> 18         0.00910
       8 -> 22        -0.00145
       9 -> 19         0.00132
       9 -> 23         0.00312
       9 -> 25        -0.00230
      10 -> 18        -0.00410
      10 -> 24        -0.00306
      10 -> 26        -0.00201
      11 -> 16        -0.00111
      11 -> 17        -0.00293
      11 -> 20        -0.00156
      11 -> 21         0.00102
      11 -> 23        -0.00299
      11 -> 25         0.00206
      11 -> 27        -0.00238
      11 -> 29        -0.00573
      12 -> 16         0.00119
      12 -> 17        -0.00130
      12 -> 19        -0.00131
      13 -> 16        -0.00166
      13 -> 18         0.00122
      13 -> 27        -0.00105
      13 -> 28         0.00139
      14 -> 16         0.48890
      14 -> 17         0.01923
      14 -> 18        -0.00535
      14 -> 19         0.00120
      14 -> 20         0.00113
      14 -> 22         0.00227
      14 -> 23         0.00230
      14 -> 24         0.00129
      14 -> 27         0.00421
      14 -> 28        -0.00104
      14 -> 29         0.00322
      15 -> 16        -0.02844
      15 -> 17         0.51828
      15 -> 18         0.00175
      15 -> 20         0.00418
      15 -> 21         0.00330
      15 -> 22         0.00234
      15 -> 24         0.00344
      15 -> 25         0.00196
      15 -> 27         0.00232
      15 -> 29         0.00203
      15 -> 30         0.00290
       2 <- 23         0.00125
       3 <- 24         0.00103
       4 <- 27         0.00185
       5 <- 28        -0.00191
       7 <- 29        -0.00183
       8 <- 22        -0.00119
       9 <- 17         0.00117
      10 <- 16        -0.00145
      10 <- 17         0.00105
      12 <- 16         0.00309
      12 <- 17        -0.00635
      12 <- 19        -0.00100
      13 <- 16        -0.00415
      13 <- 17         0.00142
      14 <- 16         0.07019
      14 <- 17         0.00366
      14 <- 20         0.00229
      14 <- 21        -0.00175
      14 <- 22         0.00122
      14 <- 27        -0.00109
      14 <- 28         0.00100
      15 <- 16        -0.00223
      15 <- 17         0.06475
      15 <- 18        -0.00110
      15 <- 19         0.00227
      15 <- 20         0.00163
      15 <- 21         0.00177
      15 <- 23        -0.00119
      15 <- 24         0.00188
      15 <- 27        -0.00122
      15 <- 28        -0.00112
 This state for optimization and/or second-order correction.
 Total Energy, E(TD-HF/TD-DFT) =  0.184022002461    
 Copying the excited state density for this state as the 1-particle RhoCI density.
 
 Excited state symmetry could not be determined.
 Excited State   2:      Singlet-?Sym    4.1104 eV  301.64 nm  f=0.0039  <S**2>=0.000
       1 -> 17        -0.00120
       1 -> 20         0.00198
       1 -> 21         0.00139
       2 -> 17         0.00146
       2 -> 18         0.00162
       2 -> 24        -0.00246
       2 -> 26         0.00217
       3 -> 23         0.00292
       3 -> 25         0.00189
       4 -> 17         0.00189
       4 -> 18         0.00146
       4 -> 21         0.00177
       4 -> 26        -0.00140
       4 -> 27        -0.00178
       4 -> 28         0.00442
       4 -> 29        -0.00111
       5 -> 16        -0.00178
       5 -> 17         0.00133
       5 -> 23        -0.00110
       5 -> 25         0.00137
       5 -> 27         0.00425
       5 -> 28         0.00193
       6 -> 17        -0.00152
       6 -> 20         0.00294
       7 -> 17        -0.00138
       7 -> 18        -0.00514
       7 -> 22         0.00136
       7 -> 23         0.00247
       8 -> 20         0.00154
       8 -> 23        -0.00124
       8 -> 24        -0.00372
       8 -> 25         0.00211
       8 -> 26        -0.00297
       8 -> 27        -0.00227
       8 -> 29         0.00263
       8 -> 30        -0.00127
       9 -> 16         0.00317
       9 -> 17         0.00101
       9 -> 18        -0.01307
       9 -> 19        -0.00192
       9 -> 24        -0.00301
       9 -> 25        -0.00216
       9 -> 26         0.00800
       9 -> 27        -0.00272
       9 -> 28         0.00234
       9 -> 29         0.00201
      10 -> 16         0.00212
      10 -> 18        -0.00130
      10 -> 19        -0.00245
      10 -> 20        -0.00223
      10 -> 21         0.00126
      10 -> 23        -0.00492
      10 -> 25        -0.00421
      10 -> 26        -0.00252
      10 -> 27         0.00157
      10 -> 29         0.00213
      11 -> 16        -0.00228
      11 -> 17        -0.00101
      11 -> 18        -0.10908
      11 -> 19        -0.01063
      11 -> 20        -0.00664
      11 -> 21        -0.00440
      11 -> 22        -0.00275
      11 -> 23         0.00327
      11 -> 24        -0.00490
      11 -> 26        -0.00224
      11 -> 28         0.00196
      11 -> 29        -0.00108
      12 -> 16        -0.01430
      12 -> 17        -0.00213
      12 -> 18        -0.00982
      12 -> 20         0.00729
      12 -> 21        -0.01328
      12 -> 22         0.00435
      12 -> 23        -0.00475
      12 -> 24         0.00195
      12 -> 25         0.00118
      12 -> 26         0.00186
      12 -> 30         0.00271
      13 -> 16         0.00170
      13 -> 17         0.00329
      13 -> 18         0.02260
      13 -> 19        -0.00479
      13 -> 21        -0.00163
      13 -> 23         0.00321
      13 -> 24         0.00116
      13 -> 25        -0.00291
      13 -> 27        -0.00715
      13 -> 28        -0.00698
      13 -> 30         0.00205
      14 -> 16        -0.01730
      14 -> 17         0.43921
      14 -> 20         0.00491
      14 -> 21         0.00529
      14 -> 22         0.00120
      14 -> 24         0.00603
      14 -> 27        -0.00142
      14 -> 28        -0.00405
      15 -> 16        -0.54135
      15 -> 17        -0.02988
      15 -> 18        -0.00483
      15 -> 19        -0.00283
      15 -> 20         0.00164
      15 -> 21        -0.00377
      15 -> 22        -0.00254
      15 -> 23        -0.00134
      15 -> 24        -0.00135
      15 -> 25         0.00208
      15 -> 26        -0.00132
      15 -> 28        -0.00133
       1 <- 20         0.00429
       1 <- 21         0.00346
       1 <- 30        -0.00222
       2 <- 17         0.00108
       2 <- 24        -0.00605
       3 <- 19         0.00152
       3 <- 20         0.00147
       3 <- 23         0.00704
       4 <- 20         0.00136
       4 <- 27        -0.00194
       4 <- 28         0.00492
       4 <- 29        -0.00137
       5 <- 19        -0.00140
       5 <- 27         0.00501
       5 <- 28         0.00237
       5 <- 29         0.00102
       6 <- 20         0.00193
       6 <- 30        -0.00162
       7 <- 18        -0.00131
       7 <- 23         0.00110
       8 <- 24        -0.00211
       8 <- 26        -0.00161
       8 <- 27        -0.00221
       8 <- 29         0.00497
       9 <- 18         0.00270
       9 <- 24        -0.00405
       9 <- 26         0.00117
       9 <- 29         0.00109
      10 <- 17        -0.00113
      10 <- 19        -0.00158
      10 <- 20        -0.00164
      10 <- 23        -0.00594
      11 <- 16         0.00187
      11 <- 18         0.01382
      12 <- 16         0.00215
      12 <- 17         0.00143
      12 <- 18         0.00104
      12 <- 20         0.00244
      12 <- 21        -0.00460
      12 <- 22         0.00176
      12 <- 23        -0.00211
      12 <- 27         0.00218
      12 <- 28        -0.00200
      12 <- 30         0.00107
      13 <- 17        -0.00240
      13 <- 18        -0.00216
      13 <- 19        -0.00178
      13 <- 25        -0.00123
      13 <- 27        -0.00471
      13 <- 28        -0.00492
      14 <- 16        -0.00190
      14 <- 17         0.02453
      14 <- 18        -0.00123
      14 <- 19         0.00252
      14 <- 20         0.00149
      14 <- 21         0.00183
      14 <- 23        -0.00127
      14 <- 24         0.00205
      14 <- 27        -0.00173
      14 <- 28        -0.00175
      15 <- 16        -0.00377
      15 <- 18         0.00219
      15 <- 20        -0.00167
      15 <- 21         0.00139
      15 <- 22        -0.00119
      15 <- 27         0.00114
      15 <- 28        -0.00128
 
 Excited state symmetry could not be determined.
 Excited State   3:      Singlet-?Sym    5.3289 eV  232.67 nm  f=0.3087  <S**2>=0.000
       1 -> 17         0.00157
       1 -> 19         0.00109
       1 -> 27        -0.00194
       1 -> 28        -0.00152
       2 -> 16        -0.00111
       2 -> 17        -0.00180
       2 -> 18        -0.00475
       2 -> 19         0.00128
       2 -> 22         0.00659
       2 -> 23         0.00265
       2 -> 25        -0.00224
       3 -> 24        -0.00256
       3 -> 26        -0.00196
       3 -> 27        -0.00103
       3 -> 29         0.00201
       4 -> 16        -0.00116
       4 -> 17        -0.00364
       4 -> 18        -0.00112
       4 -> 19         0.00640
       4 -> 20        -0.00233
       4 -> 21        -0.00278
       4 -> 23        -0.00123
       4 -> 27         0.00144
       4 -> 28         0.00125
       4 -> 30         0.00132
       5 -> 16         0.00780
       5 -> 17         0.00173
       5 -> 18         0.00139
       5 -> 20        -0.01437
       5 -> 21        -0.00405
       5 -> 26        -0.00159
       5 -> 28         0.00112
       5 -> 29        -0.00233
       5 -> 30         0.00779
       6 -> 17         0.00805
       6 -> 19         0.01488
       6 -> 22        -0.00110
       6 -> 23        -0.00348
       6 -> 27        -0.00503
       6 -> 28        -0.00342
       7 -> 16         0.00479
       7 -> 17        -0.00438
       7 -> 18         0.01205
       7 -> 20        -0.00422
       7 -> 21         0.00563
       7 -> 22         0.00182
       7 -> 23        -0.00382
       7 -> 24         0.02619
       7 -> 26         0.01007
       8 -> 16         0.00149
       8 -> 17         0.00258
       8 -> 18        -0.00173
       8 -> 19         0.01033
       8 -> 20         0.00752
       8 -> 21        -0.00528
       8 -> 22        -0.00217
       8 -> 23         0.03416
       8 -> 24         0.00446
       8 -> 25        -0.02260
       8 -> 26        -0.00239
       8 -> 27         0.00144
       8 -> 29         0.00247
       9 -> 16        -0.00383
       9 -> 17        -0.01072
       9 -> 18        -0.03790
       9 -> 19         0.00358
       9 -> 20         0.00425
       9 -> 21        -0.00165
       9 -> 22         0.00528
       9 -> 23         0.01775
       9 -> 25        -0.02090
       9 -> 26        -0.00498
       9 -> 27         0.00374
       9 -> 28         0.00198
       9 -> 29         0.00164
       9 -> 30        -0.00243
      10 -> 16         0.00257
      10 -> 17        -0.00354
      10 -> 18        -0.00110
      10 -> 19         0.00560
      10 -> 20        -0.00458
      10 -> 21         0.00434
      10 -> 22         0.00273
      10 -> 23         0.00194
      10 -> 24         0.01606
      10 -> 25        -0.01262
      10 -> 26         0.02098
      10 -> 27         0.00713
      10 -> 29        -0.02488
      10 -> 30        -0.00150
      11 -> 17         0.00394
      11 -> 18        -0.00107
      11 -> 20        -0.00227
      11 -> 21         0.00560
      11 -> 22        -0.00496
      11 -> 23        -0.01034
      11 -> 24         0.01171
      11 -> 25         0.00392
      11 -> 26         0.01004
      11 -> 27        -0.00499
      11 -> 30        -0.00422
      12 -> 16         0.09345
      12 -> 17         0.07438
      12 -> 18         0.02250
      12 -> 19        -0.03922
      12 -> 20        -0.01609
      12 -> 21         0.00878
      12 -> 23         0.00447
      12 -> 24         0.00239
      12 -> 25         0.00778
      12 -> 26         0.00671
      12 -> 27         0.03637
      12 -> 28         0.00726
      12 -> 29         0.00430
      12 -> 30         0.00559
      13 -> 16        -0.09057
      13 -> 17        -0.00361
      13 -> 18         0.01399
      13 -> 19        -0.02616
      13 -> 20         0.05325
      13 -> 21        -0.01082
      13 -> 22         0.01013
      13 -> 24        -0.00217
      13 -> 25         0.00229
      13 -> 26        -0.00429
      13 -> 27        -0.00984
      13 -> 28         0.03992
      13 -> 29        -0.00454
      13 -> 30        -0.02832
      14 -> 16        -0.45371
      14 -> 17         0.22872
      14 -> 18        -0.00549
      14 -> 19        -0.00403
      14 -> 20         0.00471
      14 -> 21        -0.01877
      14 -> 22         0.00262
      14 -> 23         0.00106
      14 -> 24        -0.01075
      14 -> 25         0.00141
      14 -> 26        -0.01147
      14 -> 27        -0.00353
      14 -> 28         0.00632
      14 -> 29        -0.00778
      14 -> 30         0.00636
      15 -> 16         0.17452
      15 -> 17         0.42839
      15 -> 18         0.02301
      15 -> 19        -0.01945
      15 -> 20        -0.01780
      15 -> 21         0.00785
      15 -> 22        -0.00474
      15 -> 25         0.00826
      15 -> 27         0.01769
      15 -> 28        -0.00260
      15 -> 29         0.00884
      15 -> 30         0.00644
       1 <- 19         0.00152
       1 <- 27        -0.00284
       1 <- 28        -0.00219
       2 <- 19         0.00165
       2 <- 22         0.00392
       2 <- 23         0.00449
       2 <- 24        -0.00121
       2 <- 25        -0.00218
       3 <- 24        -0.00449
       3 <- 26        -0.00257
       3 <- 29         0.00276
       4 <- 19         0.00353
       4 <- 20        -0.00158
       4 <- 21        -0.00156
       4 <- 23        -0.00114
       5 <- 17         0.00106
       5 <- 18         0.00107
       5 <- 20        -0.00939
       5 <- 21        -0.00348
       5 <- 27         0.00106
       5 <- 30         0.00474
       6 <- 18        -0.00119
       6 <- 19         0.00618
       6 <- 23        -0.00169
       7 <- 18        -0.00140
       7 <- 20        -0.00162
       7 <- 21         0.00175
       7 <- 23        -0.00158
       7 <- 24         0.01094
       7 <- 26         0.00371
       8 <- 19         0.00406
       8 <- 20         0.00287
       8 <- 21        -0.00223
       8 <- 23         0.01523
       8 <- 24         0.00181
       8 <- 25        -0.00791
       8 <- 27         0.00113
       8 <- 29         0.00137
       9 <- 16        -0.00143
       9 <- 19         0.00237
       9 <- 20         0.00283
       9 <- 22         0.00251
       9 <- 23         0.00815
       9 <- 25        -0.00863
       9 <- 26        -0.00310
       9 <- 27         0.00176
       9 <- 30        -0.00107
      10 <- 16        -0.00172
      10 <- 19         0.00184
      10 <- 20        -0.00121
      10 <- 21         0.00155
      10 <- 24         0.00695
      10 <- 25        -0.00479
      10 <- 26         0.00902
      10 <- 27         0.00182
      10 <- 29        -0.00756
      10 <- 30        -0.00146
      11 <- 16        -0.00567
      11 <- 20         0.00154
      11 <- 22         0.00110
      11 <- 23        -0.00142
      11 <- 24         0.00191
      11 <- 25         0.00191
      11 <- 27        -0.00108
      11 <- 30        -0.00105
      12 <- 16         0.00479
      12 <- 17         0.00491
      12 <- 18         0.00276
      12 <- 19        -0.01163
      12 <- 20        -0.00556
      12 <- 21         0.00251
      12 <- 23         0.00190
      12 <- 25         0.00239
      12 <- 26         0.00177
      12 <- 27         0.01255
      12 <- 28         0.00239
      12 <- 29         0.00205
      12 <- 30         0.00225
      13 <- 16        -0.00345
      13 <- 19        -0.00710
      13 <- 20         0.01624
      13 <- 21        -0.00114
      13 <- 22         0.00216
      13 <- 27        -0.00356
      13 <- 28         0.01281
      13 <- 29        -0.00194
      13 <- 30        -0.01024
      14 <- 16         0.07376
      14 <- 17        -0.03299
      14 <- 19        -0.00170
      14 <- 21        -0.00204
      14 <- 28         0.00135
      15 <- 16        -0.03627
      15 <- 17        -0.07701
      15 <- 18        -0.00489
      15 <- 19        -0.00264
      15 <- 20        -0.00105
      15 <- 21        -0.00171
      15 <- 24        -0.00151
      15 <- 27         0.00162
      15 <- 28         0.00141
 
 Excited state symmetry could not be determined.
 Excited State   4:      Singlet-?Sym    5.3690 eV  230.93 nm  f=0.3214  <S**2>=0.000
       1 -> 16        -0.00182
       1 -> 27         0.00133
       1 -> 28        -0.00175
       2 -> 24        -0.00222
       2 -> 26        -0.00144
       2 -> 29        -0.00215
       3 -> 17        -0.00234
       3 -> 18        -0.00471
       3 -> 20        -0.00140
       3 -> 21         0.00178
       3 -> 22         0.00731
       3 -> 23        -0.00212
       3 -> 25         0.00151
       4 -> 16        -0.00454
       4 -> 17         0.00540
       4 -> 18         0.00181
       4 -> 19        -0.00107
       4 -> 20        -0.00575
       4 -> 21        -0.01269
       4 -> 22         0.00283
       4 -> 27         0.00192
       4 -> 28        -0.00247
       4 -> 30         0.00714
       5 -> 16         0.00371
       5 -> 17        -0.00758
       5 -> 18        -0.00299
       5 -> 19         0.00643
       5 -> 20         0.00260
       5 -> 21         0.00102
       5 -> 23        -0.00170
       5 -> 27         0.00160
       5 -> 28         0.00169
       5 -> 30        -0.00189
       6 -> 16        -0.00860
       6 -> 17         0.00205
       6 -> 20        -0.00932
       6 -> 21         0.01014
       6 -> 22        -0.00269
       6 -> 24        -0.00215
       6 -> 27         0.00409
       6 -> 28        -0.00456
       6 -> 29         0.00218
       7 -> 17         0.00250
       7 -> 18         0.00134
       7 -> 19        -0.00955
       7 -> 20        -0.00353
       7 -> 21         0.00377
       7 -> 22         0.00199
       7 -> 23        -0.02500
       7 -> 24        -0.00400
       7 -> 25         0.00784
       7 -> 26        -0.00234
       8 -> 16         0.00569
       8 -> 17        -0.00811
       8 -> 18        -0.01619
       8 -> 19        -0.00132
       8 -> 20        -0.00840
       8 -> 21         0.00496
       8 -> 23        -0.00612
       8 -> 24         0.03176
       8 -> 25        -0.00258
       8 -> 26         0.02649
       8 -> 27        -0.00123
       8 -> 28         0.00195
       9 -> 16        -0.00113
       9 -> 17         0.00432
       9 -> 18        -0.00390
       9 -> 19        -0.00550
       9 -> 20         0.00421
       9 -> 22         0.00260
       9 -> 23        -0.00458
       9 -> 24        -0.01123
       9 -> 25         0.00832
       9 -> 26        -0.01448
       9 -> 27         0.00888
       9 -> 28        -0.00716
       9 -> 29        -0.02407
       9 -> 30        -0.00230
      10 -> 16        -0.00284
      10 -> 17         0.01737
      10 -> 18         0.03809
      10 -> 19         0.01005
      10 -> 20         0.00822
      10 -> 21        -0.00585
      10 -> 22        -0.01145
      10 -> 23         0.01743
      10 -> 24         0.00319
      10 -> 25        -0.02077
      10 -> 26        -0.00819
      10 -> 27         0.00437
      10 -> 28         0.00163
      10 -> 29         0.00169
      10 -> 30         0.00198
      11 -> 17         0.00109
      11 -> 18        -0.01323
      11 -> 19        -0.00283
      11 -> 20        -0.00309
      11 -> 21         0.00389
      11 -> 23        -0.01147
      11 -> 24         0.00759
      11 -> 25         0.00674
      11 -> 26         0.00780
      11 -> 27        -0.00248
      11 -> 28         0.00167
      11 -> 29         0.00490
      12 -> 16         0.08087
      12 -> 17        -0.07155
      12 -> 18        -0.01541
      12 -> 19         0.02552
      12 -> 20        -0.00399
      12 -> 21         0.04131
      12 -> 22        -0.01709
      12 -> 25        -0.00335
      12 -> 26         0.00691
      12 -> 27         0.00373
      12 -> 28        -0.03071
      12 -> 29         0.01455
      12 -> 30        -0.03043
      13 -> 16         0.01801
      13 -> 17         0.08301
      13 -> 18         0.01413
      13 -> 19        -0.04592
      13 -> 20        -0.00886
      13 -> 21         0.02533
      13 -> 22         0.00903
      13 -> 23         0.01102
      13 -> 25         0.00552
      13 -> 26         0.00692
      13 -> 27         0.03592
      13 -> 28         0.00996
      13 -> 29         0.01180
      13 -> 30        -0.00589
      14 -> 16         0.21342
      14 -> 17         0.48345
      14 -> 18         0.01629
      14 -> 19        -0.01088
      14 -> 21        -0.00804
      14 -> 22         0.00151
      14 -> 23         0.01901
      14 -> 24        -0.00359
      14 -> 25        -0.00984
      14 -> 26        -0.00774
      14 -> 27         0.01345
      14 -> 28         0.00630
      14 -> 29         0.00165
      14 -> 30         0.00836
      15 -> 16         0.39852
      15 -> 17        -0.19671
      15 -> 18        -0.00278
      15 -> 19         0.01015
      15 -> 20        -0.01932
      15 -> 21         0.00779
      15 -> 22        -0.00531
      15 -> 23         0.00179
      15 -> 26         0.00350
      15 -> 27         0.00390
      15 -> 28        -0.01242
      15 -> 29         0.01003
      15 -> 30         0.00277
       1 <- 21         0.00153
       1 <- 27         0.00206
       1 <- 28        -0.00279
       1 <- 29         0.00118
       2 <- 24        -0.00497
       2 <- 26        -0.00245
       2 <- 27         0.00119
       2 <- 29        -0.00300
       3 <- 20        -0.00118
       3 <- 21         0.00153
       3 <- 22         0.00463
       3 <- 23        -0.00372
       3 <- 25         0.00174
       4 <- 18         0.00112
       4 <- 20        -0.00468
       4 <- 21        -0.00862
       4 <- 22         0.00163
       4 <- 30         0.00476
       5 <- 18        -0.00113
       5 <- 19         0.00361
       5 <- 20         0.00175
       5 <- 30        -0.00118
       6 <- 20        -0.00398
       6 <- 21         0.00445
       6 <- 22        -0.00131
       6 <- 24        -0.00105
       7 <- 19        -0.00339
       7 <- 20        -0.00144
       7 <- 21         0.00148
       7 <- 23        -0.01067
       7 <- 24        -0.00173
       7 <- 25         0.00237
       7 <- 26        -0.00110
       8 <- 20        -0.00295
       8 <- 21         0.00184
       8 <- 23        -0.00219
       8 <- 24         0.01495
       8 <- 26         0.01005
       8 <- 28         0.00120
       9 <- 16        -0.00158
       9 <- 19        -0.00204
       9 <- 20         0.00174
       9 <- 23        -0.00109
       9 <- 24        -0.00604
       9 <- 25         0.00317
       9 <- 26        -0.00755
       9 <- 27         0.00362
       9 <- 28        -0.00252
       9 <- 29        -0.00746
       9 <- 30        -0.00113
      10 <- 17         0.00180
      10 <- 19         0.00223
      10 <- 20         0.00231
      10 <- 21        -0.00269
      10 <- 22        -0.00431
      10 <- 23         0.00754
      10 <- 25        -0.00828
      10 <- 26        -0.00302
      10 <- 27         0.00175
      11 <- 17        -0.00245
      11 <- 18         0.00243
      11 <- 19        -0.00131
      11 <- 23        -0.00141
      11 <- 24         0.00147
      11 <- 26         0.00147
      11 <- 28         0.00163
      12 <- 16         0.00531
      12 <- 17        -0.00595
      12 <- 18        -0.00253
      12 <- 19         0.00731
      12 <- 21         0.01396
      12 <- 22        -0.00513
      12 <- 25        -0.00117
      12 <- 26         0.00180
      12 <- 27         0.00176
      12 <- 28        -0.01079
      12 <- 29         0.00482
      12 <- 30        -0.01125
      13 <- 17         0.00465
      13 <- 18         0.00127
      13 <- 19        -0.01243
      13 <- 20        -0.00204
      13 <- 21         0.00740
      13 <- 22         0.00201
      13 <- 23         0.00281
      13 <- 25         0.00204
      13 <- 26         0.00230
      13 <- 27         0.01150
      13 <- 28         0.00303
      13 <- 29         0.00351
      13 <- 30        -0.00237
      14 <- 16        -0.03326
      14 <- 17        -0.07387
      14 <- 18         0.00422
      14 <- 20        -0.00230
      14 <- 22        -0.00158
      14 <- 23         0.00155
      14 <- 27         0.00169
      15 <- 16        -0.07867
      15 <- 17         0.03723
      15 <- 19        -0.00114
      15 <- 20        -0.00229
      15 <- 26         0.00105
      15 <- 28        -0.00182
 
 Excited state symmetry could not be determined.
 Excited State   5:      Singlet-?Sym    5.9245 eV  209.27 nm  f=0.0063  <S**2>=0.000
       1 -> 16         0.00207
       1 -> 17         0.00321
       2 -> 16         0.00163
       2 -> 17        -0.00114
       2 -> 18        -0.00821
       2 -> 22        -0.00151
       3 -> 16         0.00102
       3 -> 18         0.00390
       4 -> 16         0.01549
       4 -> 17         0.01415
       4 -> 18         0.00134
       4 -> 22         0.00175
       5 -> 16         0.03938
       5 -> 17        -0.00507
       5 -> 19         0.00130
       5 -> 20         0.00288
       5 -> 24        -0.00111
       5 -> 30        -0.00129
       6 -> 16         0.01629
       6 -> 17         0.02332
       6 -> 19        -0.00110
       6 -> 22         0.00132
       7 -> 17        -0.00735
       7 -> 18        -0.04134
       7 -> 19        -0.00345
       7 -> 20        -0.00300
       7 -> 21        -0.00115
       7 -> 22        -0.00378
       7 -> 24        -0.00567
       7 -> 25        -0.00154
       7 -> 28        -0.00163
       7 -> 29         0.00286
       8 -> 16        -0.00377
       8 -> 17        -0.00650
       8 -> 18        -0.08541
       8 -> 19        -0.01301
       8 -> 20        -0.00748
       8 -> 21        -0.00186
       8 -> 22        -0.00308
       8 -> 23        -0.00482
       8 -> 24        -0.00316
       8 -> 25         0.00267
       8 -> 26         0.00217
       8 -> 28         0.00176
       8 -> 29        -0.00146
       9 -> 16         0.00189
       9 -> 17        -0.01100
       9 -> 18        -0.08339
       9 -> 19        -0.01036
       9 -> 20        -0.00497
       9 -> 21        -0.00337
       9 -> 22        -0.00745
       9 -> 25         0.00136
       9 -> 26         0.00175
       9 -> 28         0.00148
       9 -> 29        -0.00154
      10 -> 16        -0.00763
      10 -> 17        -0.00275
      10 -> 18        -0.04535
      10 -> 19        -0.00501
      10 -> 20        -0.00105
      10 -> 21        -0.00130
      10 -> 22        -0.00224
      10 -> 23         0.00107
      10 -> 24        -0.00548
      10 -> 25         0.00162
      10 -> 26        -0.00372
      10 -> 27        -0.00237
      10 -> 28         0.00225
      10 -> 29         0.00151
      11 -> 16        -0.01456
      11 -> 17         0.00430
      11 -> 18         0.01910
      11 -> 19         0.00157
      11 -> 20         0.00424
      11 -> 21        -0.00107
      11 -> 22        -0.00717
      11 -> 23         0.00766
      11 -> 24         0.01344
      11 -> 25         0.00143
      11 -> 27         0.00216
      11 -> 28        -0.00158
      11 -> 29        -0.00668
      11 -> 30        -0.00155
      12 -> 16        -0.15451
      12 -> 17        -0.01095
      12 -> 18         0.00462
      12 -> 19         0.00801
      12 -> 20         0.00134
      12 -> 21        -0.00180
      12 -> 22        -0.00455
      12 -> 26        -0.00160
      12 -> 27        -0.00845
      12 -> 28        -0.00324
      12 -> 30        -0.00106
      13 -> 16        -0.63497
      13 -> 17         0.19886
      13 -> 18         0.02860
      13 -> 19         0.00263
      13 -> 20        -0.00689
      13 -> 21         0.00541
      13 -> 23        -0.00203
      13 -> 25         0.00112
      13 -> 27         0.00155
      13 -> 28        -0.00588
      13 -> 29        -0.00266
      13 -> 30         0.00388
      14 -> 16         0.04616
      14 -> 17        -0.01661
      14 -> 18         0.02590
      14 -> 19         0.02207
      14 -> 20        -0.03689
      14 -> 21        -0.00927
      14 -> 23         0.00413
      14 -> 25        -0.00124
      14 -> 26        -0.00103
      14 -> 27         0.00569
      14 -> 28        -0.00311
      14 -> 30         0.01177
      15 -> 16        -0.01090
      15 -> 17        -0.04370
      15 -> 18         0.03094
      15 -> 19         0.00811
      15 -> 20         0.01239
      15 -> 21         0.03216
      15 -> 22        -0.00307
      15 -> 23         0.00942
      15 -> 24         0.00483
      15 -> 25        -0.00225
      15 -> 26         0.00315
      15 -> 27         0.00865
      15 -> 28         0.01479
      15 -> 29         0.00277
      15 -> 30        -0.00959
       4 <- 17        -0.00173
       5 <- 16        -0.00112
       5 <- 20         0.00131
       7 <- 24        -0.00167
       8 <- 18         0.00148
       8 <- 19        -0.00123
       8 <- 23        -0.00190
       8 <- 25         0.00117
       9 <- 18         0.00144
       9 <- 25         0.00119
       9 <- 29        -0.00105
      10 <- 26        -0.00140
      11 <- 16        -0.00287
      11 <- 17         0.00167
      11 <- 19        -0.00120
      11 <- 21        -0.00131
      11 <- 22        -0.00402
      11 <- 24         0.00124
      11 <- 25         0.00110
      11 <- 27         0.00114
      11 <- 29        -0.00348
      12 <- 17        -0.00133
      12 <- 19         0.00271
      12 <- 22        -0.00148
      12 <- 27        -0.00252
      12 <- 28        -0.00117
      13 <- 16         0.00326
      13 <- 20        -0.00153
      13 <- 28        -0.00118
      14 <- 16        -0.00673
      14 <- 17         0.00309
      14 <- 18        -0.00298
      14 <- 19         0.00830
      14 <- 20        -0.01120
      14 <- 21         0.00385
      14 <- 22        -0.00188
      14 <- 27         0.00199
      14 <- 28        -0.00652
      14 <- 29         0.00101
      14 <- 30         0.00258
      15 <- 16         0.00377
      15 <- 17         0.01182
      15 <- 18        -0.00333
      15 <- 19        -0.00426
      15 <- 20        -0.00251
      15 <- 21         0.00897
      15 <- 23         0.00218
      15 <- 26         0.00120
      15 <- 27         0.00604
      15 <- 28         0.00188
      15 <- 29         0.00223
      15 <- 30        -0.00187
 SavETr:  write IOETrn=   770 NScale= 10 NData=  16 NLR=1 NState=    5 LETran=     100.

 **********************************************************************

            Population analysis using the SCF Density.

 **********************************************************************

 Alpha  occ. eigenvalues --   -1.43755  -1.15916  -1.14805  -0.85179  -0.84548
 Alpha  occ. eigenvalues --   -0.65696  -0.59711  -0.56478  -0.52506  -0.51896
 Alpha  occ. eigenvalues --   -0.48915  -0.44182  -0.43353  -0.35720  -0.34988
 Alpha virt. eigenvalues --    0.01707   0.02112   0.10605   0.14619   0.14856
 Alpha virt. eigenvalues --    0.15193   0.15684   0.16970   0.16990   0.18756
 Alpha virt. eigenvalues --    0.19022   0.20543   0.20668   0.20980   0.22527
          Condensed to atoms (all electrons):
               1          2          3          4          5          6
     1  C    4.130498   0.000000   0.000000   0.000000   0.000000   0.000000
     2  C    0.000000   4.131168   0.000000   0.000000   0.000000   0.000000
     3  C    0.000000   0.000000   4.128430   0.000000   0.000000   0.000000
     4  C    0.000000   0.000000   0.000000   4.133936   0.000000   0.000000
     5  C    0.000000   0.000000   0.000000   0.000000   4.132895   0.000000
     6  C    0.000000   0.000000   0.000000   0.000000   0.000000   4.124315
     7  H    0.000000   0.000000   0.000000   0.000000   0.000000   0.000000
     8  H    0.000000   0.000000   0.000000   0.000000   0.000000   0.000000
     9  H    0.000000   0.000000   0.000000   0.000000   0.000000   0.000000
    10  H    0.000000   0.000000   0.000000   0.000000   0.000000   0.000000
    11  H    0.000000   0.000000   0.000000   0.000000   0.000000   0.000000
    12  H    0.000000   0.000000   0.000000   0.000000   0.000000   0.000000
               7          8          9         10         11         12
     1  C    0.000000   0.000000   0.000000   0.000000   0.000000   0.000000
     2  C    0.000000   0.000000   0.000000   0.000000   0.000000   0.000000
     3  C    0.000000   0.000000   0.000000   0.000000   0.000000   0.000000
     4  C    0.000000   0.000000   0.000000   0.000000   0.000000   0.000000
     5  C    0.000000   0.000000   0.000000   0.000000   0.000000   0.000000
     6  C    0.000000   0.000000   0.000000   0.000000   0.000000   0.000000
     7  H    0.873321   0.000000   0.000000   0.000000   0.000000   0.000000
     8  H    0.000000   0.866776   0.000000   0.000000   0.000000   0.000000
     9  H    0.000000   0.000000   0.875928   0.000000   0.000000   0.000000
    10  H    0.000000   0.000000   0.000000   0.863699   0.000000   0.000000
    11  H    0.000000   0.000000   0.000000   0.000000   0.872384   0.000000
    12  H    0.000000   0.000000   0.000000   0.000000   0.000000   0.866648
 Mulliken charges:
               1
     1  C   -0.130498
     2  C   -0.131168
     3  C   -0.128430
     4  C   -0.133936
     5  C   -0.132895
     6  C   -0.124315
     7  H    0.126679
     8  H    0.133224
     9  H    0.124072
    10  H    0.136301
    11  H    0.127616
    12  H    0.133352
 Sum of Mulliken charges =   0.00000
 Mulliken charges with hydrogens summed into heavy atoms:
               1
     1  C   -0.003819
     2  C    0.002055
     3  C   -0.004358
     4  C    0.002365
     5  C   -0.005279
     6  C    0.009036
 Charge=              0.0000 electrons
 Dipole moment (field-independent basis, Debye):
    X=              0.0306    Y=             -0.0062    Z=              0.2206  Tot=              0.2228
 N-N= 1.196309838781D+02 E-N=-1.705637495376D+02  KE=-4.785629240150D+01

 Test job not archived.
 1\1\GINC-BHC0189\SP\RAM1 TD-Full\STO-5G\C6H6\BWEIGHT\21-Mar-2025\0\\# 
 AM1/STO-5G SCF=XQC TD=(read,singlets,nstates=5,root=1) nosym IOp(9/40=
 3) guess=read\\MD Step 25\\0,1\C,0,-0.70871309,-1.20128673,0.00455444\
 C,0,0.71040066,-1.20354665,0.04075974\C,0,1.37827725,-0.00449673,-0.07
 202145\C,0,0.71074959,1.21304405,0.01722297\C,0,-0.68744307,1.2086634,
 0.00014033\C,0,-1.41522703,-0.02386819,-0.02452014\H,0,-1.19890531,-2.
 17185995,0.01645166\H,0,1.184832,-2.17348988,0.15023408\H,0,2.48643946
 ,0.01022275,-0.05291209\H,0,1.31854195,2.09516284,0.27380976\H,0,-1.20
 484993,2.15978702,-0.01676736\H,0,-2.4861057,0.05917045,-0.08821611\\V
 ersion=ES64L-G16RevC.01\HF=0.0444863\RMSD=7.043e-09\PG=C01 [X(C6H6)]\\
 @


 You don't have to suffer to be a poet.
 Adolescence is enough suffering for anyone.
                             -- John Ciardi
 Job cpu time:       0 days  0 hours  0 minutes  1.1 seconds.
 Elapsed time:       0 days  0 hours  0 minutes  0.8 seconds.
 File lengths (MBytes):  RWF=     34 Int=      0 D2E=      0 Chk=      2 Scr=      1
 Normal termination of Gaussian 16 at Fri Mar 21 15:03:38 2025.
