%chk=geometry.chk
%nprocshared=12
%mem=5GB

# WB97XD/6-311G nosymm iop(2/12=3,3/33=1) guess=only pop=full

MD Step 80

0 1
C  -0.33579513  -0.58369635  0.00561169 
H  0.17904399  -1.53791045  -0.02656655 
H  -1.42693476  -0.61805911  -0.02543907 
C  0.34079330  0.59061088  0.00370684 
H  -0.21184524  1.50184508  -0.03026139 
H  1.40017765  0.57173075  -0.02877291 
C  -0.33455903  -0.58263897  0.00750152 
H  0.18155580  -1.53363858  -0.02692242 
H  -1.42197947  -0.61318297  -0.02576156 
C  0.34215039  0.59203317  0.00555010 
H  -0.20788267  1.50280225  -0.03064309 
H  1.40146170  0.57570384  -0.02920670 








