 Entering Gaussian System, Link 0=g16
 Initial command:
 /software/gaussian/g16-c01/avx2/g16/l1.exe "/local_scratch/28554377/Gau-11786.inp" -scrdir="/local_scratch/28554377/"
 Entering Link 1 = /software/gaussian/g16-c01/avx2/g16/l1.exe PID=     11790.
  
 Copyright (c) 1988-2019, Gaussian, Inc.  All Rights Reserved.
  
 This is part of the Gaussian(R) 16 program.  It is based on
 the Gaussian(R) 09 system (copyright 2009, Gaussian, Inc.),
 the Gaussian(R) 03 system (copyright 2003, Gaussian, Inc.),
 the Gaussian(R) 98 system (copyright 1998, Gaussian, Inc.),
 the Gaussian(R) 94 system (copyright 1995, Gaussian, Inc.),
 the Gaussian 92(TM) system (copyright 1992, Gaussian, Inc.),
 the Gaussian 90(TM) system (copyright 1990, Gaussian, Inc.),
 the Gaussian 88(TM) system (copyright 1988, Gaussian, Inc.),
 the Gaussian 86(TM) system (copyright 1986, Carnegie Mellon
 University), and the Gaussian 82(TM) system (copyright 1983,
 Carnegie Mellon University). Gaussian is a federally registered
 trademark of Gaussian, Inc.
  
 This software contains proprietary and confidential information,
 including trade secrets, belonging to Gaussian, Inc.
  
 This software is provided under written license and may be
 used, copied, transmitted, or stored only in accord with that
 written license.
  
 The following legend is applicable only to US Government
 contracts under FAR:
  
                    RESTRICTED RIGHTS LEGEND
  
 Use, reproduction and disclosure by the US Government is
 subject to restrictions as set forth in subparagraphs (a)
 and (c) of the Commercial Computer Software - Restricted
 Rights clause in FAR 52.227-19.
  
 Gaussian, Inc.
 340 Quinnipiac St., Bldg. 40, Wallingford CT 06492
  
  
 ---------------------------------------------------------------
 Warning -- This program may not be used in any manner that
 competes with the business of Gaussian, Inc. or will provide
 assistance to any competitor of Gaussian, Inc.  The licensee
 of this program is prohibited from giving any competitor of
 Gaussian, Inc. access to this program.  By using this program,
 the user acknowledges that Gaussian, Inc. is engaged in the
 business of creating and licensing software in the field of
 computational chemistry and represents and warrants to the
 licensee that it is not a competitor of Gaussian, Inc. and that
 it will not use this program in any manner prohibited above.
 ---------------------------------------------------------------
  

 Cite this work as:
 Gaussian 16, Revision C.01,
 M. J. Frisch, G. W. Trucks, H. B. Schlegel, G. E. Scuseria, 
 M. A. Robb, J. R. Cheeseman, G. Scalmani, V. Barone, 
 G. A. Petersson, H. Nakatsuji, X. Li, M. Caricato, A. V. Marenich, 
 J. Bloino, B. G. Janesko, R. Gomperts, B. Mennucci, H. P. Hratchian, 
 J. V. Ortiz, A. F. Izmaylov, J. L. Sonnenberg, D. Williams-Young, 
 F. Ding, F. Lipparini, F. Egidi, J. Goings, B. Peng, A. Petrone, 
 T. Henderson, D. Ranasinghe, V. G. Zakrzewski, J. Gao, N. Rega, 
 G. Zheng, W. Liang, M. Hada, M. Ehara, K. Toyota, R. Fukuda, 
 J. Hasegawa, M. Ishida, T. Nakajima, Y. Honda, O. Kitao, H. Nakai, 
 T. Vreven, K. Throssell, J. A. Montgomery, Jr., J. E. Peralta, 
 F. Ogliaro, M. J. Bearpark, J. J. Heyd, E. N. Brothers, K. N. Kudin, 
 V. N. Staroverov, T. A. Keith, R. Kobayashi, J. Normand, 
 K. Raghavachari, A. P. Rendell, J. C. Burant, S. S. Iyengar, 
 J. Tomasi, M. Cossi, J. M. Millam, M. Klene, C. Adamo, R. Cammi, 
 J. W. Ochterski, R. L. Martin, K. Morokuma, O. Farkas, 
 J. B. Foresman, and D. J. Fox, Gaussian, Inc., Wallingford CT, 2019.
 
 ******************************************
 Gaussian 16:  ES64L-G16RevC.01  3-Jul-2019
                21-Mar-2025 
 ******************************************
 %oldchk=../TD_OLD_S1/geometry.chk
 %chk=geometry.chk
 %nprocshared=1
 Will use up to    1 processors via shared memory.
 %mem=2GB
 Copying data from "../TD_OLD_S1/geometry.chk" to current chk file "geometry.chk"
 IOpt=  2 FromEx=T IUOpen= 4 IOptOp= 5 NList=   0 IFRang= 0 IUIn= 4 IUOut= 2.
 ----------------------------------------------------------------------
 # AM1/STO-5G SCF=XQC TD=(read,singlets,nstates=5,root=1) nosym IOp(9/4
 0=3) guess=read
 ----------------------------------------------------------------------
 1/38=1,172=1/1;
 2/12=2,15=1,17=6,18=5,40=1/2;
 3/5=2,6=5,25=1,41=700000,116=-2/1,2,3,8;
 4/5=1,35=1/1;
 5/5=2,8=3,13=1,35=1,38=6/2,8;
 8/6=1,10=90,107=1,108=5/1;
 9/8=1,40=3,41=5,42=1,48=1,49=13,70=2/14;
 6/7=2,8=2,9=2,10=2/1;
 99/5=1,9=1/99;
 ----------
 MD Step 18
 ----------
 Symbolic Z-matrix:
 Charge =  0 Multiplicity = 1
 C                    -0.71884  -1.21276  -0.01915 
 C                     0.68224  -1.21035   0.01445 
 C                     1.42522  -0.00465   0.00998 
 C                     0.67505   1.20299   0.00196 
 C                    -0.71629   1.23352  -0.01942 
 C                    -1.36038   0.00019  -0.01063 
 H                    -1.28973  -2.139     0.02417 
 H                     1.24259  -2.19526   0.02736 
 H                     2.50667   0.04439  -0.02795 
 H                     1.2364    2.2195   -0.08629 
 H                    -1.29883   2.18715  -0.00796 
 H                    -2.44727  -0.02574   0.0341 
 
                          Input orientation:                          
 ---------------------------------------------------------------------
 Center     Atomic      Atomic             Coordinates (Angstroms)
 Number     Number       Type             X           Y           Z
 ---------------------------------------------------------------------
      1          6           0       -0.718835   -1.212759   -0.019146
      2          6           0        0.682236   -1.210350    0.014448
      3          6           0        1.425217   -0.004647    0.009982
      4          6           0        0.675047    1.202989    0.001961
      5          6           0       -0.716285    1.233517   -0.019418
      6          6           0       -1.360375    0.000195   -0.010632
      7          1           0       -1.289726   -2.139003    0.024171
      8          1           0        1.242587   -2.195261    0.027360
      9          1           0        2.506666    0.044395   -0.027950
     10          1           0        1.236395    2.219497   -0.086285
     11          1           0       -1.298830    2.187145   -0.007963
     12          1           0       -2.447269   -0.025744    0.034100
 ---------------------------------------------------------------------
                    Distance matrix (angstroms):
                    1          2          3          4          5
     1  C    0.000000
     2  C    1.401476   0.000000
     3  C    2.461168   1.416249   0.000000
     4  C    2.789121   2.413382   1.421690   0.000000
     5  C    2.446277   2.815936   2.473852   1.391832   0.000000
     6  C    1.372189   2.374512   2.785673   2.364280   1.391407
     7  H    1.088908   2.179708   3.453490   3.876821   3.421202
     8  H    2.194232   1.133230   2.198283   3.445410   3.949163
     9  H    3.461846   2.214662   1.083225   2.167501   3.435331
    10  H    3.950673   3.475787   2.234220   1.164555   2.188513
    11  H    3.449039   3.932951   3.496385   2.205642   1.117541
    12  H    2.097457   3.346264   3.872619   3.355544   2.141240
                    6          7          8          9         10
     6  C    0.000000
     7  H    2.140647   0.000000
     8  H    3.405420   2.532940   0.000000
     9  H    3.867333   4.379787   2.572356   0.000000
    10  H    3.416759   5.038851   4.416226   2.519537   0.000000
    11  H    2.187818   4.326278   5.066117   4.367332   2.536641
    12  H    1.088123   2.409537   4.280408   4.954820   4.315667
                   11         12
    11  H    0.000000
    12  H    2.493503   0.000000
 Symmetry turned off by external request.
 Stoichiometry    C6H6
 Framework group  C1[X(C6H6)]
 Deg. of freedom    30
 Full point group                 C1      NOp   1
 Rotational constants (GHZ):           5.6914481           5.6035345           2.8241171
 Standard basis: VSTO-5G (5D, 7F)
    30 basis functions,   180 primitive gaussians,    30 cartesian basis functions
    15 alpha electrons       15 beta electrons
       nuclear repulsion energy       119.3069071571 Hartrees.
 Integral buffers will be    131072 words long.
 Regular integral format.
 Two-electron integral symmetry is turned off.
 Do NDO integrals.
 One-electron integrals computed using PRISM.
 NBasis=    30 RedAO= F EigKep=  0.00D+00  NBF=    30
 NBsUse=    30 1.00D-04 EigRej=  0.00D+00 NBFU=    30
 Initial guess from the checkpoint file:  "geometry.chk"
 B after Tr=     0.000617   -0.001716    0.000834
         Rot=    1.000000   -0.000082    0.000410   -0.000231 Ang=  -0.05 deg.
 Keep J ints in memory in canonical form, NReq=861816.
 Overlap will be assumed to be unity.
 Requested convergence on RMS density matrix=1.00D-08 within  32 cycles.
 Requested convergence on MAX density matrix=1.00D-06.
 Requested convergence on             energy=1.00D-06.
 No special actions if energy rises.
 SCF Done:  E(RAM1) =  0.444765456246E-01 A.U. after   13 cycles
            NFock= 12  Conv=0.19D-08     -V/T= 1.0009
 QCSCF skips out because SCF is already converged.
 Range of M.O.s used for correlation:     1    30
 NBasis=    30 NAE=    15 NBE=    15 NFC=     0 NFV=     0
 NROrb=     30 NOA=    15 NOB=    15 NVA=    15 NVB=    15
 Keep J ints in memory in canonical form, NReq=862156.
 Generating guess from checkpoint file densities.
 Convergence on wavefunction:    0.001000000000000
 Iteration     1 Dimension    10 NMult     0 NNew     10
 CISAX will form    10 AO SS matrices at one time.
 Iteration     2 Dimension    20 NMult    10 NNew     10
 Iteration     3 Dimension    30 NMult    20 NNew     10
 Iteration     4 Dimension    38 NMult    30 NNew      8
 Iteration     5 Dimension    44 NMult    38 NNew      6
 Iteration     6 Dimension    50 NMult    44 NNew      6
 Iteration     7 Dimension    54 NMult    50 NNew      4
 Iteration     8 Dimension    56 NMult    54 NNew      2
 Iteration     9 Dimension    58 NMult    56 NNew      2
 Iteration    10 Dimension    60 NMult    58 NNew      2
 Iteration    11 Dimension    62 NMult    60 NNew      2
 Iteration    12 Dimension    64 NMult    62 NNew      2
 Convergence on energies, max DE= 8.71D-06.
 ***********************************************************************
 Excited states from <AA,BB:AA,BB> singles matrix:
 ***********************************************************************
 
 Ground to excited state transition densities written to RWF  633
 Ground to excited state transition electric dipole moments (Au):
       state          X           Y           Z        Dip. S.      Osc.
         1         0.0010     -0.0021      0.0002      0.0000      0.0000
         2         0.0332      0.0473     -0.0436      0.0052      0.0005
         3        -1.2300     -1.0863     -0.0459      2.6949      0.3582
         4        -1.0961      1.2632     -0.0243      2.7979      0.3731
         5         0.1992      0.0957     -0.0888      0.0567      0.0083
 Ground to excited state transition velocity dipole moments (Au):
       state          X           Y           Z        Dip. S.      Osc.
         1        -0.0006     -0.0000      0.0000      0.0000      0.0000
         2        -0.0087     -0.0122      0.0129      0.0004      0.0017
         3         0.3850      0.3373     -0.0228      0.2625      0.8777
         4         0.3414     -0.3943     -0.0007      0.2721      0.9068
         5        -0.0636     -0.0293     -0.1030      0.0155      0.0472
 Ground to excited state transition magnetic dipole moments (Au):
       state          X           Y           Z
         1        -0.0054      0.0006      0.0377
         2         0.0012      0.0061     -0.0661
         3         0.0047     -0.0069     -0.0221
         4        -0.0154     -0.0171      0.0234
         5         0.1773     -0.0621      0.0006
 Ground to excited state transition velocity quadrupole moments (Au):
       state          XX          YY          ZZ          XY          XZ          YZ
         1         0.0038     -0.0039      0.0001      0.0091      0.0008     -0.0016
         2        -0.1069      0.0214      0.0023      0.0029     -0.0047     -0.0044
         3         0.0766     -0.0587      0.0020      0.0478     -0.0038     -0.0063
         4         0.0595     -0.0429      0.0006     -0.0243      0.0055      0.0035
         5        -0.0429      0.0212      0.0026      0.0326     -0.0018     -0.0366
 <0|del|b> * <b|rxdel|0> + <0|del|b> * <b|delr+rdel|0>
 Rotatory Strengths (R) in cgs (10**-40 erg-esu-cm/Gauss)
       state          XX          YY          ZZ    R(velocity)    E-M Angle
         1         0.0018      0.0118      0.0059      0.0065       90.00
         2        -2.1983     -1.9983     -0.1539     -1.4502      135.62
         3        -2.8951      1.6905      1.1196     -0.0283       90.00
         4        15.7565     -7.2568     -3.3625      1.7124       85.13
         5        -2.6639     -9.1244    -18.9408    -10.2430      114.03
 1/2[<0|r|b>*<b|rxdel|0> + (<0|rxdel|b>*<b|r|0>)*]
 Rotatory Strengths (R) in cgs (10**-40 erg-esu-cm/Gauss)
       state          XX          YY          ZZ     R(length)
         1         0.0039      0.0009     -0.0045      0.0001
         2        -0.0277     -0.2046     -2.0381     -0.7568
         3         4.0543     -5.2899     -0.7172     -0.6509
         4       -11.9452     15.2502      0.4021      1.2357
         5       -24.9667      4.2014      0.0369     -6.9095
  1/2[<0|del|b>*<b|r|0> + (<0|r|b>*<b|del|0>)*] (Au)
       state          X           Y           Z        Dip. S.   Osc.(frdel)
         1        -0.0000      0.0000      0.0000      0.0000      0.0000
         2        -0.0003     -0.0006     -0.0006      0.0014      0.0010
         3        -0.4736     -0.3664      0.0010      0.8389      0.5593
         4        -0.3742     -0.4981      0.0000      0.8724      0.5816
         5        -0.0127     -0.0028      0.0091      0.0063      0.0042

 Excitation energies and oscillator strengths:
 
 Excited state symmetry could not be determined.
 Excited State   1:      Singlet-?Sym    3.8144 eV  325.04 nm  f=0.0000  <S**2>=0.000
       2 -> 23        -0.00263
       2 -> 24         0.00163
       2 -> 25         0.00159
       2 -> 26        -0.00153
       3 -> 23         0.00157
       3 -> 24         0.00293
       3 -> 25        -0.00153
       3 -> 26        -0.00109
       4 -> 27        -0.00263
       5 -> 28        -0.00275
       7 -> 29        -0.00239
       8 -> 22        -0.00193
       9 -> 18         0.00190
       9 -> 23         0.00275
       9 -> 25        -0.00274
      10 -> 18        -0.00274
      10 -> 24        -0.00309
      10 -> 26         0.00240
      11 -> 16        -0.00323
      11 -> 17        -0.00544
      11 -> 23         0.00143
      11 -> 25        -0.00173
      11 -> 26         0.00161
      11 -> 29         0.00148
      12 -> 18         0.00110
      13 -> 16        -0.00100
      14 -> 16         0.50343
      14 -> 17        -0.00568
      14 -> 18         0.00800
      14 -> 19        -0.00113
      14 -> 20         0.00171
      14 -> 28         0.00199
      14 -> 30        -0.00116
      15 -> 16         0.00807
      15 -> 17         0.50566
      15 -> 18        -0.00477
      15 -> 19         0.00391
      15 -> 27         0.00144
      15 -> 30         0.00146
       3 <- 24         0.00101
       4 <- 27        -0.00206
       5 <- 28        -0.00217
       7 <- 29        -0.00177
       8 <- 22        -0.00113
      11 <- 16        -0.00136
      11 <- 17        -0.00192
      12 <- 17         0.00245
      13 <- 16        -0.00154
      14 <- 16         0.06900
      14 <- 18         0.00121
      15 <- 17         0.06863
      15 <- 19         0.00144
 This state for optimization and/or second-order correction.
 Total Energy, E(TD-HF/TD-DFT) =  0.184653751193    
 Copying the excited state density for this state as the 1-particle RhoCI density.
 
 Excited state symmetry could not be determined.
 Excited State   2:      Singlet-?Sym    4.1549 eV  298.40 nm  f=0.0005  <S**2>=0.000
       1 -> 19         0.00187
       1 -> 20        -0.00128
       1 -> 21        -0.00136
       2 -> 18        -0.00113
       2 -> 19         0.00105
       2 -> 23         0.00143
       2 -> 24         0.00245
       2 -> 25         0.00150
       2 -> 26         0.00158
       3 -> 23         0.00312
       3 -> 24        -0.00138
       3 -> 25         0.00137
       3 -> 26        -0.00140
       4 -> 23         0.00137
       4 -> 28        -0.00496
       5 -> 17        -0.00213
       5 -> 23         0.00229
       5 -> 25        -0.00132
       5 -> 27         0.00509
       6 -> 19        -0.00134
       6 -> 20         0.00109
       6 -> 21         0.00180
       7 -> 18        -0.00138
       7 -> 22        -0.00113
       8 -> 20        -0.00195
       8 -> 23         0.00108
       8 -> 24        -0.00143
       8 -> 27         0.00310
       8 -> 28        -0.00131
       8 -> 29        -0.00266
       9 -> 18        -0.00888
       9 -> 21         0.00319
       9 -> 22        -0.00151
       9 -> 24        -0.00392
       9 -> 25        -0.00107
       9 -> 26        -0.00623
       9 -> 30         0.00151
      10 -> 18        -0.00600
      10 -> 20         0.00280
      10 -> 23        -0.00355
      10 -> 25        -0.00709
      10 -> 28         0.00137
      11 -> 16        -0.00249
      11 -> 18         0.11240
      11 -> 19         0.00377
      11 -> 20         0.00203
      11 -> 21         0.00132
      11 -> 22         0.00154
      11 -> 23         0.00136
      11 -> 24         0.00197
      12 -> 16         0.00319
      12 -> 18         0.00129
      12 -> 19        -0.00190
      12 -> 20         0.00869
      12 -> 21        -0.00972
      12 -> 22         0.00247
      12 -> 23         0.00386
      12 -> 25        -0.00227
      12 -> 26         0.00232
      12 -> 28        -0.00347
      12 -> 29        -0.00126
      13 -> 17         0.00141
      13 -> 18         0.00800
      13 -> 19        -0.00640
      13 -> 20        -0.00608
      13 -> 21        -0.00433
      13 -> 22         0.00437
      13 -> 23        -0.00193
      13 -> 24        -0.00124
      13 -> 25         0.00426
      13 -> 27        -0.00611
      14 -> 16         0.00337
      14 -> 17         0.47883
      14 -> 18         0.00346
      14 -> 19         0.00456
      14 -> 21        -0.00163
      14 -> 27         0.00265
      14 -> 29         0.00114
      15 -> 16        -0.50802
      15 -> 17         0.01022
      15 -> 18         0.00480
      15 -> 19         0.00188
      15 -> 20        -0.00206
       1 <- 19         0.00378
       1 <- 20        -0.00275
       1 <- 21        -0.00311
       1 <- 30        -0.00235
       2 <- 19         0.00139
       2 <- 21        -0.00126
       2 <- 22         0.00105
       2 <- 23         0.00306
       2 <- 24         0.00573
       3 <- 21         0.00146
       3 <- 23         0.00590
       3 <- 24        -0.00329
       3 <- 25        -0.00104
       4 <- 28        -0.00554
       5 <- 23         0.00207
       5 <- 25        -0.00119
       5 <- 27         0.00560
       5 <- 29         0.00131
       6 <- 21         0.00117
       6 <- 30         0.00169
       8 <- 27         0.00268
       8 <- 28        -0.00109
       8 <- 29        -0.00508
       9 <- 18         0.00157
       9 <- 21         0.00221
       9 <- 22        -0.00116
       9 <- 24        -0.00497
      10 <- 18         0.00101
      10 <- 20         0.00162
      10 <- 23        -0.00426
      11 <- 16         0.00258
      11 <- 17        -0.00142
      11 <- 18        -0.01406
      12 <- 20         0.00258
      12 <- 21        -0.00269
      12 <- 23         0.00158
      12 <- 25        -0.00102
      12 <- 26         0.00152
      12 <- 28        -0.00425
      13 <- 19        -0.00181
      13 <- 20        -0.00168
      13 <- 21        -0.00148
      13 <- 23        -0.00172
      13 <- 25         0.00227
      13 <- 27        -0.00517
      14 <- 16         0.00101
      14 <- 17         0.01856
      14 <- 18        -0.00191
      14 <- 19         0.00114
      15 <- 16        -0.01239
      15 <- 18        -0.00318
 
 Excited state symmetry could not be determined.
 Excited State   3:      Singlet-?Sym    5.4260 eV  228.50 nm  f=0.3582  <S**2>=0.000
       1 -> 27         0.00236
       1 -> 28         0.00102
       2 -> 19         0.00217
       2 -> 20         0.00104
       2 -> 21         0.00325
       2 -> 22         0.00697
       2 -> 23         0.00233
       2 -> 24        -0.00173
       2 -> 25        -0.00175
       3 -> 22         0.00155
       3 -> 24         0.00235
       3 -> 26        -0.00174
       3 -> 27        -0.00145
       3 -> 29         0.00214
       4 -> 16        -0.00155
       4 -> 19        -0.00188
       4 -> 21         0.00882
       4 -> 22        -0.00106
       4 -> 23        -0.00112
       4 -> 24         0.00122
       4 -> 28         0.00224
       4 -> 30         0.00329
       5 -> 16         0.00129
       5 -> 17        -0.00157
       5 -> 19         0.01464
       5 -> 20        -0.00133
       5 -> 21        -0.00604
       5 -> 22        -0.00189
       5 -> 24        -0.00117
       5 -> 25        -0.00166
       5 -> 27         0.00165
       5 -> 30        -0.00772
       6 -> 17        -0.00118
       6 -> 19         0.01031
       6 -> 20         0.00567
       6 -> 21         0.00677
       6 -> 22        -0.00687
       6 -> 23        -0.00353
       6 -> 24        -0.00153
       6 -> 27        -0.00605
       6 -> 28        -0.00245
       6 -> 29        -0.00103
       7 -> 18         0.01428
       7 -> 19         0.00653
       7 -> 20        -0.00328
       7 -> 22         0.00368
       7 -> 23         0.02035
       7 -> 24         0.02108
       7 -> 25        -0.01255
       7 -> 26        -0.00236
       7 -> 27        -0.00395
       7 -> 29        -0.00152
       8 -> 16         0.00127
       8 -> 18        -0.00146
       8 -> 19         0.00523
       8 -> 20         0.00416
       8 -> 21        -0.00979
       8 -> 22         0.00461
       8 -> 23        -0.02392
       8 -> 24         0.02459
       8 -> 25         0.01692
       8 -> 26        -0.02451
       8 -> 27         0.00100
       8 -> 28        -0.00415
       9 -> 17         0.00206
       9 -> 18        -0.00133
       9 -> 19         0.00233
       9 -> 20         0.00132
       9 -> 21        -0.01327
       9 -> 22        -0.00634
       9 -> 23        -0.00579
       9 -> 24         0.01608
       9 -> 25         0.00977
       9 -> 26        -0.02104
       9 -> 27        -0.00810
       9 -> 28         0.00193
       9 -> 29         0.01838
       9 -> 30        -0.00398
      10 -> 17         0.00161
      10 -> 18        -0.00280
      10 -> 19         0.00409
      10 -> 20         0.00358
      10 -> 22        -0.01015
      10 -> 23        -0.01068
      10 -> 24        -0.00912
      10 -> 25         0.02213
      10 -> 26         0.00867
      10 -> 27         0.00626
      10 -> 28        -0.00426
      10 -> 29        -0.01747
      10 -> 30        -0.00280
      11 -> 16         0.00977
      11 -> 17         0.00392
      11 -> 18         0.00479
      11 -> 19         0.00111
      11 -> 21        -0.00449
      11 -> 22        -0.00337
      11 -> 23        -0.00647
      11 -> 24         0.00196
      11 -> 25         0.00511
      11 -> 26        -0.00309
      11 -> 30        -0.00224
      12 -> 16        -0.06338
      12 -> 17        -0.00275
      12 -> 18        -0.00226
      12 -> 19         0.00715
      12 -> 20        -0.01690
      12 -> 21         0.04511
      12 -> 22        -0.01345
      12 -> 23        -0.00516
      12 -> 24         0.00974
      12 -> 25        -0.00112
      12 -> 26        -0.00154
      12 -> 27        -0.00970
      12 -> 28        -0.03988
      12 -> 29         0.00634
      12 -> 30         0.01290
      13 -> 16        -0.00821
      13 -> 17         0.04914
      13 -> 18         0.00378
      13 -> 19        -0.04697
      13 -> 20        -0.02120
      13 -> 21         0.01306
      13 -> 22         0.01809
      13 -> 23         0.00912
      13 -> 24         0.00444
      13 -> 25         0.00479
      13 -> 26         0.00160
      13 -> 27         0.04471
      13 -> 28        -0.00499
      13 -> 29         0.01006
      13 -> 30         0.03092
      14 -> 16         0.10487
      14 -> 17         0.49927
      14 -> 18         0.00908
      14 -> 19        -0.00445
      14 -> 21         0.00220
      14 -> 22         0.00116
      14 -> 23         0.00278
      14 -> 24         0.00352
      14 -> 25        -0.00166
      14 -> 27         0.00310
      14 -> 30         0.00397
      15 -> 16         0.46990
      15 -> 17        -0.10636
      15 -> 18        -0.01430
      15 -> 19         0.00320
      15 -> 20         0.00379
      15 -> 21        -0.00858
      15 -> 23        -0.00136
      15 -> 24        -0.00120
      15 -> 27        -0.00201
      15 -> 28         0.00608
      15 -> 29        -0.00190
      15 -> 30        -0.00439
       1 <- 27         0.00345
       1 <- 28         0.00162
       2 <- 19         0.00116
       2 <- 21         0.00229
       2 <- 22         0.00399
       2 <- 23         0.00439
       2 <- 24        -0.00157
       2 <- 25        -0.00273
       2 <- 26         0.00121
       3 <- 22         0.00143
       3 <- 23         0.00119
       3 <- 24         0.00441
       3 <- 25        -0.00141
       3 <- 26        -0.00205
       3 <- 27        -0.00170
       3 <- 29         0.00288
       4 <- 19        -0.00160
       4 <- 21         0.00553
       4 <- 30         0.00220
       5 <- 19         0.00908
       5 <- 20        -0.00167
       5 <- 21        -0.00447
       5 <- 22        -0.00108
       5 <- 24        -0.00103
       5 <- 25        -0.00104
       5 <- 30        -0.00496
       6 <- 19         0.00441
       6 <- 20         0.00229
       6 <- 21         0.00310
       6 <- 22        -0.00298
       6 <- 23        -0.00134
       6 <- 27        -0.00118
       7 <- 18        -0.00104
       7 <- 19         0.00246
       7 <- 20        -0.00132
       7 <- 22         0.00131
       7 <- 23         0.00833
       7 <- 24         0.00836
       7 <- 25        -0.00449
       7 <- 27        -0.00131
       8 <- 19         0.00188
       8 <- 20         0.00175
       8 <- 21        -0.00372
       8 <- 22         0.00207
       8 <- 23        -0.01098
       8 <- 24         0.01080
       8 <- 25         0.00661
       8 <- 26        -0.00926
       8 <- 28        -0.00197
       9 <- 19         0.00111
       9 <- 21        -0.00509
       9 <- 22        -0.00180
       9 <- 23        -0.00289
       9 <- 24         0.00647
       9 <- 25         0.00406
       9 <- 26        -0.00883
       9 <- 27        -0.00244
       9 <- 29         0.00582
       9 <- 30        -0.00180
      10 <- 19         0.00140
      10 <- 20         0.00134
      10 <- 22        -0.00375
      10 <- 23        -0.00500
      10 <- 24        -0.00407
      10 <- 25         0.00953
      10 <- 26         0.00344
      10 <- 27         0.00212
      10 <- 28        -0.00173
      10 <- 29        -0.00534
      10 <- 30        -0.00108
      11 <- 16        -0.00105
      11 <- 19         0.00104
      11 <- 25         0.00120
      12 <- 16        -0.00244
      12 <- 19         0.00125
      12 <- 20        -0.00414
      12 <- 21         0.01299
      12 <- 22        -0.00359
      12 <- 23        -0.00179
      12 <- 24         0.00309
      12 <- 27        -0.00294
      12 <- 28        -0.01320
      12 <- 29         0.00159
      12 <- 30         0.00476
      13 <- 17         0.00132
      13 <- 19        -0.01443
      13 <- 20        -0.00427
      13 <- 21         0.00501
      13 <- 22         0.00503
      13 <- 23         0.00237
      13 <- 24         0.00168
      13 <- 25         0.00185
      13 <- 27         0.01416
      13 <- 28        -0.00163
      13 <- 29         0.00329
      13 <- 30         0.01095
      14 <- 16        -0.01887
      14 <- 17        -0.08470
      14 <- 21         0.00103
      14 <- 22        -0.00102
      15 <- 16        -0.08663
      15 <- 17         0.01874
      15 <- 18         0.00174
      15 <- 20        -0.00169
 
 Excited state symmetry could not be determined.
 Excited State   4:      Singlet-?Sym    5.4431 eV  227.78 nm  f=0.3731  <S**2>=0.000
       1 -> 27        -0.00102
       1 -> 28         0.00237
       2 -> 24        -0.00269
       2 -> 25         0.00114
       2 -> 26         0.00154
       2 -> 28         0.00111
       2 -> 29         0.00215
       3 -> 19        -0.00229
       3 -> 20        -0.00186
       3 -> 21        -0.00228
       3 -> 22        -0.00742
       3 -> 23         0.00229
       3 -> 25        -0.00188
       3 -> 26         0.00165
       4 -> 17         0.00600
       4 -> 19        -0.00455
       4 -> 20         0.01173
       4 -> 21         0.00893
       4 -> 22        -0.00298
       4 -> 24         0.00133
       4 -> 27         0.00186
       4 -> 29         0.00109
       4 -> 30         0.00736
       5 -> 16        -0.00506
       5 -> 19        -0.00657
       5 -> 20         0.00749
       5 -> 21        -0.00225
       5 -> 22         0.00117
       5 -> 23         0.00115
       5 -> 26         0.00136
       5 -> 28        -0.00145
       5 -> 29         0.00112
       5 -> 30         0.00379
       6 -> 19        -0.00174
       6 -> 20        -0.01432
       6 -> 21         0.00933
       6 -> 23         0.00218
       6 -> 27         0.00239
       6 -> 28        -0.00562
       6 -> 29         0.00161
       7 -> 18         0.00195
       7 -> 19         0.00143
       7 -> 20         0.00162
       7 -> 21        -0.00507
       7 -> 22         0.00504
       7 -> 23        -0.02125
       7 -> 24         0.01953
       7 -> 25         0.00684
       7 -> 26        -0.00929
       7 -> 27         0.00114
       7 -> 28        -0.00302
       7 -> 29         0.00144
       7 -> 30         0.00109
       8 -> 16        -0.00152
       8 -> 18         0.01682
       8 -> 19        -0.00349
       8 -> 20         0.00776
       8 -> 21         0.00350
       8 -> 22        -0.00533
       8 -> 23        -0.02317
       8 -> 24        -0.02685
       8 -> 25         0.02526
       8 -> 26         0.01284
       8 -> 27         0.00448
       9 -> 17         0.00188
       9 -> 18        -0.00179
       9 -> 19        -0.00327
       9 -> 20        -0.00882
       9 -> 21        -0.00605
       9 -> 22        -0.00232
       9 -> 23         0.01082
       9 -> 24         0.01218
       9 -> 25        -0.02556
       9 -> 26        -0.00897
       9 -> 27         0.00628
       9 -> 28        -0.00202
       9 -> 29        -0.01793
       9 -> 30        -0.00280
      10 -> 18         0.00299
      10 -> 19         0.00219
      10 -> 20         0.00504
      10 -> 21        -0.00575
      10 -> 22         0.00971
      10 -> 23        -0.00762
      10 -> 24         0.01114
      10 -> 25         0.01102
      10 -> 26        -0.02448
      10 -> 27         0.00653
      10 -> 28        -0.00285
      10 -> 29        -0.01877
      10 -> 30         0.00347
      11 -> 16         0.00116
      11 -> 17        -0.00958
      11 -> 18         0.00110
      11 -> 20        -0.00211
      11 -> 21        -0.00227
      11 -> 22         0.00113
      11 -> 23         0.00287
      11 -> 24         0.00603
      11 -> 25        -0.00357
      11 -> 26        -0.00415
      11 -> 27         0.00123
      11 -> 29        -0.00304
      12 -> 16        -0.01095
      12 -> 17         0.04816
      12 -> 18        -0.00356
      12 -> 19         0.00845
      12 -> 20         0.04783
      12 -> 21         0.01993
      12 -> 22        -0.02203
      12 -> 23        -0.00557
      12 -> 26         0.00217
      12 -> 27        -0.04247
      12 -> 28         0.01186
      12 -> 29        -0.01049
      12 -> 30         0.03130
      13 -> 16         0.02943
      13 -> 17         0.01487
      13 -> 18        -0.00110
      13 -> 19         0.02243
      13 -> 20        -0.03073
      13 -> 21         0.03174
      13 -> 22        -0.01332
      13 -> 23        -0.00431
      13 -> 24         0.00956
      13 -> 25        -0.00579
      13 -> 26        -0.00233
      13 -> 27        -0.00750
      13 -> 28        -0.04542
      13 -> 29        -0.00337
      13 -> 30        -0.01002
      14 -> 16         0.48730
      14 -> 17        -0.10661
      14 -> 18        -0.01574
      14 -> 19         0.00224
      14 -> 20        -0.00618
      14 -> 21        -0.00315
      14 -> 22         0.00151
      14 -> 24         0.00269
      14 -> 26        -0.00340
      14 -> 27         0.00343
      14 -> 28        -0.00222
      14 -> 30        -0.00417
      15 -> 16        -0.10691
      15 -> 17        -0.48440
      15 -> 19         0.00175
      15 -> 20        -0.00470
      15 -> 21        -0.00238
      15 -> 22         0.00198
      15 -> 24         0.00202
      15 -> 26        -0.00146
      15 -> 28        -0.00148
      15 -> 30        -0.00371
       1 <- 20         0.00120
       1 <- 21        -0.00115
       1 <- 27        -0.00142
       1 <- 28         0.00353
       1 <- 29        -0.00104
       2 <- 21         0.00106
       2 <- 23        -0.00108
       2 <- 24        -0.00461
       2 <- 25         0.00149
       2 <- 26         0.00204
       2 <- 29         0.00329
       3 <- 19        -0.00135
       3 <- 20        -0.00150
       3 <- 22        -0.00454
       3 <- 23         0.00423
       3 <- 25        -0.00271
       3 <- 26         0.00192
       4 <- 19        -0.00376
       4 <- 20         0.00717
       4 <- 21         0.00583
       4 <- 22        -0.00172
       4 <- 24         0.00124
       4 <- 30         0.00480
       5 <- 19        -0.00409
       5 <- 20         0.00441
       5 <- 30         0.00227
       6 <- 20        -0.00603
       6 <- 21         0.00380
       6 <- 28        -0.00100
       7 <- 21        -0.00170
       7 <- 22         0.00198
       7 <- 23        -0.00867
       7 <- 24         0.00781
       7 <- 25         0.00241
       7 <- 26        -0.00309
       8 <- 19        -0.00173
       8 <- 20         0.00264
       8 <- 21         0.00120
       8 <- 22        -0.00225
       8 <- 23        -0.01016
       8 <- 24        -0.01220
       8 <- 25         0.00948
       8 <- 26         0.00459
       8 <- 27         0.00228
       9 <- 20        -0.00325
       9 <- 21        -0.00237
       9 <- 23         0.00485
       9 <- 24         0.00543
       9 <- 25        -0.01039
       9 <- 26        -0.00349
       9 <- 27         0.00164
       9 <- 29        -0.00588
       9 <- 30        -0.00102
      10 <- 20         0.00207
      10 <- 21        -0.00244
      10 <- 22         0.00346
      10 <- 23        -0.00341
      10 <- 24         0.00522
      10 <- 25         0.00451
      10 <- 26        -0.00991
      10 <- 27         0.00211
      10 <- 29        -0.00592
      10 <- 30         0.00143
      11 <- 16         0.00103
      11 <- 17        -0.00137
      11 <- 26        -0.00131
      12 <- 17         0.00288
      12 <- 20         0.01423
      12 <- 21         0.00701
      12 <- 22        -0.00595
      12 <- 23        -0.00101
      12 <- 27        -0.01381
      12 <- 28         0.00406
      12 <- 29        -0.00342
      12 <- 30         0.01100
      13 <- 16         0.00193
      13 <- 19         0.00659
      13 <- 20        -0.00867
      13 <- 21         0.00804
      13 <- 22        -0.00364
      13 <- 23        -0.00126
      13 <- 24         0.00251
      13 <- 25        -0.00172
      13 <- 27        -0.00265
      13 <- 28        -0.01436
      13 <- 30        -0.00350
      14 <- 16        -0.08549
      14 <- 17         0.01871
      14 <- 18        -0.00159
      14 <- 21        -0.00160
      15 <- 16         0.01876
      15 <- 17         0.08598
      15 <- 19         0.00210
 
 Excited state symmetry could not be determined.
 Excited State   5:      Singlet-?Sym    5.9651 eV  207.85 nm  f=0.0083  <S**2>=0.000
       1 -> 17        -0.00388
       1 -> 18        -0.00105
       2 -> 17        -0.00427
       2 -> 18        -0.00745
       2 -> 22        -0.00106
       3 -> 18        -0.00534
       4 -> 16         0.01060
       4 -> 17         0.00675
       4 -> 21        -0.00122
       5 -> 17        -0.01410
       5 -> 18        -0.00295
       5 -> 19        -0.00209
       6 -> 16         0.00259
       6 -> 17         0.02430
       6 -> 18         0.00103
       6 -> 19        -0.00142
       6 -> 21        -0.00145
       6 -> 22         0.00122
       7 -> 16         0.00119
       7 -> 17         0.01641
       7 -> 18         0.08506
       7 -> 24        -0.00205
       7 -> 26         0.00116
       8 -> 16         0.01597
       8 -> 17         0.00496
       8 -> 18         0.01852
       8 -> 20        -0.00150
       8 -> 21         0.00156
       8 -> 23         0.00289
       8 -> 25        -0.00248
       8 -> 26         0.00185
       9 -> 16         0.00267
       9 -> 17         0.01995
       9 -> 18         0.02777
       9 -> 21         0.00131
       9 -> 22        -0.00154
       9 -> 23        -0.00239
       9 -> 24        -0.00150
       9 -> 26         0.00251
       9 -> 29        -0.00188
      10 -> 16        -0.00561
      10 -> 17         0.02099
      10 -> 18         0.08800
      10 -> 24         0.00150
      10 -> 25        -0.00347
      10 -> 27        -0.00169
      10 -> 29         0.00272
      11 -> 16        -0.00178
      11 -> 17         0.00286
      11 -> 18         0.00593
      11 -> 19         0.01055
      11 -> 20         0.00115
      11 -> 21         0.00626
      11 -> 22         0.01946
      11 -> 23         0.01604
      11 -> 24         0.00326
      11 -> 25        -0.00270
      11 -> 26         0.00102
      12 -> 16        -0.09753
      12 -> 17         0.10877
      12 -> 18        -0.01435
      12 -> 21        -0.00635
      12 -> 22         0.00250
      12 -> 27         0.00401
      12 -> 28         0.00403
      12 -> 29        -0.00182
      12 -> 30        -0.00294
      13 -> 16        -0.05005
      13 -> 17         0.66520
      13 -> 18         0.05814
      13 -> 19         0.00805
      13 -> 20         0.00470
      13 -> 21        -0.00392
      13 -> 22        -0.00157
      13 -> 27        -0.00430
      13 -> 28         0.00205
      13 -> 30        -0.00276
      14 -> 16        -0.02311
      14 -> 17        -0.03766
      14 -> 18         0.02063
      14 -> 19         0.07006
      14 -> 20         0.00533
      14 -> 21        -0.00915
      14 -> 22        -0.01417
      14 -> 23         0.00692
      14 -> 24        -0.00138
      14 -> 25        -0.00715
      14 -> 27         0.00681
      14 -> 28         0.00270
      14 -> 30        -0.01746
      15 -> 16        -0.03245
      15 -> 17         0.02361
      15 -> 18         0.00484
      15 -> 19         0.00408
      15 -> 20        -0.02089
      15 -> 21         0.02993
      15 -> 22        -0.00622
      15 -> 23         0.00103
      15 -> 24         0.00414
      15 -> 25        -0.00293
      15 -> 27         0.00245
      15 -> 28        -0.00681
      15 -> 29        -0.00215
      15 -> 30         0.00263
       5 <- 17        -0.00123
       6 <- 17        -0.00101
       7 <- 24        -0.00105
       8 <- 23         0.00152
       8 <- 25        -0.00107
       9 <- 26         0.00100
      10 <- 18        -0.00119
      10 <- 25        -0.00119
      11 <- 17        -0.00170
      11 <- 19         0.00286
      11 <- 20         0.00172
      11 <- 21         0.00217
      11 <- 22         0.00711
      11 <- 23         0.00123
      11 <- 24        -0.00108
      11 <- 25         0.00136
      12 <- 21        -0.00138
      12 <- 28         0.00100
      13 <- 17        -0.00190
      13 <- 19         0.00136
      14 <- 16         0.00575
      14 <- 17         0.00699
      14 <- 18        -0.00256
      14 <- 19         0.01535
      14 <- 20         0.00723
      14 <- 21         0.00175
      14 <- 22        -0.00606
      14 <- 23        -0.00131
      14 <- 25        -0.00196
      14 <- 27        -0.00725
      14 <- 29        -0.00240
      14 <- 30        -0.00319
      15 <- 16         0.00788
      15 <- 17        -0.00417
      15 <- 19         0.00226
      15 <- 20        -0.00671
      15 <- 21         0.00955
      15 <- 22        -0.00311
      15 <- 23        -0.00119
      15 <- 24         0.00234
      15 <- 26        -0.00106
      15 <- 28        -0.00691
 SavETr:  write IOETrn=   770 NScale= 10 NData=  16 NLR=1 NState=    5 LETran=     100.

 **********************************************************************

            Population analysis using the SCF Density.

 **********************************************************************

 Alpha  occ. eigenvalues --   -1.43234  -1.14910  -1.14659  -0.84723  -0.83983
 Alpha  occ. eigenvalues --   -0.65370  -0.58844  -0.56361  -0.51999  -0.51897
 Alpha  occ. eigenvalues --   -0.48912  -0.43536  -0.43254  -0.35413  -0.35223
 Alpha virt. eigenvalues --    0.01951   0.02120   0.10898   0.14185   0.14367
 Alpha virt. eigenvalues --    0.15001   0.15100   0.16464   0.17011   0.18724
 Alpha virt. eigenvalues --    0.18867   0.20446   0.20691   0.21134   0.22490
          Condensed to atoms (all electrons):
               1          2          3          4          5          6
     1  C    4.130368   0.000000   0.000000   0.000000   0.000000   0.000000
     2  C    0.000000   4.128522   0.000000   0.000000   0.000000   0.000000
     3  C    0.000000   0.000000   4.129923   0.000000   0.000000   0.000000
     4  C    0.000000   0.000000   0.000000   4.136259   0.000000   0.000000
     5  C    0.000000   0.000000   0.000000   0.000000   4.130320   0.000000
     6  C    0.000000   0.000000   0.000000   0.000000   0.000000   4.130312
     7  H    0.000000   0.000000   0.000000   0.000000   0.000000   0.000000
     8  H    0.000000   0.000000   0.000000   0.000000   0.000000   0.000000
     9  H    0.000000   0.000000   0.000000   0.000000   0.000000   0.000000
    10  H    0.000000   0.000000   0.000000   0.000000   0.000000   0.000000
    11  H    0.000000   0.000000   0.000000   0.000000   0.000000   0.000000
    12  H    0.000000   0.000000   0.000000   0.000000   0.000000   0.000000
               7          8          9         10         11         12
     1  C    0.000000   0.000000   0.000000   0.000000   0.000000   0.000000
     2  C    0.000000   0.000000   0.000000   0.000000   0.000000   0.000000
     3  C    0.000000   0.000000   0.000000   0.000000   0.000000   0.000000
     4  C    0.000000   0.000000   0.000000   0.000000   0.000000   0.000000
     5  C    0.000000   0.000000   0.000000   0.000000   0.000000   0.000000
     6  C    0.000000   0.000000   0.000000   0.000000   0.000000   0.000000
     7  H    0.864154   0.000000   0.000000   0.000000   0.000000   0.000000
     8  H    0.000000   0.872971   0.000000   0.000000   0.000000   0.000000
     9  H    0.000000   0.000000   0.860625   0.000000   0.000000   0.000000
    10  H    0.000000   0.000000   0.000000   0.874738   0.000000   0.000000
    11  H    0.000000   0.000000   0.000000   0.000000   0.858894   0.000000
    12  H    0.000000   0.000000   0.000000   0.000000   0.000000   0.882914
 Mulliken charges:
               1
     1  C   -0.130368
     2  C   -0.128522
     3  C   -0.129923
     4  C   -0.136259
     5  C   -0.130320
     6  C   -0.130312
     7  H    0.135846
     8  H    0.127029
     9  H    0.139375
    10  H    0.125262
    11  H    0.141106
    12  H    0.117086
 Sum of Mulliken charges =   0.00000
 Mulliken charges with hydrogens summed into heavy atoms:
               1
     1  C    0.005478
     2  C   -0.001493
     3  C    0.009453
     4  C   -0.010998
     5  C    0.010786
     6  C   -0.013226
 Charge=              0.0000 electrons
 Dipole moment (field-independent basis, Debye):
    X=              0.0430    Y=              0.0481    Z=             -0.0079  Tot=              0.0650
 N-N= 1.193069071571D+02 E-N=-1.700636473305D+02  KE=-4.781486123979D+01

 Test job not archived.
 1\1\GINC-BHC0189\SP\RAM1 TD-Full\STO-5G\C6H6\BWEIGHT\21-Mar-2025\0\\# 
 AM1/STO-5G SCF=XQC TD=(read,singlets,nstates=5,root=1) nosym IOp(9/40=
 3) guess=read\\MD Step 18\\0,1\C,0,-0.71883544,-1.21275935,-0.01914631
 \C,0,0.68223585,-1.21035034,0.01444752\C,0,1.42521703,-0.00464659,0.00
 99823\C,0,0.6750474,1.20298865,0.00196118\C,0,-0.71628517,1.23351678,-
 0.01941799\C,0,-1.36037542,0.00019473,-0.01063173\H,0,-1.28972618,-2.1
 3900315,0.02417058\H,0,1.24258746,-2.1952614,0.02735963\H,0,2.50666623
 ,0.04439457,-0.02795016\H,0,1.23639503,2.21949746,-0.08628513\H,0,-1.2
 9883043,2.18714549,-0.00796303\H,0,-2.44726923,-0.02574358,0.03409985\
 \Version=ES64L-G16RevC.01\HF=0.0444765\RMSD=1.925e-09\PG=C01 [X(C6H6)]
 \\@


 IF I HAVE SEEN FARTHER, IT IS BY STANDING ON THE
 SHOULDERS OF GIANTS. -- SIR ISAAC NEWTON
 Job cpu time:       0 days  0 hours  0 minutes  1.0 seconds.
 Elapsed time:       0 days  0 hours  0 minutes  0.9 seconds.
 File lengths (MBytes):  RWF=     34 Int=      0 D2E=      0 Chk=      2 Scr=      1
 Normal termination of Gaussian 16 at Fri Mar 21 15:21:44 2025.
