 Entering Gaussian System, Link 0=g16
 Initial command:
 /software/gaussian/g16-c01/avx2/g16/l1.exe "/local_scratch/28554128/Gau-15788.inp" -scrdir="/local_scratch/28554128/"
 Entering Link 1 = /software/gaussian/g16-c01/avx2/g16/l1.exe PID=     15796.
  
 Copyright (c) 1988-2019, Gaussian, Inc.  All Rights Reserved.
  
 This is part of the Gaussian(R) 16 program.  It is based on
 the Gaussian(R) 09 system (copyright 2009, Gaussian, Inc.),
 the Gaussian(R) 03 system (copyright 2003, Gaussian, Inc.),
 the Gaussian(R) 98 system (copyright 1998, Gaussian, Inc.),
 the Gaussian(R) 94 system (copyright 1995, Gaussian, Inc.),
 the Gaussian 92(TM) system (copyright 1992, Gaussian, Inc.),
 the Gaussian 90(TM) system (copyright 1990, Gaussian, Inc.),
 the Gaussian 88(TM) system (copyright 1988, Gaussian, Inc.),
 the Gaussian 86(TM) system (copyright 1986, Carnegie Mellon
 University), and the Gaussian 82(TM) system (copyright 1983,
 Carnegie Mellon University). Gaussian is a federally registered
 trademark of Gaussian, Inc.
  
 This software contains proprietary and confidential information,
 including trade secrets, belonging to Gaussian, Inc.
  
 This software is provided under written license and may be
 used, copied, transmitted, or stored only in accord with that
 written license.
  
 The following legend is applicable only to US Government
 contracts under FAR:
  
                    RESTRICTED RIGHTS LEGEND
  
 Use, reproduction and disclosure by the US Government is
 subject to restrictions as set forth in subparagraphs (a)
 and (c) of the Commercial Computer Software - Restricted
 Rights clause in FAR 52.227-19.
  
 Gaussian, Inc.
 340 Quinnipiac St., Bldg. 40, Wallingford CT 06492
  
  
 ---------------------------------------------------------------
 Warning -- This program may not be used in any manner that
 competes with the business of Gaussian, Inc. or will provide
 assistance to any competitor of Gaussian, Inc.  The licensee
 of this program is prohibited from giving any competitor of
 Gaussian, Inc. access to this program.  By using this program,
 the user acknowledges that Gaussian, Inc. is engaged in the
 business of creating and licensing software in the field of
 computational chemistry and represents and warrants to the
 licensee that it is not a competitor of Gaussian, Inc. and that
 it will not use this program in any manner prohibited above.
 ---------------------------------------------------------------
  

 Cite this work as:
 Gaussian 16, Revision C.01,
 M. J. Frisch, G. W. Trucks, H. B. Schlegel, G. E. Scuseria, 
 M. A. Robb, J. R. Cheeseman, G. Scalmani, V. Barone, 
 G. A. Petersson, H. Nakatsuji, X. Li, M. Caricato, A. V. Marenich, 
 J. Bloino, B. G. Janesko, R. Gomperts, B. Mennucci, H. P. Hratchian, 
 J. V. Ortiz, A. F. Izmaylov, J. L. Sonnenberg, D. Williams-Young, 
 F. Ding, F. Lipparini, F. Egidi, J. Goings, B. Peng, A. Petrone, 
 T. Henderson, D. Ranasinghe, V. G. Zakrzewski, J. Gao, N. Rega, 
 G. Zheng, W. Liang, M. Hada, M. Ehara, K. Toyota, R. Fukuda, 
 J. Hasegawa, M. Ishida, T. Nakajima, Y. Honda, O. Kitao, H. Nakai, 
 T. Vreven, K. Throssell, J. A. Montgomery, Jr., J. E. Peralta, 
 F. Ogliaro, M. J. Bearpark, J. J. Heyd, E. N. Brothers, K. N. Kudin, 
 V. N. Staroverov, T. A. Keith, R. Kobayashi, J. Normand, 
 K. Raghavachari, A. P. Rendell, J. C. Burant, S. S. Iyengar, 
 J. Tomasi, M. Cossi, J. M. Millam, M. Klene, C. Adamo, R. Cammi, 
 J. W. Ochterski, R. L. Martin, K. Morokuma, O. Farkas, 
 J. B. Foresman, and D. J. Fox, Gaussian, Inc., Wallingford CT, 2019.
 
 ******************************************
 Gaussian 16:  ES64L-G16RevC.01  3-Jul-2019
                21-Mar-2025 
 ******************************************
 %oldchk=../GS_OLD/geometry.chk
 %chk=geometry.chk
 %nprocshared=1
 Will use up to    1 processors via shared memory.
 %mem=2GB
 Copying data from "../GS_OLD/geometry.chk" to current chk file "geometry.chk"
 IOpt=  2 FromEx=T IUOpen= 4 IOptOp= 5 NList=   0 IFRang= 0 IUIn= 4 IUOut= 2.
 -------------------------------------------
 # AM1/STO-5G SCF=XQC FORCE nosym guess=read
 -------------------------------------------
 1/10=7,30=1,38=1/1,3;
 2/12=2,15=1,17=6,18=5,40=1/2;
 3/5=2,6=5,25=1,41=700000,71=1,116=-2/1,2,3;
 4/5=1,35=1/1;
 5/5=2,8=3,13=1,35=1,38=6/2,8;
 6/7=2,8=2,9=2,10=2,28=1/1;
 7/29=1,30=1/1,2,3,16;
 1/10=7,30=1/3;
 99//99;
 ----------
 MD Step 25
 ----------
 Symbolic Z-matrix:
 Charge =  0 Multiplicity = 1
 C                    -0.64832  -1.13445  -0.03304 
 C                     0.71796  -1.20003  -0.01487 
 C                     1.42199  -0.01852   0.02703 
 C                     0.68487   1.17736  -0.01647 
 C                    -0.72042   1.17428  -0.00097 
 C                    -1.445     0.02173   0.02454 
 H                    -1.19014  -2.06592  -0.07376 
 H                     1.24264  -2.19954   0.12255 
 H                     2.4838   -0.08805   0.10996 
 H                     1.31471   2.07291  -0.10447 
 H                    -1.29543   2.13869   0.03329 
 H                    -2.54044  -0.04081   0.08248 
 

 GradGradGradGradGradGradGradGradGradGradGradGradGradGradGradGradGradGrad
 Berny optimization.
 Initialization pass.
 Trust Radius=3.00D-01 FncErr=1.00D-07 GrdErr=1.00D-07 EigMax=2.50D+02 EigMin=1.00D-04
 Number of steps in this run=      2 maximum allowed number of steps=      2.
 GradGradGradGradGradGradGradGradGradGradGradGradGradGradGradGradGradGrad

                          Input orientation:                          
 ---------------------------------------------------------------------
 Center     Atomic      Atomic             Coordinates (Angstroms)
 Number     Number       Type             X           Y           Z
 ---------------------------------------------------------------------
      1          6           0       -0.648321   -1.134451   -0.033044
      2          6           0        0.717960   -1.200031   -0.014872
      3          6           0        1.421994   -0.018520    0.027028
      4          6           0        0.684870    1.177364   -0.016470
      5          6           0       -0.720423    1.174279   -0.000968
      6          6           0       -1.445002    0.021729    0.024536
      7          1           0       -1.190141   -2.065923   -0.073764
      8          1           0        1.242642   -2.199535    0.122554
      9          1           0        2.483803   -0.088051    0.109959
     10          1           0        1.314708    2.072907   -0.104472
     11          1           0       -1.295427    2.138691    0.033294
     12          1           0       -2.540435   -0.040807    0.082477
 ---------------------------------------------------------------------
                    Distance matrix (angstroms):
                    1          2          3          4          5
     1  C    0.000000
     2  C    1.367975   0.000000
     3  C    2.352683   1.376004   0.000000
     4  C    2.668738   2.377626   1.405483   0.000000
     5  C    2.310078   2.776056   2.452245   1.405383   0.000000
     6  C    1.405264   2.484482   2.867280   2.423537   1.361630
     7  H    1.078364   2.096208   3.320433   3.746714   3.274881
     8  H    2.175858   1.137183   2.190461   3.425476   3.905318
     9  H    3.305391   2.090522   1.067310   2.203048   3.445700
    10  H    3.761081   3.328102   2.098302   1.098379   2.227107
    11  H    3.337155   3.899117   3.469579   2.201864   1.123341
    12  H    2.188492   3.459829   3.962880   3.449105   2.189941
                    6          7          8          9         10
     6  C    0.000000
     7  H    2.105447   0.000000
     8  H    3.488130   2.444346   0.000000
     9  H    3.931267   4.176554   2.449287   0.000000
    10  H    3.440926   4.837885   4.279077   2.466274   0.000000
    11  H    2.122258   4.207295   5.026925   4.387122   2.614596
    12  H    1.098746   2.439016   4.355845   5.024536   4.400553
                   11         12
    11  H    0.000000
    12  H    2.510513   0.000000
 Symmetry turned off by external request.
 Stoichiometry    C6H6
 Framework group  C1[X(C6H6)]
 Deg. of freedom    30
 Full point group                 C1      NOp   1
 Rotational constants (GHZ):           6.0887678           5.4482445           2.8781876
 Standard basis: VSTO-5G (5D, 7F)
    30 basis functions,   180 primitive gaussians,    30 cartesian basis functions
    15 alpha electrons       15 beta electrons
       nuclear repulsion energy       119.9958195692 Hartrees.
 Integral buffers will be    131072 words long.
 Regular integral format.
 Two-electron integral symmetry is turned off.
 Do NDO integrals.
 One-electron integrals computed using PRISM.
 NBasis=    30 RedAO= F EigKep=  0.00D+00  NBF=    30
 NBsUse=    30 1.00D-04 EigRej=  0.00D+00 NBFU=    30
 Initial guess from the checkpoint file:  "geometry.chk"
 B after Tr=     0.000749    0.000858    0.001071
         Rot=    1.000000    0.000387   -0.000128    0.000251 Ang=   0.05 deg.
 Keep J ints in memory in canonical form, NReq=861816.
 Overlap will be assumed to be unity.
 Requested convergence on RMS density matrix=1.00D-08 within  32 cycles.
 Requested convergence on MAX density matrix=1.00D-06.
 Requested convergence on             energy=1.00D-06.
 No special actions if energy rises.
 SCF Done:  E(RAM1) =  0.503346880772E-01 A.U. after   12 cycles
            NFock= 11  Conv=0.33D-08     -V/T= 1.0011
 QCSCF skips out because SCF is already converged.

 **********************************************************************

            Population analysis using the SCF Density.

 **********************************************************************

 Alpha  occ. eigenvalues --   -1.45178  -1.17341  -1.14151  -0.85411  -0.84279
 Alpha  occ. eigenvalues --   -0.65813  -0.59175  -0.56852  -0.52886  -0.50959
 Alpha  occ. eigenvalues --   -0.49592  -0.44516  -0.42506  -0.36168  -0.35099
 Alpha virt. eigenvalues --    0.01787   0.02406   0.10936   0.14008   0.14544
 Alpha virt. eigenvalues --    0.15211   0.15499   0.17010   0.17222   0.18569
 Alpha virt. eigenvalues --    0.19100   0.20547   0.20845   0.21248   0.22522
          Condensed to atoms (all electrons):
               1          2          3          4          5          6
     1  C    4.136608   0.000000   0.000000   0.000000   0.000000   0.000000
     2  C    0.000000   4.135766   0.000000   0.000000   0.000000   0.000000
     3  C    0.000000   0.000000   4.129866   0.000000   0.000000   0.000000
     4  C    0.000000   0.000000   0.000000   4.129329   0.000000   0.000000
     5  C    0.000000   0.000000   0.000000   0.000000   4.121693   0.000000
     6  C    0.000000   0.000000   0.000000   0.000000   0.000000   4.125849
     7  H    0.000000   0.000000   0.000000   0.000000   0.000000   0.000000
     8  H    0.000000   0.000000   0.000000   0.000000   0.000000   0.000000
     9  H    0.000000   0.000000   0.000000   0.000000   0.000000   0.000000
    10  H    0.000000   0.000000   0.000000   0.000000   0.000000   0.000000
    11  H    0.000000   0.000000   0.000000   0.000000   0.000000   0.000000
    12  H    0.000000   0.000000   0.000000   0.000000   0.000000   0.000000
               7          8          9         10         11         12
     1  C    0.000000   0.000000   0.000000   0.000000   0.000000   0.000000
     2  C    0.000000   0.000000   0.000000   0.000000   0.000000   0.000000
     3  C    0.000000   0.000000   0.000000   0.000000   0.000000   0.000000
     4  C    0.000000   0.000000   0.000000   0.000000   0.000000   0.000000
     5  C    0.000000   0.000000   0.000000   0.000000   0.000000   0.000000
     6  C    0.000000   0.000000   0.000000   0.000000   0.000000   0.000000
     7  H    0.889828   0.000000   0.000000   0.000000   0.000000   0.000000
     8  H    0.000000   0.863405   0.000000   0.000000   0.000000   0.000000
     9  H    0.000000   0.000000   0.868624   0.000000   0.000000   0.000000
    10  H    0.000000   0.000000   0.000000   0.869765   0.000000   0.000000
    11  H    0.000000   0.000000   0.000000   0.000000   0.875161   0.000000
    12  H    0.000000   0.000000   0.000000   0.000000   0.000000   0.854106
 Mulliken charges:
               1
     1  C   -0.136608
     2  C   -0.135766
     3  C   -0.129866
     4  C   -0.129329
     5  C   -0.121693
     6  C   -0.125849
     7  H    0.110172
     8  H    0.136595
     9  H    0.131376
    10  H    0.130235
    11  H    0.124839
    12  H    0.145894
 Sum of Mulliken charges =  -0.00000
 Mulliken charges with hydrogens summed into heavy atoms:
               1
     1  C   -0.026436
     2  C    0.000830
     3  C    0.001510
     4  C    0.000906
     5  C    0.003145
     6  C    0.020045
 Charge=              0.0000 electrons
 Dipole moment (field-independent basis, Debye):
    X=             -0.0229    Y=             -0.0307    Z=              0.1383  Tot=              0.1435
 N-N= 1.199958195692D+02 E-N=-1.712224999734D+02  KE=-4.786994838573D+01
 Calling FoFJK, ICntrl=      2127 FMM=F ISym2X=0 I1Cent= 0 IOpClX= 0 NMat=1 NMatS=1 NMatT=0.
 -------------------------------------------------------------------
 Center     Atomic                   Forces (Hartrees/Bohr)
 Number     Number              X              Y              Z
 -------------------------------------------------------------------
      1        6          -0.042008112   -0.022627928    0.000692668
      2        6           0.012783167   -0.031655268    0.014706678
      3        6          -0.018152853    0.022211565   -0.002496785
      4        6           0.012877443   -0.006931362   -0.003274648
      5        6           0.010172284    0.059028336    0.003714452
      6        6           0.015262391   -0.031936360   -0.003775047
      7        1          -0.009771808   -0.019201346   -0.000069283
      8        1          -0.010268357    0.019277504   -0.009132842
      9        1           0.023674557    0.008867296   -0.000417657
     10        1          -0.009468937    0.008348901    0.003178194
     11        1           0.012137852   -0.007136708   -0.001898926
     12        1           0.002762373    0.001755370   -0.001226804
 -------------------------------------------------------------------
 Cartesian Forces:  Max     0.059028336 RMS     0.017972878

 GradGradGradGradGradGradGradGradGradGradGradGradGradGradGradGradGradGrad
 Berny optimization.
 Search for a local minimum.
 Step number   1 out of a maximum of    2
 All quantities printed in internal units (Hartrees-Bohrs-Radians)
 Second derivative matrix not updated -- first step.
 ITU=  0
     Eigenvalues ---    0.01606   0.01726   0.03432   0.04363   0.06419
     Eigenvalues ---    0.06710   0.06804   0.07079   0.07302   0.09464
     Eigenvalues ---    0.09765   0.11374   0.12307   0.16324   0.18290
     Eigenvalues ---    0.27767   0.30521   0.31374   0.39588   0.42760
     Eigenvalues ---    0.45716   0.63863   0.68776   0.99267   1.06368
     Eigenvalues ---    1.18797   1.27103   1.51290   1.58038   1.66341
 Quadratic step=5.654D-01 exceeds max=3.000D-01 adjusted using Lamda=-7.214D-02.
 Angle between NR and scaled steps=  19.83 degrees.
 Angle between quadratic step and forces=  46.64 degrees.
 Linear search not attempted -- first point.
 B after Tr=    -0.000463   -0.004397    0.003255
         Rot=    1.000000    0.000707    0.000257    0.000445 Ang=   0.10 deg.
 Variable       Old X    -DE/DX   Delta X   Delta X   Delta X     New X
                                 (Linear)    (Quad)   (Total)
    X1       -1.22515  -0.04201   0.00000  -0.07300  -0.07545  -1.30060
    Y1       -2.14380  -0.02263   0.00000  -0.11440  -0.11771  -2.26151
    Z1       -0.06244   0.00069   0.00000   0.01378   0.01957  -0.04288
    X2        1.35675   0.01278   0.00000  -0.02875  -0.03127   1.32548
    Y2       -2.26773  -0.03166   0.00000  -0.03519  -0.04074  -2.30847
    Z2       -0.02810   0.01471   0.00000   0.04053   0.04772   0.01962
    X3        2.68718  -0.01815   0.00000  -0.02068  -0.02117   2.66601
    Y3       -0.03500   0.02221   0.00000   0.02733   0.02063  -0.01437
    Z3        0.05107  -0.00250   0.00000  -0.00336   0.00127   0.05235
    X4        1.29422   0.01288   0.00000   0.02443   0.02599   1.32021
    Y4        2.22490  -0.00693   0.00000   0.03810   0.03247   2.25737
    Z4       -0.03112  -0.00327   0.00000  -0.00404  -0.00331  -0.03444
    X5       -1.36140   0.01017   0.00000   0.04045   0.04202  -1.31939
    Y5        2.21907   0.05903   0.00000   0.06203   0.05882   2.27788
    Z5       -0.00183   0.00371   0.00000   0.00765   0.00700   0.00517
    X6       -2.73066   0.01526   0.00000   0.05163   0.05117  -2.67949
    Y6        0.04106  -0.03194   0.00000  -0.03033  -0.03230   0.00876
    Z6        0.04637  -0.00378   0.00000  -0.01510  -0.01324   0.03313
    X7       -2.24904  -0.00977   0.00000  -0.08726  -0.09124  -2.34028
    Y7       -3.90403  -0.01920   0.00000  -0.13640  -0.13891  -4.04294
    Z7       -0.13939  -0.00007   0.00000   0.00066   0.00843  -0.13096
    X8        2.34825  -0.01027   0.00000  -0.01448  -0.01871   2.32954
    Y8       -4.15652   0.01928   0.00000   0.03587   0.02966  -4.12686
    Z8        0.23159  -0.00913   0.00000  -0.04684  -0.03655   0.19504
    X9        4.69371   0.02367   0.00000   0.03986   0.03923   4.73294
    Y9       -0.16639   0.00887   0.00000   0.08000   0.07164  -0.09475
    Z9        0.20779  -0.00042   0.00000  -0.02859  -0.02278   0.18501
   X10        2.48444  -0.00947   0.00000  -0.03768  -0.03450   2.44994
   Y10        3.91723   0.00835   0.00000   0.07863   0.07181   3.98904
   Z10       -0.19742   0.00318   0.00000   0.02401   0.02287  -0.17456
   X11       -2.44800   0.01214   0.00000   0.06445   0.06759  -2.38042
   Y11        4.04154  -0.00714   0.00000   0.03256   0.03036   4.07190
   Z11        0.06292  -0.00190   0.00000  -0.00456  -0.00830   0.05462
   X12       -4.80073   0.00276   0.00000   0.04693   0.04635  -4.75438
   Y12       -0.07711   0.00176   0.00000   0.01425   0.01427  -0.06284
   Z12        0.15586  -0.00123   0.00000  -0.02358  -0.02268   0.13318
         Item               Value     Threshold  Converged?
 Maximum Force            0.059028     0.000450     NO 
 RMS     Force            0.017973     0.000300     NO 
 Maximum Displacement     0.138910     0.001800     NO 
 RMS     Displacement     0.049809     0.001200     NO 
 Predicted change in Energy=-1.435345D-02
 GradGradGradGradGradGradGradGradGradGradGradGradGradGradGradGradGradGrad

 Unable to Open any file for archive entry.
 1\1\GINC-BHC0165\Force\RAM1\ZDO\C6H6\BWEIGHT\21-Mar-2025\0\\# AM1/STO-
 5G SCF=XQC FORCE nosym guess=read\\MD Step 25\\0,1\C,-0.64832146,-1.13
 445065,-0.03304426\C,0.71796001,-1.20003092,-0.0148724\C,1.42199438,-0
 .0185199,0.02702759\C,0.68487048,1.17736404,-0.01646955\C,-0.72042331,
 1.17427933,-0.00096757\C,-1.44500159,0.02172877,0.02453646\H,-1.190141
 49,-2.06592318,-0.07376401\H,1.24264172,-2.19953532,0.12255417\H,2.483
 80329,-0.08805136,0.109959\H,1.31470807,2.07290716,-0.10447223\H,-1.29
 542709,2.13869143,0.03329443\H,-2.54043502,-0.04080665,0.08247711\\Ver
 sion=ES64L-G16RevC.01\HF=0.0503347\RMSD=3.319e-09\RMSF=1.797e-02\Dipol
 e=-0.0090248,-0.0120767,0.0544027\PG=C01 [X(C6H6)]\\@
 The archive entry for this job was punched.


 IT IS BY LOGIC THAT WE PROVE, BUT BY INTUITION THAT WE DISCOVER.
     -- J.H.POINCARE (1854-1912)
 Job cpu time:       0 days  0 hours  0 minutes  1.2 seconds.
 Elapsed time:       0 days  0 hours  0 minutes  0.9 seconds.
 File lengths (MBytes):  RWF=      6 Int=      0 D2E=      0 Chk=      2 Scr=      1
 Normal termination of Gaussian 16 at Fri Mar 21 15:03:31 2025.
