 Entering Gaussian System, Link 0=g16
 Initial command:
 /software/gaussian/g16-c01/avx2/g16/l1.exe "/local_scratch/28554203/Gau-33681.inp" -scrdir="/local_scratch/28554203/"
 Entering Link 1 = /software/gaussian/g16-c01/avx2/g16/l1.exe PID=     33688.
  
 Copyright (c) 1988-2019, Gaussian, Inc.  All Rights Reserved.
  
 This is part of the Gaussian(R) 16 program.  It is based on
 the Gaussian(R) 09 system (copyright 2009, Gaussian, Inc.),
 the Gaussian(R) 03 system (copyright 2003, Gaussian, Inc.),
 the Gaussian(R) 98 system (copyright 1998, Gaussian, Inc.),
 the Gaussian(R) 94 system (copyright 1995, Gaussian, Inc.),
 the Gaussian 92(TM) system (copyright 1992, Gaussian, Inc.),
 the Gaussian 90(TM) system (copyright 1990, Gaussian, Inc.),
 the Gaussian 88(TM) system (copyright 1988, Gaussian, Inc.),
 the Gaussian 86(TM) system (copyright 1986, Carnegie Mellon
 University), and the Gaussian 82(TM) system (copyright 1983,
 Carnegie Mellon University). Gaussian is a federally registered
 trademark of Gaussian, Inc.
  
 This software contains proprietary and confidential information,
 including trade secrets, belonging to Gaussian, Inc.
  
 This software is provided under written license and may be
 used, copied, transmitted, or stored only in accord with that
 written license.
  
 The following legend is applicable only to US Government
 contracts under FAR:
  
                    RESTRICTED RIGHTS LEGEND
  
 Use, reproduction and disclosure by the US Government is
 subject to restrictions as set forth in subparagraphs (a)
 and (c) of the Commercial Computer Software - Restricted
 Rights clause in FAR 52.227-19.
  
 Gaussian, Inc.
 340 Quinnipiac St., Bldg. 40, Wallingford CT 06492
  
  
 ---------------------------------------------------------------
 Warning -- This program may not be used in any manner that
 competes with the business of Gaussian, Inc. or will provide
 assistance to any competitor of Gaussian, Inc.  The licensee
 of this program is prohibited from giving any competitor of
 Gaussian, Inc. access to this program.  By using this program,
 the user acknowledges that Gaussian, Inc. is engaged in the
 business of creating and licensing software in the field of
 computational chemistry and represents and warrants to the
 licensee that it is not a competitor of Gaussian, Inc. and that
 it will not use this program in any manner prohibited above.
 ---------------------------------------------------------------
  

 Cite this work as:
 Gaussian 16, Revision C.01,
 M. J. Frisch, G. W. Trucks, H. B. Schlegel, G. E. Scuseria, 
 M. A. Robb, J. R. Cheeseman, G. Scalmani, V. Barone, 
 G. A. Petersson, H. Nakatsuji, X. Li, M. Caricato, A. V. Marenich, 
 J. Bloino, B. G. Janesko, R. Gomperts, B. Mennucci, H. P. Hratchian, 
 J. V. Ortiz, A. F. Izmaylov, J. L. Sonnenberg, D. Williams-Young, 
 F. Ding, F. Lipparini, F. Egidi, J. Goings, B. Peng, A. Petrone, 
 T. Henderson, D. Ranasinghe, V. G. Zakrzewski, J. Gao, N. Rega, 
 G. Zheng, W. Liang, M. Hada, M. Ehara, K. Toyota, R. Fukuda, 
 J. Hasegawa, M. Ishida, T. Nakajima, Y. Honda, O. Kitao, H. Nakai, 
 T. Vreven, K. Throssell, J. A. Montgomery, Jr., J. E. Peralta, 
 F. Ogliaro, M. J. Bearpark, J. J. Heyd, E. N. Brothers, K. N. Kudin, 
 V. N. Staroverov, T. A. Keith, R. Kobayashi, J. Normand, 
 K. Raghavachari, A. P. Rendell, J. C. Burant, S. S. Iyengar, 
 J. Tomasi, M. Cossi, J. M. Millam, M. Klene, C. Adamo, R. Cammi, 
 J. W. Ochterski, R. L. Martin, K. Morokuma, O. Farkas, 
 J. B. Foresman, and D. J. Fox, Gaussian, Inc., Wallingford CT, 2019.
 
 ******************************************
 Gaussian 16:  ES64L-G16RevC.01  3-Jul-2019
                21-Mar-2025 
 ******************************************
 %oldchk=../TD_OLD_S1/geometry.chk
 %chk=geometry.chk
 %nprocshared=1
 Will use up to    1 processors via shared memory.
 %mem=2GB
 Copying data from "../TD_OLD_S1/geometry.chk" to current chk file "geometry.chk"
 IOpt=  2 FromEx=T IUOpen= 4 IOptOp= 5 NList=   0 IFRang= 0 IUIn= 4 IUOut= 2.
 ----------------------------------------------------------------------
 # AM1/STO-5G SCF=XQC TD=(read,singlets,nstates=5,root=1) nosym IOp(9/4
 0=3) guess=read
 ----------------------------------------------------------------------
 1/38=1,172=1/1;
 2/12=2,15=1,17=6,18=5,40=1/2;
 3/5=2,6=5,25=1,41=700000,116=-2/1,2,3,8;
 4/5=1,35=1/1;
 5/5=2,8=3,13=1,35=1,38=6/2,8;
 8/6=1,10=90,107=1,108=5/1;
 9/8=1,40=3,41=5,42=1,48=1,49=13,70=2/14;
 6/7=2,8=2,9=2,10=2/1;
 99/5=1,9=1/99;
 ----------
 MD Step 25
 ----------
 Symbolic Z-matrix:
 Charge =  0 Multiplicity = 1
 C                    -0.67422  -1.17621   0.01885 
 C                     0.72612  -1.23255  -0.00962 
 C                     1.38045   0.01066   0.01147 
 C                     0.69462   1.21433  -0.02268 
 C                    -0.71579   1.17099  -0.02031 
 C                    -1.41257   0.01982  -0.00411 
 H                    -1.17746  -2.12581   0.16668 
 H                     1.26904  -2.19103  -0.02968 
 H                     2.45911  -0.03566   0.2056 
 H                     1.14937   2.1859    0.17336 
 H                    -1.2431    2.15166   0.09182 
 H                    -2.4896   -0.02048  -0.08008 
 
                          Input orientation:                          
 ---------------------------------------------------------------------
 Center     Atomic      Atomic             Coordinates (Angstroms)
 Number     Number       Type             X           Y           Z
 ---------------------------------------------------------------------
      1          6           0       -0.674216   -1.176205    0.018852
      2          6           0        0.726125   -1.232546   -0.009623
      3          6           0        1.380452    0.010656    0.011466
      4          6           0        0.694622    1.214329   -0.022678
      5          6           0       -0.715790    1.170989   -0.020312
      6          6           0       -1.412565    0.019823   -0.004106
      7          1           0       -1.177456   -2.125806    0.166684
      8          1           0        1.269042   -2.191035   -0.029679
      9          1           0        2.459109   -0.035657    0.205605
     10          1           0        1.149366    2.185904    0.173358
     11          1           0       -1.243098    2.151662    0.091823
     12          1           0       -2.489598   -0.020479   -0.080085
 ---------------------------------------------------------------------
                    Distance matrix (angstroms):
                    1          2          3          4          5
     1  C    0.000000
     2  C    1.401763   0.000000
     3  C    2.372837   1.405041   0.000000
     4  C    2.755013   2.447113   1.385770   0.000000
     5  C    2.347889   2.802894   2.396166   1.411080   0.000000
     6  C    1.405763   2.478397   2.793076   2.422277   1.345713
     7  H    1.084825   2.110122   3.336383   3.833671   3.334210
     8  H    2.192826   1.101754   2.204891   3.453478   3.904209
     9  H    3.339679   2.117097   1.096967   2.174395   3.403971
    10  H    3.827937   3.449408   2.193471   1.090496   2.132221
    11  H    3.376929   3.916758   3.387238   2.155565   1.119083
    12  H    2.154322   3.437287   3.871258   3.415743   2.137653
                    6          7          8          9         10
     6  C    0.000000
     7  H    2.165218   0.000000
     8  H    3.475567   2.455232   0.000000
     9  H    3.877747   4.194621   2.473312   0.000000
    10  H    3.359597   4.899488   4.383280   2.579109   0.000000
    11  H    2.140715   4.278627   5.018429   4.301587   2.394098
    12  H    1.080461   2.492993   4.340648   4.956970   4.263146
                   11         12
    11  H    0.000000
    12  H    2.510281   0.000000
 Symmetry turned off by external request.
 Stoichiometry    C6H6
 Framework group  C1[X(C6H6)]
 Deg. of freedom    30
 Full point group                 C1      NOp   1
 Rotational constants (GHZ):           5.8361939           5.5957810           2.8608867
 Standard basis: VSTO-5G (5D, 7F)
    30 basis functions,   180 primitive gaussians,    30 cartesian basis functions
    15 alpha electrons       15 beta electrons
       nuclear repulsion energy       119.8186225886 Hartrees.
 Integral buffers will be    131072 words long.
 Regular integral format.
 Two-electron integral symmetry is turned off.
 Do NDO integrals.
 One-electron integrals computed using PRISM.
 NBasis=    30 RedAO= F EigKep=  0.00D+00  NBF=    30
 NBsUse=    30 1.00D-04 EigRej=  0.00D+00 NBFU=    30
 Initial guess from the checkpoint file:  "geometry.chk"
 B after Tr=     0.001396    0.000235    0.001237
         Rot=    1.000000    0.000071   -0.000028    0.000122 Ang=   0.02 deg.
 Keep J ints in memory in canonical form, NReq=861816.
 Overlap will be assumed to be unity.
 Requested convergence on RMS density matrix=1.00D-08 within  32 cycles.
 Requested convergence on MAX density matrix=1.00D-06.
 Requested convergence on             energy=1.00D-06.
 No special actions if energy rises.
 SCF Done:  E(RAM1) =  0.473738173066E-01 A.U. after   12 cycles
            NFock= 11  Conv=0.56D-08     -V/T= 1.0010
 QCSCF skips out because SCF is already converged.
 Range of M.O.s used for correlation:     1    30
 NBasis=    30 NAE=    15 NBE=    15 NFC=     0 NFV=     0
 NROrb=     30 NOA=    15 NOB=    15 NVA=    15 NVB=    15
 Keep J ints in memory in canonical form, NReq=862156.
 Generating guess from checkpoint file densities.
 Convergence on wavefunction:    0.001000000000000
 Iteration     1 Dimension    10 NMult     0 NNew     10
 CISAX will form    10 AO SS matrices at one time.
 Iteration     2 Dimension    20 NMult    10 NNew     10
 Iteration     3 Dimension    30 NMult    20 NNew     10
 Iteration     4 Dimension    36 NMult    30 NNew      6
 Iteration     5 Dimension    42 NMult    36 NNew      6
 Iteration     6 Dimension    46 NMult    42 NNew      4
 Iteration     7 Dimension    48 NMult    46 NNew      2
 Iteration     8 Dimension    50 NMult    48 NNew      2
 ***********************************************************************
 Excited states from <AA,BB:AA,BB> singles matrix:
 ***********************************************************************
 
 Ground to excited state transition densities written to RWF  633
 Ground to excited state transition electric dipole moments (Au):
       state          X           Y           Z        Dip. S.      Osc.
         1        -0.0256      0.0213     -0.0006      0.0011      0.0001
         2        -0.1481     -0.1219      0.0020      0.0368      0.0037
         3         1.5076      0.0236     -0.0348      2.2746      0.2993
         4         0.0556     -1.5170      0.0427      2.3062      0.3047
         5         0.1289     -0.3393      0.0946      0.1407      0.0203
 Ground to excited state transition velocity dipole moments (Au):
       state          X           Y           Z        Dip. S.      Osc.
         1         0.0036     -0.0032     -0.0003      0.0000      0.0001
         2         0.0354      0.0272     -0.0294      0.0029      0.0125
         3        -0.4676     -0.0033     -0.0293      0.2196      0.7416
         4        -0.0216      0.4677      0.0105      0.2193      0.7378
         5        -0.0422      0.1196      0.0925      0.0246      0.0758
 Ground to excited state transition magnetic dipole moments (Au):
       state          X           Y           Z
         1        -0.0073     -0.0058     -0.0626
         2        -0.0118      0.0259      0.1714
         3        -0.0055     -0.1332     -0.0001
         4        -0.1116     -0.0027     -0.0590
         5         0.0474     -0.0895      0.0949
 Ground to excited state transition velocity quadrupole moments (Au):
       state          XX          YY          ZZ          XY          XZ          YZ
         1        -0.0040      0.0040      0.0000      0.0044      0.0003     -0.0027
         2         0.0208      0.0817     -0.0035     -0.0315     -0.0139      0.0061
         3         0.0049      0.0134     -0.0058      0.0674     -0.0342     -0.0228
         4         0.0048     -0.0098      0.0026      0.0752      0.0101      0.0068
         5        -0.0907     -0.0300      0.0115      0.0799     -0.0181     -0.0368
 <0|del|b> * <b|rxdel|0> + <0|del|b> * <b|delr+rdel|0>
 Rotatory Strengths (R) in cgs (10**-40 erg-esu-cm/Gauss)
       state          XX          YY          ZZ    R(velocity)    E-M Angle
         1         0.0946     -0.0379      0.0029      0.0199       90.00
         2        -7.0170    -14.2715     -0.7136     -7.3340      120.76
         3        -2.9383     27.2437    -13.4162      3.6298       87.21
         4       -10.3443      1.5266     10.7765      0.6529       89.47
         5        12.4536      1.5231    -26.8171     -4.2802      100.40
 1/2[<0|r|b>*<b|rxdel|0> + (<0|rxdel|b>*<b|r|0>)*]
 Rotatory Strengths (R) in cgs (10**-40 erg-esu-cm/Gauss)
       state          XX          YY          ZZ     R(length)
         1        -0.1327      0.0875     -0.0244     -0.0232
         2        -1.2400      2.2296     -0.2471      0.2475
         3         5.9069      2.2275     -0.0024      2.7107
         4         4.3903     -2.8456      1.7820      1.1089
         5        -4.3207    -21.4837     -6.3442    -10.7162
  1/2[<0|del|b>*<b|r|0> + (<0|r|b>*<b|del|0>)*] (Au)
       state          X           Y           Z        Dip. S.   Osc.(frdel)
         1        -0.0001     -0.0001      0.0000      0.0002      0.0001
         2        -0.0052     -0.0033     -0.0001      0.0086      0.0057
         3        -0.7050     -0.0001      0.0010      0.7041      0.4694
         4        -0.0012     -0.7095      0.0004      0.7102      0.4735
         5        -0.0054     -0.0406      0.0087      0.0373      0.0248

 Excitation energies and oscillator strengths:
 
 Excited state symmetry could not be determined.
 Excited State   1:      Singlet-?Sym    3.8410 eV  322.79 nm  f=0.0001  <S**2>=0.000
       2 -> 22        -0.00104
       2 -> 23        -0.00325
       2 -> 25        -0.00148
       3 -> 17         0.00147
       3 -> 23        -0.00115
       3 -> 24        -0.00283
       3 -> 26         0.00210
       4 -> 16        -0.00227
       4 -> 17        -0.00195
       4 -> 27         0.00280
       5 -> 16        -0.00409
       5 -> 28         0.00240
       6 -> 16        -0.00100
       6 -> 17        -0.00128
       7 -> 17        -0.00104
       7 -> 28        -0.00113
       7 -> 29         0.00232
       8 -> 16        -0.00147
       8 -> 18         0.00879
       8 -> 21        -0.00171
       9 -> 18        -0.00354
       9 -> 22        -0.00144
       9 -> 23        -0.00315
       9 -> 25        -0.00224
      10 -> 16        -0.00158
      10 -> 18         0.00385
      10 -> 23         0.00161
      10 -> 24         0.00208
      10 -> 26        -0.00196
      10 -> 29        -0.00101
      11 -> 16        -0.00397
      11 -> 17         0.00182
      11 -> 19         0.00272
      11 -> 24        -0.00225
      11 -> 25         0.00259
      11 -> 26         0.00244
      11 -> 28         0.00143
      11 -> 29        -0.00182
      12 -> 16        -0.00369
      13 -> 16        -0.00137
      13 -> 27        -0.00101
      14 -> 16        -0.49672
      14 -> 17         0.00930
      14 -> 19         0.00154
      14 -> 20        -0.00153
      14 -> 21         0.00457
      14 -> 22        -0.00111
      14 -> 23        -0.00622
      14 -> 24         0.00305
      14 -> 25         0.00144
      14 -> 26        -0.00157
      14 -> 30         0.00264
      15 -> 16        -0.01434
      15 -> 17        -0.51143
      15 -> 18        -0.00638
      15 -> 21        -0.00397
      15 -> 23         0.00182
      15 -> 24         0.00356
      15 -> 25        -0.00165
      15 -> 26        -0.00277
      15 -> 27        -0.00469
      15 -> 28         0.00246
      15 -> 29         0.00178
      15 -> 30        -0.00129
       2 <- 23        -0.00121
       4 <- 27         0.00212
       5 <- 28         0.00193
       7 <- 29         0.00176
      10 <- 17         0.00145
      11 <- 16        -0.00161
      12 <- 16        -0.00556
      12 <- 17         0.00182
      13 <- 16        -0.00668
      13 <- 17        -0.00154
      14 <- 16        -0.06825
      14 <- 17         0.00210
      14 <- 19         0.00115
      14 <- 20        -0.00248
      14 <- 21         0.00165
      14 <- 23        -0.00192
      14 <- 24         0.00109
      15 <- 16        -0.00139
      15 <- 17        -0.06545
      15 <- 18        -0.00127
      15 <- 19         0.00213
      15 <- 20         0.00165
      15 <- 21        -0.00231
      15 <- 24         0.00137
      15 <- 27         0.00102
 This state for optimization and/or second-order correction.
 Total Energy, E(TD-HF/TD-DFT) =  0.188528178569    
 Copying the excited state density for this state as the 1-particle RhoCI density.
 
 Excited state symmetry could not be determined.
 Excited State   2:      Singlet-?Sym    4.1526 eV  298.57 nm  f=0.0037  <S**2>=0.000
       1 -> 18         0.00126
       1 -> 19         0.00114
       1 -> 20        -0.00118
       1 -> 21         0.00128
       1 -> 30         0.00103
       2 -> 24         0.00235
       2 -> 26         0.00215
       3 -> 16         0.00299
       3 -> 18         0.00111
       3 -> 23        -0.00267
       3 -> 24         0.00116
       3 -> 25         0.00199
       4 -> 16         0.00106
       4 -> 18         0.00108
       4 -> 21         0.00105
       4 -> 22        -0.00115
       4 -> 23         0.00200
       4 -> 24         0.00130
       4 -> 26        -0.00208
       4 -> 28         0.00406
       4 -> 29         0.00147
       5 -> 17         0.00140
       5 -> 25        -0.00124
       5 -> 27        -0.00473
       6 -> 18         0.00124
       6 -> 20        -0.00259
       6 -> 21         0.00172
       7 -> 17         0.00121
       7 -> 18        -0.00307
       7 -> 19         0.00109
       7 -> 22         0.00124
       7 -> 23         0.00262
       8 -> 17        -0.00105
       8 -> 22         0.00164
       8 -> 24        -0.00339
       8 -> 25         0.00302
       8 -> 26         0.00160
       8 -> 28         0.00216
       8 -> 29        -0.00214
       8 -> 30         0.00130
       9 -> 16        -0.00209
       9 -> 17         0.00103
       9 -> 18         0.00807
       9 -> 19        -0.00261
       9 -> 22         0.00116
       9 -> 24         0.00203
       9 -> 25         0.00238
       9 -> 26         0.00931
       9 -> 27         0.00153
       9 -> 28         0.00146
       9 -> 29         0.00277
       9 -> 30         0.00181
      10 -> 16        -0.00569
      10 -> 18         0.01949
      10 -> 20        -0.00284
      10 -> 21        -0.00232
      10 -> 22         0.00446
      10 -> 23         0.00368
      10 -> 24        -0.00240
      10 -> 25        -0.00430
      10 -> 26         0.00164
      10 -> 27         0.00137
      10 -> 28         0.00133
      10 -> 29        -0.00186
      11 -> 16         0.00107
      11 -> 17        -0.00185
      11 -> 18         0.10783
      11 -> 19        -0.00568
      11 -> 20        -0.00112
      11 -> 21        -0.00432
      11 -> 22         0.01341
      11 -> 24         0.00156
      11 -> 28        -0.00158
      12 -> 16        -0.00632
      12 -> 17        -0.00244
      12 -> 18         0.01209
      12 -> 19        -0.00677
      12 -> 20         0.00716
      12 -> 21         0.00515
      12 -> 22        -0.00542
      12 -> 23         0.00530
      12 -> 25         0.00275
      12 -> 27         0.00384
      12 -> 28        -0.00300
      12 -> 29        -0.00209
      12 -> 30        -0.00147
      13 -> 16         0.00662
      13 -> 17        -0.00279
      13 -> 18        -0.01417
      13 -> 19        -0.00292
      13 -> 20        -0.00926
      13 -> 21        -0.00225
      13 -> 22         0.00317
      13 -> 23        -0.00371
      13 -> 24        -0.00339
      13 -> 26         0.00364
      13 -> 27         0.00530
      13 -> 28        -0.00515
      13 -> 30         0.00363
      14 -> 16         0.01017
      14 -> 17         0.44525
      14 -> 18        -0.00216
      14 -> 20        -0.00180
      14 -> 21         0.00504
      14 -> 22        -0.00124
      14 -> 23        -0.00120
      14 -> 24        -0.00153
      15 -> 16        -0.53756
      15 -> 17         0.01313
      15 -> 18         0.00348
      15 -> 19         0.00115
      15 -> 21         0.00744
      15 -> 22        -0.00186
      15 -> 23        -0.00695
      15 -> 24         0.00397
      15 -> 28         0.00100
       1 <- 18         0.00101
       1 <- 19         0.00257
       1 <- 20        -0.00242
       1 <- 21         0.00323
       1 <- 22        -0.00247
       1 <- 30        -0.00221
       2 <- 19        -0.00132
       2 <- 21        -0.00137
       2 <- 23         0.00192
       2 <- 24         0.00526
       3 <- 16         0.00140
       3 <- 19        -0.00101
       3 <- 22        -0.00135
       3 <- 23        -0.00669
       3 <- 24         0.00240
       4 <- 20        -0.00130
       4 <- 23         0.00142
       4 <- 26        -0.00139
       4 <- 28         0.00470
       4 <- 29         0.00187
       5 <- 27        -0.00560
       5 <- 28         0.00101
       6 <- 20        -0.00153
       6 <- 21         0.00124
       6 <- 30        -0.00156
       7 <- 23         0.00140
       8 <- 24        -0.00203
       8 <- 25         0.00171
       8 <- 28         0.00270
       8 <- 29        -0.00458
       9 <- 18        -0.00150
       9 <- 19        -0.00139
       9 <- 23         0.00143
       9 <- 24         0.00302
       9 <- 26         0.00160
      10 <- 18        -0.00304
      10 <- 19         0.00132
      10 <- 20        -0.00145
      10 <- 22         0.00165
      10 <- 23         0.00502
      10 <- 24        -0.00268
      10 <- 29        -0.00112
      11 <- 17         0.00260
      11 <- 18        -0.01358
      11 <- 23        -0.00163
      12 <- 17         0.00298
      12 <- 19        -0.00154
      12 <- 20         0.00245
      12 <- 21         0.00193
      12 <- 22        -0.00234
      12 <- 23         0.00188
      12 <- 25         0.00179
      12 <- 27         0.00422
      13 <- 17         0.00315
      13 <- 18         0.00113
      13 <- 19        -0.00112
      13 <- 20        -0.00244
      13 <- 21        -0.00108
      13 <- 22         0.00159
      13 <- 23        -0.00217
      13 <- 24        -0.00111
      13 <- 26         0.00202
      13 <- 27         0.00294
      13 <- 28        -0.00448
      13 <- 29        -0.00105
      13 <- 30         0.00143
      14 <- 17         0.02453
      14 <- 18         0.00321
      14 <- 19        -0.00222
      14 <- 20        -0.00177
      14 <- 21         0.00231
      14 <- 24        -0.00126
      14 <- 27        -0.00130
      14 <- 28         0.00120
      15 <- 16        -0.00412
      15 <- 18        -0.00100
      15 <- 19         0.00108
      15 <- 20        -0.00234
      15 <- 21         0.00115
      15 <- 23        -0.00176
      15 <- 24         0.00105
      15 <- 27         0.00114
      15 <- 28         0.00111
 
 Excited state symmetry could not be determined.
 Excited State   3:      Singlet-?Sym    5.3706 eV  230.86 nm  f=0.2993  <S**2>=0.000
       1 -> 17        -0.00197
       1 -> 27         0.00126
       1 -> 28        -0.00195
       2 -> 17         0.00200
       2 -> 18        -0.00452
       2 -> 21         0.00408
       2 -> 22         0.00430
       2 -> 23         0.00189
       2 -> 24         0.00176
       2 -> 25         0.00122
       2 -> 26        -0.00151
       3 -> 16        -0.00190
       3 -> 17        -0.00124
       3 -> 18         0.00253
       3 -> 21        -0.00206
       3 -> 22        -0.00142
       3 -> 23         0.00132
       3 -> 24        -0.00273
       3 -> 25         0.00190
       3 -> 26         0.00130
       3 -> 29        -0.00192
       4 -> 17         0.00460
       4 -> 18        -0.00283
       4 -> 20         0.00465
       4 -> 21        -0.00802
       4 -> 22         0.00680
       4 -> 23        -0.00185
       4 -> 24         0.00128
       4 -> 25        -0.00113
       4 -> 27        -0.00161
       4 -> 29        -0.00142
       4 -> 30         0.00564
       5 -> 16        -0.00941
       5 -> 17         0.00554
       5 -> 18        -0.00136
       5 -> 19        -0.00378
       5 -> 20         0.00935
       5 -> 21        -0.00409
       5 -> 22         0.00170
       5 -> 26        -0.00122
       5 -> 28         0.00145
       5 -> 30         0.00542
       6 -> 16         0.00368
       6 -> 17        -0.00796
       6 -> 19         0.01096
       6 -> 20         0.01038
       6 -> 21        -0.00164
       6 -> 22        -0.00114
       6 -> 23        -0.00207
       6 -> 27         0.00324
       6 -> 28        -0.00446
       6 -> 29        -0.00196
       6 -> 30         0.00114
       7 -> 16        -0.00478
       7 -> 17         0.00417
       7 -> 18        -0.01447
       7 -> 20         0.00669
       7 -> 21         0.00868
       7 -> 22        -0.00180
       7 -> 23        -0.01950
       7 -> 24        -0.01509
       7 -> 26         0.00987
       7 -> 27        -0.00151
       7 -> 28         0.00253
       7 -> 29         0.00130
       8 -> 16         0.01246
       8 -> 17         0.00177
       8 -> 18         0.01318
       8 -> 19        -0.00880
       8 -> 22        -0.00796
       8 -> 23        -0.02484
       8 -> 24         0.02001
       8 -> 25        -0.02279
       8 -> 26        -0.00573
       8 -> 27         0.00402
       8 -> 28         0.00238
       9 -> 16         0.00275
       9 -> 17         0.01218
       9 -> 18        -0.03441
       9 -> 19         0.00131
       9 -> 20        -0.00772
       9 -> 21         0.00401
       9 -> 22         0.00505
       9 -> 23         0.01408
       9 -> 24         0.00631
       9 -> 25         0.00988
       9 -> 26        -0.01767
       9 -> 27        -0.00370
       9 -> 28         0.00229
       9 -> 29        -0.00665
       9 -> 30        -0.00387
      10 -> 16         0.01530
      10 -> 17         0.00696
      10 -> 18        -0.00937
      10 -> 19        -0.00850
      10 -> 21         0.00212
      10 -> 22        -0.00477
      10 -> 23        -0.00877
      10 -> 24         0.01456
      10 -> 25        -0.02832
      10 -> 26        -0.01133
      10 -> 28        -0.01175
      10 -> 29         0.02037
      11 -> 16         0.00299
      11 -> 17        -0.01132
      11 -> 18         0.01916
      11 -> 19         0.00312
      11 -> 20        -0.00191
      11 -> 21        -0.00715
      11 -> 22         0.00286
      11 -> 23         0.00921
      11 -> 24        -0.00314
      11 -> 25         0.00771
      11 -> 26        -0.00107
      11 -> 29        -0.00485
      12 -> 16         0.08012
      12 -> 17        -0.04932
      12 -> 18        -0.00453
      12 -> 19         0.00881
      12 -> 20        -0.03945
      12 -> 21        -0.00304
      12 -> 22         0.01144
      12 -> 23        -0.00474
      12 -> 24         0.00237
      12 -> 26        -0.00734
      12 -> 27         0.02521
      12 -> 28         0.02464
      12 -> 29         0.01492
      12 -> 30        -0.00873
      13 -> 16         0.05249
      13 -> 17        -0.13880
      13 -> 18         0.03214
      13 -> 19        -0.03105
      13 -> 20        -0.03746
      13 -> 21         0.02749
      13 -> 22        -0.01458
      13 -> 23         0.00435
      13 -> 24        -0.00644
      13 -> 25        -0.00166
      13 -> 26         0.00565
      13 -> 27        -0.03119
      13 -> 28         0.02468
      13 -> 29         0.01286
      13 -> 30        -0.02759
      14 -> 16        -0.31159
      14 -> 17         0.40179
      14 -> 18        -0.01191
      14 -> 19         0.01726
      14 -> 20         0.01734
      14 -> 22        -0.00546
      14 -> 23        -0.00166
      14 -> 24        -0.00324
      14 -> 25         0.00279
      14 -> 26         0.00364
      14 -> 27         0.00732
      14 -> 28        -0.01450
      14 -> 29        -0.00329
      14 -> 30         0.00184
      15 -> 16         0.33780
      15 -> 17         0.30055
      15 -> 18        -0.01929
      15 -> 19         0.00784
      15 -> 20        -0.00918
      15 -> 21         0.00113
      15 -> 22        -0.00138
      15 -> 23         0.00281
      15 -> 24         0.00755
      15 -> 25        -0.00378
      15 -> 26        -0.01000
      15 -> 27         0.00850
      15 -> 28        -0.00151
      15 -> 29         0.00307
      15 -> 30        -0.00482
       1 <- 19         0.00129
       1 <- 20         0.00110
       1 <- 27         0.00179
       1 <- 28        -0.00279
       1 <- 29        -0.00115
       2 <- 21         0.00186
       2 <- 22         0.00309
       2 <- 23         0.00414
       2 <- 24         0.00252
       2 <- 26        -0.00212
       2 <- 29        -0.00130
       3 <- 19         0.00119
       3 <- 23         0.00141
       3 <- 24        -0.00397
       3 <- 25         0.00225
       3 <- 26         0.00162
       3 <- 28         0.00151
       3 <- 29        -0.00224
       4 <- 18        -0.00124
       4 <- 20         0.00332
       4 <- 21        -0.00526
       4 <- 22         0.00462
       4 <- 23        -0.00132
       4 <- 30         0.00358
       5 <- 19        -0.00255
       5 <- 20         0.00561
       5 <- 21        -0.00324
       5 <- 22         0.00158
       5 <- 30         0.00314
       6 <- 19         0.00451
       6 <- 20         0.00448
       7 <- 20         0.00218
       7 <- 21         0.00269
       7 <- 23        -0.00802
       7 <- 24        -0.00657
       7 <- 26         0.00332
       8 <- 19        -0.00294
       8 <- 22        -0.00404
       8 <- 23        -0.01086
       8 <- 24         0.00905
       8 <- 25        -0.00807
       8 <- 26        -0.00233
       8 <- 27         0.00192
       9 <- 20        -0.00326
       9 <- 21         0.00104
       9 <- 22         0.00284
       9 <- 23         0.00627
       9 <- 24         0.00295
       9 <- 25         0.00343
       9 <- 26        -0.00790
       9 <- 27        -0.00158
       9 <- 29        -0.00205
       9 <- 30        -0.00183
      10 <- 17         0.00146
      10 <- 19        -0.00354
      10 <- 21         0.00101
      10 <- 22        -0.00156
      10 <- 23        -0.00395
      10 <- 24         0.00628
      10 <- 25        -0.01049
      10 <- 26        -0.00426
      10 <- 28        -0.00387
      10 <- 29         0.00612
      11 <- 16        -0.00410
      11 <- 17        -0.00136
      11 <- 18        -0.00156
      11 <- 23         0.00167
      11 <- 25         0.00189
      11 <- 26         0.00236
      11 <- 27        -0.00108
      11 <- 28         0.00141
      12 <- 16         0.00460
      12 <- 17        -0.00296
      12 <- 19         0.00276
      12 <- 20        -0.01147
      12 <- 22         0.00298
      12 <- 23        -0.00200
      12 <- 26        -0.00183
      12 <- 27         0.00824
      12 <- 28         0.00873
      12 <- 29         0.00449
      12 <- 30        -0.00299
      13 <- 16         0.00302
      13 <- 17        -0.00560
      13 <- 18         0.00194
      13 <- 19        -0.00688
      13 <- 20        -0.01109
      13 <- 21         0.00941
      13 <- 22        -0.00615
      13 <- 23         0.00149
      13 <- 24        -0.00214
      13 <- 26         0.00155
      13 <- 27        -0.01002
      13 <- 28         0.00805
      13 <- 29         0.00400
      13 <- 30        -0.00988
      14 <- 16         0.05148
      14 <- 17        -0.06070
      14 <- 18        -0.00152
      14 <- 21        -0.00131
      14 <- 22        -0.00144
      14 <- 23         0.00111
      14 <- 28        -0.00134
      15 <- 16        -0.06445
      15 <- 17        -0.05191
      15 <- 18         0.00389
      15 <- 19         0.00248
      15 <- 20        -0.00253
      15 <- 23        -0.00109
      15 <- 24         0.00174
      15 <- 26        -0.00130
      15 <- 27         0.00252
 
 Excited state symmetry could not be determined.
 Excited State   4:      Singlet-?Sym    5.3921 eV  229.94 nm  f=0.3047  <S**2>=0.000
       1 -> 16        -0.00178
       1 -> 27         0.00202
       2 -> 17        -0.00129
       2 -> 18        -0.00203
       2 -> 19         0.00106
       2 -> 21         0.00252
       2 -> 22         0.00235
       2 -> 25         0.00144
       2 -> 28        -0.00117
       2 -> 29         0.00139
       3 -> 16         0.00271
       3 -> 17        -0.00122
       3 -> 18        -0.00533
       3 -> 20         0.00141
       3 -> 21         0.00556
       3 -> 22         0.00333
       3 -> 23        -0.00233
       3 -> 26         0.00122
       4 -> 16        -0.00881
       4 -> 17        -0.00459
       4 -> 18         0.00327
       4 -> 19         0.00489
       4 -> 20         0.00242
       4 -> 21         0.00618
       4 -> 22        -0.00503
       4 -> 23         0.00120
       4 -> 28         0.00189
       4 -> 29         0.00216
       4 -> 30        -0.00420
       5 -> 16        -0.00979
       5 -> 17        -0.00365
       5 -> 18        -0.00137
       5 -> 19        -0.01104
       5 -> 20         0.00379
       5 -> 21        -0.00342
       5 -> 22         0.00286
       5 -> 27         0.00193
       5 -> 28        -0.00115
       5 -> 29        -0.00125
       5 -> 30         0.00605
       6 -> 16        -0.01107
       6 -> 17        -0.00240
       6 -> 19         0.00769
       6 -> 20        -0.00780
       6 -> 21        -0.00555
       6 -> 22         0.00536
       6 -> 24        -0.00112
       6 -> 26        -0.00125
       6 -> 27         0.00583
       6 -> 28         0.00205
       7 -> 16         0.00190
       7 -> 17         0.00216
       7 -> 18         0.00721
       7 -> 19         0.00530
       7 -> 20         0.00191
       7 -> 22         0.00856
       7 -> 23         0.01805
       7 -> 24        -0.01731
       7 -> 25         0.00905
       7 -> 26         0.00538
       7 -> 27        -0.00368
       7 -> 28        -0.00124
       8 -> 17        -0.01161
       8 -> 18         0.01918
       8 -> 19         0.00227
       8 -> 20         0.00869
       8 -> 21         0.00785
       8 -> 23        -0.02587
       8 -> 24        -0.01566
       8 -> 25        -0.00283
       8 -> 26         0.02567
       8 -> 27         0.00125
       8 -> 28         0.00558
       9 -> 17        -0.00377
       9 -> 18        -0.01178
       9 -> 19         0.00949
       9 -> 20         0.00339
       9 -> 21         0.00273
       9 -> 22         0.00350
       9 -> 23         0.00625
       9 -> 24        -0.00734
       9 -> 25         0.01663
       9 -> 26         0.01029
       9 -> 27        -0.00181
       9 -> 28        -0.00770
       9 -> 29         0.02196
      10 -> 16        -0.01733
      10 -> 17         0.00537
      10 -> 18         0.04153
      10 -> 19        -0.00486
      10 -> 20        -0.00585
      10 -> 21        -0.01280
      10 -> 23         0.00920
      10 -> 24         0.00358
      10 -> 25         0.00251
      10 -> 26        -0.01630
      10 -> 27        -0.00272
      10 -> 28        -0.00466
      10 -> 29         0.00801
      10 -> 30         0.00513
      11 -> 16         0.01032
      11 -> 17         0.00360
      11 -> 18        -0.02080
      11 -> 19        -0.00254
      11 -> 20         0.00374
      11 -> 21         0.00574
      11 -> 22        -0.00545
      11 -> 23        -0.02007
      11 -> 24         0.00877
      11 -> 25        -0.01285
      11 -> 27         0.00508
      11 -> 28         0.00363
      11 -> 29        -0.00401
      12 -> 16         0.04707
      12 -> 17         0.08617
      12 -> 18         0.03226
      12 -> 19         0.05202
      12 -> 20         0.00740
      12 -> 21        -0.00274
      12 -> 22        -0.00661
      12 -> 23         0.00205
      12 -> 25         0.00291
      12 -> 26        -0.00130
      12 -> 27         0.03114
      12 -> 28        -0.01974
      12 -> 29        -0.00248
      12 -> 30        -0.02767
      13 -> 16         0.14490
      13 -> 17         0.06305
      13 -> 18        -0.01753
      13 -> 19         0.00161
      13 -> 20        -0.03976
      13 -> 21        -0.02344
      13 -> 22         0.01724
      13 -> 23        -0.00361
      13 -> 24         0.00110
      13 -> 25         0.00209
      13 -> 26        -0.01167
      13 -> 27         0.02348
      13 -> 28         0.02706
      13 -> 29         0.00403
      13 -> 30         0.00967
      14 -> 16        -0.37573
      14 -> 17        -0.32907
      14 -> 18         0.00874
      14 -> 19        -0.01979
      14 -> 20         0.00296
      14 -> 21         0.00817
      14 -> 22        -0.00490
      14 -> 23         0.00768
      14 -> 24         0.00219
      14 -> 26        -0.00220
      14 -> 27        -0.02083
      14 -> 28         0.00122
      14 -> 29        -0.00113
      14 -> 30         0.00106
      15 -> 16        -0.27271
      15 -> 17         0.36695
      15 -> 18         0.00604
      15 -> 19        -0.00549
      15 -> 20         0.02082
      15 -> 21        -0.01589
      15 -> 22         0.00545
      15 -> 23        -0.00562
      15 -> 24         0.00637
      15 -> 25        -0.00611
      15 -> 26        -0.00300
      15 -> 27         0.00420
      15 -> 28        -0.01524
      15 -> 29        -0.00238
      15 -> 30         0.01319
       1 <- 27         0.00320
       1 <- 28         0.00145
       2 <- 19         0.00116
       2 <- 21         0.00157
       2 <- 22         0.00241
       2 <- 23         0.00153
       2 <- 24        -0.00340
       2 <- 25         0.00195
       2 <- 26         0.00185
       2 <- 29         0.00264
       3 <- 20         0.00113
       3 <- 21         0.00377
       3 <- 22         0.00215
       3 <- 23        -0.00404
       3 <- 26         0.00189
       3 <- 28         0.00123
       4 <- 18         0.00136
       4 <- 19         0.00326
       4 <- 21         0.00425
       4 <- 22        -0.00383
       4 <- 23         0.00102
       4 <- 30        -0.00300
       5 <- 18        -0.00103
       5 <- 19        -0.00688
       5 <- 20         0.00275
       5 <- 21        -0.00271
       5 <- 22         0.00270
       5 <- 30         0.00392
       6 <- 19         0.00341
       6 <- 20        -0.00350
       6 <- 21        -0.00252
       6 <- 22         0.00247
       6 <- 27         0.00115
       7 <- 16        -0.00109
       7 <- 19         0.00191
       7 <- 22         0.00293
       7 <- 23         0.00755
       7 <- 24        -0.00764
       7 <- 25         0.00293
       7 <- 26         0.00204
       7 <- 27        -0.00101
       8 <- 19         0.00112
       8 <- 20         0.00354
       8 <- 21         0.00328
       8 <- 23        -0.01184
       8 <- 24        -0.00809
       8 <- 26         0.00975
       8 <- 28         0.00248
       9 <- 19         0.00351
       9 <- 22         0.00230
       9 <- 23         0.00305
       9 <- 24        -0.00426
       9 <- 25         0.00788
       9 <- 26         0.00500
       9 <- 28        -0.00199
       9 <- 29         0.00725
      10 <- 16        -0.00133
      10 <- 17         0.00154
      10 <- 19        -0.00142
      10 <- 20        -0.00230
      10 <- 21        -0.00467
      10 <- 23         0.00498
      10 <- 24         0.00106
      10 <- 25         0.00225
      10 <- 26        -0.00728
      10 <- 27        -0.00160
      10 <- 28        -0.00196
      10 <- 29         0.00262
      10 <- 30         0.00210
      11 <- 17         0.00301
      11 <- 18         0.00131
      11 <- 23        -0.00309
      11 <- 24         0.00139
      11 <- 25        -0.00129
      11 <- 26         0.00114
      12 <- 16         0.00308
      12 <- 17         0.00444
      12 <- 18         0.00216
      12 <- 19         0.01601
      12 <- 22        -0.00359
      12 <- 23         0.00107
      12 <- 25         0.00105
      12 <- 27         0.01022
      12 <- 28        -0.00665
      12 <- 29        -0.00103
      12 <- 30        -0.01042
      13 <- 16         0.00646
      13 <- 17         0.00241
      13 <- 18        -0.00155
      13 <- 20        -0.01013
      13 <- 21        -0.00683
      13 <- 22         0.00581
      13 <- 23        -0.00170
      13 <- 26        -0.00309
      13 <- 27         0.00821
      13 <- 28         0.00893
      13 <- 29         0.00188
      13 <- 30         0.00378
      14 <- 16         0.06350
      14 <- 17         0.04953
      14 <- 18         0.00342
      14 <- 20        -0.00108
      14 <- 21        -0.00112
      14 <- 24        -0.00133
      15 <- 16         0.05315
      15 <- 17        -0.06257
      15 <- 18         0.00119
      15 <- 20         0.00416
      15 <- 21        -0.00369
      15 <- 22         0.00186
      15 <- 28        -0.00173
 
 Excited state symmetry could not be determined.
 Excited State   5:      Singlet-?Sym    5.8922 eV  210.42 nm  f=0.0203  <S**2>=0.000
       1 -> 16         0.00384
       2 -> 22         0.00114
       3 -> 16        -0.00248
       3 -> 17        -0.00173
       3 -> 18         0.00821
       3 -> 22         0.00204
       4 -> 16         0.02233
       4 -> 17         0.01367
       4 -> 18        -0.00142
       4 -> 21         0.00121
       4 -> 22        -0.00162
       4 -> 25        -0.00154
       4 -> 30        -0.00129
       5 -> 16         0.01491
       5 -> 17         0.00256
       5 -> 18        -0.00220
       5 -> 19        -0.00335
       5 -> 20         0.00137
       5 -> 21        -0.00171
       5 -> 30         0.00184
       6 -> 16         0.02752
       6 -> 18        -0.00251
       6 -> 19         0.00271
       6 -> 21        -0.00138
       6 -> 26        -0.00131
       6 -> 27         0.00145
       6 -> 29         0.00119
       7 -> 16        -0.01514
       7 -> 17        -0.00776
       7 -> 18         0.07141
       7 -> 19        -0.00124
       7 -> 20         0.00310
       7 -> 22         0.00935
       7 -> 23         0.00434
       7 -> 24        -0.00510
       7 -> 25         0.00109
       7 -> 26         0.00304
       8 -> 16         0.01090
       8 -> 17         0.01205
       8 -> 18        -0.04593
       8 -> 19         0.00513
       8 -> 20         0.00524
       8 -> 21         0.00195
       8 -> 22        -0.00637
       8 -> 23        -0.00937
       8 -> 24        -0.00560
       8 -> 26         0.00581
       8 -> 27         0.00177
       8 -> 29        -0.00113
       9 -> 16         0.00795
       9 -> 18        -0.00208
       9 -> 19         0.00530
       9 -> 21        -0.00174
       9 -> 22         0.00177
       9 -> 23         0.00316
       9 -> 24        -0.00359
       9 -> 25         0.00418
       9 -> 26         0.00126
       9 -> 29         0.00484
      10 -> 16         0.02684
      10 -> 17         0.01318
      10 -> 18        -0.08893
      10 -> 19         0.00256
      10 -> 20        -0.00189
      10 -> 21        -0.00596
      10 -> 22        -0.01215
      10 -> 23         0.00438
      10 -> 24        -0.00319
      10 -> 26        -0.00577
      10 -> 28        -0.00422
      10 -> 29         0.00151
      11 -> 16        -0.00809
      11 -> 17        -0.00596
      11 -> 18         0.02469
      11 -> 20        -0.00486
      11 -> 21        -0.00740
      11 -> 22        -0.00573
      11 -> 23         0.00811
      11 -> 24        -0.00585
      11 -> 25        -0.00419
      11 -> 27         0.00123
      11 -> 28         0.00525
      11 -> 29        -0.00447
      12 -> 16         0.21807
      12 -> 17         0.07414
      12 -> 18        -0.02487
      12 -> 19         0.01574
      12 -> 22        -0.00251
      12 -> 23         0.00310
      12 -> 24        -0.00209
      12 -> 25         0.00225
      12 -> 26        -0.00274
      12 -> 27         0.01015
      12 -> 28        -0.00458
      12 -> 29        -0.00187
      12 -> 30        -0.00846
      13 -> 16        -0.63378
      13 -> 17         0.04226
      13 -> 18         0.02623
      13 -> 19        -0.00198
      13 -> 20        -0.01304
      13 -> 22         0.00548
      13 -> 23        -0.00480
      13 -> 24         0.00150
      13 -> 25         0.00219
      13 -> 26        -0.00264
      13 -> 27         0.00420
      13 -> 28         0.00921
      13 -> 30         0.00199
      14 -> 16        -0.08119
      14 -> 17        -0.03389
      14 -> 18        -0.00598
      14 -> 19         0.01237
      14 -> 20         0.02128
      14 -> 21        -0.00166
      14 -> 22        -0.00149
      14 -> 23         0.00194
      14 -> 24         0.00379
      14 -> 27        -0.00525
      14 -> 28        -0.00701
      15 -> 16        -0.03885
      15 -> 17         0.07736
      15 -> 18        -0.05668
      15 -> 19         0.01802
      15 -> 20         0.01911
      15 -> 21         0.03306
      15 -> 22        -0.03402
      15 -> 23         0.01587
      15 -> 24        -0.00541
      15 -> 25         0.00509
      15 -> 27        -0.00312
      15 -> 28         0.00799
      15 -> 29         0.00475
      15 -> 30        -0.01072
       3 <- 21         0.00132
       3 <- 23        -0.00101
       4 <- 17        -0.00108
       5 <- 16        -0.00124
       5 <- 19        -0.00194
       5 <- 21        -0.00101
       5 <- 30         0.00113
       6 <- 16        -0.00121
       7 <- 23         0.00135
       7 <- 24        -0.00228
       8 <- 18         0.00101
       8 <- 20         0.00135
       8 <- 23        -0.00348
       8 <- 24        -0.00119
       8 <- 26         0.00216
       9 <- 23         0.00129
       9 <- 25         0.00173
       9 <- 29         0.00114
      10 <- 16        -0.00174
      10 <- 18         0.00136
      10 <- 21        -0.00227
      10 <- 23         0.00125
      10 <- 26        -0.00197
      10 <- 30         0.00131
      11 <- 16        -0.00414
      11 <- 21        -0.00377
      11 <- 22        -0.00497
      11 <- 24        -0.00200
      11 <- 25        -0.00151
      11 <- 28         0.00165
      11 <- 29        -0.00223
      12 <- 17         0.00170
      12 <- 19         0.00417
      12 <- 27         0.00348
      12 <- 28        -0.00122
      12 <- 30        -0.00241
      13 <- 16         0.00418
      13 <- 20        -0.00205
      13 <- 27         0.00128
      13 <- 28         0.00187
      14 <- 16         0.01427
      14 <- 17         0.00821
      14 <- 18         0.00137
      14 <- 19         0.00755
      14 <- 20         0.00986
      14 <- 21        -0.00129
      14 <- 27         0.00176
      14 <- 28        -0.00589
      14 <- 29        -0.00155
      15 <- 16         0.00655
      15 <- 17        -0.02092
      15 <- 18         0.00773
      15 <- 19        -0.00225
      15 <- 20         0.00919
      15 <- 21         0.00809
      15 <- 22        -0.00872
      15 <- 23         0.00385
      15 <- 26         0.00162
      15 <- 27        -0.00673
      15 <- 28        -0.00120
      15 <- 30        -0.00355
 SavETr:  write IOETrn=   770 NScale= 10 NData=  16 NLR=1 NState=    5 LETran=     100.

 **********************************************************************

            Population analysis using the SCF Density.

 **********************************************************************

 Alpha  occ. eigenvalues --   -1.44493  -1.16425  -1.14787  -0.85263  -0.84410
 Alpha  occ. eigenvalues --   -0.65836  -0.59255  -0.56691  -0.52612  -0.51911
 Alpha  occ. eigenvalues --   -0.49119  -0.43876  -0.43361  -0.35850  -0.35139
 Alpha virt. eigenvalues --    0.01718   0.02227   0.10694   0.14437   0.14660
 Alpha virt. eigenvalues --    0.15059   0.15719   0.16949   0.17163   0.18607
 Alpha virt. eigenvalues --    0.18984   0.20549   0.20810   0.21026   0.22495
          Condensed to atoms (all electrons):
               1          2          3          4          5          6
     1  C    4.133180   0.000000   0.000000   0.000000   0.000000   0.000000
     2  C    0.000000   4.136947   0.000000   0.000000   0.000000   0.000000
     3  C    0.000000   0.000000   4.124913   0.000000   0.000000   0.000000
     4  C    0.000000   0.000000   0.000000   4.130319   0.000000   0.000000
     5  C    0.000000   0.000000   0.000000   0.000000   4.131084   0.000000
     6  C    0.000000   0.000000   0.000000   0.000000   0.000000   4.122904
     7  H    0.000000   0.000000   0.000000   0.000000   0.000000   0.000000
     8  H    0.000000   0.000000   0.000000   0.000000   0.000000   0.000000
     9  H    0.000000   0.000000   0.000000   0.000000   0.000000   0.000000
    10  H    0.000000   0.000000   0.000000   0.000000   0.000000   0.000000
    11  H    0.000000   0.000000   0.000000   0.000000   0.000000   0.000000
    12  H    0.000000   0.000000   0.000000   0.000000   0.000000   0.000000
               7          8          9         10         11         12
     1  C    0.000000   0.000000   0.000000   0.000000   0.000000   0.000000
     2  C    0.000000   0.000000   0.000000   0.000000   0.000000   0.000000
     3  C    0.000000   0.000000   0.000000   0.000000   0.000000   0.000000
     4  C    0.000000   0.000000   0.000000   0.000000   0.000000   0.000000
     5  C    0.000000   0.000000   0.000000   0.000000   0.000000   0.000000
     6  C    0.000000   0.000000   0.000000   0.000000   0.000000   0.000000
     7  H    0.881002   0.000000   0.000000   0.000000   0.000000   0.000000
     8  H    0.000000   0.857388   0.000000   0.000000   0.000000   0.000000
     9  H    0.000000   0.000000   0.877202   0.000000   0.000000   0.000000
    10  H    0.000000   0.000000   0.000000   0.864168   0.000000   0.000000
    11  H    0.000000   0.000000   0.000000   0.000000   0.877136   0.000000
    12  H    0.000000   0.000000   0.000000   0.000000   0.000000   0.863756
 Mulliken charges:
               1
     1  C   -0.133180
     2  C   -0.136947
     3  C   -0.124913
     4  C   -0.130319
     5  C   -0.131084
     6  C   -0.122904
     7  H    0.118998
     8  H    0.142612
     9  H    0.122798
    10  H    0.135832
    11  H    0.122864
    12  H    0.136244
 Sum of Mulliken charges =  -0.00000
 Mulliken charges with hydrogens summed into heavy atoms:
               1
     1  C   -0.014183
     2  C    0.005665
     3  C   -0.002115
     4  C    0.005513
     5  C   -0.008220
     6  C    0.013339
 Charge=             -0.0000 electrons
 Dipole moment (field-independent basis, Debye):
    X=             -0.0005    Y=             -0.0486    Z=              0.3659  Tot=              0.3691
 N-N= 1.198186225886D+02 E-N=-1.708995720583D+02  KE=-4.786238221114D+01

 Test job not archived.
 1\1\GINC-BHC0201\SP\RAM1 TD-Full\STO-5G\C6H6\BWEIGHT\21-Mar-2025\0\\# 
 AM1/STO-5G SCF=XQC TD=(read,singlets,nstates=5,root=1) nosym IOp(9/40=
 3) guess=read\\MD Step 25\\0,1\C,0,-0.67421639,-1.17620513,0.01885243\
 C,0,0.72612481,-1.23254605,-0.00962283\C,0,1.38045203,0.01065582,0.011
 46555\C,0,0.69462184,1.21432889,-0.02267833\C,0,-0.71579003,1.17098906
 ,-0.02031227\C,0,-1.4125654,0.01982276,-0.00410584\H,0,-1.17745599,-2.
 12580578,0.16668377\H,0,1.26904196,-2.19103466,-0.0296791\H,0,2.459109
 47,-0.03565742,0.20560472\H,0,1.14936579,2.1859041,0.1733581\H,0,-1.24
 309789,2.15166221,0.0918231\H,0,-2.48959778,-0.02047874,-0.08008482\\V
 ersion=ES64L-G16RevC.01\HF=0.0473738\RMSD=5.647e-09\PG=C01 [X(C6H6)]\\
 @


 IF I AM NOT FOR MYSELF, WHO WILL BE?
 BUT IF I AM ONLY FOR MYSELF, WHAT AM I?
 THOUGH A SEEKER SINCE MY BIRTH,
 HERE IS ALL I'VE LEARNED ON EARTH,
 THIS IS THE GIST OF WHAT I KNOW:
 GIVE ADVICE AND BUY A FOE.

 PRESSED FOR RULES AND VERITIES,
 ALL I RECOLLECT ARE THESE:
 FEED A COLD TO STARVE A FEVER,
 ARGUE WITH NO TRUE-BELIEVER.
 THINK-TOO-LONG IS NEVER-ACT,
 SCRATCH A MYTH AND FIND A FACT.

 STITCH IN TIME SAVES TWENTY STITCHES,
 GIVE THE RICH TO PLEASE THEM, RICHES.
 GIVE TO LOVE YOU HEARTH AND HALL,
 BUT DO NOT GIVE ADVICE AT ALL.

                                  -- HILLEL
 Job cpu time:       0 days  0 hours  0 minutes  1.1 seconds.
 Elapsed time:       0 days  0 hours  0 minutes  0.8 seconds.
 File lengths (MBytes):  RWF=     34 Int=      0 D2E=      0 Chk=      2 Scr=      1
 Normal termination of Gaussian 16 at Fri Mar 21 15:03:20 2025.
