 Entering Gaussian System, Link 0=g16
 Initial command:
 /software/gaussian/g16-c01/avx2/g16/l1.exe "/local_scratch/28554419/Gau-8957.inp" -scrdir="/local_scratch/28554419/"
 Entering Link 1 = /software/gaussian/g16-c01/avx2/g16/l1.exe PID=      8967.
  
 Copyright (c) 1988-2019, Gaussian, Inc.  All Rights Reserved.
  
 This is part of the Gaussian(R) 16 program.  It is based on
 the Gaussian(R) 09 system (copyright 2009, Gaussian, Inc.),
 the Gaussian(R) 03 system (copyright 2003, Gaussian, Inc.),
 the Gaussian(R) 98 system (copyright 1998, Gaussian, Inc.),
 the Gaussian(R) 94 system (copyright 1995, Gaussian, Inc.),
 the Gaussian 92(TM) system (copyright 1992, Gaussian, Inc.),
 the Gaussian 90(TM) system (copyright 1990, Gaussian, Inc.),
 the Gaussian 88(TM) system (copyright 1988, Gaussian, Inc.),
 the Gaussian 86(TM) system (copyright 1986, Carnegie Mellon
 University), and the Gaussian 82(TM) system (copyright 1983,
 Carnegie Mellon University). Gaussian is a federally registered
 trademark of Gaussian, Inc.
  
 This software contains proprietary and confidential information,
 including trade secrets, belonging to Gaussian, Inc.
  
 This software is provided under written license and may be
 used, copied, transmitted, or stored only in accord with that
 written license.
  
 The following legend is applicable only to US Government
 contracts under FAR:
  
                    RESTRICTED RIGHTS LEGEND
  
 Use, reproduction and disclosure by the US Government is
 subject to restrictions as set forth in subparagraphs (a)
 and (c) of the Commercial Computer Software - Restricted
 Rights clause in FAR 52.227-19.
  
 Gaussian, Inc.
 340 Quinnipiac St., Bldg. 40, Wallingford CT 06492
  
  
 ---------------------------------------------------------------
 Warning -- This program may not be used in any manner that
 competes with the business of Gaussian, Inc. or will provide
 assistance to any competitor of Gaussian, Inc.  The licensee
 of this program is prohibited from giving any competitor of
 Gaussian, Inc. access to this program.  By using this program,
 the user acknowledges that Gaussian, Inc. is engaged in the
 business of creating and licensing software in the field of
 computational chemistry and represents and warrants to the
 licensee that it is not a competitor of Gaussian, Inc. and that
 it will not use this program in any manner prohibited above.
 ---------------------------------------------------------------
  

 Cite this work as:
 Gaussian 16, Revision C.01,
 M. J. Frisch, G. W. Trucks, H. B. Schlegel, G. E. Scuseria, 
 M. A. Robb, J. R. Cheeseman, G. Scalmani, V. Barone, 
 G. A. Petersson, H. Nakatsuji, X. Li, M. Caricato, A. V. Marenich, 
 J. Bloino, B. G. Janesko, R. Gomperts, B. Mennucci, H. P. Hratchian, 
 J. V. Ortiz, A. F. Izmaylov, J. L. Sonnenberg, D. Williams-Young, 
 F. Ding, F. Lipparini, F. Egidi, J. Goings, B. Peng, A. Petrone, 
 T. Henderson, D. Ranasinghe, V. G. Zakrzewski, J. Gao, N. Rega, 
 G. Zheng, W. Liang, M. Hada, M. Ehara, K. Toyota, R. Fukuda, 
 J. Hasegawa, M. Ishida, T. Nakajima, Y. Honda, O. Kitao, H. Nakai, 
 T. Vreven, K. Throssell, J. A. Montgomery, Jr., J. E. Peralta, 
 F. Ogliaro, M. J. Bearpark, J. J. Heyd, E. N. Brothers, K. N. Kudin, 
 V. N. Staroverov, T. A. Keith, R. Kobayashi, J. Normand, 
 K. Raghavachari, A. P. Rendell, J. C. Burant, S. S. Iyengar, 
 J. Tomasi, M. Cossi, J. M. Millam, M. Klene, C. Adamo, R. Cammi, 
 J. W. Ochterski, R. L. Martin, K. Morokuma, O. Farkas, 
 J. B. Foresman, and D. J. Fox, Gaussian, Inc., Wallingford CT, 2019.
 
 ******************************************
 Gaussian 16:  ES64L-G16RevC.01  3-Jul-2019
                21-Mar-2025 
 ******************************************
 %oldchk=../TD_OLD_S1/geometry.chk
 %chk=geometry.chk
 %nprocshared=1
 Will use up to    1 processors via shared memory.
 %mem=2GB
 Copying data from "../TD_OLD_S1/geometry.chk" to current chk file "geometry.chk"
 IOpt=  2 FromEx=T IUOpen= 4 IOptOp= 5 NList=   0 IFRang= 0 IUIn= 4 IUOut= 2.
 ----------------------------------------------------------------------
 # AM1/STO-5G SCF=XQC TD=(read,singlets,nstates=5,root=1) nosym IOp(9/4
 0=3) guess=read
 ----------------------------------------------------------------------
 1/38=1,172=1/1;
 2/12=2,15=1,17=6,18=5,40=1/2;
 3/5=2,6=5,25=1,41=700000,116=-2/1,2,3,8;
 4/5=1,35=1/1;
 5/5=2,8=3,13=1,35=1,38=6/2,8;
 8/6=1,10=90,107=1,108=5/1;
 9/8=1,40=3,41=5,42=1,48=1,49=13,70=2/14;
 6/7=2,8=2,9=2,10=2/1;
 99/5=1,9=1/99;
 ----------
 MD Step 15
 ----------
 Symbolic Z-matrix:
 Charge =  0 Multiplicity = 1
 C                    -0.682    -1.20358   0.01688 
 C                     0.70788  -1.20755   0.03123 
 C                     1.40288  -0.00083  -0.01057 
 C                     0.68709   1.21192   0.01809 
 C                    -0.6966    1.2237   -0.00289 
 C                    -1.41862  -0.02686  -0.01412 
 H                    -1.26594  -2.10383  -0.03654 
 H                     1.25102  -2.16417  -0.07105 
 H                     2.50517   0.06677  -0.02113 
 H                     1.22457   2.17055   0.03585 
 H                    -1.26806   2.17758  -0.12435 
 H                    -2.5032   -0.0602   -0.02977 
 
                          Input orientation:                          
 ---------------------------------------------------------------------
 Center     Atomic      Atomic             Coordinates (Angstroms)
 Number     Number       Type             X           Y           Z
 ---------------------------------------------------------------------
      1          6           0       -0.682003   -1.203576    0.016875
      2          6           0        0.707883   -1.207555    0.031226
      3          6           0        1.402878   -0.000833   -0.010570
      4          6           0        0.687093    1.211922    0.018093
      5          6           0       -0.696601    1.223697   -0.002892
      6          6           0       -1.418625   -0.026858   -0.014120
      7          1           0       -1.265940   -2.103832   -0.036542
      8          1           0        1.251023   -2.164166   -0.071048
      9          1           0        2.505166    0.066768   -0.021133
     10          1           0        1.224569    2.170554    0.035845
     11          1           0       -1.268065    2.177581   -0.124347
     12          1           0       -2.503196   -0.060196   -0.029773
 ---------------------------------------------------------------------
                    Distance matrix (angstroms):
                    1          2          3          4          5
     1  C    0.000000
     2  C    1.389965   0.000000
     3  C    2.407087   1.393177   0.000000
     4  C    2.776518   2.419601   1.408526   0.000000
     5  C    2.427397   2.807974   2.430502   1.383902   0.000000
     6  C    1.388610   2.432722   2.821625   2.443288   1.444068
     7  H    1.074382   2.168843   3.397921   3.848576   3.376052
     8  H    2.160337   1.104793   2.169499   3.424023   3.908388
     9  H    3.431218   2.203829   1.104409   2.149024   3.404427
    10  H    3.875581   3.417398   2.179191   1.099169   2.142180
    11  H    3.434477   3.922718   3.448531   2.185275   1.118579
    12  H    2.150869   3.410451   3.906572   3.434897   2.216504
                    6          7          8          9         10
     6  C    0.000000
     7  H    2.082699   0.000000
     8  H    3.420285   2.517922   0.000000
     9  H    3.924914   4.351204   2.559771   0.000000
    10  H    3.437673   4.947550   4.336119   2.463553   0.000000
    11  H    2.212322   4.282314   5.019902   4.324749   2.497786
    12  H    1.085196   2.388994   4.303784   5.009978   4.344743
                   11         12
    11  H    0.000000
    12  H    2.557761   0.000000
 Symmetry turned off by external request.
 Stoichiometry    C6H6
 Framework group  C1[X(C6H6)]
 Deg. of freedom    30
 Full point group                 C1      NOp   1
 Rotational constants (GHZ):           5.6629824           5.6240451           2.8230327
 Standard basis: VSTO-5G (5D, 7F)
    30 basis functions,   180 primitive gaussians,    30 cartesian basis functions
    15 alpha electrons       15 beta electrons
       nuclear repulsion energy       119.3904639541 Hartrees.
 Integral buffers will be    131072 words long.
 Regular integral format.
 Two-electron integral symmetry is turned off.
 Do NDO integrals.
 One-electron integrals computed using PRISM.
 NBasis=    30 RedAO= F EigKep=  0.00D+00  NBF=    30
 NBsUse=    30 1.00D-04 EigRej=  0.00D+00 NBFU=    30
 Initial guess from the checkpoint file:  "geometry.chk"
 B after Tr=    -0.000302    0.000895    0.001693
         Rot=    1.000000   -0.000304    0.000361   -0.000157 Ang=  -0.06 deg.
 Keep J ints in memory in canonical form, NReq=861816.
 Overlap will be assumed to be unity.
 Requested convergence on RMS density matrix=1.00D-08 within  32 cycles.
 Requested convergence on MAX density matrix=1.00D-06.
 Requested convergence on             energy=1.00D-06.
 No special actions if energy rises.
 SCF Done:  E(RAM1) =  0.410830444835E-01 A.U. after   12 cycles
            NFock= 11  Conv=0.60D-08     -V/T= 1.0009
 QCSCF skips out because SCF is already converged.
 Range of M.O.s used for correlation:     1    30
 NBasis=    30 NAE=    15 NBE=    15 NFC=     0 NFV=     0
 NROrb=     30 NOA=    15 NOB=    15 NVA=    15 NVB=    15
 Keep J ints in memory in canonical form, NReq=862156.
 Generating guess from checkpoint file densities.
 Convergence on wavefunction:    0.001000000000000
 Iteration     1 Dimension    10 NMult     0 NNew     10
 CISAX will form    10 AO SS matrices at one time.
 Iteration     2 Dimension    20 NMult    10 NNew     10
 Iteration     3 Dimension    30 NMult    20 NNew     10
 Iteration     4 Dimension    40 NMult    30 NNew     10
 Iteration     5 Dimension    48 NMult    40 NNew      8
 Iteration     6 Dimension    54 NMult    48 NNew      6
 Iteration     7 Dimension    56 NMult    54 NNew      2
 Iteration     8 Dimension    58 NMult    56 NNew      2
 Iteration     9 Dimension    60 NMult    58 NNew      2
 Convergence on energies, max DE= 9.56D-06.
 ***********************************************************************
 Excited states from <AA,BB:AA,BB> singles matrix:
 ***********************************************************************
 
 Ground to excited state transition densities written to RWF  633
 Ground to excited state transition electric dipole moments (Au):
       state          X           Y           Z        Dip. S.      Osc.
         1         0.0157     -0.0097      0.0012      0.0003      0.0000
         2         0.1563      0.1320     -0.0215      0.0423      0.0043
         3         0.3725      1.5684     -0.0199      2.5989      0.3444
         4         1.6202     -0.4274      0.0058      2.8076      0.3750
         5        -0.1534      0.1818     -0.0407      0.0582      0.0084
 Ground to excited state transition velocity dipole moments (Au):
       state          X           Y           Z        Dip. S.      Osc.
         1        -0.0034      0.0019     -0.0003      0.0000      0.0001
         2        -0.0388     -0.0323      0.0144      0.0028      0.0121
         3        -0.1197     -0.4915     -0.0092      0.2560      0.8588
         4        -0.5059      0.1315     -0.0112      0.2734      0.9095
         5         0.0516     -0.0615     -0.0299      0.0073      0.0226
 Ground to excited state transition magnetic dipole moments (Au):
       state          X           Y           Z
         1         0.0131     -0.0040     -0.0093
         2        -0.0150     -0.0461     -0.1528
         3        -0.0622      0.0240     -0.0036
         4         0.0117      0.0343      0.0018
         5         0.1310     -0.0497      0.0530
 Ground to excited state transition velocity quadrupole moments (Au):
       state          XX          YY          ZZ          XY          XZ          YZ
         1         0.0067     -0.0066     -0.0001     -0.0033      0.0006      0.0071
         2         0.0339     -0.0204     -0.0002      0.0275      0.0321     -0.0013
         3         0.0081     -0.0157      0.0003      0.0031      0.0044     -0.0248
         4         0.0286     -0.0324     -0.0040     -0.0720      0.0227     -0.0064
         5        -0.0887      0.0407     -0.0007      0.0023     -0.0190     -0.0356
 <0|del|b> * <b|rxdel|0> + <0|del|b> * <b|delr+rdel|0>
 Rotatory Strengths (R) in cgs (10**-40 erg-esu-cm/Gauss)
       state          XX          YY          ZZ    R(velocity)    E-M Angle
         1        -0.0114     -0.1707     -0.0679     -0.0834       90.00
         2         1.6918     -4.5501      2.2859     -0.1908       90.84
         3       -17.1831     18.6369    -16.8711     -5.1391       97.37
         4         4.0802     -6.1397     -2.9052     -1.6549       94.25
         5         0.3862      5.5644     20.9602      8.9703       50.12
 1/2[<0|r|b>*<b|rxdel|0> + (<0|rxdel|b>*<b|r|0>)*]
 Rotatory Strengths (R) in cgs (10**-40 erg-esu-cm/Gauss)
       state          XX          YY          ZZ     R(length)
         1        -0.1457     -0.0274      0.0081     -0.0550
         2         1.6550      4.3037     -2.3243      1.2114
         3        16.3869    -26.6598     -0.0502     -3.4410
         4       -13.3546     10.3712     -0.0076     -0.9970
         5        14.2122      6.3919      1.5256      7.3766
  1/2[<0|del|b>*<b|r|0> + (<0|r|b>*<b|del|0>)*] (Au)
       state          X           Y           Z        Dip. S.   Osc.(frdel)
         1        -0.0001     -0.0000     -0.0000      0.0001      0.0000
         2        -0.0061     -0.0043     -0.0003      0.0106      0.0071
         3        -0.0446     -0.7709      0.0002      0.8153      0.5435
         4        -0.8197     -0.0562     -0.0001      0.8759      0.5840
         5        -0.0079     -0.0112      0.0012      0.0179      0.0119

 Excitation energies and oscillator strengths:
 
 Excited state symmetry could not be determined.
 Excited State   1:      Singlet-?Sym    3.8156 eV  324.94 nm  f=0.0000  <S**2>=0.000
       2 -> 23        -0.00337
       2 -> 25         0.00181
       3 -> 24         0.00339
       3 -> 26        -0.00174
       4 -> 27        -0.00268
       5 -> 16         0.00134
       5 -> 28        -0.00273
       7 -> 17        -0.00105
       7 -> 29         0.00255
       8 -> 18        -0.00288
       8 -> 22        -0.00184
       9 -> 23         0.00351
       9 -> 25        -0.00274
      10 -> 18         0.00143
      10 -> 24         0.00312
      10 -> 26        -0.00217
      11 -> 16        -0.00199
      11 -> 17         0.00331
      11 -> 19         0.00105
      11 -> 21         0.00134
      11 -> 27        -0.00221
      11 -> 28         0.00110
      11 -> 29        -0.00143
      12 -> 18        -0.00101
      13 -> 16         0.00125
      13 -> 18        -0.00112
      13 -> 28         0.00110
      14 -> 16         0.50078
      14 -> 17         0.01346
      14 -> 18        -0.00475
      14 -> 21        -0.00140
      14 -> 22        -0.00281
      14 -> 23         0.00310
      14 -> 26        -0.00192
      15 -> 16         0.01588
      15 -> 17        -0.50795
      15 -> 18         0.00246
      15 -> 22         0.00217
      15 -> 23        -0.00250
      15 -> 24         0.00234
      15 -> 25        -0.00165
      15 -> 27         0.00184
      15 -> 29         0.00172
       2 <- 23        -0.00120
       3 <- 24         0.00114
       4 <- 27        -0.00210
       5 <- 28        -0.00218
       7 <- 29         0.00189
       8 <- 22        -0.00111
      11 <- 17         0.00110
      12 <- 17         0.00102
      13 <- 16         0.00266
      14 <- 16         0.06937
      14 <- 17         0.00216
      14 <- 22        -0.00123
      15 <- 16         0.00162
      15 <- 17        -0.06773
      15 <- 23        -0.00106
      15 <- 24         0.00121
 This state for optimization and/or second-order correction.
 Total Energy, E(TD-HF/TD-DFT) =  0.181302714371    
 Copying the excited state density for this state as the 1-particle RhoCI density.
 
 Excited state symmetry could not be determined.
 Excited State   2:      Singlet-?Sym    4.1370 eV  299.70 nm  f=0.0043  <S**2>=0.000
       1 -> 20         0.00253
       2 -> 22        -0.00133
       2 -> 24        -0.00225
       2 -> 26        -0.00238
       3 -> 17         0.00125
       3 -> 23        -0.00359
       3 -> 25        -0.00184
       4 -> 18         0.00142
       4 -> 21        -0.00108
       4 -> 22         0.00105
       4 -> 24        -0.00108
       4 -> 28        -0.00489
       5 -> 20        -0.00254
       5 -> 23        -0.00187
       5 -> 25         0.00151
       5 -> 27         0.00521
       6 -> 20         0.00280
       6 -> 21         0.00148
       7 -> 16         0.00156
       7 -> 18        -0.00158
       7 -> 24         0.00256
       8 -> 20         0.00236
       8 -> 21         0.00228
       8 -> 23         0.00503
       8 -> 25        -0.00288
       8 -> 26         0.00258
       8 -> 29         0.00312
       9 -> 18         0.00406
       9 -> 22         0.00109
       9 -> 23         0.00125
       9 -> 24         0.00229
       9 -> 25         0.00148
       9 -> 26         0.00810
       9 -> 29        -0.00149
      10 -> 16         0.00231
      10 -> 17         0.00142
      10 -> 18         0.00207
      10 -> 19        -0.00124
      10 -> 20        -0.00182
      10 -> 21        -0.00103
      10 -> 23        -0.00596
      10 -> 24        -0.00125
      10 -> 25        -0.00354
      10 -> 26         0.00251
      10 -> 27         0.00174
      10 -> 29        -0.00320
      11 -> 16         0.00192
      11 -> 18         0.11161
      11 -> 19        -0.00917
      11 -> 20         0.00590
      11 -> 21         0.00127
      11 -> 22        -0.00166
      11 -> 24         0.00205
      11 -> 28         0.00178
      12 -> 16         0.00241
      12 -> 18         0.00902
      12 -> 19         0.00588
      12 -> 20         0.00488
      12 -> 21        -0.01270
      12 -> 22         0.00616
      12 -> 23         0.00304
      12 -> 24        -0.00247
      12 -> 27        -0.00270
      12 -> 29         0.00163
      12 -> 30        -0.00258
      13 -> 17        -0.00155
      13 -> 18        -0.01351
      13 -> 19        -0.00785
      13 -> 20         0.00160
      13 -> 23         0.00416
      13 -> 24         0.00184
      13 -> 25        -0.00348
      13 -> 26         0.00136
      13 -> 27        -0.00952
      13 -> 28         0.00143
      13 -> 29         0.00204
      13 -> 30        -0.00269
      14 -> 16        -0.01380
      14 -> 17         0.44352
      14 -> 18         0.00276
      14 -> 20        -0.00126
      14 -> 22        -0.00249
      14 -> 23         0.00395
      14 -> 24        -0.00302
      15 -> 16         0.53882
      15 -> 17         0.01507
      15 -> 18         0.00409
      15 -> 21        -0.00230
      15 -> 22        -0.00475
      15 -> 23         0.00274
      15 -> 24        -0.00212
      15 -> 25        -0.00124
      15 -> 28        -0.00125
       1 <- 19        -0.00112
       1 <- 20         0.00553
       1 <- 30        -0.00229
       2 <- 22        -0.00182
       2 <- 24        -0.00600
       3 <- 23        -0.00740
       3 <- 25         0.00102
       4 <- 28        -0.00544
       5 <- 20        -0.00215
       5 <- 27         0.00579
       6 <- 20         0.00193
       6 <- 30        -0.00169
       7 <- 24         0.00120
       8 <- 21         0.00121
       8 <- 23         0.00291
       8 <- 25        -0.00151
       8 <- 26         0.00137
       8 <- 29         0.00542
       9 <- 22         0.00123
       9 <- 24         0.00434
       9 <- 26         0.00130
      10 <- 23        -0.00605
      10 <- 29        -0.00111
      11 <- 16        -0.00113
      11 <- 18        -0.01414
      12 <- 18        -0.00102
      12 <- 19         0.00226
      12 <- 20         0.00183
      12 <- 21        -0.00405
      12 <- 22         0.00216
      12 <- 27        -0.00258
      12 <- 28        -0.00245
      12 <- 30        -0.00104
      13 <- 17         0.00138
      13 <- 18         0.00111
      13 <- 19        -0.00228
      13 <- 20         0.00147
      13 <- 23         0.00137
      13 <- 25        -0.00136
      13 <- 27        -0.00642
      13 <- 28         0.00206
      13 <- 29         0.00101
      13 <- 30        -0.00130
      14 <- 17         0.02490
      14 <- 24        -0.00136
      15 <- 16         0.00513
      15 <- 18        -0.00155
      15 <- 22        -0.00128
 
 Excited state symmetry could not be determined.
 Excited State   3:      Singlet-?Sym    5.4085 eV  229.24 nm  f=0.3444  <S**2>=0.000
       1 -> 27        -0.00239
       2 -> 16        -0.00111
       2 -> 18        -0.00164
       2 -> 21        -0.00344
       2 -> 22        -0.00595
       2 -> 24         0.00353
       2 -> 26        -0.00139
       3 -> 22         0.00241
       3 -> 23        -0.00268
       3 -> 25         0.00241
       3 -> 29        -0.00215
       4 -> 16         0.00205
       4 -> 18         0.00113
       4 -> 19         0.00680
       4 -> 20        -0.00208
       4 -> 21        -0.00263
       4 -> 22         0.00118
       4 -> 28        -0.00159
       4 -> 30         0.00179
       5 -> 16         0.00295
       5 -> 17        -0.00235
       5 -> 18         0.00119
       5 -> 20        -0.01497
       5 -> 21        -0.00599
       5 -> 22         0.00203
       5 -> 24        -0.00174
       5 -> 27        -0.00267
       5 -> 30         0.00810
       6 -> 17        -0.00385
       6 -> 19         0.01419
       6 -> 20         0.00337
       6 -> 21         0.00605
       6 -> 22        -0.00235
       6 -> 25        -0.00153
       6 -> 27        -0.00614
       6 -> 28         0.00182
       7 -> 16         0.00231
       7 -> 17         0.00109
       7 -> 18         0.00534
       7 -> 19         0.00200
       7 -> 20        -0.00235
       7 -> 21        -0.00465
       7 -> 22         0.00687
       7 -> 23        -0.01240
       7 -> 24         0.02550
       7 -> 25         0.00293
       7 -> 26        -0.01012
       8 -> 16        -0.00161
       8 -> 18        -0.00346
       8 -> 19         0.00246
       8 -> 20         0.00154
       8 -> 21         0.00369
       8 -> 22         0.00434
       8 -> 23         0.03450
       8 -> 24         0.01482
       8 -> 25        -0.02596
       8 -> 26        -0.00273
       8 -> 27         0.00367
       9 -> 16         0.00428
       9 -> 18         0.01333
       9 -> 19        -0.00384
       9 -> 20         0.00123
       9 -> 21         0.00781
       9 -> 22         0.00435
       9 -> 23        -0.00186
       9 -> 24        -0.01832
       9 -> 25         0.00689
       9 -> 26         0.02251
       9 -> 29         0.01169
      10 -> 16         0.00508
      10 -> 17         0.00178
      10 -> 18         0.00691
      10 -> 19        -0.00414
      10 -> 20        -0.00267
      10 -> 21        -0.00267
      10 -> 22         0.00158
      10 -> 23        -0.01998
      10 -> 24        -0.00444
      10 -> 25         0.02618
      10 -> 26        -0.00767
      10 -> 27        -0.00403
      10 -> 28         0.00150
      10 -> 29        -0.02324
      11 -> 16         0.00359
      11 -> 17         0.00107
      11 -> 18        -0.01307
      11 -> 21        -0.00101
      11 -> 23         0.00281
      11 -> 24        -0.00197
      11 -> 25        -0.00167
      11 -> 26         0.00136
      11 -> 27         0.00220
      11 -> 28        -0.00242
      11 -> 30        -0.00165
      12 -> 17         0.02377
      12 -> 18         0.00172
      12 -> 19         0.04682
      12 -> 20         0.02114
      12 -> 21        -0.00194
      12 -> 22        -0.00271
      12 -> 23         0.00582
      12 -> 24         0.00569
      12 -> 25        -0.00597
      12 -> 27        -0.02540
      12 -> 28         0.03027
      12 -> 29         0.00214
      12 -> 30        -0.00693
      13 -> 16        -0.04296
      13 -> 17         0.04490
      13 -> 18        -0.00570
      13 -> 19         0.00182
      13 -> 20         0.03845
      13 -> 21         0.04809
      13 -> 22        -0.01773
      13 -> 23         0.00255
      13 -> 24         0.00821
      13 -> 25        -0.01069
      13 -> 26         0.00446
      13 -> 27        -0.03123
      13 -> 28        -0.03147
      13 -> 29         0.00137
      13 -> 30        -0.03198
      14 -> 16         0.29186
      14 -> 17        -0.43980
      14 -> 19        -0.00410
      14 -> 21        -0.00525
      14 -> 22         0.00137
      14 -> 23         0.00147
      14 -> 24        -0.00378
      14 -> 26         0.00312
      14 -> 27         0.00617
      14 -> 28         0.00170
      14 -> 29        -0.00312
      15 -> 16         0.36375
      15 -> 17         0.28736
      15 -> 18         0.01023
      15 -> 19         0.00212
      15 -> 20         0.00317
      15 -> 23        -0.00241
      15 -> 24        -0.00453
      15 -> 25         0.00341
      15 -> 26         0.00173
      15 -> 27        -0.00289
      15 -> 28         0.00259
      15 -> 29        -0.00216
      15 -> 30        -0.00125
       1 <- 19         0.00158
       1 <- 27        -0.00363
       1 <- 28         0.00123
       2 <- 21        -0.00235
       2 <- 22        -0.00272
       2 <- 24         0.00581
       2 <- 26        -0.00231
       3 <- 22         0.00143
       3 <- 23        -0.00426
       3 <- 25         0.00250
       3 <- 26        -0.00108
       3 <- 29        -0.00278
       4 <- 19         0.00393
       4 <- 20        -0.00139
       4 <- 21        -0.00170
       4 <- 28         0.00102
       4 <- 30         0.00104
       5 <- 20        -0.01009
       5 <- 21        -0.00305
       5 <- 22         0.00103
       5 <- 24        -0.00104
       5 <- 30         0.00504
       6 <- 19         0.00592
       6 <- 20         0.00115
       6 <- 21         0.00275
       6 <- 22        -0.00105
       6 <- 27        -0.00110
       7 <- 20        -0.00116
       7 <- 21        -0.00166
       7 <- 22         0.00264
       7 <- 23        -0.00500
       7 <- 24         0.01052
       7 <- 25         0.00127
       7 <- 26        -0.00323
       8 <- 21         0.00138
       8 <- 22         0.00166
       8 <- 23         0.01511
       8 <- 24         0.00634
       8 <- 25        -0.00959
       8 <- 27         0.00196
       9 <- 19        -0.00101
       9 <- 21         0.00260
       9 <- 24        -0.00847
       9 <- 25         0.00256
       9 <- 26         0.00966
       9 <- 29         0.00360
      10 <- 16         0.00113
      10 <- 19        -0.00113
      10 <- 23        -0.00791
      10 <- 24        -0.00156
      10 <- 25         0.01019
      10 <- 26        -0.00270
      10 <- 27        -0.00180
      10 <- 29        -0.00708
      11 <- 16         0.00326
      11 <- 18         0.00176
      11 <- 28        -0.00111
      12 <- 17         0.00128
      12 <- 19         0.01296
      12 <- 20         0.00631
      12 <- 23         0.00149
      12 <- 24         0.00176
      12 <- 25        -0.00151
      12 <- 27        -0.00823
      12 <- 28         0.01034
      12 <- 30        -0.00263
      13 <- 16        -0.00193
      13 <- 17         0.00187
      13 <- 18        -0.00117
      13 <- 20         0.01287
      13 <- 21         0.01275
      13 <- 22        -0.00484
      13 <- 24         0.00256
      13 <- 25        -0.00281
      13 <- 26         0.00129
      13 <- 27        -0.00952
      13 <- 28        -0.01023
      13 <- 30        -0.01112
      14 <- 16        -0.05051
      14 <- 17         0.06774
      15 <- 16        -0.07213
      15 <- 17        -0.05087
      15 <- 18         0.00368
      15 <- 22         0.00162
 
 Excited state symmetry could not be determined.
 Excited State   4:      Singlet-?Sym    5.4524 eV  227.39 nm  f=0.3750  <S**2>=0.000
       1 -> 28        -0.00246
       2 -> 21        -0.00161
       2 -> 22        -0.00211
       2 -> 23        -0.00236
       2 -> 25         0.00166
       2 -> 29         0.00226
       3 -> 17        -0.00180
       3 -> 18        -0.00218
       3 -> 21        -0.00319
       3 -> 22        -0.00763
       3 -> 24        -0.00163
       3 -> 26         0.00194
       4 -> 18        -0.00243
       4 -> 19        -0.00644
       4 -> 20         0.01302
       4 -> 21        -0.00631
       4 -> 22         0.00277
       4 -> 27        -0.00161
       4 -> 28        -0.00152
       4 -> 30        -0.00780
       5 -> 16        -0.00530
       5 -> 17        -0.00162
       5 -> 19        -0.00557
       5 -> 20        -0.00433
       5 -> 21         0.00220
       5 -> 22        -0.00280
       5 -> 24         0.00129
       5 -> 28         0.00259
       5 -> 30         0.00172
       6 -> 16         0.00427
       6 -> 19        -0.00863
       6 -> 20        -0.00124
       6 -> 21         0.01228
       6 -> 22        -0.00452
       6 -> 23        -0.00130
       6 -> 25        -0.00105
       6 -> 27        -0.00237
       6 -> 28        -0.00644
       7 -> 18         0.00339
       7 -> 19         0.00159
       7 -> 21         0.00369
       7 -> 22         0.00265
       7 -> 23         0.02776
       7 -> 24         0.01137
       7 -> 25        -0.00930
       7 -> 26        -0.00154
       7 -> 29        -0.00144
       8 -> 16        -0.00226
       8 -> 17        -0.00715
       8 -> 18         0.00828
       8 -> 19        -0.00291
       8 -> 20         0.00353
       8 -> 21         0.00481
       8 -> 22        -0.00716
       8 -> 23         0.01502
       8 -> 24        -0.03268
       8 -> 25        -0.00705
       8 -> 26         0.02636
       8 -> 27         0.00207
       8 -> 29        -0.00287
       9 -> 16        -0.00217
       9 -> 17         0.00229
       9 -> 18         0.00486
       9 -> 21         0.00261
       9 -> 22         0.00883
       9 -> 23         0.01579
       9 -> 24         0.00448
       9 -> 25        -0.02473
       9 -> 26        -0.00278
       9 -> 27         0.00305
       9 -> 28         0.00201
       9 -> 29        -0.02564
       9 -> 30        -0.00234
      10 -> 16        -0.00215
      10 -> 17        -0.01120
      10 -> 18        -0.01764
      10 -> 20        -0.00109
      10 -> 21        -0.00277
      10 -> 22        -0.01323
      10 -> 23        -0.00246
      10 -> 24        -0.01632
      10 -> 25         0.00622
      10 -> 26         0.02259
      10 -> 28         0.00282
      10 -> 29        -0.01364
      11 -> 16         0.00121
      11 -> 17        -0.00596
      11 -> 18        -0.00731
      11 -> 20         0.00171
      11 -> 21        -0.00138
      11 -> 23        -0.00717
      11 -> 24        -0.00113
      11 -> 25         0.00471
      11 -> 27        -0.00184
      11 -> 28         0.00101
      11 -> 29         0.00142
      12 -> 16         0.02376
      12 -> 17        -0.00973
      12 -> 18        -0.01265
      12 -> 19        -0.01109
      12 -> 20         0.02489
      12 -> 21        -0.04121
      12 -> 22         0.01831
      12 -> 23         0.00410
      12 -> 24        -0.00411
      12 -> 25         0.00546
      12 -> 26         0.00196
      12 -> 27         0.03311
      12 -> 28         0.02334
      12 -> 29         0.00236
      12 -> 30        -0.03293
      13 -> 16         0.06050
      13 -> 17         0.04257
      13 -> 18         0.01405
      13 -> 19         0.05764
      13 -> 20         0.01110
      13 -> 21         0.00138
      13 -> 23         0.00521
      13 -> 24         0.00102
      13 -> 25        -0.00348
      13 -> 26         0.00530
      13 -> 27        -0.02642
      13 -> 28         0.03469
      13 -> 29         0.00245
      13 -> 30         0.00559
      14 -> 16        -0.40539
      14 -> 17        -0.31484
      14 -> 18        -0.01440
      14 -> 19        -0.00760
      14 -> 20        -0.00303
      14 -> 21         0.00201
      14 -> 22        -0.00472
      14 -> 23        -0.00395
      14 -> 24        -0.01036
      14 -> 25         0.00376
      14 -> 26         0.00742
      14 -> 27         0.00207
      14 -> 28        -0.00512
      14 -> 29        -0.00103
      15 -> 16         0.26239
      15 -> 17        -0.39971
      15 -> 18        -0.00156
      15 -> 19        -0.00192
      15 -> 20        -0.00907
      15 -> 21        -0.00522
      15 -> 22         0.00184
      15 -> 23         0.00107
      15 -> 24        -0.00168
      15 -> 27         0.00588
      15 -> 28         0.00173
      15 -> 29        -0.00288
      15 -> 30         0.00399
       1 <- 21         0.00128
       1 <- 27        -0.00127
       1 <- 28        -0.00378
       2 <- 21        -0.00121
       2 <- 22        -0.00117
       2 <- 23        -0.00454
       2 <- 25         0.00229
       2 <- 29         0.00352
       3 <- 21        -0.00159
       3 <- 22        -0.00517
       3 <- 24        -0.00419
       3 <- 26         0.00246
       3 <- 29        -0.00115
       4 <- 18        -0.00123
       4 <- 19        -0.00398
       4 <- 20         0.00913
       4 <- 21        -0.00362
       4 <- 22         0.00163
       4 <- 30        -0.00511
       5 <- 19        -0.00293
       5 <- 20        -0.00287
       5 <- 21         0.00126
       5 <- 22        -0.00144
       5 <- 30         0.00120
       6 <- 19        -0.00354
       6 <- 21         0.00517
       6 <- 22        -0.00220
       6 <- 28        -0.00124
       7 <- 21         0.00134
       7 <- 23         0.01117
       7 <- 24         0.00476
       7 <- 25        -0.00288
       8 <- 20         0.00121
       8 <- 21         0.00195
       8 <- 22        -0.00314
       8 <- 23         0.00674
       8 <- 24        -0.01479
       8 <- 25        -0.00285
       8 <- 26         0.00981
       8 <- 29        -0.00167
       9 <- 21         0.00118
       9 <- 22         0.00289
       9 <- 23         0.00718
       9 <- 24         0.00171
       9 <- 25        -0.01002
       9 <- 27         0.00169
       9 <- 29        -0.00826
       9 <- 30        -0.00105
      10 <- 17        -0.00102
      10 <- 22        -0.00477
      10 <- 24        -0.00728
      10 <- 25         0.00189
      10 <- 26         0.00966
      10 <- 29        -0.00440
      11 <- 17         0.00362
      11 <- 18         0.00151
      11 <- 19         0.00102
      11 <- 23        -0.00101
      11 <- 27        -0.00135
      12 <- 16         0.00154
      12 <- 18        -0.00155
      12 <- 19        -0.00366
      12 <- 20         0.00973
      12 <- 21        -0.01181
      12 <- 22         0.00550
      12 <- 23         0.00116
      12 <- 24        -0.00118
      12 <- 25         0.00158
      12 <- 27         0.01105
      12 <- 28         0.00786
      12 <- 30        -0.01185
      13 <- 16         0.00202
      13 <- 17         0.00115
      13 <- 18         0.00120
      13 <- 19         0.01518
      13 <- 20         0.00220
      13 <- 23         0.00112
      13 <- 26         0.00134
      13 <- 27        -0.00828
      13 <- 28         0.01105
      13 <- 30         0.00186
      14 <- 16         0.07136
      14 <- 17         0.04976
      14 <- 18         0.00416
      14 <- 22        -0.00123
      15 <- 16        -0.05271
      15 <- 17         0.07225
      15 <- 20        -0.00154
      15 <- 24        -0.00113
 
 Excited state symmetry could not be determined.
 Excited State   5:      Singlet-?Sym    5.8851 eV  210.67 nm  f=0.0084  <S**2>=0.000
       1 -> 16         0.00261
       1 -> 17         0.00334
       2 -> 17        -0.00191
       2 -> 18         0.00592
       3 -> 18        -0.00870
       3 -> 22         0.00138
       4 -> 16        -0.01155
       4 -> 17         0.01550
       4 -> 19         0.00134
       4 -> 20        -0.00188
       4 -> 30         0.00113
       5 -> 16        -0.04419
       5 -> 18        -0.00116
       5 -> 22         0.00133
       6 -> 16         0.01826
       6 -> 17         0.02398
       6 -> 19         0.00204
       6 -> 21        -0.00110
       7 -> 16        -0.00474
       7 -> 17         0.01269
       7 -> 18         0.02440
       7 -> 20         0.00113
       7 -> 21        -0.00171
       7 -> 23        -0.00461
       7 -> 24         0.00119
       7 -> 25         0.00158
       7 -> 28         0.00106
       8 -> 16         0.00764
       8 -> 17        -0.00348
       8 -> 18         0.08397
       8 -> 19        -0.00759
       8 -> 20         0.00299
       8 -> 21        -0.00150
       8 -> 24         0.00673
       8 -> 25        -0.00122
       8 -> 26        -0.00306
       8 -> 27         0.00208
       9 -> 16        -0.00640
       9 -> 17         0.02064
       9 -> 18        -0.05112
       9 -> 19         0.00436
       9 -> 20        -0.00274
       9 -> 21         0.00185
       9 -> 23        -0.00258
       9 -> 24        -0.00245
       9 -> 25         0.00354
       9 -> 26         0.00232
       9 -> 27        -0.00147
       9 -> 29         0.00371
      10 -> 16        -0.00532
      10 -> 17        -0.00313
      10 -> 18        -0.09802
      10 -> 19         0.00532
      10 -> 20        -0.00341
      10 -> 22         0.00393
      10 -> 23        -0.00130
      10 -> 26        -0.00414
      10 -> 27        -0.00191
      11 -> 16         0.00961
      11 -> 17        -0.00301
      11 -> 18         0.00655
      11 -> 21         0.00170
      11 -> 22         0.00712
      11 -> 23        -0.01484
      11 -> 24         0.00785
      11 -> 29        -0.00709
      11 -> 30        -0.00175
      12 -> 16        -0.02565
      12 -> 17        -0.01757
      12 -> 18         0.01997
      12 -> 19         0.00516
      12 -> 21         0.00356
      12 -> 22        -0.00464
      12 -> 23        -0.00204
      12 -> 24         0.00169
      12 -> 27        -0.00677
      12 -> 30         0.00340
      13 -> 16         0.67910
      13 -> 17         0.04046
      13 -> 18         0.03116
      13 -> 19        -0.00920
      13 -> 20         0.00295
      13 -> 21         0.00286
      13 -> 22        -0.00455
      13 -> 23         0.00214
      13 -> 25        -0.00158
      13 -> 26        -0.00172
      13 -> 28        -0.00690
      13 -> 29        -0.00242
      13 -> 30        -0.00310
      14 -> 16         0.05527
      14 -> 17         0.00280
      14 -> 18        -0.00498
      14 -> 19         0.02534
      14 -> 20        -0.02946
      14 -> 21        -0.00562
      14 -> 22         0.00513
      14 -> 23         0.00184
      14 -> 24        -0.00559
      14 -> 27        -0.00209
      14 -> 28         0.00628
      14 -> 29         0.00159
      14 -> 30         0.01192
      15 -> 16        -0.00109
      15 -> 17         0.05462
      15 -> 18        -0.02291
      15 -> 19         0.01702
      15 -> 20        -0.03439
      15 -> 21        -0.00977
      15 -> 22         0.00427
      15 -> 23         0.00133
      15 -> 26        -0.00453
      15 -> 27         0.01512
      15 -> 28        -0.00605
      15 -> 30         0.01208
       4 <- 17        -0.00181
       4 <- 20        -0.00105
       5 <- 16         0.00103
       6 <- 17        -0.00103
       7 <- 23        -0.00166
       8 <- 18        -0.00141
       8 <- 24         0.00211
       8 <- 26        -0.00125
       9 <- 25         0.00119
       9 <- 29         0.00100
      10 <- 18         0.00141
      10 <- 26        -0.00126
      11 <- 16         0.00261
      11 <- 21         0.00153
      11 <- 22         0.00235
      11 <- 23        -0.00139
      11 <- 25        -0.00130
      11 <- 29        -0.00412
      12 <- 19         0.00167
      12 <- 21         0.00113
      12 <- 27        -0.00198
      12 <- 30         0.00110
      13 <- 16        -0.00315
      13 <- 19        -0.00141
      13 <- 28        -0.00171
      14 <- 16        -0.01014
      14 <- 18         0.00130
      14 <- 19         0.01015
      14 <- 20        -0.00307
      14 <- 21        -0.00472
      14 <- 22         0.00326
      14 <- 24        -0.00142
      14 <- 28         0.00696
      14 <- 30         0.00254
      15 <- 17        -0.01361
      15 <- 18         0.00372
      15 <- 20        -0.00588
      15 <- 21        -0.00673
      15 <- 22         0.00255
      15 <- 24        -0.00106
      15 <- 26        -0.00104
      15 <- 27         0.00630
      15 <- 28         0.00127
      15 <- 30         0.00274
 SavETr:  write IOETrn=   770 NScale= 10 NData=  16 NLR=1 NState=    5 LETran=     100.

 **********************************************************************

            Population analysis using the SCF Density.

 **********************************************************************

 Alpha  occ. eigenvalues --   -1.43169  -1.15666  -1.14418  -0.85167  -0.84135
 Alpha  occ. eigenvalues --   -0.65458  -0.59458  -0.56456  -0.52086  -0.51874
 Alpha  occ. eigenvalues --   -0.48921  -0.44124  -0.43202  -0.35701  -0.35004
 Alpha virt. eigenvalues --    0.01673   0.02251   0.10756   0.14614   0.14791
 Alpha virt. eigenvalues --    0.14963   0.15508   0.16552   0.17117   0.18747
 Alpha virt. eigenvalues --    0.18875   0.20518   0.20664   0.21040   0.22502
          Condensed to atoms (all electrons):
               1          2          3          4          5          6
     1  C    4.131413   0.000000   0.000000   0.000000   0.000000   0.000000
     2  C    0.000000   4.122271   0.000000   0.000000   0.000000   0.000000
     3  C    0.000000   0.000000   4.127435   0.000000   0.000000   0.000000
     4  C    0.000000   0.000000   0.000000   4.134460   0.000000   0.000000
     5  C    0.000000   0.000000   0.000000   0.000000   4.132425   0.000000
     6  C    0.000000   0.000000   0.000000   0.000000   0.000000   4.134884
     7  H    0.000000   0.000000   0.000000   0.000000   0.000000   0.000000
     8  H    0.000000   0.000000   0.000000   0.000000   0.000000   0.000000
     9  H    0.000000   0.000000   0.000000   0.000000   0.000000   0.000000
    10  H    0.000000   0.000000   0.000000   0.000000   0.000000   0.000000
    11  H    0.000000   0.000000   0.000000   0.000000   0.000000   0.000000
    12  H    0.000000   0.000000   0.000000   0.000000   0.000000   0.000000
               7          8          9         10         11         12
     1  C    0.000000   0.000000   0.000000   0.000000   0.000000   0.000000
     2  C    0.000000   0.000000   0.000000   0.000000   0.000000   0.000000
     3  C    0.000000   0.000000   0.000000   0.000000   0.000000   0.000000
     4  C    0.000000   0.000000   0.000000   0.000000   0.000000   0.000000
     5  C    0.000000   0.000000   0.000000   0.000000   0.000000   0.000000
     6  C    0.000000   0.000000   0.000000   0.000000   0.000000   0.000000
     7  H    0.876135   0.000000   0.000000   0.000000   0.000000   0.000000
     8  H    0.000000   0.868532   0.000000   0.000000   0.000000   0.000000
     9  H    0.000000   0.000000   0.867459   0.000000   0.000000   0.000000
    10  H    0.000000   0.000000   0.000000   0.871617   0.000000   0.000000
    11  H    0.000000   0.000000   0.000000   0.000000   0.867576   0.000000
    12  H    0.000000   0.000000   0.000000   0.000000   0.000000   0.865793
 Mulliken charges:
               1
     1  C   -0.131413
     2  C   -0.122271
     3  C   -0.127435
     4  C   -0.134460
     5  C   -0.132425
     6  C   -0.134884
     7  H    0.123865
     8  H    0.131468
     9  H    0.132541
    10  H    0.128383
    11  H    0.132424
    12  H    0.134207
 Sum of Mulliken charges =  -0.00000
 Mulliken charges with hydrogens summed into heavy atoms:
               1
     1  C   -0.007547
     2  C    0.009198
     3  C    0.005106
     4  C   -0.006077
     5  C   -0.000001
     6  C   -0.000678
 Charge=             -0.0000 electrons
 Dipole moment (field-independent basis, Debye):
    X=             -0.0135    Y=              0.0590    Z=             -0.1963  Tot=              0.2054
 N-N= 1.193904639541D+02 E-N=-1.701664064309D+02  KE=-4.783553806235D+01

 Test job not archived.
 1\1\GINC-BHC0201\SP\RAM1 TD-Full\STO-5G\C6H6\BWEIGHT\21-Mar-2025\0\\# 
 AM1/STO-5G SCF=XQC TD=(read,singlets,nstates=5,root=1) nosym IOp(9/40=
 3) guess=read\\MD Step 15\\0,1\C,0,-0.68200278,-1.2035757,0.01687503\C
 ,0,0.70788268,-1.20755451,0.0312256\C,0,1.40287776,-0.00083335,-0.0105
 6956\C,0,0.68709264,1.21192156,0.01809273\C,0,-0.69660061,1.22369673,-
 0.00289196\C,0,-1.41862488,-0.0268577,-0.01411951\H,0,-1.2659398,-2.10
 383181,-0.03654174\H,0,1.25102321,-2.16416612,-0.07104794\H,0,2.505165
 66,0.06676752,-0.02113324\H,0,1.22456938,2.17055449,0.03584523\H,0,-1.
 26806462,2.17758119,-0.12434728\H,0,-2.5031958,-0.06019622,-0.02977336
 \\Version=ES64L-G16RevC.01\HF=0.041083\RMSD=5.996e-09\PG=C01 [X(C6H6)]
 \\@


 A politician is a person who can make waves and then
 make you think he's the only one who can save the ship.
 -- Ivern Ball
 Job cpu time:       0 days  0 hours  0 minutes  1.1 seconds.
 Elapsed time:       0 days  0 hours  0 minutes  0.8 seconds.
 File lengths (MBytes):  RWF=     34 Int=      0 D2E=      0 Chk=      2 Scr=      1
 Normal termination of Gaussian 16 at Fri Mar 21 15:21:57 2025.
