 Entering Gaussian System, Link 0=g16
 Initial command:
 /software/gaussian/g16-c01/avx2/g16/l1.exe "/local_scratch/28554177/Gau-28097.inp" -scrdir="/local_scratch/28554177/"
 Entering Link 1 = /software/gaussian/g16-c01/avx2/g16/l1.exe PID=     28128.
  
 Copyright (c) 1988-2019, Gaussian, Inc.  All Rights Reserved.
  
 This is part of the Gaussian(R) 16 program.  It is based on
 the Gaussian(R) 09 system (copyright 2009, Gaussian, Inc.),
 the Gaussian(R) 03 system (copyright 2003, Gaussian, Inc.),
 the Gaussian(R) 98 system (copyright 1998, Gaussian, Inc.),
 the Gaussian(R) 94 system (copyright 1995, Gaussian, Inc.),
 the Gaussian 92(TM) system (copyright 1992, Gaussian, Inc.),
 the Gaussian 90(TM) system (copyright 1990, Gaussian, Inc.),
 the Gaussian 88(TM) system (copyright 1988, Gaussian, Inc.),
 the Gaussian 86(TM) system (copyright 1986, Carnegie Mellon
 University), and the Gaussian 82(TM) system (copyright 1983,
 Carnegie Mellon University). Gaussian is a federally registered
 trademark of Gaussian, Inc.
  
 This software contains proprietary and confidential information,
 including trade secrets, belonging to Gaussian, Inc.
  
 This software is provided under written license and may be
 used, copied, transmitted, or stored only in accord with that
 written license.
  
 The following legend is applicable only to US Government
 contracts under FAR:
  
                    RESTRICTED RIGHTS LEGEND
  
 Use, reproduction and disclosure by the US Government is
 subject to restrictions as set forth in subparagraphs (a)
 and (c) of the Commercial Computer Software - Restricted
 Rights clause in FAR 52.227-19.
  
 Gaussian, Inc.
 340 Quinnipiac St., Bldg. 40, Wallingford CT 06492
  
  
 ---------------------------------------------------------------
 Warning -- This program may not be used in any manner that
 competes with the business of Gaussian, Inc. or will provide
 assistance to any competitor of Gaussian, Inc.  The licensee
 of this program is prohibited from giving any competitor of
 Gaussian, Inc. access to this program.  By using this program,
 the user acknowledges that Gaussian, Inc. is engaged in the
 business of creating and licensing software in the field of
 computational chemistry and represents and warrants to the
 licensee that it is not a competitor of Gaussian, Inc. and that
 it will not use this program in any manner prohibited above.
 ---------------------------------------------------------------
  

 Cite this work as:
 Gaussian 16, Revision C.01,
 M. J. Frisch, G. W. Trucks, H. B. Schlegel, G. E. Scuseria, 
 M. A. Robb, J. R. Cheeseman, G. Scalmani, V. Barone, 
 G. A. Petersson, H. Nakatsuji, X. Li, M. Caricato, A. V. Marenich, 
 J. Bloino, B. G. Janesko, R. Gomperts, B. Mennucci, H. P. Hratchian, 
 J. V. Ortiz, A. F. Izmaylov, J. L. Sonnenberg, D. Williams-Young, 
 F. Ding, F. Lipparini, F. Egidi, J. Goings, B. Peng, A. Petrone, 
 T. Henderson, D. Ranasinghe, V. G. Zakrzewski, J. Gao, N. Rega, 
 G. Zheng, W. Liang, M. Hada, M. Ehara, K. Toyota, R. Fukuda, 
 J. Hasegawa, M. Ishida, T. Nakajima, Y. Honda, O. Kitao, H. Nakai, 
 T. Vreven, K. Throssell, J. A. Montgomery, Jr., J. E. Peralta, 
 F. Ogliaro, M. J. Bearpark, J. J. Heyd, E. N. Brothers, K. N. Kudin, 
 V. N. Staroverov, T. A. Keith, R. Kobayashi, J. Normand, 
 K. Raghavachari, A. P. Rendell, J. C. Burant, S. S. Iyengar, 
 J. Tomasi, M. Cossi, J. M. Millam, M. Klene, C. Adamo, R. Cammi, 
 J. W. Ochterski, R. L. Martin, K. Morokuma, O. Farkas, 
 J. B. Foresman, and D. J. Fox, Gaussian, Inc., Wallingford CT, 2019.
 
 ******************************************
 Gaussian 16:  ES64L-G16RevC.01  3-Jul-2019
                21-Mar-2025 
 ******************************************
 %oldchk=../GS_OLD/geometry.chk
 %chk=geometry.chk
 %nprocshared=1
 Will use up to    1 processors via shared memory.
 %mem=2GB
 Copying data from "../GS_OLD/geometry.chk" to current chk file "geometry.chk"
 IOpt=  2 FromEx=T IUOpen= 4 IOptOp= 5 NList=   0 IFRang= 0 IUIn= 4 IUOut= 2.
 -------------------------------------------
 # AM1/STO-5G SCF=XQC FORCE nosym guess=read
 -------------------------------------------
 1/10=7,30=1,38=1/1,3;
 2/12=2,15=1,17=6,18=5,40=1/2;
 3/5=2,6=5,25=1,41=700000,71=1,116=-2/1,2,3;
 4/5=1,35=1/1;
 5/5=2,8=3,13=1,35=1,38=6/2,8;
 6/7=2,8=2,9=2,10=2,28=1/1;
 7/29=1,30=1/1,2,3,16;
 1/10=7,30=1/3;
 99//99;
 ----------
 MD Step 25
 ----------
 Symbolic Z-matrix:
 Charge =  0 Multiplicity = 1
 C                    -0.70871  -1.20129   0.00455 
 C                     0.7104   -1.20355   0.04076 
 C                     1.37828  -0.0045   -0.07202 
 C                     0.71075   1.21304   0.01722 
 C                    -0.68744   1.20866   0.00014 
 C                    -1.41523  -0.02387  -0.02452 
 H                    -1.19891  -2.17186   0.01645 
 H                     1.18483  -2.17349   0.15023 
 H                     2.48644   0.01022  -0.05291 
 H                     1.31854   2.09516   0.27381 
 H                    -1.20485   2.15979  -0.01677 
 H                    -2.48611   0.05917  -0.08822 
 

 GradGradGradGradGradGradGradGradGradGradGradGradGradGradGradGradGradGrad
 Berny optimization.
 Initialization pass.
 Trust Radius=3.00D-01 FncErr=1.00D-07 GrdErr=1.00D-07 EigMax=2.50D+02 EigMin=1.00D-04
 Number of steps in this run=      2 maximum allowed number of steps=      2.
 GradGradGradGradGradGradGradGradGradGradGradGradGradGradGradGradGradGrad

                          Input orientation:                          
 ---------------------------------------------------------------------
 Center     Atomic      Atomic             Coordinates (Angstroms)
 Number     Number       Type             X           Y           Z
 ---------------------------------------------------------------------
      1          6           0       -0.708713   -1.201287    0.004554
      2          6           0        0.710401   -1.203547    0.040760
      3          6           0        1.378277   -0.004497   -0.072021
      4          6           0        0.710750    1.213044    0.017223
      5          6           0       -0.687443    1.208663    0.000140
      6          6           0       -1.415227   -0.023868   -0.024520
      7          1           0       -1.198905   -2.171860    0.016452
      8          1           0        1.184832   -2.173490    0.150234
      9          1           0        2.486439    0.010223   -0.052912
     10          1           0        1.318542    2.095163    0.273810
     11          1           0       -1.204850    2.159787   -0.016767
     12          1           0       -2.486106    0.059170   -0.088216
 ---------------------------------------------------------------------
                    Distance matrix (angstroms):
                    1          2          3          4          5
     1  C    0.000000
     2  C    1.419577   0.000000
     3  C    2.407010   1.377135   0.000000
     4  C    2.800719   2.416705   1.391389   0.000000
     5  C    2.410048   2.788257   2.396699   1.398304   0.000000
     6  C    1.373434   2.431912   2.793975   2.459974   1.431577
     7  H    1.087402   2.140951   3.368555   3.886432   3.419035
     8  H    2.133522   1.085292   2.188915   3.422142   3.868708
     9  H    3.417610   2.153213   1.108425   2.145873   3.393023
    10  H    3.879284   3.362385   2.128788   1.101536   2.210148
    11  H    3.397561   3.870854   3.370419   2.137054   1.082881
    12  H    2.180936   3.439294   3.864941   3.400357   2.136429
                    6          7          8          9         10
     6  C    0.000000
     7  H    2.159246   0.000000
     8  H    3.378124   2.387489   0.000000
     9  H    3.901919   4.283464   2.550304   0.000000
    10  H    3.471712   4.960973   4.272534   2.411992   0.000000
    11  H    2.193780   4.331778   4.951339   4.271715   2.540889
    12  H    1.075980   2.577855   4.303187   4.972911   4.330320
                   11         12
    11  H    0.000000
    12  H    2.461567   0.000000
 Symmetry turned off by external request.
 Stoichiometry    C6H6
 Framework group  C1[X(C6H6)]
 Deg. of freedom    30
 Full point group                 C1      NOp   1
 Rotational constants (GHZ):           5.7257102           5.6239799           2.8436085
 Standard basis: VSTO-5G (5D, 7F)
    30 basis functions,   180 primitive gaussians,    30 cartesian basis functions
    15 alpha electrons       15 beta electrons
       nuclear repulsion energy       119.6309838781 Hartrees.
 Integral buffers will be    131072 words long.
 Regular integral format.
 Two-electron integral symmetry is turned off.
 Do NDO integrals.
 One-electron integrals computed using PRISM.
 NBasis=    30 RedAO= F EigKep=  0.00D+00  NBF=    30
 NBsUse=    30 1.00D-04 EigRej=  0.00D+00 NBFU=    30
 Initial guess from the checkpoint file:  "geometry.chk"
 B after Tr=     0.001155    0.000719    0.000873
         Rot=    1.000000    0.000080    0.000513    0.000129 Ang=   0.06 deg.
 Keep J ints in memory in canonical form, NReq=861816.
 Overlap will be assumed to be unity.
 Requested convergence on RMS density matrix=1.00D-08 within  32 cycles.
 Requested convergence on MAX density matrix=1.00D-06.
 Requested convergence on             energy=1.00D-06.
 No special actions if energy rises.
 SCF Done:  E(RAM1) =  0.444862877067E-01 A.U. after   12 cycles
            NFock= 11  Conv=0.70D-08     -V/T= 1.0009
 QCSCF skips out because SCF is already converged.

 **********************************************************************

            Population analysis using the SCF Density.

 **********************************************************************

 Alpha  occ. eigenvalues --   -1.43755  -1.15916  -1.14805  -0.85179  -0.84548
 Alpha  occ. eigenvalues --   -0.65696  -0.59711  -0.56478  -0.52506  -0.51896
 Alpha  occ. eigenvalues --   -0.48915  -0.44182  -0.43353  -0.35720  -0.34988
 Alpha virt. eigenvalues --    0.01707   0.02112   0.10605   0.14619   0.14856
 Alpha virt. eigenvalues --    0.15193   0.15684   0.16970   0.16990   0.18756
 Alpha virt. eigenvalues --    0.19022   0.20543   0.20668   0.20980   0.22527
          Condensed to atoms (all electrons):
               1          2          3          4          5          6
     1  C    4.130498   0.000000   0.000000   0.000000   0.000000   0.000000
     2  C    0.000000   4.131168   0.000000   0.000000   0.000000   0.000000
     3  C    0.000000   0.000000   4.128430   0.000000   0.000000   0.000000
     4  C    0.000000   0.000000   0.000000   4.133936   0.000000   0.000000
     5  C    0.000000   0.000000   0.000000   0.000000   4.132895   0.000000
     6  C    0.000000   0.000000   0.000000   0.000000   0.000000   4.124315
     7  H    0.000000   0.000000   0.000000   0.000000   0.000000   0.000000
     8  H    0.000000   0.000000   0.000000   0.000000   0.000000   0.000000
     9  H    0.000000   0.000000   0.000000   0.000000   0.000000   0.000000
    10  H    0.000000   0.000000   0.000000   0.000000   0.000000   0.000000
    11  H    0.000000   0.000000   0.000000   0.000000   0.000000   0.000000
    12  H    0.000000   0.000000   0.000000   0.000000   0.000000   0.000000
               7          8          9         10         11         12
     1  C    0.000000   0.000000   0.000000   0.000000   0.000000   0.000000
     2  C    0.000000   0.000000   0.000000   0.000000   0.000000   0.000000
     3  C    0.000000   0.000000   0.000000   0.000000   0.000000   0.000000
     4  C    0.000000   0.000000   0.000000   0.000000   0.000000   0.000000
     5  C    0.000000   0.000000   0.000000   0.000000   0.000000   0.000000
     6  C    0.000000   0.000000   0.000000   0.000000   0.000000   0.000000
     7  H    0.873321   0.000000   0.000000   0.000000   0.000000   0.000000
     8  H    0.000000   0.866776   0.000000   0.000000   0.000000   0.000000
     9  H    0.000000   0.000000   0.875928   0.000000   0.000000   0.000000
    10  H    0.000000   0.000000   0.000000   0.863699   0.000000   0.000000
    11  H    0.000000   0.000000   0.000000   0.000000   0.872384   0.000000
    12  H    0.000000   0.000000   0.000000   0.000000   0.000000   0.866648
 Mulliken charges:
               1
     1  C   -0.130498
     2  C   -0.131168
     3  C   -0.128430
     4  C   -0.133936
     5  C   -0.132895
     6  C   -0.124315
     7  H    0.126679
     8  H    0.133224
     9  H    0.124072
    10  H    0.136301
    11  H    0.127616
    12  H    0.133352
 Sum of Mulliken charges =  -0.00000
 Mulliken charges with hydrogens summed into heavy atoms:
               1
     1  C   -0.003819
     2  C    0.002055
     3  C   -0.004358
     4  C    0.002365
     5  C   -0.005279
     6  C    0.009036
 Charge=             -0.0000 electrons
 Dipole moment (field-independent basis, Debye):
    X=              0.0306    Y=             -0.0062    Z=              0.2206  Tot=              0.2228
 N-N= 1.196309838781D+02 E-N=-1.705637495376D+02  KE=-4.785629240150D+01
 Calling FoFJK, ICntrl=      2127 FMM=F ISym2X=0 I1Cent= 0 IOpClX= 0 NMat=1 NMatS=1 NMatT=0.
 -------------------------------------------------------------------
 Center     Atomic                   Forces (Hartrees/Bohr)
 Number     Number              X              Y              Z
 -------------------------------------------------------------------
      1        6           0.018340335   -0.007432711    0.003832130
      2        6          -0.031102210    0.001883064   -0.010126453
      3        6           0.026310968   -0.006571195    0.017671303
      4        6          -0.019981674   -0.001755423    0.007279046
      5        6           0.007342079   -0.019943379   -0.001961537
      6        6           0.029992984    0.040189855   -0.004519647
      7        1          -0.007810616   -0.006610774    0.000701986
      8        1           0.010456459   -0.005255042   -0.002145737
      9        1          -0.003013320   -0.001546986   -0.003295322
     10        1          -0.005878121    0.004725849   -0.010485878
     11        1          -0.008692125    0.007740207    0.002349826
     12        1          -0.015964758   -0.005423464    0.000700284
 -------------------------------------------------------------------
 Cartesian Forces:  Max     0.040189855 RMS     0.013779220

 GradGradGradGradGradGradGradGradGradGradGradGradGradGradGradGradGradGrad
 Berny optimization.
 Search for a local minimum.
 Step number   1 out of a maximum of    2
 All quantities printed in internal units (Hartrees-Bohrs-Radians)
 Second derivative matrix not updated -- first step.
 ITU=  0
     Eigenvalues ---    0.01471   0.01631   0.03207   0.04221   0.06595
     Eigenvalues ---    0.06752   0.06920   0.07116   0.07261   0.09268
     Eigenvalues ---    0.09560   0.11153   0.11774   0.16229   0.18328
     Eigenvalues ---    0.27788   0.29122   0.30372   0.41648   0.41743
     Eigenvalues ---    0.43917   0.66774   0.68106   0.98844   1.07711
     Eigenvalues ---    1.19091   1.21386   1.46228   1.55540   1.61297
 Quadratic step=4.652D-01 exceeds max=3.000D-01 adjusted using Lamda=-2.006D-02.
 Angle between NR and scaled steps=  14.07 degrees.
 Angle between quadratic step and forces=  59.80 degrees.
 Linear search not attempted -- first point.
 B after Tr=     0.005033   -0.000753    0.008896
         Rot=    0.999998   -0.000725    0.001838    0.000630 Ang=  -0.24 deg.
 Variable       Old X    -DE/DX   Delta X   Delta X   Delta X     New X
                                 (Linear)    (Quad)   (Total)
    X1       -1.33927   0.01834   0.00000   0.01090   0.01305  -1.32622
    Y1       -2.27010  -0.00743   0.00000   0.00109   0.00200  -2.26810
    Z1        0.00861   0.00383   0.00000   0.00212   0.00284   0.01144
    X2        1.34246  -0.03110   0.00000  -0.01429  -0.01234   1.33013
    Y2       -2.27437   0.00188   0.00000  -0.02664  -0.02913  -2.30351
    Z2        0.07702  -0.01013   0.00000  -0.02876  -0.01833   0.05870
    X3        2.60457   0.02631   0.00000   0.03398   0.03905   2.64361
    Y3       -0.00850  -0.00657   0.00000  -0.02372  -0.02776  -0.03626
    Z3       -0.13610   0.01767   0.00000   0.11199   0.13053  -0.00557
    X4        1.34312  -0.01998   0.00000  -0.02329  -0.01564   1.32749
    Y4        2.29232  -0.00176   0.00000  -0.01499  -0.01751   2.27482
    Z4        0.03255   0.00728   0.00000   0.02933   0.04638   0.07893
    X5       -1.29908   0.00734   0.00000   0.00441   0.01233  -1.28675
    Y5        2.28404  -0.01994   0.00000   0.00483   0.00571   2.28975
    Z5        0.00027  -0.00196   0.00000   0.00027   0.00773   0.00800
    X6       -2.67439   0.02999   0.00000   0.04729   0.05255  -2.62184
    Y6       -0.04510   0.04019   0.00000   0.04974   0.05238   0.00727
    Z6       -0.04634  -0.00452   0.00000  -0.00788  -0.00863  -0.05497
    X7       -2.26560  -0.00781   0.00000  -0.06220  -0.06244  -2.32804
    Y7       -4.10422  -0.00661   0.00000   0.00920   0.01133  -4.09289
    Z7        0.03109   0.00070   0.00000   0.00870   0.00309   0.03418
    X8        2.23901   0.01046   0.00000   0.04898   0.04816   2.28717
    Y8       -4.10730  -0.00526   0.00000  -0.03115  -0.03504  -4.14234
    Z8        0.28390  -0.00215   0.00000  -0.11215  -0.10086   0.18304
    X9        4.69869  -0.00301   0.00000   0.02432   0.02955   4.72824
    Y9        0.01932  -0.00155   0.00000  -0.03308  -0.03969  -0.02037
    Z9       -0.09999  -0.00330   0.00000   0.03180   0.05803  -0.04196
   X10        2.49168  -0.00588   0.00000  -0.08096  -0.07214   2.41954
   Y10        3.95928   0.00473   0.00000   0.07745   0.07315   4.03243
   Z10        0.51743  -0.01049   0.00000  -0.17160  -0.14798   0.36944
   X11       -2.27684  -0.00869   0.00000  -0.04606  -0.03578  -2.31261
   Y11        4.08141   0.00774   0.00000   0.01050   0.01270   4.09411
   Z11       -0.03169   0.00235   0.00000   0.00716   0.01346  -0.01823
   X12       -4.69806  -0.01596   0.00000  -0.00207   0.00365  -4.69440
   Y12        0.11182  -0.00542   0.00000  -0.01353  -0.00814   0.10368
   Z12       -0.16670   0.00070   0.00000   0.02196   0.01373  -0.15298
         Item               Value     Threshold  Converged?
 Maximum Force            0.040190     0.000450     NO 
 RMS     Force            0.013779     0.000300     NO 
 Maximum Displacement     0.147984     0.001800     NO 
 RMS     Displacement     0.049243     0.001200     NO 
 Predicted change in Energy=-7.150439D-03
 GradGradGradGradGradGradGradGradGradGradGradGradGradGradGradGradGradGrad

 Unable to Open any file for archive entry.
 1\1\GINC-BHC0189\Force\RAM1\ZDO\C6H6\BWEIGHT\21-Mar-2025\0\\# AM1/STO-
 5G SCF=XQC FORCE nosym guess=read\\MD Step 25\\0,1\C,-0.70871309,-1.20
 128673,0.00455444\C,0.71040066,-1.20354665,0.04075974\C,1.37827725,-0.
 00449673,-0.07202145\C,0.71074959,1.21304405,0.01722297\C,-0.68744307,
 1.2086634,0.00014033\C,-1.41522703,-0.02386819,-0.02452014\H,-1.198905
 31,-2.17185995,0.01645166\H,1.184832,-2.17348988,0.15023408\H,2.486439
 46,0.01022275,-0.05291209\H,1.31854195,2.09516284,0.27380976\H,-1.2048
 4993,2.15978702,-0.01676736\H,-2.4861057,0.05917045,-0.08821611\\Versi
 on=ES64L-G16RevC.01\HF=0.0444863\RMSD=7.043e-09\RMSF=1.378e-02\Dipole=
 0.012053,-0.0024218,0.0867928\PG=C01 [X(C6H6)]\\@
 The archive entry for this job was punched.


 SIGN SEEN IN A RESTAURANT-
 WE RESERVE THE RIGHT TO SERVE REFUSE TO ANYONE.
 Job cpu time:       0 days  0 hours  0 minutes  1.2 seconds.
 Elapsed time:       0 days  0 hours  0 minutes  0.9 seconds.
 File lengths (MBytes):  RWF=      6 Int=      0 D2E=      0 Chk=      2 Scr=      1
 Normal termination of Gaussian 16 at Fri Mar 21 15:03:34 2025.
