%chk=geometry.chk
%nprocshared=12
%mem=30GB

# AM1/STO-5G IOp(3/41=2000) nosymm iop(2/12=3,3/33=1) guess=only

MD Step 4

0 1
C  -1.03748774  -1.17193354  0.00172891 
C  0.31491203  -1.13813049  0.00274640 
C  1.00843600  0.00027576  -0.00155555 
C  0.31474840  1.13843285  -0.00239968 
C  -1.03761135  1.17190516  -0.00081984 
C  -1.74508750  -0.00000903  0.00059808 
H  -1.67319626  -2.05366279  0.00396798 
H  0.77520384  -2.10609614  0.00520713 
H  0.77491172  2.10641565  -0.00293077 
H  -1.67367099  2.05325810  -0.00007369 
N  2.34544183  0.00017785  -0.00491983 
C  3.09795165  -1.23123170  -0.00050655 
H  4.14093775  -1.02744247  -0.00183072 
H  2.83629616  -1.83311899  0.86180706 
H  2.83545377  -1.83861217  -0.85932094 
C  3.09873147  1.23083201  0.00471716 
H  4.14149160  1.02661618  -0.01478404 
H  2.82406088  1.84701002  -0.84454783 
H  2.84966714  1.82480416  0.87606925 
C  -3.20213317  -0.00029511  0.00007332 
N  -4.32533177  0.00001391  -0.00070524 
C  -1.03613662  -1.17410845  0.00172068 
C  0.31485925  -1.14153163  0.00276884 
C  1.01318232  0.00026317  -0.00155754 
C  0.31471052  1.14182900  -0.00237387 
C  -1.03625394  1.17409629  -0.00079406 
C  -1.74276737  -0.00001312  0.00054340 
H  -1.67209739  -2.06229854  0.00383722 
H  0.77449204  -2.11945213  0.00531178 
H  0.77425910  2.11977534  -0.00280183 
H  -1.67267358  2.06185894  -0.00008830 
N  2.34529270  0.00016734  -0.00498312 
C  3.09361821  -1.23122550  -0.00045981 
H  4.14507169  -1.02420355  -0.00186404 
H  2.82193394  -1.83004646  0.87740550 
H  2.82105257  -1.83564362  -0.87467379 
C  3.09438131  1.23082583  0.00469925 
H  4.14564490  1.02347353  -0.01494287 
H  2.80931126  1.84422047  -0.85997906 
H  2.83560274  1.82163769  0.89165226 
C  -3.20505210  -0.00028437  0.00000236 
N  -4.32004407  0.00000912  -0.00063527 








