12
MD Step 0.0 Units = [eV / Ang.]
C  -0.00016394 -2.87628577 0.42049263
C  2.05125946 -0.97998378 -0.30115553
C  -2.32599362 -0.44658581 -0.17997580
C  1.36595999 0.21636673 0.84961574
C  -1.59019588 1.24936738 -1.17740744
C  0.42325366 1.69647793 0.55995944
H  0.30991015 1.12012201 -0.10340159
H  -0.37750251 0.30379241 -0.02238747
H  0.39993842 -0.15073690 0.03320028
H  -0.22714666 0.55850829 -0.24091312
H  0.26774469 -0.83788296 0.42169178
H  -0.29706377 0.14684048 -0.25971893
12
MD Step 1.0 Units = [eV / Ang.]
C  0.66314173 -3.16704229 0.45148600
C  1.70441473 -1.10261934 -0.25796051
C  -2.51397965 -0.30627762 -0.12084180
C  1.44749212 0.52731689 0.77118823
C  -0.88914950 1.21671265 -1.14930473
C  -0.28255965 1.53215822 0.51452772
H  0.25298431 1.12482606 -0.13335574
H  -0.37034987 0.32773145 -0.04590389
H  0.69056552 -0.17074438 0.00998822
H  -0.64625336 0.17897485 -0.20493061
H  0.16271769 -0.39699041 0.39673679
H  -0.21902406 0.23595393 -0.23162970
12
MD Step 2.0 Units = [eV / Ang.]
C  1.36359264 -2.92753943 0.47486798
C  1.15904566 -1.12089369 -0.21747317
C  -2.28751372 -0.09548304 -0.05281988
C  1.37818382 0.76102742 0.65635578
C  -0.03804598 0.98350089 -1.07113086
C  -0.92603060 1.19784259 0.44596680
H  0.04884634 0.78064546 -0.15257702
H  -0.25310450 0.19453777 -0.06090680
H  0.65705678 -0.18779351 -0.01773179
H  -0.98257788 -0.12845286 -0.14598933
H  -0.05155571 0.22484200 0.33991448
H  -0.06789685 0.31776639 -0.19847622
12
MD Step 3.0 Units = [eV / Ang.]
C  2.01778941 -2.19448440 0.48378407
C  0.49576008 -1.05878577 -0.17915470
C  -1.68917335 0.16378373 0.02888658
C  1.11906887 0.83439720 0.51168091
C  0.80906134 0.68925742 -0.96190044
C  -1.41006845 0.71933556 0.34980638
H  -0.26929228 0.14742861 -0.15560019
H  -0.05466215 -0.05471352 -0.06669517
H  0.32453374 -0.20388472 -0.05764504
H  -1.15456037 -0.26857566 -0.07086830
H  -0.28059197 0.83987970 0.27223475
H  0.09213513 0.38636185 -0.15452886
12
MD Step 4.0 Units = [eV / Ang.]
C  2.53142665 -1.16181615 0.47696272
C  -0.18539333 -0.97693951 -0.13912793
C  -0.90261593 0.43447451 0.12141140
C  0.67383253 0.72035734 0.35105187
C  1.45632492 0.53322489 -0.84641870
C  -1.67287972 0.16246666 0.22802750
H  -0.61905827 -0.59441235 -0.14375567
H  0.16986435 -0.33321113 -0.06712007
H  -0.14362014 -0.21475690 -0.10886522
H  -1.12838624 -0.20722080 0.00673375
H  -0.38121325 1.20393361 0.21977714
H  0.20171842 0.43389982 -0.09867678
12
MD Step 5.0 Units = [eV / Ang.]
C  2.77680953 -0.18658579 0.46215481
C  -0.77902942 -0.95621738 -0.09023659
C  -0.14181369 0.67356303 0.21439859
C  0.08296700 0.43081089 0.19108909
C  1.74916142 0.64055638 -0.73591404
C  -1.69666349 -0.38512154 0.08908258
H  -0.85694024 -1.13122758 -0.12795392
H  0.35175392 -0.52565613 -0.07054785
H  -0.55558017 -0.21336213 -0.16203453
H  -0.91194362 0.04323645 0.07171446
H  -0.24337264 1.15694936 0.19303845
H  0.22465140 0.45305443 -0.03479105
12
MD Step 6.0 Units = [eV / Ang.]
C  2.63106001 0.38099360 0.45055539
C  -1.19741363 -1.05298589 -0.02533554
C  0.43537727 0.84387234 0.29543316
C  -0.57144249 0.02271608 0.04560106
C  1.67034873 0.94341513 -0.61816081
C  -1.50050560 -0.84143023 -0.05512442
H  -0.83722705 -1.17073143 -0.12223047
H  0.43612480 -0.53686497 -0.08604547
H  -0.77689115 -0.19493908 -0.20543670
H  -0.55910928 0.41777099 0.11355924
H  0.11517234 0.74861788 0.17683645
H  0.15450604 0.43956557 0.03034813
12
MD Step 7.0 Units = [eV / Ang.]
C  2.07580726 0.45682826 0.44332836
C  -1.39333177 -1.24963517 0.05698577
C  0.74608063 0.92185327 0.35417960
C  -1.16147847 -0.38448389 -0.08297899
C  1.33499327 1.23125827 -0.47360177
C  -1.13181054 -1.15065380 -0.19329279
H  -0.52798607 -0.68770836 -0.12960990
H  0.40951365 -0.34814832 -0.11697820
H  -0.74839330 -0.15915563 -0.23007331
H  -0.17619856 0.78398487 0.13482202
H  0.55811256 0.19192779 0.14723864
H  0.01469134 0.39393271 0.08998056
12
MD Step 8.0 Units = [eV / Ang.]
C  1.23503960 0.25670485 0.42873873
C  -1.36716260 -1.44941102 0.14947904
C  0.77223679 0.89981604 0.38414598
C  -1.54334895 -0.62760647 -0.20933149
C  0.89533145 1.30745714 -0.29602782
C  -0.66205140 -1.28963942 -0.31810748
H  -0.04892405 0.04979095 -0.13905433
H  0.30348532 -0.03065331 -0.15769155
H  -0.47448056 -0.10987085 -0.23189101
H  0.10485121 0.96544835 0.15628799
H  0.93089453 -0.29351224 0.09324740
H  -0.14587134 0.32147598 0.14020455
12
MD Step 9.0 Units = [eV / Ang.]
C  0.29318377 0.06611546 0.39432970
C  -1.15557401 -1.52666039 0.23953572
C  0.56116761 0.78422786 0.38459668
C  -1.63096536 -0.58855189 -0.35519750
C  0.46947837 1.07863099 -0.09563533
C  -0.17915003 -1.26363222 -0.42766864
H  0.42344257 0.71454339 -0.13788288
H  0.17197040 0.29838512 -0.19675871
H  -0.02149198 -0.05394430 -0.21325784
H  0.20012428 0.83492294 0.20581607
H  1.13296251 -0.57428499 0.02039048
H  -0.26514812 0.23024804 0.18173225
12
MD Step 10.0 Units = [eV / Ang.]
C  -0.59410190 0.05620731 0.33610206
C  -0.81466142 -1.38669350 0.31535601
C  0.23603738 0.59138023 0.36281095
C  -1.45076068 -0.29104135 -0.52569717
C  0.13223739 0.54319520 0.10886260
C  0.23215636 -1.09656972 -0.52398628
H  0.75725833 1.10595810 -0.12135383
H  0.06467417 0.53372125 -0.22326773
H  0.47412173 0.00143684 -0.18410779
H  0.13225433 0.41298086 0.29327537
H  1.12183196 -0.59833397 -0.05708825
H  -0.29104765 0.12775876 0.21909404
12
MD Step 11.0 Units = [eV / Ang.]
C  -1.31634487 0.27893373 0.25761456
C  -0.40829934 -0.99376209 0.36989992
C  -0.02197910 0.34143286 0.33264790
C  -1.11107192 0.10759061 -0.69879401
C  -0.07490668 -0.24661347 0.29697326
C  0.51651703 -0.82089902 -0.60882884
H  0.88498503 1.15428114 -0.09203712
H  0.01360479 0.61364242 -0.23098269
H  0.82592808 0.05315753 -0.15942510
H  0.00285398 -0.14110593 0.39911236
H  0.89551059 -0.36577956 -0.12308071
H  -0.20679760 0.01912178 0.25690046
12
MD Step 12.0 Units = [eV / Ang.]
C  -1.78992455 0.72745076 0.16631943
C  -0.00066631 -0.36987525 0.40167711
C  -0.05313713 0.05436820 0.30617547
C  -0.72487244 0.42187480 -0.84035533
C  -0.15126316 -1.19293655 0.45119144
C  0.66277010 -0.47166340 -0.67961228
H  0.78005874 0.85871070 -0.05623536
H  0.03042175 0.52487269 -0.21933654
H  0.87934049 0.10442087 -0.15045792
H  -0.08577881 -0.63631801 0.48965548
H  0.49435721 0.07076997 -0.16461529
H  -0.04130589 -0.09167479 0.29559380
12
MD Step 13.0 Units = [eV / Ang.]
C  -1.96102694 1.35753628 0.07162014
C  0.35333397 0.41317863 0.41409961
C  0.18157960 -0.24794041 0.28429342
C  -0.36807234 0.52572402 -0.92385168
C  -0.15919302 -2.12774581 0.56419473
C  0.69625069 -0.08603627 -0.72873088
H  0.45064861 0.26598556 -0.02200630
H  0.10518533 0.29977448 -0.19283897
H  0.61210871 0.15994673 -0.15572899
H  -0.07635932 -0.93772222 0.53804860
H  0.02116417 0.57636502 -0.17934429
H  0.14438052 -0.19906602 0.33024462
12
MD Step 14.0 Units = [eV / Ang.]
C  -1.84761658 2.05082520 -0.01722767
C  0.62126475 1.24034300 0.41410847
C  0.58135784 -0.53733086 0.25723825
C  -0.08435956 0.36936897 -0.93728814
C  -0.21797388 -2.80827861 0.64648181
C  0.65661136 0.29439277 -0.74685290
H  -0.02852434 -0.49161472 0.00305622
H  0.20348112 0.01339547 -0.15954434
H  0.15108412 0.21809192 -0.16247290
H  0.04532936 -0.98372351 0.53254649
H  -0.36479393 0.92948786 -0.18321395
H  0.28413972 -0.29495749 0.35316867
12
MD Step 15.0 Units = [eV / Ang.]
C  -1.58427774 2.57244794 -0.09663938
C  0.80116198 1.97069861 0.40912305
C  0.98633934 -0.78156605 0.21423045
C  0.10155025 -0.03654536 -0.88191291
C  -0.42473189 -3.00809679 0.72085420
C  0.57705682 0.62298828 -0.72749266
H  -0.48009137 -1.15498660 0.01748305
H  0.26939209 -0.23057759 -0.12772957
H  -0.31473358 0.26958194 -0.15733660
H  0.26503576 -0.77244976 0.47581348
H  -0.52655682 0.91891768 -0.20429712
H  0.32985517 -0.37041230 0.35790400
12
MD Step 16.0 Units = [eV / Ang.]
C  -1.37576050 2.63968649 -0.17431971
C  0.91118851 2.47931008 0.40250547
C  1.26694410 -0.95265620 0.15096959
C  0.18611661 -0.62449295 -0.77168440
C  -0.75401861 -2.67118326 0.79871474
C  0.47256551 0.85371022 -0.67002179
H  -0.67614398 -1.41355785 0.03144709
H  0.24540958 -0.33788281 -0.10109877
H  -0.63078527 0.30334694 -0.13459794
H  0.54346476 -0.36206702 0.38385089
H  -0.45201728 0.50414110 -0.25779131
H  0.26303657 -0.41835472 0.34202613
12
MD Step 17.0 Units = [eV / Ang.]
C  -1.33047517 2.13262497 -0.26321727
C  0.96243105 2.70916228 0.39113965
C  1.35543251 -1.03330721 0.07018012
C  0.20061910 -1.25640114 -0.63287621
C  -1.06253588 -1.95410437 0.86482717
C  0.33578998 0.95347968 -0.58016358
H  -0.50728304 -1.12577087 0.06020729
H  0.10587130 -0.27269919 -0.07622192
H  -0.71351235 0.31210737 -0.09675051
H  0.81039996 0.11305024 0.28429413
H  -0.25505863 -0.14253550 -0.32949890
H  0.09832117 -0.43560626 0.30808000
12
MD Step 18.0 Units = [eV / Ang.]
C  -1.35842967 1.22061680 -0.36542020
C  0.93947447 2.69165899 0.36857409
C  1.23862677 -1.01820843 -0.02088068
C  0.21401851 -1.73529117 -0.49511637
C  -1.19890118 -1.09975729 0.89150759
C  0.13927285 0.91263205 -0.46830441
H  -0.08555924 -0.44985981 0.10739744
H  -0.12216509 -0.07778898 -0.04580874
H  -0.54446205 0.29437655 -0.05133011
H  0.96994348 0.45513833 0.20615117
H  -0.07415892 -0.76995394 -0.38954082
H  -0.11765993 -0.42356310 0.26277104
12
MD Step 19.0 Units = [eV / Ang.]
C  -1.28120010 0.22415927 -0.46804701
C  0.80980261 2.51587704 0.33106992
C  0.95379788 -0.91275997 -0.11273043
C  0.30165576 -1.89100591 -0.37222827
C  -1.08871160 -0.30520766 0.86071204
C  -0.15374198 0.74402725 -0.34612122
H  0.36624092 0.29999146 0.16078011
H  -0.37191392 0.15417524 -0.00527841
H  -0.16489031 0.25446146 -0.00759739
H  0.93854888 0.49327515 0.16010511
H  0.00564994 -1.18987571 -0.41502984
H  -0.31523807 -0.38711762 0.21436541
12
MD Step 20.0 Units = [eV / Ang.]
C  -0.99140623 -0.59350286 -0.55474491
C  0.55105053 2.27671757 0.28057293
C  0.59926786 -0.73116230 -0.19654503
C  0.49104773 -1.69711983 -0.25198984
C  -0.73919399 0.30617644 0.77060336
C  -0.56811812 0.47328309 -0.22238781
H  0.67864673 0.87092502 0.20421620
H  -0.57107387 0.32996865 0.04356834
H  0.31596541 0.20119405 0.02705056
H  0.70109890 0.20518273 0.12891354
H  -0.04329692 -1.30986615 -0.39802557
H  -0.42398805 -0.33179641 0.16876822
12
MD Step 21.0 Units = [eV / Ang.]
C  -0.48789757 -1.08965464 -0.61468429
C  0.16957235 2.04098062 0.22307121
C  0.33221840 -0.49199463 -0.26858479
C  0.73812146 -1.28919569 -0.11173710
C  -0.20654687 0.65834730 0.63087632
C  -1.09159217 0.13037696 -0.10006152
H  0.78006608 1.13765071 0.22730227
H  -0.66899641 0.38820546 0.09379528
H  0.72602733 0.14369171 0.05151524
H  0.32873580 -0.26247717 0.08451616
H  -0.21575532 -1.10508552 -0.34252636
H  -0.40395307 -0.26084510 0.12651757
12
MD Step 22.0 Units = [eV / Ang.]
C  0.17388687 -1.20217542 -0.64303564
C  -0.29904567 1.83829673 0.16523049
C  0.31249087 -0.21136630 -0.33289488
C  0.95907137 -0.85767750 0.05791038
C  0.42843141 0.71923546 0.45863671
C  -1.66268148 -0.25122090 0.02295170
H  0.65921458 1.05797038 0.22621379
H  -0.64649124 0.30780852 0.13691828
H  0.89051503 0.08471481 0.07308744
H  -0.06449071 -0.70262876 0.01308876
H  -0.48404690 -0.60781527 -0.26157174
H  -0.26685414 -0.17514176 0.08346472
12
MD Step 23.0 Units = [eV / Ang.]
C  0.92244692 -0.92108038 -0.63966365
C  -0.79803059 1.66228293 0.11152573
C  0.60357151 0.09858144 -0.39701869
C  1.07633777 -0.53931088 0.24669322
C  1.06132717 0.54221942 0.27698311
C  -2.18530996 -0.63051548 0.14961857
H  0.33586647 0.63708339 0.20238531
H  -0.51631593 0.10714740 0.16655596
H  0.73517490 0.01867941 0.10220304
H  -0.37817449 -0.95948281 -0.07829999
H  -0.78675752 0.06071707 -0.17593130
H  -0.07013625 -0.07632153 0.03494868
12
MD Step 24.0 Units = [eV / Ang.]
C  1.66545332 -0.31839971 -0.61063305
C  -1.25655240 1.47285377 0.06202059
C  1.12166153 0.42051114 -0.46310962
C  1.03903771 -0.39039795 0.43296616
C  1.55471293 0.30432746 0.10908813
C  -2.56187193 -0.95793499 0.27954976
H  -0.12721768 -0.04681323 0.16368168
H  -0.32146012 -0.15661686 0.18165973
H  0.33935730 -0.06058206 0.14264129
H  -0.54966141 -0.95931178 -0.17067104
H  -1.01475652 0.66224371 -0.10706614
H  0.11129727 0.03012049 -0.02012749
12
MD Step 25.0 Units = [eV / Ang.]
C  2.25676186 0.38981161 -0.56983430
C  -1.59778716 1.20582603 0.01125566
C  1.69153545 0.72241787 -0.52450742
C  0.82580582 -0.41017196 0.59259014
C  1.75883749 0.23901436 -0.03646397
C  -2.72188185 -1.18270725 0.40768009
H  -0.59097789 -0.77938823 0.12535956
H  -0.12717264 -0.39461338 0.18840512
H  -0.12173391 -0.15050565 0.18769693
H  -0.55191741 -0.69265863 -0.24300314
H  -1.03613648 0.91831835 -0.06091118
H  0.21466673 0.13465688 -0.07826749
12
MD Step 26.0 Units = [eV / Ang.]
C  2.50322949 0.86193496 -0.53226450
C  -1.75530062 0.80174621 -0.04957435
C  2.14403251 0.96105943 -0.57049871
C  0.45306392 -0.55743145 0.70546621
C  1.58754496 0.44800875 -0.17327909
C  -2.63353313 -1.26631454 0.52599319
H  -0.85446372 -1.22443325 0.10252951
H  0.00165460 -0.51375516 0.19813233
H  -0.47983658 -0.23943221 0.22543221
H  -0.39309003 -0.20406201 -0.27919267
H  -0.77938974 0.70646861 -0.01961388
H  0.20608834 0.22621068 -0.13313024
12
MD Step 27.0 Units = [eV / Ang.]
C  2.27321561 0.83716893 -0.49896660
C  -1.69502205 0.24950348 -0.12619882
C  2.36708028 1.09599898 -0.59199568
C  -0.00700293 -0.74208713 0.76393440
C  1.08620605 0.79471686 -0.31945560
C  -2.30411822 -1.19447416 0.62660205
H  -0.77544674 -1.12761575 0.09473003
H  0.03253011 -0.46216794 0.22020508
H  -0.63033902 -0.31296777 0.24559381
H  -0.13069259 0.39545238 -0.27613037
H  -0.30224647 0.17104101 0.03995371
H  0.08583596 0.29543110 -0.17827202
12
MD Step 28.0 Units = [eV / Ang.]
C  1.61628409 0.36509882 -0.45453964
C  -1.42669540 -0.38734274 -0.21505321
C  2.30581664 1.10343094 -0.58357486
C  -0.42036347 -0.82041853 0.78169277
C  0.40431315 1.03078002 -0.47449853
C  -1.77965935 -0.98177601 0.70444304
H  -0.39774781 -0.54661222 0.08402293
H  -0.01736579 -0.26094463 0.25457250
H  -0.53504318 -0.35960788 0.24289531
H  0.11809394 0.92500325 -0.25196274
H  0.24362035 -0.40499837 0.12174314
H  -0.11125315 0.33738735 -0.20974072
12
MD Step 29.0 Units = [eV / Ang.]
C  0.72793397 -0.25280602 -0.38562600
C  -0.99540745 -0.99050696 -0.30364869
C  1.95612951 0.98376205 -0.54396650
C  -0.63452883 -0.64592447 0.79038047
C  -0.29137661 0.98372414 -0.61944740
C  -1.14332708 -0.66767030 0.75863511
H  0.08814544 0.20617338 0.05461575
H  -0.09545990 0.00779845 0.29117158
H  -0.21351579 -0.37374452 0.21789309
H  0.21312374 1.19209404 -0.24200470
H  0.70803439 -0.79563383 0.20992519
H  -0.31975139 0.35273404 -0.22792791
12
MD Step 30.0 Units = [eV / Ang.]
C  -0.18904582 -0.72267480 -0.29416234
C  -0.46343218 -1.43911835 -0.37723404
C  1.37747830 0.76215245 -0.47757947
C  -0.57195033 -0.17272001 0.81518195
C  -0.86867621 0.61026675 -0.73104915
C  -0.50215888 -0.30444228 0.79194808
H  0.49570068 0.82285517 0.00691425
H  -0.14533509 0.24520751 0.31641818
H  0.25034065 -0.35770479 0.17769495
H  0.08144751 1.10667935 -0.27362070
H  0.99477816 -0.89694351 0.28308342
H  -0.45914681 0.34644252 -0.23759514
12
MD Step 31.0 Units = [eV / Ang.]
C  -0.99475141 -0.89644318 -0.19266378
C  0.10287826 -1.65342701 -0.42537709
C  0.70903960 0.48185795 -0.39549291
C  -0.28872632 0.49116017 0.85081387
C  -1.23336801 -0.05253856 -0.79070871
C  0.04391605 0.05927849 0.80793912
H  0.72180891 1.13846419 -0.04713878
H  -0.12971956 0.37547290 0.32034695
H  0.69996366 -0.32190971 0.13540714
H  -0.22317463 0.74372186 -0.34157189
H  1.05692904 -0.68991061 0.32346581
H  -0.46479559 0.32427351 -0.24501972
12
MD Step 32.0 Units = [eV / Ang.]
C  -1.59543261 -0.74188123 -0.09595769
C  0.63907283 -1.61029956 -0.44449081
C  0.14122669 0.19011768 -0.31141729
C  0.07220040 1.15131280 0.86708709
C  -1.32813782 -0.93104381 -0.78719012
C  0.43792005 0.39157898 0.80695653
H  0.73053655 1.10195394 -0.09285576
H  -0.03704674 0.36310211 0.29995694
H  0.94137423 -0.27925334 0.10481792
H  -0.56486406 0.28001156 -0.41361200
H  0.88432273 -0.20503744 0.32014273
H  -0.32117225 0.28943830 -0.25343752
12
MD Step 33.0 Units = [eV / Ang.]
C  -1.91951279 -0.28269388 -0.01799370
C  1.08839390 -1.34083408 -0.43729125
C  -0.18130035 -0.07849618 -0.23258990
C  0.37413931 1.63741190 0.83386553
C  -1.15808590 -1.90766588 -0.72090968
C  0.68118408 0.67993222 0.78436309
H  0.52137057 0.71942347 -0.11674598
H  0.12004741 0.21589661 0.25925753
H  0.84389068 -0.23492474 0.09108489
H  -0.81710377 -0.11688367 -0.45644777
H  0.51945365 0.46640154 0.27389510
H  -0.07247680 0.24243268 -0.26048785
12
MD Step 34.0 Units = [eV / Ang.]
C  -1.93219463 0.40638400 0.03061113
C  1.41098286 -0.92480622 -0.41102405
C  -0.25500664 -0.30801829 -0.15474075
C  0.53416185 1.85438798 0.73615544
C  -0.83145508 -2.78242062 -0.61192849
C  0.81735635 0.92323461 0.73309557
H  0.13125573 0.05421967 -0.10968145
H  0.30703105 -0.01530737 0.20758131
H  0.43453449 -0.18288412 0.08661076
H  -0.90946548 -0.34373152 -0.45221395
H  0.09363903 1.13512134 0.20554736
H  0.19916046 0.18382054 -0.26001287
12
MD Step 35.0 Units = [eV / Ang.]
C  -1.68190532 1.14928950 0.05054396
C  1.59137864 -0.48062397 -0.37437053
C  -0.20758572 -0.49075280 -0.06788845
C  0.51947197 1.77276518 0.57397525
C  -0.54609018 -3.28174545 -0.49935551
C  0.90093516 1.11877162 0.64857163
H  -0.33235924 -0.71867608 -0.07528668
H  0.47252179 -0.24302077 0.15608675
H  -0.11819032 -0.11492624 0.07821798
H  -0.82328149 -0.35769919 -0.39917537
H  -0.18484066 1.52995076 0.15497901
H  0.40994539 0.11666743 -0.24629804
12
MD Step 36.0 Units = [eV / Ang.]
C  -1.31984775 1.64537763 0.06390654
C  1.63527471 -0.13655775 -0.33270350
C  -0.19868360 -0.61478561 0.03422058
C  0.33540089 1.40979794 0.35852683
C  -0.45694614 -3.18966423 -0.41645602
C  0.97203977 1.25186705 0.53218422
H  -0.68272198 -1.29009520 -0.03976079
H  0.56286759 -0.36877708 0.11229131
H  -0.61320111 -0.03094227 0.05755596
H  -0.57800401 -0.16318840 -0.30771085
H  -0.15757281 1.44045459 0.15519031
H  0.50139443 0.04651335 -0.21724460
12
MD Step 37.0 Units = [eV / Ang.]
C  -1.01443989 1.60328460 0.10683786
C  1.55490429 0.01897595 -0.28442079
C  -0.33923522 -0.66304676 0.15047931
C  0.02810889 0.83383795 0.11076790
C  -0.52914750 -2.51197506 -0.36025468
C  1.04486948 1.29591619 0.39160018
H  -0.74598893 -1.35698993 -0.04321833
H  0.54587205 -0.32918077 0.07556821
H  -0.90608770 0.06034038 0.02471286
H  -0.23109134 0.18068283 -0.19788059
H  0.14084227 0.88846033 0.20089049
H  0.45139360 -0.02030570 -0.17508242
12
MD Step 38.0 Units = [eV / Ang.]
C  -0.80861252 0.98248290 0.19657541
C  1.35673618 -0.02142848 -0.22276916
C  -0.67480781 -0.62135511 0.27406479
C  -0.30998332 0.18328188 -0.14158644
C  -0.57431704 -1.46831548 -0.29769507
C  1.10616150 1.22438703 0.23844739
H  -0.50669334 -0.87097208 -0.10503409
H  0.42870771 -0.13366071 0.03837564
H  -0.92988766 0.14668975 -0.01435552
H  0.11958516 0.54254932 -0.09516479
H  0.51641860 0.11479824 0.25437812
H  0.27669254 -0.07845726 -0.12523628
12
MD Step 39.0 Units = [eV / Ang.]
C  -0.60615693 0.04201232 0.31147098
C  1.04418230 -0.18795651 -0.14258591
C  -1.19621812 -0.48701022 0.39497504
C  -0.56352351 -0.34876121 -0.37458354
C  -0.42290402 -0.32541016 -0.19972477
C  1.11981279 1.02513314 0.08478885
H  -0.11902177 -0.08705390 -0.20306313
H  0.25382308 0.14039822 -0.00686573
H  -0.68402825 0.21714118 -0.05153922
H  0.36146708 0.73916151 -0.01894517
H  0.78058557 -0.60269226 0.28016311
H  0.03198177 -0.12496211 -0.07409052
12
MD Step 40.0 Units = [eV / Ang.]
C  -0.30226829 -0.87543904 0.41222084
C  0.63019487 -0.37803315 -0.04553624
C  -1.83763423 -0.27417639 0.50261952
C  -0.65469179 -0.60460616 -0.58082448
C  -0.02315247 0.72058320 -0.05953050
C  1.03905123 0.70715593 -0.06045906
H  0.23346887 0.65883918 -0.29569425
H  0.07649289 0.39061955 -0.06161062
H  -0.23374365 0.26529396 -0.07974730
H  0.42920440 0.63036368 0.03048675
H  0.84271290 -1.08077537 0.26419673
H  -0.19963473 -0.15982538 -0.02612141
12
MD Step 41.0 Units = [eV / Ang.]
C  0.12711134 -1.53360306 0.47045257
C  0.14520405 -0.50231644 0.06022719
C  -2.46301950 -0.01540250 0.58971168
C  -0.58909394 -0.56782101 -0.76839370
C  0.57659272 1.54269142 0.11277658
C  0.83022305 0.29988067 -0.19385155
H  0.44264829 1.14467346 -0.35203772
H  -0.05716097 0.53339297 -0.12046735
H  0.27878112 0.29249499 -0.09636482
H  0.34962576 0.22598244 0.06989090
H  0.69219361 -1.23472296 0.20974049
H  -0.33310555 -0.18524997 0.01831572
12
MD Step 42.0 Units = [eV / Ang.]
C  0.64352036 -1.82020592 0.47480882
C  -0.36590524 -0.50764650 0.16390756
C  -2.88205009 0.24308632 0.65611416
C  -0.43388323 -0.36417812 -0.94482354
C  1.27808587 2.04659555 0.30024989
C  0.50248981 -0.15102490 -0.31685091
H  0.47345411 1.27742836 -0.35914145
H  -0.12045880 0.52478486 -0.17453563
H  0.65291302 0.30863930 -0.10595886
H  0.21455299 -0.31633580 0.11523783
H  0.35678348 -1.03776999 0.12854216
H  -0.31950226 -0.20337315 0.06244996
12
MD Step 43.0 Units = [eV / Ang.]
C  1.19526439 -1.69615985 0.42464215
C  -0.85253052 -0.38296938 0.25603092
C  -2.93401128 0.45475841 0.70768217
C  -0.26037071 -0.15744616 -1.10601899
C  1.96228526 2.17479441 0.48382246
C  0.12171046 -0.58940402 -0.43213610
H  0.32621040 1.03494910 -0.31596578
H  -0.10798274 0.36413189 -0.21554441
H  0.71741830 0.32553411 -0.11799239
H  0.11408987 -0.79970372 0.16901018
H  -0.11082804 -0.51423887 0.03704226
H  -0.17125539 -0.21424593 0.10942752
12
MD Step 44.0 Units = [eV / Ang.]
C  1.73588321 -1.18322885 0.32764161
C  -1.26488582 -0.16149738 0.33153076
C  -2.59558632 0.58869736 0.74863934
C  -0.11502658 -0.05848932 -1.23932897
C  2.49447299 1.96709047 0.64398685
C  -0.20864523 -0.95666741 -0.53943894
H  0.02356632 0.44738678 -0.23077573
H  -0.03594669 0.09354550 -0.23946285
H  0.44276448 0.34549519 -0.13856926
H  0.09869491 -1.08196503 0.22268656
H  -0.62157942 0.21561138 -0.04542894
H  0.04628816 -0.21597869 0.15851957
12
MD Step 45.0 Units = [eV / Ang.]
C  2.20072450 -0.41357329 0.20468195
C  -1.55580051 0.08112477 0.39187662
C  -1.99992956 0.63413387 0.77553769
C  -0.02434804 -0.10688944 -1.33122784
C  2.72972709 1.62253391 0.76606853
C  -0.38770642 -1.20321086 -0.63405146
H  -0.36742282 -0.35395320 -0.12551086
H  0.05802669 -0.20569218 -0.24911561
H  -0.03769180 0.35812732 -0.16434751
H  0.18129047 -1.09662346 0.26489238
H  -1.04591225 0.89069179 -0.10333227
H  0.24904266 -0.20666924 0.20452837
12
MD Step 46.0 Units = [eV / Ang.]
C  2.47016566 0.31869807 0.09166222
C  -1.68292990 0.24572389 0.44459727
C  -1.34390960 0.59142444 0.77988177
C  -0.00195893 -0.28845547 -1.37192742
C  2.55166237 1.43734540 0.84912844
C  -0.34993594 -1.30081580 -0.70848186
H  -0.70687673 -1.08041699 -0.03683222
H  0.12246238 -0.43193260 -0.25395037
H  -0.52245353 0.34950449 -0.18560389
H  0.35032617 -0.83948749 0.28696906
H  -1.25441625 1.18450389 -0.13574730
H  0.36786429 -0.18609184 0.24030429
12
MD Step 47.0 Units = [eV / Ang.]
C  2.39108671 0.64832591 0.02181075
C  -1.61799359 0.25211655 0.49807369
C  -0.78747362 0.46357391 0.75475737
C  -0.04127307 -0.54139300 -1.35788991
C  1.93740518 1.58177483 0.90521326
C  -0.07713402 -1.24934990 -0.75561677
H  -0.81717922 -1.37163725 0.00255915
H  0.11276767 -0.50418475 -0.26479968
H  -0.84709806 0.31200895 -0.19357195
H  0.57387009 -0.36822934 0.28618177
H  -1.19352311 0.93303121 -0.15669393
H  0.36654505 -0.15603711 0.25997624
12
MD Step 48.0 Units = [eV / Ang.]
C  1.89245612 0.40910443 -0.00334807
C  -1.36052381 0.08379048 0.55386149
C  -0.42009176 0.25691971 0.69827725
C  -0.10278585 -0.74439132 -1.29438320
C  0.98256592 1.94967982 0.94377596
C  0.40141891 -1.07300010 -0.77161173
H  -0.61029442 -1.06517391 -0.00661347
H  0.01661030 -0.40527792 -0.28584611
H  -0.92230637 0.24641278 -0.18448965
H  0.79506907 0.18098721 0.26798760
H  -0.91949756 0.28065952 -0.17890516
H  0.24737946 -0.11971070 0.26129508
12
MD Step 49.0 Units = [eV / Ang.]
C  1.07246498 -0.21342287 -0.01373400
C  -0.94479978 -0.20254544 0.60367366
C  -0.27145721 -0.01422673 0.61360849
C  -0.11760328 -0.72705342 -1.19527080
C  -0.14573089 2.28261429 0.96179985
C  1.01035787 -0.80936738 -0.75736635
H  -0.17519282 -0.35262158 -0.03126363
H  -0.13702675 -0.19079837 -0.31089765
H  -0.72605439 0.15937486 -0.15975348
H  0.93398468 0.60372308 0.24449295
H  -0.55049577 -0.45471837 -0.20205899
H  0.05155337 -0.08095805 0.24676995
12
MD Step 50.0 Units = [eV / Ang.]
C  0.13202119 -0.86965501 -0.03830408
C  -0.43319635 -0.51093351 0.63442765
C  -0.31756136 -0.32600069 0.50834133
C  -0.02141370 -0.35248039 -1.07531271
C  -1.27247698 2.38279332 0.95069459
C  1.63523510 -0.49893276 -0.71799575
H  0.30010168 0.40591629 -0.03988180
H  -0.29395851 0.04469488 -0.32770887
H  -0.29886913 0.06107666 -0.12489417
H  0.91473900 0.71557189 0.22552752
H  -0.19751366 -1.00849975 -0.21804086
H  -0.14710728 -0.04355094 0.22314715
12
MD Step 51.0 Units = [eV / Ang.]
C  -0.74574542 -1.30427573 -0.08550417
C  0.09905974 -0.75167884 0.63611256
C  -0.46781021 -0.64676147 0.39344629
C  0.19544811 0.36555640 -0.94016113
C  -2.24410085 2.18004526 0.90565424
C  2.14696798 -0.17820006 -0.66009604
H  0.66090517 0.94133258 -0.02306542
H  -0.40088740 0.21307215 -0.32568644
H  0.24317493 -0.03714669 -0.08796998
H  0.71260070 0.47867469 0.20881011
H  0.06412151 -1.25026016 -0.21998931
H  -0.26373427 -0.01035813 0.19844929
12
MD Step 52.0 Units = [eV / Ang.]
C  -1.43626703 -1.41711177 -0.14900769
C  0.57860627 -0.86793046 0.60603555
C  -0.56438328 -0.93814770 0.27976019
C  0.46749932 1.24144201 -0.78692854
C  -2.93122129 1.68159403 0.82771791
C  2.44407737 0.12389607 -0.58773028
H  0.82926970 1.13891967 0.01236781
H  -0.42296367 0.25946991 -0.30068796
H  0.70980994 -0.12745660 -0.05584600
H  0.37724617 0.03152998 0.18231849
H  0.18825046 -1.14365029 -0.20537163
H  -0.23992396 0.01744514 0.17737215
12
MD Step 53.0 Units = [eV / Ang.]
C  -1.85418527 -1.19691456 -0.21778036
C  0.94534901 -0.84256766 0.54857416
C  -0.44368735 -1.15584052 0.17232122
C  0.68880642 2.02822896 -0.61399198
C  -3.23412387 0.92673599 0.72186289
C  2.49030370 0.38713329 -0.50012985
H  0.77763043 0.97472102 0.05429950
H  -0.34992931 0.16911038 -0.25560830
H  0.90355978 -0.21023408 -0.02901939
H  0.00361423 -0.41643010 0.13679471
H  0.14924224 -0.70440788 -0.17579163
H  -0.07658001 0.04046516 0.15846902
12
MD Step 54.0 Units = [eV / Ang.]
C  -1.94340708 -0.67264822 -0.28004726
C  1.16323350 -0.69932934 0.47277232
C  -0.04867819 -1.25724460 0.06838034
C  0.76744050 2.53673713 -0.42615688
C  -3.11031866 0.00029115 0.59570729
C  2.31940408 0.59942093 -0.39367442
H  0.50719745 0.46979316 0.09020166
H  -0.19776397 -0.03242794 -0.19853270
H  0.74047386 -0.29144896 -0.00077065
H  -0.31698333 -0.70229501 0.07321548
H  -0.04552193 -0.01105597 -0.13707563
H  0.16492377 0.06020768 0.13598045
12
MD Step 55.0 Units = [eV / Ang.]
C  -1.70560858 0.06503001 -0.32502453
C  1.22971267 -0.50320376 0.38893165
C  0.51689083 -1.21667590 -0.03695060
C  0.65390971 2.67197899 -0.23206216
C  -2.62114779 -0.91485543 0.45863519
C  2.00545718 0.75482741 -0.26661821
H  0.06524542 -0.28504436 0.10952449
H  -0.00872248 -0.27975589 -0.13935904
H  0.31199227 -0.37255053 0.03590371
H  -0.52235859 -0.74637796 0.00079498
H  -0.32005383 0.74873666 -0.09842790
H  0.39468320 0.07789075 0.10465242
12
MD Step 56.0 Units = [eV / Ang.]
C  -1.24895926 0.79915146 -0.34833934
C  1.17540496 -0.34943140 0.30406054
C  1.06090667 -1.03525956 -0.14392034
C  0.34075646 2.41531179 -0.04083976
C  -1.94963325 -1.53420679 0.31751683
C  1.62476170 0.85025612 -0.12249637
H  -0.41362782 -1.06311752 0.10935754
H  0.15639080 -0.47843234 -0.08487095
H  -0.18487241 -0.44496342 0.08087132
H  -0.58047459 -0.53533056 -0.06790184
H  -0.51373677 1.28227353 -0.06674043
H  0.53308351 0.09374870 0.06330281
12
MD Step 57.0 Units = [eV / Ang.]
C  -0.78115147 1.19551361 -0.35915998
C  1.04574606 -0.32788118 0.21790621
C  1.41829876 -0.73770370 -0.24760774
C  -0.14221976 1.81025545 0.13917864
C  -1.31422475 -1.61324098 0.17037593
C  1.23173700 0.88215218 0.02986406
H  -0.71734402 -1.51408457 0.10127644
H  0.24087894 -0.53859241 -0.03431699
H  -0.56684863 -0.49492864 0.12691357
H  -0.48935148 -0.10895052 -0.12103673
H  -0.45954439 1.34047414 -0.03856173
H  0.53402374 0.10698663 0.01516832
12
MD Step 58.0 Units = [eV / Ang.]
C  -0.47717606 1.00510395 -0.37532371
C  0.87346354 -0.47252023 0.12389653
C  1.50375548 -0.36268697 -0.34122258
C  -0.71972019 0.97096146 0.30290358
C  -0.81352946 -1.14502991 0.00946703
C  0.85138837 0.84630938 0.17893451
H  -0.68891863 -1.37361642 0.10567160
H  0.22196749 -0.42232825 0.01986528
H  -0.72560130 -0.51078853 0.16466650
H  -0.29013148 0.43071867 -0.15240259
H  -0.12722405 0.91768259 -0.00249758
H  0.39172627 0.11619424 -0.03395859
12
MD Step 59.0 Units = [eV / Ang.]
C  -0.33561062 0.30069943 -0.40389765
C  0.66564515 -0.73451786 0.01615382
C  1.30172829 0.04584273 -0.41837356
C  -1.26039956 0.08648038 0.45365760
C  -0.38444499 -0.36752445 -0.16554330
C  0.48180350 0.74154949 0.31410836
H  -0.36996000 -0.70515120 0.13131202
H  0.12393486 -0.16843429 0.08488367
H  -0.62653753 -0.48643720 0.18665633
H  -0.08073072 0.91486472 -0.16765207
H  0.34402220 0.25257187 0.04699841
H  0.14054941 0.12005639 -0.07830362
12
MD Step 60.0 Units = [eV / Ang.]
C  -0.22188083 -0.57822177 -0.43314217
C  0.41561159 -1.00539204 -0.10361107
C  0.84890882 0.44562321 -0.47439957
C  -1.60356626 -0.62909957 0.60447480
C  0.08101893 0.42342776 -0.34249732
C  0.10191463 0.57329497 0.42905960
H  0.04546193 0.15788767 0.16671578
H  0.00168845 0.12967598 0.16027234
H  -0.29640607 -0.42242958 0.18946597
H  0.00909345 1.15736179 -0.18508419
H  0.76756686 -0.37023311 0.10332059
H  -0.14941149 0.11810470 -0.11457475
12
MD Step 61.0 Units = [eV / Ang.]
C  -0.02479722 -1.29188699 -0.44600118
C  0.12354403 -1.16881914 -0.22566922
C  0.23900078 0.80119969 -0.50877188
C  -1.64097372 -1.04378859 0.76683116
C  0.62958504 1.01549762 -0.50442177
C  -0.31561089 0.35454682 0.52338275
H  0.37623461 0.88479352 0.19387409
H  -0.08904359 0.37183898 0.23705806
H  0.17209232 -0.32682138 0.17565523
H  -0.10214002 1.06068471 -0.22281181
H  1.02028577 -0.76831636 0.15429049
H  -0.38817711 0.11107112 -0.14341592
12
MD Step 62.0 Units = [eV / Ang.]
C  0.27878018 -1.64588345 -0.43258480
C  -0.19337077 -1.14135615 -0.33704070
C  -0.36826492 1.08492489 -0.52751468
C  -1.38697894 -1.17885790 0.93477487
C  1.24195063 1.28837973 -0.63720846
C  -0.78403360 0.10612782 0.60111092
H  0.53226759 1.29416311 0.20149872
H  -0.11171319 0.48738222 0.30251494
H  0.61575691 -0.21339389 0.15488097
H  -0.38004160 0.68435011 -0.28120755
H  1.05392034 -0.86630488 0.18928904
H  -0.49827264 0.10046837 -0.16851328
12
MD Step 63.0 Units = [eV / Ang.]
C  0.66192103 -1.56707371 -0.39079618
C  -0.50390175 -0.88886295 -0.42660687
C  -0.78290323 1.27275221 -0.54104333
C  -0.95586920 -1.16410583 1.08456797
C  1.87143728 1.18017794 -0.73172031
C  -1.28199013 -0.14302943 0.66637595
H  0.48924200 1.32338250 0.18630527
H  -0.05410086 0.44808901 0.34574770
H  0.84317877 -0.09422234 0.14046951
H  -0.70044460 0.19601241 -0.34159425
H  0.86424015 -0.65070504 0.20149753
H  -0.45080946 0.08758523 -0.19320298
12
MD Step 64.0 Units = [eV / Ang.]
C  1.09252550 -1.05194856 -0.32326850
C  -0.77022288 -0.43070209 -0.48863444
C  -0.88190304 1.34104427 -0.55571533
C  -0.47925545 -1.13541504 1.18988398
C  2.45969303 0.68922286 -0.78435192
C  -1.75117237 -0.35786223 0.71916478
H  0.25169825 0.96904952 0.15018092
H  0.07266172 0.26985589 0.36188432
H  0.73816392 0.02794219 0.14028229
H  -0.93474144 -0.23488594 -0.38144984
H  0.48166964 -0.15905881 0.18914025
H  -0.27911688 0.07275794 -0.21711651
12
MD Step 65.0 Units = [eV / Ang.]
C  1.53436920 -0.17285936 -0.23722584
C  -0.95292872 0.15840828 -0.52521229
C  -0.69001010 1.27413232 -0.56701325
C  -0.05195697 -1.17579880 1.23426825
C  2.91383900 -0.07948592 -0.79975215
C  -2.11887338 -0.50366778 0.75451075
H  -0.14620415 0.29083934 0.09991946
H  0.23476162 0.01285143 0.35489589
H  0.34376707 0.15638747 0.14990649
H  -1.00393886 -0.49829275 -0.38734402
H  -0.00414550 0.48190579 0.15894160
H  -0.05867919 0.05557997 -0.23589491
12
MD Step 66.0 Units = [eV / Ang.]
C  1.90567950 0.86107251 -0.14609957
C  -1.01427073 0.75662764 -0.54655520
C  -0.35121049 1.07804755 -0.56315925
C  0.27486793 -1.31489427 1.21351997
C  3.08274100 -0.87971509 -0.79257398
C  -2.32734849 -0.55626686 0.76532798
H  -0.60385597 -0.52211317 0.04847104
H  0.37915286 -0.22620321 0.33771769
H  -0.16815679 0.28898131 0.15676240
H  -0.88181739 -0.54556234 -0.35759380
H  -0.42477400 1.02432433 0.12807031
H  0.12899259 0.03570159 -0.24388759
12
MD Step 67.0 Units = [eV / Ang.]
C  2.04700119 1.68647244 -0.06598888
C  -0.92572324 1.22970686 -0.56606972
C  -0.02559113 0.78398916 -0.53458423
C  0.48868859 -1.54324518 1.13386259
C  2.80816608 -1.40936512 -0.77894598
C  -2.34892222 -0.51147508 0.74627116
H  -0.93255929 -1.12472784 0.01094574
H  0.44825857 -0.34459280 0.32665448
H  -0.60691724 0.41364190 0.15020547
H  -0.58405002 -0.37753639 -0.30016702
H  -0.59223839 1.18370564 0.11502816
H  0.22388710 0.01342642 -0.23721177
12
MD Step 68.0 Units = [eV / Ang.]
C  1.79036959 1.96217493 -0.00384276
C  -0.68208789 1.48855719 -0.59051547
C  0.18138089 0.43829586 -0.47907015
C  0.61960886 -1.80901071 1.01012621
C  2.05594363 -1.52135248 -0.75971547
C  -2.18559918 -0.38760012 0.69616634
H  -0.93762515 -1.18747340 -0.00742352
H  0.40649856 -0.28436664 0.33076922
H  -0.84202085 0.51387378 0.12706371
H  -0.16870778 -0.05057135 -0.23014376
H  -0.43657972 0.84765164 0.12191245
H  0.19881904 -0.01017869 -0.21532681
12
MD Step 69.0 Units = [eV / Ang.]
C  1.11624078 1.65430307 0.04862809
C  -0.31340846 1.53095718 -0.61335658
C  0.22553572 0.08894424 -0.40104524
C  0.73983526 -2.00247790 0.86132522
C  0.97941692 -1.33291146 -0.71828920
C  -1.86585221 -0.21764847 0.61825786
H  -0.58216379 -0.68377877 -0.01700250
H  0.26167290 -0.06782055 0.34467725
H  -0.81560163 0.57544919 0.09088369
H  0.26100588 0.30760617 -0.16439773
H  -0.06848826 0.18086548 0.13142740
H  0.06180690 -0.03348817 -0.18110828
12
MD Step 70.0 Units = [eV / Ang.]
C  0.20145865 1.05682349 0.10331717
C  0.11663772 1.43079632 -0.61892383
C  0.10976685 -0.22546023 -0.30921108
C  0.93022702 -1.97205782 0.70049007
C  -0.17454260 -1.08778459 -0.63914644
C  -1.44577047 -0.03635778 0.51879606
H  -0.02927455 0.08469621 -0.03132560
H  0.06156839 0.21624091 0.35253187
H  -0.52960668 0.59002729 0.04916400
H  0.58280747 0.51835488 -0.11080805
H  0.32072519 -0.52051179 0.12499071
H  -0.14399700 -0.05476689 -0.13987487
12
MD Step 71.0 Units = [eV / Ang.]
C  -0.71097653 0.51323494 0.16328248
C  0.52665022 1.28823736 -0.59334053
C  -0.11284444 -0.48388620 -0.21428071
C  1.21491607 -1.60835757 0.52601629
C  -1.18989806 -0.96888964 -0.52187012
C  -1.00778803 0.12931348 0.40470146
H  0.50024679 0.76490895 -0.05409180
H  -0.13099742 0.46200610 0.33921351
H  -0.04734542 0.55792643 0.01067858
H  0.71875764 0.44416751 -0.05992657
H  0.58544018 -1.02585248 0.09699234
H  -0.34616100 -0.07280887 -0.09737494
12
MD Step 72.0 Units = [eV / Ang.]
C  -1.43699230 0.21658321 0.22392210
C  0.83828919 1.18483510 -0.53199242
C  -0.32197167 -0.68565188 -0.12545109
C  1.52287213 -0.94039723 0.32824936
C  -1.92223605 -1.05074403 -0.37874612
C  -0.64429834 0.26294003 0.28102992
H  0.85811844 1.15366318 -0.08048497
H  -0.26328254 0.58951089 0.29847102
H  0.49162455 0.49028269 -0.01822241
H  0.68323879 0.09134212 0.00684559
H  0.65832384 -1.22507243 0.05345671
H  -0.46368604 -0.08729164 -0.05707767
12
MD Step 73.0 Units = [eV / Ang.]
C  -1.86859895 0.22231206 0.27886688
C  0.99325445 1.16447624 -0.43991822
C  -0.34232114 -0.84142412 -0.04535984
C  1.72815229 -0.13213486 0.10672128
C  -2.28749837 -1.34333378 -0.22677812
C  -0.42470506 0.35611264 0.14967307
H  0.97930440 1.18615165 -0.10373607
H  -0.30510683 0.56096893 0.23408417
H  0.88612111 0.40510306 -0.03852117
H  0.55984151 -0.39243974 0.09781499
H  0.52388561 -1.08750065 0.00563881
H  -0.44232901 -0.09829145 -0.01848579
12
MD Step 74.0 Units = [eV / Ang.]
C  -1.94759446 0.52473233 0.32248164
C  0.96511548 1.22938680 -0.32835378
C  -0.02760434 -0.95285548 0.03171531
C  1.72886447 0.61788552 -0.12308477
C  -2.25894054 -1.81894343 -0.08259220
C  -0.36580479 0.40361966 0.01081930
H  0.84346239 0.86105613 -0.11828936
H  -0.25258216 0.38132640 0.15680366
H  0.96106154 0.31432953 -0.05987196
H  0.43705517 -0.82185712 0.20274578
H  0.20138603 -0.63339264 -0.03397446
H  -0.28441880 -0.10528770 0.02160084
12
MD Step 75.0 Units = [eV / Ang.]
C  -1.66556665 1.08058936 0.35055686
C  0.76767436 1.33789779 -0.21033706
C  0.62651734 -0.99889016 0.11318810
C  1.48982695 1.16163705 -0.33761008
C  -1.88839142 -2.38124402 0.04114624
C  -0.43020480 0.39938812 -0.13357455
H  0.46478636 0.21975383 -0.12077536
H  -0.13052056 0.09746102 0.07968036
H  0.68537395 0.21419574 -0.09309304
H  0.36932191 -1.06297239 0.30082491
H  -0.24018316 0.03901764 -0.05553367
H  -0.04863428 -0.10683398 0.06552730
12
MD Step 76.0 Units = [eV / Ang.]
C  -1.10673636 1.76108652 0.36250880
C  0.45648177 1.40760873 -0.09556673
C  1.46098361 -0.94701573 0.19852206
C  1.03416655 1.41925953 -0.51451794
C  -1.32508651 -2.81254147 0.14207822
C  -0.55304104 0.33483873 -0.27738519
H  -0.06867451 -0.60272069 -0.11199246
H  0.00771537 -0.20516723 0.01209912
H  0.19727021 0.09354582 -0.13955228
H  0.37680679 -1.05251675 0.37129799
H  -0.66014303 0.70505483 -0.05960408
H  0.18025717 -0.10143229 0.11211250
12
MD Step 77.0 Units = [eV / Ang.]
C  -0.48952273 2.29355832 0.36429744
C  0.11376349 1.33970558 0.01453879
C  2.25284427 -0.77830105 0.27801274
C  0.41700947 1.36733485 -0.63730211
C  -0.77241351 -2.81079383 0.23348790
C  -0.67326036 0.20017889 -0.41099414
H  -0.55036675 -1.31949543 -0.09921597
H  0.09337871 -0.42323382 -0.04601454
H  -0.29465735 -0.04965646 -0.18947443
H  0.45695713 -0.78521641 0.39955370
H  -0.88093023 1.05469552 -0.06373862
H  0.32719787 -0.08877616 0.15684924
12
MD Step 78.0 Units = [eV / Ang.]
C  -0.09381398 2.34000932 0.36554490
C  -0.18562346 1.06905770 0.12698567
C  2.82402114 -0.50170305 0.33953032
C  -0.28821130 1.04215835 -0.69969301
C  -0.36485885 -2.18782756 0.33429993
C  -0.75061153 -0.00988676 -0.52417026
H  -0.72188656 -1.57623157 -0.09269097
H  0.07387320 -0.48005469 -0.10459638
H  -0.62305890 -0.20326916 -0.22923623
H  0.58680188 -0.31446062 0.38218924
H  -0.80470481 0.89244821 -0.09223650
H  0.34807318 -0.07024018 0.19407329
12
MD Step 79.0 Units = [eV / Ang.]
C  -0.04939753 1.75736160 0.36897374
C  -0.40684403 0.61175036 0.24934070
C  3.07567641 -0.15276962 0.37402714
C  -0.98356217 0.56044432 -0.71293826
C  -0.08447153 -1.05005653 0.44620250
C  -0.76864316 -0.28581313 -0.60920336
H  -0.47995133 -1.21975395 -0.09494545
H  -0.05498248 -0.36869765 -0.17492512
H  -0.70084165 -0.34746310 -0.24824629
H  0.71365200 0.23039339 0.33395937
H  -0.49680911 0.31293391 -0.15158272
H  0.23617458 -0.04832962 0.21933775
12
MD Step 80.0 Units = [eV / Ang.]
C  -0.22912039 0.74711689 0.36647674
C  -0.55880743 0.06780976 0.37989491
C  2.97290116 0.21557824 0.37675936
C  -1.54052408 0.11237024 -0.70812713
C  0.17201136 0.27738320 0.54819433
C  -0.73231643 -0.59566484 -0.66312096
H  0.01819060 -0.44994409 -0.09727897
H  -0.24547112 -0.15477828 -0.25855878
H  -0.50933176 -0.46220471 -0.24147049
H  0.75126593 0.65420898 0.28921209
H  -0.12149782 -0.38631633 -0.22313939
H  0.02269997 -0.02555904 0.23115831
12
MD Step 81.0 Units = [eV / Ang.]
C  -0.40580082 -0.32695804 0.34899944
C  -0.66910913 -0.42488361 0.50574649
C  2.53477159 0.54644851 0.34776805
C  -1.82884559 -0.12422104 -0.71952339
C  0.47219179 1.46834405 0.61514841
C  -0.66482903 -0.88946606 -0.68843203
H  0.51193170 0.36953556 -0.09010856
H  -0.42683580 0.06374252 -0.34442495
H  -0.08833156 -0.53258026 -0.21023586
H  0.61108775 0.78376506 0.28423983
H  0.18008912 -0.93032872 -0.28093370
H  -0.22632002 -0.00339797 0.23175627
12
MD Step 82.0 Units = [eV / Ang.]
C  -0.43947452 -1.18678055 0.31484900
C  -0.75664923 -0.74601029 0.60937984
C  1.84965070 0.79487885 0.29399721
C  -1.78309853 -0.10551167 -0.75501742
C  0.80971283 2.30586166 0.63324138
C  -0.60031453 -1.11331636 -0.69167112
H  0.82603445 0.96696820 -0.07141700
H  -0.53901422 0.20253910 -0.41526211
H  0.45261205 -0.55460553 -0.16352204
H  0.26756686 0.58960239 0.32705597
H  0.33692969 -1.17179256 -0.30771652
H  -0.42395556 0.01816676 0.22608283
12
MD Step 83.0 Units = [eV / Ang.]
C  -0.30339089 -1.69731581 0.26857324
C  -0.82099859 -0.82508218 0.67639054
C  1.08896399 0.93992613 0.23032853
C  -1.44489912 0.05528111 -0.78752740
C  1.14024543 2.67172354 0.60048138
C  -0.56640530 -1.22381886 -0.67954556
H  0.90010684 1.22071929 -0.04550531
H  -0.54939615 0.21430200 -0.45604987
H  0.92790162 -0.53986374 -0.11764459
H  -0.20641545 0.20793392 0.38883624
H  0.32739104 -1.06377989 -0.29711639
H  -0.49310342 0.03997450 0.21877920
12
MD Step 84.0 Units = [eV / Ang.]
C  -0.02389669 -1.80741959 0.21742018
C  -0.84586850 -0.65100338 0.69995761
C  0.46377336 0.98211283 0.17410373
C  -0.93162626 0.19336419 -0.77928166
C  1.42125186 2.52599056 0.52230046
C  -0.56237061 -1.19689616 -0.65466202
H  0.73384234 1.09522011 -0.01925388
H  -0.45486724 0.09297366 -0.45954720
H  1.12810288 -0.50983691 -0.08968742
H  -0.68110786 -0.16663787 0.42898432
H  0.15580137 -0.61996865 -0.25108344
H  -0.40303463 0.06210122 0.21074931
12
MD Step 85.0 Units = [eV / Ang.]
C  0.35846186 -1.51292572 0.16973125
C  -0.80602666 -0.27301623 0.68289718
C  0.11130557 0.92513671 0.13390830
C  -0.37375472 0.19940337 -0.70803282
C  1.61496496 1.93153704 0.41113813
C  -0.55200560 -1.03045847 -0.61431695
H  0.35464788 0.59952930 -0.00032126
H  -0.28016146 -0.12636341 -0.42918314
H  0.93943486 -0.47742773 -0.08596481
H  -1.03990184 -0.39074787 0.42229989
H  -0.14106576 0.07265337 -0.18059221
H  -0.18589908 0.08267964 0.19843642
12
MD Step 86.0 Units = [eV / Ang.]
C  0.77742458 -0.89187505 0.13316755
C  -0.67377149 0.20277791 0.63796833
C  0.00750165 0.76398261 0.10400271
C  0.12020184 0.04253535 -0.57280974
C  1.65575198 1.10063179 0.28850352
C  -0.48070610 -0.74282344 -0.55363543
H  -0.16545651 -0.17795557 0.00489875
H  -0.07511548 -0.36862922 -0.37955726
H  0.43025916 -0.43479597 -0.09709182
H  -1.21266737 -0.39990270 0.36523715
H  -0.46421152 0.80761945 -0.10740806
H  0.08078925 0.09843483 0.17672431
12
MD Step 87.0 Units = [eV / Ang.]
C  1.10570452 -0.18074324 0.10917609
C  -0.42991158 0.63281116 0.58381630
C  0.00550812 0.49785309 0.07151666
C  0.47264947 -0.25800836 -0.38758209
C  1.43353658 0.36834822 0.17901511
C  -0.30197084 -0.36876327 -0.47034787
H  -0.67389410 -0.99096928 -0.00285748
H  0.09700175 -0.53319090 -0.33186600
H  -0.19626373 -0.36445265 -0.10648913
H  -1.17346527 -0.18769542 0.26948627
H  -0.64950286 1.27834091 -0.05666631
H  0.31060794 0.10646974 0.14279844
12
MD Step 88.0 Units = [eV / Ang.]
C  1.17287052 0.24481218 0.08634580
C  -0.08204909 0.88282121 0.53479131
C  -0.05131066 0.15076906 0.02722461
C  0.64856724 -0.65410324 -0.17539914
C  0.86465833 0.00983728 0.09266189
C  0.00617603 0.04591299 -0.36750486
H  -0.96229245 -1.45378593 -0.00904283
H  0.18565990 -0.53331744 -0.30274450
H  -0.72817254 -0.25854476 -0.10234489
H  -0.93772147 0.20708645 0.15569619
H  -0.55465169 1.25281244 -0.03768104
H  0.43826590 0.10569977 0.09799746
12
MD Step 89.0 Units = [eV / Ang.]
C  0.88865077 0.11433466 0.04611583
C  0.32191989 0.88550234 0.49086122
C  -0.25973705 -0.22480057 -0.03042369
C  0.67735664 -1.06055293 0.03639462
C  0.00844378 0.03837348 0.01612630
C  0.43718892 0.45155780 -0.25278715
H  -0.90251983 -1.28894910 0.00827775
H  0.18076811 -0.34525452 -0.29314499
H  -1.02557362 -0.12490243 -0.08192383
H  -0.57535908 0.68786710 0.04829970
H  -0.18459942 0.76973780 -0.03497747
H  0.43346089 0.09708639 0.04718172
12
MD Step 90.0 Units = [eV / Ang.]
C  0.34773055 -0.48086585 -0.01693418
C  0.70247027 0.66584333 0.43815703
C  -0.65440991 -0.56169359 -0.09682576
C  0.65837126 -1.33941174 0.22594846
C  -0.92883904 0.23973024 -0.07070409
C  0.95584862 0.80365947 -0.13552558
H  -0.56234860 -0.58891343 0.05692954
H  0.11707070 -0.02623508 -0.28829912
H  -1.02789248 0.01872025 -0.04928965
H  -0.21773976 1.08822207 -0.03447035
H  0.30508187 0.09804216 -0.02564695
H  0.30465652 0.08290217 -0.00333935
12
MD Step 91.0 Units = [eV / Ang.]
C  -0.24223819 -1.18452580 -0.08704698
C  0.97640904 0.31320589 0.36041395
C  -1.22152046 -0.79778974 -0.16345886
C  0.70837255 -1.33183113 0.39040966
C  -1.71614125 0.38368338 -0.17554796
C  1.49800015 1.07072079 -0.02321488
H  -0.13486240 0.27905395 0.12190526
H  0.05020406 0.31700866 -0.26943643
H  -0.73849401 0.15178474 -0.01200583
H  -0.01104190 1.21567051 -0.09407616
H  0.73240840 -0.48250767 0.00055941
H  0.09890402 0.06552640 -0.04850116
12
MD Step 92.0 Units = [eV / Ang.]
C  -0.70801196 -1.67879700 -0.14198132
C  1.08376678 -0.07054378 0.24989453
C  -1.89024868 -0.89418122 -0.22001689
C  0.86186180 -0.95919175 0.54660667
C  -2.19495026 0.34709869 -0.29254394
C  1.97575423 1.23799924 0.08111976
H  0.21474464 0.97895768 0.18044482
H  0.02723315 0.57954526 -0.22572125
H  -0.22868491 0.25702300 0.02142298
H  -0.01740422 0.96704590 -0.15196859
H  0.98201408 -0.81126220 0.03981371
H  -0.10607465 0.04630618 -0.08707049
12
MD Step 93.0 Units = [eV / Ang.]
C  -0.96361623 -1.81710499 -0.16674480
C  1.00081476 -0.40716431 0.11004572
C  -2.51116464 -0.84704634 -0.25817965
C  1.02885071 -0.30318305 0.71006967
C  -2.29199433 0.09571983 -0.41000068
C  2.29779754 1.30638686 0.17934822
H  0.40663260 1.34297451 0.21663731
H  0.07209765 0.69161371 -0.15796116
H  0.34397423 0.32794492 0.04479877
H  -0.16496583 0.41586373 -0.22777149
H  1.00775176 -0.83122208 0.08227889
H  -0.22617822 0.02521721 -0.12252079
12
MD Step 94.0 Units = [eV / Ang.]
C  -0.98081459 -1.57125536 -0.15462195
C  0.74058765 -0.65441978 -0.04784541
C  -2.87419205 -0.68735725 -0.27664249
C  1.07253305 0.43907781 0.87579799
C  -2.00172027 -0.36252736 -0.51538408
C  2.40370956 1.28728517 0.27528963
H  0.41695592 1.32143262 0.22297167
H  0.18522601 0.62788248 -0.07572923
H  0.75501653 0.37459268 0.05838771
H  -0.31485441 -0.23589599 -0.31937461
H  0.80633008 -0.54064856 0.11763416
H  -0.20877747 0.00183355 -0.16048339
12
MD Step 95.0 Units = [eV / Ang.]
C  -0.75768986 -0.96320064 -0.10412310
C  0.34690053 -0.80934935 -0.20927638
C  -2.81065126 -0.46274558 -0.28249090
C  0.91255806 1.07218411 1.02217849
C  -1.38553213 -0.97644448 -0.59750801
C  2.29088760 1.19593435 0.36960702
H  0.24514705 0.91619284 0.19726949
H  0.34706579 0.40787787 0.00752560
H  0.81688544 0.41651803 0.06977562
H  -0.36045783 -0.78377187 -0.40700651
H  0.41604865 0.00983913 0.13780591
H  -0.06116204 -0.02303440 -0.20375724
12
MD Step 96.0 Units = [eV / Ang.]
C  -0.32127153 -0.06869382 -0.02004701
C  -0.11421859 -0.91123467 -0.36102259
C  -2.31920616 -0.20923134 -0.28486609
C  0.55219290 1.46984146 1.12582513
C  -0.58842891 -1.60080537 -0.65021895
C  2.01111351 1.04577287 0.45662180
H  -0.08324769 0.18601348 0.14349660
H  0.52052022 0.09689900 0.07972167
H  0.50767563 0.46291496 0.08748559
H  -0.26203379 -1.09555806 -0.46879127
H  -0.05705299 0.67074254 0.14082820
H  0.15395739 -0.04666103 -0.24903308
12
MD Step 97.0 Units = [eV / Ang.]
C  0.23768775 0.91295552 0.08081658
C  -0.56499311 -1.03470563 -0.49580891
C  -1.57870294 0.06072173 -0.28664457
C  0.04525200 1.57163053 1.17019054
C  0.17284647 -1.96703284 -0.67712724
C  1.64048141 0.84452810 0.52585960
H  -0.48064398 -0.68125317 0.07722906
H  0.65558387 -0.20124546 0.13557328
H  -0.01445723 0.50234943 0.11291055
H  -0.02792459 -1.11109063 -0.48987568
H  -0.43675472 1.16862770 0.13508169
H  0.35162505 -0.06548529 -0.28820491
12
MD Step 98.0 Units = [eV / Ang.]
C  0.74179180 1.62403047 0.16832606
C  -0.92947131 -1.25644070 -0.61505612
C  -0.83234331 0.34288706 -0.28326624
C  -0.53782775 1.36523830 1.14799029
C  0.70767972 -1.79409122 -0.68867526
C  1.24803273 0.59268790 0.56678303
H  -0.77566127 -1.33214255 0.02674617
H  0.70244465 -0.37650887 0.17966159
H  -0.52777123 0.51459125 0.13967508
H  0.30740620 -0.82416524 -0.46489975
H  -0.56429729 1.22083893 0.13532991
H  0.46001707 -0.07692533 -0.31261478
12
MD Step 99.0 Units = [eV / Ang.]
C  0.99832491 1.71388299 0.21512788
C  -1.14884661 -1.60092313 -0.72557201
C  -0.27337858 0.62115322 -0.26752262
C  -1.11932319 0.89824885 1.06400399
C  0.97951806 -1.01501880 -0.68857837
C  0.88069909 0.28798060 0.57324270
H  -0.78964949 -1.41446125 0.01663614
H  0.63251943 -0.36657550 0.22280530
H  -0.86196483 0.48693632 0.15917409
H  0.68846253 -0.29206648 -0.40056630
H  -0.42639901 0.76125814 0.14807141
H  0.44003770 -0.08041496 -0.31682221
12
MD Step 100.0 Units = [eV / Ang.]
C  0.94736096 1.13987863 0.22020610
C  -1.19253732 -2.00663922 -0.83093631
C  -0.01062658 0.86294276 -0.23357315
C  -1.60939935 0.31675367 0.93873359
C  1.10100832 0.14465114 -0.66722912
C  0.56268536 -0.06285170 0.54568769
H  -0.48979794 -0.88172116 0.04444032
H  0.45454481 -0.19383436 0.27254595
H  -0.93108778 0.41900928 0.16514230
H  1.03558432 0.32952586 -0.31879732
H  -0.15887702 0.00947507 0.16419639
H  0.29114222 -0.07718996 -0.30041645
