12
MD Step 0 Units = [Angstroms]
C  -0.71418512 -1.16959407 -0.03736505
C  0.67367688 -1.15937907 0.03233895
C  1.45681288 0.00145493 0.00829695
C  0.69286588 1.17805293 -0.04847705
C  -0.67981012 1.17215493 0.03774595
C  -1.43960312 -0.01731407 -0.00279505
H  -1.20600812 -2.19760507 -0.03013205
H  1.22669588 -2.12964407 0.07889895
H  2.53836488 0.02104393 0.01598495
H  1.28918388 2.09437193 0.00042495
H  -1.20394212 2.16933993 -0.06011805
H  -2.52224212 -0.02156207 0.11714395
12
MD Step 1 Units = [Angstroms]
C  -0.71905802 -1.16915084 -0.03691910
C  0.67531976 -1.16009933 0.03001350
C  1.45365919 -0.00036743 0.00696398
C  0.69288803 1.18034650 -0.04586923
C  -0.68404764 1.17366290 0.03795673
C  -1.42986814 -0.01592774 -0.00193631
H  -1.20306485 -2.19953777 -0.02036682
H  1.22403679 -2.13268738 0.08385542
H  2.52780753 0.02570121 0.02673286
H  1.32162461 2.09429698 -0.01387149
H  -1.22032315 2.14783831 -0.06276577
H  -2.51773166 -0.03646930 0.10307879
12
MD Step 2 Units = [Angstroms]
C  -0.72339898 -1.17124809 -0.03611097
C  0.67832987 -1.16170406 0.02748112
C  1.44848886 -0.00243548 0.00553408
C  0.69407130 1.18306306 -0.04264278
C  -0.68899841 1.17614687 0.03724559
C  -1.42035982 -0.01331237 -0.00066484
H  -1.19770341 -2.19071869 -0.01187629
H  1.21783766 -2.13259802 0.08837311
H  2.52385103 0.02872641 0.03757625
H  1.34788804 2.09593278 -0.03012678
H  -1.23514883 2.12254201 -0.06162122
H  -2.51531478 -0.04912114 0.08679958
12
MD Step 3 Units = [Angstroms]
C  -0.72664611 -1.17569371 -0.03492192
C  0.68226972 -1.16420794 0.02477430
C  1.44148358 -0.00458012 0.00406181
C  0.69636009 1.18639010 -0.03888984
C  -0.69397969 1.17941977 0.03567522
C  -1.41159433 -0.00973612 0.00096438
H  -1.19187507 -2.17443772 -0.00484418
H  1.20921920 -2.13064916 0.09230862
H  2.52617509 0.02995657 0.04825015
H  1.36475938 2.09634074 -0.04777752
H  -1.25046731 2.09939490 -0.05722757
H  -2.51354689 -0.05873557 0.06862321
12
MD Step 4 Units = [Angstroms]
C  -0.72827465 -1.18189968 -0.03334480
C  0.68660725 -1.16756114 0.02192376
C  1.43312330 -0.00659338 0.00261271
C  0.69954657 1.19038645 -0.03472643
C  -0.69831198 1.18324557 0.03333325
C  -1.40395995 -0.00558286 0.00287419
H  -1.18862078 -2.15674753 0.00070060
H  1.20007825 -2.12922328 0.09560662
H  2.53160124 0.02923787 0.05837305
H  1.37059473 2.09418150 -0.06610567
H  -1.26846786 2.08427587 -0.05023172
H  -2.51089832 -0.06465691 0.04896975
12
MD Step 5 Units = [Angstroms]
C  -0.72787256 -1.18903761 -0.03138508
C  0.69079606 -1.17169801 0.01896162
C  1.42403897 -0.00825812 0.00126100
C  0.70327357 1.19496066 -0.03028143
C  -0.70147605 1.18749911 0.03031232
C  -1.39766750 -0.00129926 0.00496692
H  -1.19128384 -2.14473911 0.00487128
H  1.19256097 -2.13098243 0.09826304
H  2.53565458 0.02646639 0.06745534
H  1.36564426 2.09004151 -0.08436945
H  -1.29011228 2.08066478 -0.04113511
H  -2.50632160 -0.06643077 0.02837309
12
MD Step 6 Units = [Angstroms]
C  -0.72524301 -1.19632521 -0.02905463
C  0.69435996 -1.17660192 0.01592709
C  1.41484088 -0.00938255 0.00008127
C  0.70706713 1.19988044 -0.02568314
C  -0.70323701 1.19226648 0.02670106
C  -1.39273605 0.00267540 0.00713112
H  -1.20213806 -2.14354365 0.00781889
H  1.18840597 -2.13776614 0.10024512
H  2.53439734 0.02165546 0.07498880
H  1.35197687 2.08631480 -0.10194775
H  -1.31408301 2.08811253 -0.03019332
H  -2.49959752 -0.06387406 0.00744386
12
MD Step 7 Units = [Angstroms]
C  -0.72050292 -1.20330719 -0.02636276
C  0.69696334 -1.18235049 0.01287224
C  1.40599204 -0.00983005 -0.00086147
C  0.71040229 1.20481845 -0.02104827
C  -0.70365807 1.19779062 0.02259393
C  -1.38900825 0.00597509 0.00925109
H  -1.22099502 -2.15353877 0.00959816
H  1.18841971 -2.14968153 0.10140473
H  2.52571409 0.01498119 0.08055858
H  1.33296516 2.08658141 -0.11844057
H  -1.33695285 2.10271604 -0.01756122
H  -2.49139658 -0.05711570 -0.01319527
12
MD Step 8 Units = [Angstroms]
C  -0.71409769 -1.20992272 -0.02331527
C  0.69844904 -1.18910148 0.00986311
C  1.39774168 -0.00953808 -0.00152009
C  0.71280576 1.20944804 -0.01647997
C  -0.70300825 1.20430243 0.01810689
C  -1.38618834 0.00835178 0.01121601
H  -1.24489879 -2.17010744 0.01013853
H  1.19234785 -2.16492473 0.10144618
H  2.50987724 0.00678561 0.08392917
H  1.31226925 2.09434183 -0.13364468
H  -1.35448791 2.11915411 -0.00352172
H  -2.48305521 -0.04659190 -0.03297432
12
MD Step 9 Units = [Angstroms]
C  -0.70670176 -1.21633233 -0.01992387
C  0.69883805 -1.19701514 0.00697388
C  1.39011078 -0.00852430 -0.00187057
C  0.71397121 1.21357418 -0.01207958
C  -0.70164022 1.21186304 0.01338239
C  -1.38389952 0.00969395 0.01292575
H  -1.26927021 -2.18620017 0.00934973
H  1.19917688 -2.18046095 0.09998032
H  2.48950501 -0.00246019 0.08508320
H  1.29257556 2.11133060 -0.14735489
H  -1.36312490 2.13278660 0.01140910
H  -2.47610816 -0.03299522 -0.05141320
12
MD Step 10 Units = [Angstroms]
C  -0.69907064 -1.22268891 -0.01621614
C  0.69830010 -1.20615343 0.00427680
C  1.38293003 -0.00688145 -0.00191255
C  0.71382835 1.21722821 -0.00796412
C  -0.69989560 1.22028889 0.00858118
C  -1.38175440 0.01002249 0.01429244
H  -1.28959411 -2.19546285 0.00724296
H  1.20764971 -2.19314501 0.09663372
H  2.46892734 -0.01222162 0.08419878
H  1.27479479 2.13630008 -0.15909779
H  -1.36093233 2.14092973 0.02653482
H  -2.47169557 -0.01719770 -0.06811498
12
MD Step 11 Units = [Angstroms]
C  -0.69191609 -1.22900040 -0.01223880
C  0.69710866 -1.21640408 0.00183268
C  1.37593862 -0.00476421 -0.00166348
C  0.71252175 1.22064877 -0.00427036
C  -0.69804490 1.22915047 0.00386729
C  -1.37942305 0.00947140 0.01523880
H  -1.30267966 -2.19415410 0.00397622
H  1.21674074 -2.20072743 0.09115299
H  2.45288163 -0.02196931 0.08155455
H  1.25827818 2.16521708 -0.16803737
H  -1.34801660 2.14335361 0.04111486
H  -2.47006499 -0.00017898 -0.08272252
12
MD Step 12 Units = [Angstroms]
C  -0.68581747 -1.23508813 -0.00805482
C  0.69558969 -1.22745189 -0.00031471
C  1.36892957 -0.00237309 -0.00114758
C  0.71032388 1.22415564 -0.00113714
C  -0.69625428 1.23781422 -0.00060837
C  -1.37667737 0.00826181 0.01569678
H  -1.30730598 -2.18181202 -0.00017027
H  1.22596181 -2.20244428 0.08346439
H  2.44473065 -0.03120890 0.07738644
H  1.24178886 2.19278531 -0.17316200
H  -1.32654103 2.14228114 0.05451842
H  -2.47041111 0.01702252 -0.09487444
12
MD Step 13 Units = [Angstroms]
C  -0.68115466 -1.24059233 -0.00373742
C  0.69407019 -1.23879640 -0.00213990
C  1.36187791 0.00006165 -0.00038607
C  0.70754455 1.22800092 0.00132197
C  -0.69458501 1.24552105 -0.00472211
C  -1.37340004 0.00667387 0.01560960
H  -1.30447601 -2.16126185 -0.00485429
H  1.23547368 -2.19914407 0.07367923
H  2.44498494 -0.03945036 0.07178015
H  1.22447961 2.21427122 -0.17360619
H  -1.30034008 2.14188514 0.06634848
H  -2.47115206 0.03334774 -0.10420090
12
MD Step 14 Units = [Angstroms]
C  -0.67806492 -1.24500757 0.00063743
C  0.69283412 -1.24980947 -0.00363291
C  1.35497190 0.00229749 0.00060348
C  0.70446996 1.23226793 0.00304000
C  -0.69304343 1.25152107 -0.00838327
C  -1.36956421 0.00501692 0.01493785
H  -1.29733846 -2.13816923 -0.00974866
H  1.24599096 -2.19297844 0.06205079
H  2.45109015 -0.04616295 0.06468531
H  1.20644046 2.22679380 -0.16890739
H  -1.27393684 2.14699838 0.07646426
H  -2.47051293 0.04777016 -0.11037068
12
MD Step 15 Units = [Angstroms]
C  -0.67645727 -1.24777770 0.00499847
C  0.69209640 -1.25982758 -0.00479373
C  1.34853223 0.00410231 0.00179938
C  0.70132770 1.23683122 0.00400618
C  -0.69167671 1.25526839 -0.01152584
C  -1.36520166 0.00359611 0.01366701
H  -1.29047357 -2.11977576 -0.01461382
H  1.25845325 -2.18668476 0.04889734
H  2.45863952 -0.05079089 0.05603745
H  1.18883461 2.22991334 -0.15911817
H  -1.25102052 2.16099625 0.08482876
H  -2.46715781 0.05937319 -0.11316465
12
MD Step 16 Units = [Angstroms]
C  -0.67612047 -1.24848431 0.00928198
C  0.69200136 -1.26826487 -0.00562637
C  1.34288377 0.00528019 0.00316714
C  0.69826690 1.24136520 0.00426491
C  -0.69065069 1.25660272 -0.01409017
C  -1.36037622 0.00267505 0.01181260
H  -1.28819769 -2.11242237 -0.01931187
H  1.27349055 -2.18259508 0.03452296
H  2.46318046 -0.05284199 0.04588567
H  1.17376213 2.22564933 -0.14478084
H  -1.23313735 2.18377771 0.09124047
H  -2.46064974 0.06743560 -0.11253755
12
MD Step 17 Units = [Angstroms]
C  -0.67688726 -1.24707346 0.01342566
C  0.69263723 -1.27471334 -0.00613613
C  1.33825161 0.00569387 0.00465599
C  0.69535539 1.24539823 0.00390462
C  -0.69022951 1.25579432 -0.01601380
C  -1.35517170 0.00243880 0.00942072
H  -1.29238481 -2.11858064 -0.02370932
H  1.29087363 -2.18173510 0.01918222
H  2.46169198 -0.05199352 0.03444733
H  1.16388442 2.21792445 -0.12677442
H  -1.21957485 2.21137805 0.09518805
H  -2.45162740 0.07149911 -0.10864116
12
MD Step 18 Units = [Angstroms]
C  -0.67872130 -1.24395188 0.01735819
C  0.69404513 -1.27898862 -0.00633214
C  1.33470673 0.00527868 0.00620114
C  0.69260482 1.24842343 0.00303667
C  -0.69066067 1.25341841 -0.01724370
C  -1.34969782 0.00296740 0.00656345
H  -1.30142086 -2.13549973 -0.02753128
H  1.30926869 -2.18348174 0.00311290
H  2.45338329 -0.04816173 0.02208418
H  1.16175302 2.21128019 -0.10605055
H  -1.20845035 2.23761595 0.09598607
H  -2.44166524 0.07139883 -0.10179994
12
MD Step 19 Units = [Angstroms]
C  -0.68164504 -1.23985118 0.02099760
C  0.69620665 -1.28110474 -0.00623249
C  1.33215543 0.00404671 0.00772954
C  0.69002592 1.25005663 0.00177155
C  -0.69205354 1.25016031 -0.01775846
C  -1.34411223 0.00422808 0.00333053
H  -1.31127473 -2.15671885 -0.03032666
H  1.32649603 -2.18597194 -0.01339428
H  2.43987031 -0.04151611 0.00923038
H  1.16889294 2.20898641 -0.08335615
H  -1.19803472 2.25649416 0.09306062
H  -2.43282775 0.06724987 -0.09244700
12
MD Step 20 Units = [Angstroms]
C  -0.68559650 -1.23557065 0.02426155
C  0.69901776 -1.28120271 -0.00586726
C  1.33036924 0.00208256 0.00916751
C  0.68768901 1.25017294 0.00020784
C  -0.69431974 1.24665739 -0.01758278
C  -1.33864996 0.00608559 -0.00018004
H  -1.31762785 -2.17507047 -0.03158521
H  1.34016838 -2.18698844 -0.02995192
H  2.42478120 -0.03243819 -0.00369603
H  1.18500408 2.21140767 -0.05913137
H  -1.18756507 2.26399880 0.08616806
H  -2.42700351 0.05940060 -0.08104502
12
MD Step 21 Units = [Angstroms]
C  -0.69034324 -1.23176622 0.02708051
C  0.70227090 -1.27947439 -0.00527697
C  1.32906376 -0.00046810 0.01044782
C  0.68574599 1.24892787 -0.00155801
C  -0.69717889 1.24340006 -0.01678896
C  -1.33364341 0.00832276 -0.00386900
H  -1.31749404 -2.18509725 -0.03089174
H  1.34838205 -2.18485089 -0.04609311
H  2.41271228 -0.02143713 -0.01636388
H  1.20781677 2.21579019 -0.03367435
H  -1.17750929 2.25898292 0.07547093
H  -2.42523200 0.04837981 -0.06802985
12
MD Step 22 Units = [Angstroms]
C  -0.69548135 -1.22883587 0.02940640
C  0.70566007 -1.27610886 -0.00450774
C  1.32802477 -0.00341342 0.01151268
C  0.68439507 1.24664866 -0.00341349
C  -0.70020373 1.24067085 -0.01548907
C  -1.32951250 0.01066450 -0.00763823
H  -1.30990388 -2.18424966 -0.02802557
H  1.35020104 -2.17900263 -0.06133774
H  2.40758319 -0.00906258 -0.02853931
H  1.23377171 2.21766378 -0.00740948
H  -1.16951582 2.24340396 0.06149972
H  -2.42732172 0.03486571 -0.05380535
12
MD Step 23 Units = [Angstroms]
C  -0.70047998 -1.22686986 0.03121646
C  0.70880936 -1.27126871 -0.00360597
C  1.32723645 -0.00652830 0.01231050
C  0.68381348 1.24368145 -0.00522251
C  -0.70288489 1.23851857 -0.01382127
C  -1.32671534 0.01280473 -0.01138904
H  -1.29601253 -2.17328933 -0.02299710
H  1.34584047 -2.17021215 -0.07527362
H  2.41096618 0.00412173 -0.04001613
H  1.25911021 2.21282122 0.01898051
H  -1.16614918 2.22201512 0.04502824
H  -2.43196220 0.01967749 -0.03878304
12
MD Step 24 Units = [Angstroms]
C  -0.70473865 -1.22564271 0.03251340
C  0.71131849 -1.26509514 -0.00261474
C  1.32693229 -0.00956409 0.01278985
C  0.68409529 1.24028162 -0.00683365
C  -0.70471470 1.23680125 -0.01193130
C  -1.32567115 0.01443918 -0.01501984
H  -1.27891077 -2.15623937 -0.01603412
H  1.33654463 -2.16039749 -0.08761746
H  2.42137643 0.01748459 -0.05051603
H  1.28083389 2.19880733 0.04462205
H  -1.17030285 2.20120666 0.02687510
H  -2.43727309 0.00375974 -0.02342667
12
MD Step 25 Units = [Angstroms]
C  -0.70766136 -1.22467097 0.03332052
C  0.71281966 -1.25774010 -0.00157376
C  1.32752789 -0.01226257 0.01289771
C  0.68521058 1.23656863 -0.00809748
C  -0.70529737 1.23532805 -0.00995381
C  -1.32668201 0.01530521 -0.01842639
H  -1.26302504 -2.13963688 -0.00750656
H  1.32417607 -2.15207987 -0.09822489
H  2.43503047 0.03026836 -0.05965247
H  1.29730356 2.17562375 0.06863222
H  -1.18415620 2.18672833 0.00769856
H  -2.44152013 -0.01187009 -0.00826269
12
MD Step 26 Units = [Angstroms]
C  -0.70877376 -1.22338654 0.03367054
C  0.71303914 -1.24941779 -0.00052374
C  1.32948038 -0.01438155 0.01258483
C  0.68698830 1.23252662 -0.00888595
C  -0.70446916 1.23404657 -0.00800557
C  -1.32987627 0.01522251 -0.02150592
H  -1.25278823 -2.13048426 0.00221926
H  1.31059193 -2.14753421 -0.10703142
H  2.44752090 0.04161352 -0.06699480
H  1.30849766 2.14581930 0.09031961
H  -1.20791357 2.18102785 -0.01206021
H  -2.44371525 -0.02621280 0.00615316
12
MD Step 27 Units = [Angstroms]
C  -0.70787817 -1.22141069 0.03359359
C  0.71185059 -1.24045234 0.00048650
C  1.33315274 -0.01572960 0.01181432
C  0.68912946 1.22803745 -0.00910852
C  -0.70236748 1.23312448 -0.00619634
C  -1.33518305 0.01412402 -0.02416351
H  -1.25071892 -2.13303553 0.01292512
H  1.29702359 -2.14789934 -0.11394407
H  2.45542476 0.05067003 -0.07218230
H  1.31593437 2.11406430 0.10933831
H  -1.23912084 2.18208024 -0.03200646
H  -2.44394046 -0.03839324 0.01929647
12
MD Step 28 Units = [Angstroms]
C  -0.70515908 -1.21876329 0.03311639
C  0.70930234 -1.23128675 0.00139552
C  1.33872389 -0.01619848 0.01056892
C  0.69126500 1.22295301 -0.00871829
C  -0.69939449 1.23283987 -0.00464336
C  -1.34233812 0.01206737 -0.02631847
H  -1.25606180 -2.14636525 0.02453647
H  1.28376620 -2.15268215 -0.11875188
H  2.45730344 0.05673500 -0.07502226
H  1.32212184 2.08608929 0.12571758
H  -1.27321716 2.18476754 -0.05157081
H  -2.44334519 -0.04774976 0.03073575
12
MD Step 29 Units = [Angstroms]
C  -0.70114347 -1.21582303 0.03227457
C  0.70560965 -1.22243188 0.00213202
C  1.34614468 -0.01578222 0.00885541
C  0.69306333 1.21721045 -0.00770101
C  -0.69609717 1.23338212 -0.00347100
C  -1.35092076 0.00922317 -0.02790834
H  -1.26520661 -2.16491983 0.03695097
H  1.27034282 -2.15995924 -0.12112632
H  2.45406785 0.05936261 -0.07554048
H  1.32943812 2.06695602 0.13968843
H  -1.30498481 2.18358362 -0.06997146
H  -2.44381334 -0.05388134 0.04017019
12
MD Step 30 Units = [Angstroms]
C  -0.69654394 -1.21308555 0.03112342
C  0.70111848 -1.21437155 0.00262495
C  1.35513461 -0.01457683 0.00670554
C  0.69435267 1.21094976 -0.00604972
C  -0.69303358 1.23471348 -0.00279554
C  -1.36042054 0.00584338 -0.02888967
H  -1.27350887 -2.18150368 0.04988751
H  1.25600697 -2.16716178 -0.12071756
H  2.44879135 0.05841775 -0.07397595
H  1.33879157 2.05921753 0.15134606
H  -1.32998463 2.17479454 -0.08636552
H  -2.44733788 -0.05664126 0.04742596
12
MD Step 31 Units = [Angstroms]
C  -0.69209605 -1.21092779 0.02973630
C  0.69625556 -1.20746563 0.00281528
C  1.36522950 -0.01276006 0.00417257
C  0.69518322 1.20455052 -0.00374452
C  -0.69066681 1.23653438 -0.00270651
C  -1.37032314 0.00221939 -0.02923572
H  -1.27707291 -2.19022216 0.06289015
H  1.24028192 -2.17202048 -0.11728428
H  2.44590776 0.05405372 -0.07071289
H  1.34892354 2.06205736 0.16038825
H  -1.34547574 2.15743191 -0.10005369
H  -2.45525122 -0.05608966 0.05241065
12
MD Step 32 Units = [Angstroms]
C  -0.68844611 -1.20948911 0.02819463
C  0.69147517 -1.20188604 0.00266438
C  1.37589316 -0.01055677 0.00132236
C  0.69578215 1.19854527 -0.00075682
C  -0.68928940 1.23831313 -0.00325175
C  -1.38019051 -0.00135706 -0.02893367
H  -1.27373746 -2.18805850 0.07544220
H  1.22331693 -2.17329018 -0.11078893
H  2.44971485 0.04661268 -0.06615553
H  1.35692228 2.07200615 0.16616548
H  -1.35086407 2.13347470 -0.11064997
H  -2.46760737 -0.05243847 0.05505329
12
MD Step 33 Units = [Angstroms]
C  -0.68607597 -1.20864555 0.02657599
C  0.68720742 -1.19759817 0.00215693
C  1.38667011 -0.00820097 -0.00177767
C  0.69643900 1.19346356 0.00292642
C  -0.68897739 1.23934503 -0.00442845
C  -1.38970659 -0.00461939 -0.02798431
H  -1.26341909 -2.17536169 0.08710668
H  1.20599783 -2.17108912 -0.10142640
H  2.46252018 0.03650236 -0.06059626
H  1.35952169 2.08463145 0.16798915
H  -1.34779950 2.10755761 -0.11818613
H  -2.48303349 -0.04602064 0.05527341
12
MD Step 34 Units = [Angstroms]
C  -0.68524560 -1.20802875 0.02494292
C  0.68381274 -1.19438587 0.00129870
C  1.39730162 -0.00590813 -0.00506426
C  0.69739598 1.18969533 0.00727856
C  -0.68959434 1.23884667 -0.00618344
C  -1.39867625 -0.00733631 -0.02640576
H  -1.24811714 -2.15578818 0.09765523
H  1.18982621 -2.16682438 -0.08958573
H  2.48339194 0.02414649 -0.05416634
H  1.35431072 2.09613952 0.16544982
H  -1.33976967 2.08609867 -0.12310424
H  -2.49915238 -0.03728549 0.05300363
12
MD Step 35 Units = [Angstroms]
C  -0.68596517 -1.20708597 0.02333440
C  0.68154990 -1.19191541 0.00011076
C  1.40772858 -0.00386238 -0.00847499
C  0.69878144 1.18741462 0.01222122
C  -0.69087826 1.23611635 -0.00842930
C  -1.40699026 -0.00931264 -0.02423915
H  -1.23156056 -2.13569641 0.10715538
H  1.17658938 -2.16270597 -0.07576087
H  2.50841724 0.01004250 -0.04690854
H  1.34040652 2.10436198 0.15858794
H  -1.33084478 2.07548993 -0.12605759
H  -2.51336757 -0.02679327 0.04824849
12
MD Step 36 Units = [Angstroms]
C  -0.68803391 -1.20522127 0.02176643
C  0.68056360 -1.18983050 -0.00137749
C  1.41798902 -0.00221029 -0.01194018
C  0.70058360 1.18655596 0.01762430
C  -0.69260024 1.23075352 -0.01107572
C  -1.41458157 -0.01039153 -0.02155228
H  -1.21818088 -2.12247418 0.11593589
H  1.16786921 -2.16091050 -0.06044404
H  2.53231282 -0.00516003 -0.03890308
H  1.31863288 2.10916534 0.14791050
H  -1.32368671 2.07950540 -0.12752956
H  -2.52366425 -0.01518587 0.04113908
12
MD Step 37 Units = [Angstroms]
C  -0.69116137 -1.20203670 0.02024971
C  0.68088907 -1.18785513 -0.00313262
C  1.42809008 -0.00105136 -0.01537791
C  0.70265481 1.18682819 0.02331498
C  -0.69468876 1.22283207 -0.01405621
C  -1.42139314 -0.01046622 -0.01843850
H  -1.21132707 -2.12158349 0.12433634
H  1.16452928 -2.16264002 -0.04405386
H  2.55034703 -0.02065832 -0.03034747
H  1.29133433 2.11240883 0.13429177
H  -1.31803482 2.09728963 -0.12751812
H  -2.52916829 -0.00313387 0.03195311
12
MD Step 38 Units = [Angstroms]
C  -0.69510259 -1.19756604 0.01881870
C  0.68246183 -1.18586453 -0.00511590
C  1.43791902 -0.00042431 -0.01869493
C  0.70474856 1.18776929 0.02909451
C  -0.69720175 1.21289559 -0.01732568
C  -1.42736656 -0.00950137 -0.01501060
H  -1.21160389 -2.13366374 0.13232369
H  1.16640713 -2.16751607 -0.02694135
H  2.55972030 -0.03557985 -0.02155564
H  1.26182686 2.11737941 0.11878157
H  -1.31103668 2.12356631 -0.12558645
H  -2.53035764 0.00872404 0.02109359
12
MD Step 39 Units = [Angstroms]
C  -0.69969245 -1.19230726 0.01754538
C  0.68512291 -1.18389113 -0.00727788
C  1.44720666 -0.00029568 -0.02179211
C  0.70659366 1.18885742 0.03476046
C  -0.70017543 1.20178128 -0.02083395
C  -1.43245265 -0.00755436 -0.01139143
H  -1.21672400 -2.15406928 0.13930705
H  1.17238283 -2.17366972 -0.00946202
H  2.56020513 -0.04909922 -0.01290103
H  1.23346246 2.12753601 0.10236173
H  -1.29910228 2.15094030 -0.12122328
H  -2.52890218 0.01983201 0.00903699
12
MD Step 40 Units = [Angstroms]
C  -0.70476854 -1.18701478 0.01652191
C  0.68862160 -1.18206850 -0.00955424
C  1.45553472 -0.00055772 -0.02457246
C  0.70798672 1.18966579 0.04012594
C  -0.70348835 1.19040594 -0.02450244
C  -1.43664047 -0.00478502 -0.00770424
H  -1.22298179 -2.17530694 0.14434941
H  1.18078473 -2.17848136 0.00795169
H  2.55415159 -0.06054302 -0.00473906
H  1.20855318 2.14475797 0.08576080
H  -1.27970656 2.17255339 -0.11418213
H  -2.52714102 0.02974551 -0.00372781
12
MD Step 41 Units = [Angstroms]
C  -0.71008710 -1.18242455 0.01582910
C  0.69262581 -1.18054911 -0.01186712
C  1.46238871 -0.00103969 -0.02694962
C  0.70885461 1.18998916 0.04502550
C  -0.70681984 1.17960863 -0.02821867
C  -1.43999479 -0.00144843 -0.00406555
H  -1.22700794 -2.19024700 0.14656534
H  1.18991780 -2.17955921 0.02477648
H  2.54586379 -0.06945098 0.00266063
H  1.18774651 2.16800534 0.06945128
H  -1.25225568 2.18383576 -0.10461563
H  -2.52728810 0.03813130 -0.01674230
12
MD Step 42 Units = [Angstroms]
C  -0.71530370 -1.17906452 0.01551368
C  0.69674649 -1.17943266 -0.01413169
C  1.46726694 -0.00153401 -0.02885373
C  0.70924995 1.18985704 0.04930869
C  -0.70968881 1.17004881 -0.03184444
C  -1.44268315 0.00212872 -0.00058236
H  -1.22680299 -2.19424557 0.14541628
H  1.19850448 -2.17553857 0.04044977
H  2.54024075 -0.07556309 0.00913921
H  1.17028178 2.19341279 0.05380982
H  -1.21818838 2.18331588 -0.09304430
H  -2.53061920 0.04474636 -0.02958172
12
MD Step 43 Units = [Angstroms]
C  -0.72000409 -1.17716460 0.01557913
C  0.70057367 -1.17872343 -0.01626478
C  1.46983330 -0.00183334 -0.03023154
C  0.70929724 1.18943279 0.05283396
C  -0.71153254 1.16213070 -0.03522937
C  -1.44496842 0.00558472 0.00264667
H  -1.22207247 -2.18603369 0.14083433
H  1.20593975 -2.16650171 0.05445473
H  2.54085865 -0.07872503 0.01460497
H  1.15486787 2.21579650 0.03926987
H  -1.18071072 2.17287636 -0.08024428
H  -2.53700431 0.04941745 -0.04182420
12
MD Step 44 Units = [Angstroms]
C  -0.72374569 -1.17662527 0.01598522
C  0.70371697 -1.17832140 -0.01819250
C  1.47004610 -0.00176788 -0.03104166
C  0.70913568 1.18888225 0.05547203
C  -0.71180220 1.15595712 -0.03822618
C  -1.44715606 0.00856792 0.00552905
H  -1.21422383 -2.16792912 0.13323217
H  1.21234285 -2.15398425 0.06639940
H  2.54833409 -0.07877532 0.01894289
H  1.14054451 2.23053615 0.02634543
H  -1.14429242 2.15752142 -0.06709019
H  -2.54502638 0.05204064 -0.05302071
12
MD Step 45 Units = [Angstroms]
C  -0.72609481 -1.17703509 0.01665412
C  0.70584562 -1.17804893 -0.01985427
C  1.46817681 -0.00123019 -0.03125125
C  0.70888184 1.18828479 0.05711596
C  -0.71007088 1.15136149 -0.04070642
C  -1.44951107 0.01078371 0.00797871
H  -1.20614992 -2.14554816 0.12342412
H  1.21840235 -2.14057262 0.07605512
H  2.56004174 -0.07552315 0.02195627
H  1.12716453 2.23493371 0.01554957
H  -1.11381557 2.14422743 -0.05437034
H  -2.55260600 0.05259938 -0.06270198
12
MD Step 46 Units = [Angstroms]
C  -0.72667860 -1.17777667 0.01748722
C  0.70672626 -1.17771137 -0.02120169
C  1.46470324 -0.00018382 -0.03083874
C  0.70860847 1.18760158 0.05769202
C  -0.70614987 1.14806738 -0.04257214
C  -1.45217708 0.01203433 0.00991975
H  -1.20158807 -2.12655050 0.11241636
H  1.22501651 -2.12912713 0.08332965
H  2.57138911 -0.06884778 0.02339872
H  1.11551744 2.22884907 0.00728571
H  -1.09333619 2.13944722 -0.04263820
H  -2.55780511 0.05118264 -0.07042825
12
MD Step 47 Units = [Angstroms]
C  -0.72528090 -1.17826259 0.01839384
C  0.70625692 -1.17717671 -0.02219247
C  1.46015164 0.00133698 -0.02980063
C  0.70833353 1.18668699 0.05716757
C  -0.70018201 1.14592627 -0.04375671
C  -1.45512380 0.01224149 0.01129248
H  -1.20378299 -2.11788013 0.10105653
H  1.23280123 -2.12181032 0.08817676
H  2.57774254 -0.05883163 0.02306706
H  1.10721899 2.21474009 0.00176487
H  -1.08484730 2.14598924 -0.03220362
H  -2.55948795 0.04798713 -0.07585754
12
MD Step 48 Units = [Angstroms]
C  -0.72196516 -1.17822845 0.01931796
C  0.70448968 -1.17643980 -0.02278371
C  1.45496836 0.00322963 -0.02815708
C  0.70802548 1.18533811 0.05555386
C  -0.69266003 1.14505400 -0.04421516
C  -1.45813239 0.01144646 0.01205908
H  -1.21378901 -2.12232072 0.08972117
H  1.24166386 -2.11931281 0.09049276
H  2.57599889 -0.04583311 0.02088511
H  1.10440594 2.19711134 -0.00102045
H  -1.08776684 2.16144974 -0.02326681
H  -2.55766713 0.04330011 -0.07880182
12
MD Step 49 Units = [Angstroms]
C  -0.71713135 -1.17786615 0.02023940
C  0.70163108 -1.17563568 -0.02293067
C  1.44944809 0.00532838 -0.02595340
C  0.70763498 1.18339210 0.05290185
C  -0.68434987 1.14574570 -0.04391655
C  -1.46081898 0.00979070 0.01220672
H  -1.22962860 -2.13694290 0.07832259
H  1.25068527 -2.12068921 0.09007646
H  2.56543926 -0.03047922 0.01693970
H  1.10919265 2.18121258 -0.00124419
H  -1.09947550 2.17959296 -0.01604009
H  -2.55348170 0.03746883 -0.07924848
12
MD Step 50 Units = [Angstroms]
C  -0.71143726 -1.17767504 0.02114981
C  0.69801459 -1.17499404 -0.02259338
C  1.44371007 0.00741571 -0.02325750
C  0.70715015 1.18086288 0.04929103
C  -0.67615660 1.14826843 -0.04284641
C  -1.46269510 0.00748570 0.01174683
H  -1.24714280 -2.15493566 0.06662517
H  1.25839688 -2.12388937 0.08668841
H  2.54793956 -0.01360192 0.01146726
H  1.12290696 2.17108457 0.00086908
H  -1.11644615 2.19338970 -0.01074478
H  -2.54880349 0.03086370 -0.07733636
12
MD Step 51 Units = [Angstroms]
C  -0.70563726 -1.17818154 0.02202951
C  0.69405061 -1.17476225 -0.02174717
C  1.43771732 0.00924154 -0.02015383
C  0.70664814 1.17805091 0.04481764
C  -0.66898408 1.15270255 -0.04101366
C  -1.46325948 0.00478047 0.01071098
H  -1.26178843 -2.16904841 0.05454654
H  1.26329866 -2.12666231 0.08016791
H  2.52758308 0.00385918 0.00480101
H  1.14536492 2.16779645 0.00513809
H  -1.13530475 2.19754657 -0.00753364
H  -2.54553142 0.02384228 -0.07329126
12
MD Step 52 Units = [Angstroms]
C  -0.70043547 -1.17973428 0.02284061
C  0.69016609 -1.17513343 -0.02039070
C  1.43134930 0.01054856 -0.01673455
C  0.70630290 1.17553218 0.03959008
C  -0.66361169 1.15888543 -0.03845443
C  -1.46210165 0.00193230 0.00914563
H  -1.27011673 -2.17416333 0.04224743
H  1.26436851 -2.12739858 0.07053430
H  2.50955101 0.02096521 -0.00270612
H  1.17463435 2.16908379 0.01140303
H  -1.15355044 2.18975269 -0.00642529
H  -2.54478029 0.01672185 -0.06734925
12
MD Step 53 Units = [Angstroms]
C  -0.69638580 -1.18242378 0.02353218
C  0.68674570 -1.17620083 -0.01854809
C  1.42452855 0.01110303 -0.01309086
C  0.70633268 1.17400929 0.03373128
C  -0.66059063 1.16641722 -0.03523123
C  -1.45898326 -0.00081648 0.00710882
H  -1.27051835 -2.16839175 0.03006655
H  1.26139541 -2.12565467 0.05802653
H  2.49830375 0.03685294 -0.01074705
H  1.20750974 2.17067252 0.01941069
H  -1.16999671 2.17102709 -0.00728001
H  -2.54632250 0.00976818 -0.05971182
12
MD Step 54 Units = [Angstroms]
C  -0.69382350 -1.18607340 0.02404906
C  0.68408365 -1.17794411 -0.01626543
C  1.41735189 0.01073033 -0.00930893
C  0.70691500 1.17411337 0.02737995
C  -0.66016386 1.17469240 -0.03142897
C  -1.45386724 -0.00325473 0.00467083
H  -1.26348690 -2.15330318 0.01840469
H  1.25507747 -2.12229430 0.04307550
H  2.49569327 0.05073111 -0.01906537
H  1.24041967 2.16828075 0.02872592
H  -1.18501644 2.14556832 -0.00981505
H  -2.54859671 0.00320129 -0.05055964
12
MD Step 55 Units = [Angstroms]
C  -0.69282012 -1.19026260 0.02434129
C  0.68235469 -1.18024837 -0.01360352
C  1.41013619 0.00934911 -0.00547216
C  0.70811293 1.17625234 0.02068677
C  -0.66223209 1.18296782 -0.02714886
C  -1.44689068 -0.00521214 0.00191705
H  -1.25160734 -2.13372404 0.00760503
H  1.24686917 -2.11924389 0.02622677
H  2.50016070 0.06182344 -0.02739105
H  1.27029968 2.15917602 0.03874098
H  -1.20047129 2.12000388 -0.01366035
H  -2.54929448 -0.00279009 -0.04010768
12
MD Step 56 Units = [Angstroms]
C  -0.69318493 -1.19439963 0.02437280
C  0.68161217 -1.18295628 -0.01062964
C  1.40333512 0.00699191 -0.00166502
C  0.70983540 1.18053467 0.01380745
C  -0.66640290 1.19050938 -0.02250085
C  -1.43830540 -0.00656405 -0.00105061
H  -1.23910413 -2.11686953 -0.00214772
H  1.23857751 -2.11886757 0.00804596
H  2.50761035 0.06935469 -0.03537355
H  1.29518667 2.14293693 0.04876364
H  -1.21898541 2.10159632 -0.01844648
H  -2.54621962 -0.00803694 -0.02865538
12
MD Step 57 Units = [Angstroms]
C  -0.69455161 -1.19789561 0.02412489
C  0.68181252 -1.18594449 -0.00741184
C  1.39738507 0.00380427 0.00202666
C  0.71183122 1.18675448 0.00689536
C  -0.67213765 1.19682025 -0.01759814
C  -1.42841681 -0.00723391 -0.00411653
H  -1.23055463 -2.11017696 -0.01085517
H  1.23178072 -2.12306440 -0.01094610
H  2.51329287 0.07263272 -0.04258303
H  1.31452511 2.12158083 0.05813726
H  -1.24241015 2.09544552 -0.02387056
H  -2.53804922 -0.01238769 -0.01659799
12
MD Step 58 Units = [Angstroms]
C  -0.69654490 -1.20043259 0.02358887
C  0.68285173 -1.18919572 -0.00401925
C  1.39257273 0.00002486 0.00551973
C  0.71371295 1.19442641 0.00009492
C  -0.67892661 1.20183703 -0.01255876
C  -1.41754015 -0.00719615 -0.00715849
H  -1.22886194 -2.11795694 -0.01859455
H  1.22728641 -2.13240943 -0.03026619
H  2.51355710 0.07117990 -0.04857939
H  1.32918604 2.09918332 0.06635393
H  -1.27022750 2.10210781 -0.02966323
H  -2.52477429 -0.01571579 -0.00439562
12
MD Step 59 Units = [Angstroms]
C  -0.69892096 -1.20216332 0.02275178
C  0.68459160 -1.19282599 -0.00052727
C  1.38896664 -0.00404547 0.00873908
C  0.71501735 1.20287721 -0.00646255
C  -0.68636817 1.20593532 -0.00751179
C  -1.40598054 -0.00647951 -0.01005692
H  -1.23375437 -2.13886679 -0.02532386
H  1.22491379 -2.14579133 -0.04939638
H  2.50688558 0.06484466 -0.05300176
H  1.34107371 2.08090287 0.07311384
H  -1.29926093 2.11754187 -0.03547978
H  -2.50775500 -0.01793324 0.00748215
12
MD Step 60 Units = [Angstroms]
C  -0.70156624 -1.20365283 0.02159069
C  0.68686543 -1.19704546 0.00297766
C  1.38640476 -0.00807904 0.01162282
C  0.71531070 1.21139739 -0.01265611
C  -0.69411811 1.20973878 -0.00259761
C  -1.39403445 -0.00516802 -0.01270338
H  -1.24218310 -2.16651692 -0.03079800
H  1.22372582 -2.16078323 -0.06771521
H  2.49422523 0.05385975 -0.05563996
H  1.35218970 2.07136728 0.07827123
H  -1.32500599 2.13539017 -0.04084709
H  -2.48939224 -0.01900311 0.01861145
12
MD Step 61 Units = [Angstroms]
C  -0.70438951 -1.20560617 0.02008216
C  0.68947264 -1.20207142 0.00639949
C  1.38452384 -0.01175514 0.01412602
C  0.71431772 1.21941292 -0.01836477
C  -0.70180306 1.21388191 0.00204183
C  -1.38200660 -0.00339665 -0.01500567
H  -1.25017728 -2.19265786 -0.03467858
H  1.22255400 -2.17453561 -0.08450206
H  2.47873165 0.03883699 -0.05646713
H  1.36339262 2.07289446 0.08165947
H  -1.34341417 2.14969956 -0.04522680
H  -2.47245766 -0.01894407 0.02864558
12
MD Step 62 Units = [Angstroms]
C  -0.70723266 -1.20859582 0.01821586
C  0.69217896 -1.20803496 0.00964028
C  1.38283465 -0.01478855 0.01622110
C  0.71200842 1.22659116 -0.02345832
C  -0.70898298 1.21883963 0.00627665
C  -1.37023193 -0.00134088 -0.01688811
H  -1.25457517 -2.21034139 -0.03670598
H  1.22053103 -2.18473372 -0.09902296
H  2.46488303 0.02069028 -0.05561527
H  1.37361922 2.08456032 0.08291794
H  -1.35206982 2.15666490 -0.04813170
H  -2.45923352 -0.01782333 0.03730885
12
MD Step 63 Units = [Angstroms]
C  -0.70985219 -1.21290574 0.01600255
C  0.69473016 -1.21491406 0.01261072
C  1.38085004 -0.01695167 0.01789302
C  0.70858653 1.23282376 -0.02780202
C  -0.71516665 1.22483084 0.01000031
C  -1.35908618 0.00080002 -0.01828837
H  -1.25388533 -2.21565452 -0.03680734
H  1.21744025 -2.19027313 -0.11065223
H  2.45692020 0.00050381 -0.05328297
H  1.38021314 2.10276762 0.08148846
H  -1.35065145 2.15534956 -0.04922726
H  -2.45077217 -0.01574226 0.04436136
12
MD Step 64 Units = [Angstroms]
C  -0.71194075 -1.21847271 0.01347576
C  0.69687715 -1.22250618 0.01523895
C  1.37823741 -0.01809383 0.01913094
C  0.70439787 1.23812256 -0.03127572
C  -0.71984911 1.23176875 0.01313702
C  -1.34896879 0.00282619 -0.01915408
H  -1.24851900 -2.20831793 -0.03512787
H  1.21383233 -2.19152943 -0.11897663
H  2.45701699 -0.02058329 -0.04960797
H  1.38011178 2.12284853 0.07679380
H  -1.34097215 2.14781439 -0.04839678
H  -2.44661993 -0.01282400 0.04956712
12
MD Step 65 Units = [Angstroms]
C  -0.71315292 -1.22488351 0.01068966
C  0.69840630 -1.23044379 0.01747521
C  1.37491736 -0.01816026 0.01992309
C  0.69982477 1.24251057 -0.03379493
C  -0.72255850 1.23925954 0.01564455
C  -1.34025614 0.00456530 -0.01944291
H  -1.24074679 -2.19171858 -0.03201289
H  1.21091896 -2.19020628 -0.12384192
H  2.46416961 -0.04140331 -0.04459206
H  1.37107559 2.14068425 0.06845301
H  -1.32668874 2.13875883 -0.04575839
H  -2.44513567 -0.00921027 0.05269754
12
MD Step 66 Units = [Angstroms]
C  -0.71313428 -1.23143298 0.00771326
C  0.69917104 -1.23825433 0.01929016
C  1.37104380 -0.01720462 0.02026039
C  0.69521000 1.24595540 -0.03532406
C  -0.72293052 1.24668656 0.01751054
C  -1.33324317 0.00590038 -0.01912649
H  -1.23437209 -2.17233920 -0.02794281
H  1.21024959 -2.18876028 -0.12531489
H  2.47460817 -0.06072847 -0.03814326
H  1.35244313 2.15375699 0.05640975
H  -1.31244496 2.13430962 -0.04160073
H  -2.44421230 -0.00506527 0.05357314
12
MD Step 67 Units = [Angstroms]
C  -0.71158697 -1.23729172 0.00461966
C  0.69912217 -1.24545793 0.02066669
C  1.36688851 -0.01538421 0.02014595
C  0.69081571 1.24834546 -0.03587974
C  -0.72082966 1.25340790 0.01874076
C  -1.32809712 0.00678924 -0.01819615
H  -1.23376941 -2.15795050 -0.02340941
H  1.21320439 -2.18947648 -0.12355975
H  2.48343938 -0.07729138 -0.03019603
H  1.32538171 2.16161490 0.04094838
H  -1.30226144 2.13965154 -0.03621889
H  -2.44205594 -0.00057902 0.05211750
12
MD Step 68 Units = [Angstroms]
C  -0.70839762 -1.24179764 0.00147314
C  0.69833071 -1.25167510 0.02158914
C  1.36271269 -0.01293491 0.01960268
C  0.68681343 1.24949759 -0.03552588
C  -0.71647619 1.25899870 0.01934614
C  -1.32483529 0.00726782 -0.01666718
H  -1.24208072 -2.15431264 -0.01877139
H  1.22044393 -2.19348651 -0.11868225
H  2.48646930 -0.08990044 -0.02081304
H  1.29273758 2.16586409 0.02261783
H  -1.29773889 2.15630805 -0.02973755
H  -2.43775953 0.00403558 0.04839446
12
MD Step 69 Units = [Angstroms]
C  -0.70377211 -1.24472957 -0.00167647
C  0.69699211 -1.25669821 0.02203789
C  1.35868238 -0.01013402 0.01867513
C  0.68330818 1.24919859 -0.03436174
C  -0.71047352 1.26336913 0.01934210
C  -1.32332667 0.00743548 -0.01457977
H  -1.25935443 -2.16202539 -0.01420433
H  1.23156903 -2.20021469 -0.11064305
H  2.48145066 -0.09759757 -0.01021549
H  1.25848084 2.16962988 0.00208743
H  -1.29738944 2.18106694 -0.02209089
H  -2.43156269 0.00855287 0.04261318
12
MD Step 70 Units = [Angstroms]
C  -0.69825118 -1.24633447 -0.00478708
C  0.69540210 -1.26049323 0.02199464
C  1.35483297 -0.00726179 0.01742586
C  0.68039640 1.24729328 -0.03250667
C  -0.70368520 1.26667034 0.01876187
C  -1.32331477 0.00742854 -0.01199642
H  -1.28219281 -2.17627412 -0.00979979
H  1.24519537 -2.20759114 -0.09930920
H  2.46863600 -0.09979421 0.00125077
H  1.22671895 2.17633596 -0.02001439
H  -1.29769465 2.20755465 -0.01318797
H  -2.42477505 0.01275007 0.03510076
12
MD Step 71 Units = [Angstroms]
C  -0.69256865 -1.24709163 -0.00781480
C  0.69390566 -1.26314052 0.02145490
C  1.35107162 -0.00457041 0.01592856
C  0.67823082 1.24380605 -0.03008969
C  -0.69703688 1.26909897 0.01766894
C  -1.32446262 0.00739244 -0.00899690
H  -1.30531102 -2.18971327 -0.00569467
H  1.25941021 -2.21290063 -0.08460565
H  2.45075904 -0.09635100 0.01318698
H  1.20052790 2.18799680 -0.04317538
H  -1.29493416 2.22906699 -0.00309031
H  -2.41936383 0.01642378 0.02625133
12
MD Step 72 Units = [Angstroms]
C  -0.68745644 -1.24743709 -0.01071155
C  0.69283167 -1.26475444 0.02043921
C  1.34721975 -0.00226719 0.01425937
C  0.67703980 1.23902865 -0.02725076
C  -0.69134306 1.27075039 0.01615739
C  -1.32641888 0.00746008 -0.00567275
H  -1.32364757 -2.19584095 -0.00210660
H  1.27237290 -2.21379397 -0.06665968
H  2.43242951 -0.08757478 0.02522526
H  1.18120717 2.20390327 -0.06690919
H  -1.28657768 2.24077359 0.00793447
H  -2.41726143 0.01940153 0.01647112
12
MD Step 73 Units = [Angstroms]
C  -0.68349694 -1.24760882 -0.01342867
C  0.69243014 -1.26541792 0.01899677
C  1.34310961 -0.00051397 0.01248955
C  0.67707037 1.23349690 -0.02414851
C  -0.68719119 1.27155894 0.01434202
C  -1.32889197 0.00773863 -0.00212317
H  -1.33378168 -2.19094120 0.00071214
H  1.28281897 -2.20905241 -0.04586073
H  2.41879924 -0.07411214 0.03708936
H  1.16841727 2.22068284 -0.09057756
H  -1.27192853 2.24077020 0.01947021
H  -2.41959122 0.02154489 0.00614534
12
MD Step 74 Units = [Angstroms]
C  -0.68103636 -1.24760221 -0.01592210
C  0.69282535 -1.26514729 0.01720144
C  1.33872487 0.00056428 0.01068334
C  0.67848721 1.22785915 -0.02096066
C  -0.68487427 1.27128992 0.01234473
C  -1.33170575 0.00830285 0.00154648
H  -1.33455500 -2.17470348 0.00253931
H  1.29034864 -2.19894876 -0.02282427
H  2.41363906 -0.05677727 0.04858525
H  1.16097868 2.23371123 -0.11331096
H  -1.25227176 2.23037180 0.03105986
H  -2.42614907 0.02274872 -0.00435715
12
MD Step 75 Units = [Angstroms]
C  -0.68013807 -1.24717468 -0.01815684
C  0.69399475 -1.26389050 0.01514272
C  1.33431798 0.00087819 0.00890257
C  0.68129088 1.22271705 -0.01787155
C  -0.68436940 1.26956180 0.01028120
C  -1.33481296 0.00919083 0.00522480
H  -1.32726599 -2.15023525 0.00323580
H  1.29546397 -2.18520016 0.00171102
H  2.41766530 -0.03643785 0.05950884
H  1.15771773 2.23888381 -0.13410638
H  -1.23069002 2.21391905 0.04232476
H  -2.43542557 0.02294615 -0.01465316
12
MD Step 76 Units = [Angstroms]
C  -0.68057585 -1.24588034 -0.02011038
C  0.69577995 -1.26156049 0.01291528
C  1.33041367 0.00039082 0.00721260
C  0.68528963 1.21850678 -0.01505325
C  -0.68537932 1.26592353 0.00825067
C  -1.33826527 0.01039919 0.00879598
H  -1.31553426 -2.12366649 0.00277784
H  1.29933171 -2.17051996 0.02700794
H  2.42824277 -0.01405101 0.06954260
H  1.15798699 2.23389583 -0.15202634
H  -1.21140409 2.19783925 0.05305883
H  -2.44516695 0.02212239 -0.02432281
12
MD Step 77 Units = [Angstroms]
C  -0.68190140 -1.24317332 -0.02177312
C  0.69793132 -1.25810135 0.01061118
C  1.32768130 -0.00085621 0.00568188
C  0.69011796 1.21543498 -0.01264768
C  -0.68745218 1.26002914 0.00633411
C  -1.34216121 0.01187614 0.01214465
H  -1.30445896 -2.10285889 0.00124939
H  1.30327319 -2.15780088 0.05242052
H  2.44070586 0.00922999 0.07824243
H  1.16185800 2.21884725 -0.16639720
H  -1.19842822 2.18849880 0.06322317
H  -2.45318532 0.02032908 -0.03292083
12
MD Step 78 Units = [Angstroms]
C  -0.68361963 -1.23862649 -0.02314364
C  0.70017395 -1.25356754 0.00831873
C  1.32675609 -0.00272757 0.00437417
C  0.69528080 1.21346002 -0.01075334
C  -0.69014465 1.25188004 0.00460484
C  -1.34659721 0.01351368 0.01516363
H  -1.29864441 -2.09466385 -0.00122743
H  1.30810725 -2.14912733 0.07739326
H  2.45035245 0.03203635 0.08513114
H  1.17009689 2.19629309 -0.17694888
H  -1.19387283 2.18923978 0.07277825
H  -2.45807613 0.01768719 -0.04001959
12
MD Step 79 Units = [Angstroms]
C  -0.68541312 -1.23220258 -0.02422094
C  0.70226768 -1.24817618 0.00612816
C  1.32809620 -0.00500137 0.00333881
C  0.70021245 1.21232103 -0.00942026
C  -0.69312979 1.24197593 0.00314374
C  -1.35163533 0.01514328 0.01776214
H  -1.29973009 -2.10153541 -0.00459024
H  1.31364743 -2.14504244 0.10136620
H  2.45404345 0.05289974 0.08982867
H  1.18394479 2.17073311 -0.18384735
H  -1.19700930 2.19851133 0.08145168
H  -2.45963984 0.01437391 -0.04526327
12
MD Step 80 Units = [Angstroms]
C  -0.68724624 -1.22436898 -0.02500225
C  0.70403505 -1.24229409 0.00413759
C  1.33190352 -0.00739772 0.00260349
C  0.70435511 1.21163162 -0.00865908
C  -0.69618269 1.23122951 0.00204057
C  -1.35729003 0.01654361 0.01987197
H  -1.30540345 -2.12006613 -0.00886060
H  1.31866206 -2.14448179 0.12366710
H  2.45103537 0.07044186 0.09215331
H  1.20461422 2.14737538 -0.18755364
H  -1.20489458 2.21077410 0.08867619
H  -2.45894604 0.01059865 -0.04841039
12
MD Step 81 Units = [Angstroms]
C  -0.68926314 -1.21593607 -0.02548959
C  0.70535417 -1.23635760 0.00245176
C  1.33809559 -0.00962114 0.00217039
C  0.70726203 1.21103234 -0.00846593
C  -0.69909761 1.22070559 0.00137714
C  -1.36353216 0.01746612 0.02144987
H  -1.31090293 -2.14289770 -0.01406082
H  1.32133032 -2.14540060 0.14349653
H  2.44315878 0.08356594 0.09216983
H  1.23246472 2.13027098 -0.18849546
H  -1.21394121 2.21934422 0.09376780
H  -2.45803527 0.00657909 -0.04934796
12
MD Step 82 Units = [Angstroms]
C  -0.69160557 -1.20776544 -0.02569698
C  0.70613655 -1.23076194 0.00117163
C  1.34632097 -0.01140622 0.00201626
C  0.70870190 1.21033342 -0.00884995
C  -0.70163376 1.21135952 0.00120716
C  -1.37030760 0.01767513 0.02247553
H  -1.31150905 -2.16219701 -0.02012235
H  1.31991862 -2.14571013 0.16003374
H  2.43443787 0.09159929 0.09017678
H  1.26615637 2.12065830 -0.18672034
H  -1.22126644 2.21902168 0.09617407
H  -2.45928780 0.00252705 -0.04807025
12
MD Step 83 Units = [Angstroms]
C  -0.69430052 -1.20054680 -0.02565180
C  0.70631197 -1.22576470 0.00038031
C  1.35603007 -0.01255368 0.00209797
C  0.70871144 1.20954986 -0.00983963
C  -0.70352038 1.20386314 0.00154514
C  -1.37756459 0.01699108 0.02294636
H  -1.30421943 -2.17225344 -0.02686652
H  1.31335469 -2.14408366 0.17260162
H  2.43004330 0.09433138 0.08662069
H  1.30240559 2.11668139 -0.18181902
H  -1.22537109 2.20749842 0.09563899
H  -2.46459277 -0.00135134 -0.04463151
12
MD Step 84 Units = [Angstroms]
C  -0.69723885 -1.19468968 -0.02539119
C  0.70582882 -1.22142932 0.00013158
C  1.36661270 -0.01294716 0.00236443
C  0.70756193 1.20881064 -0.01146103
C  -0.70449233 1.19850992 0.00236481
C  -1.38527592 0.01532532 0.02287208
H  -1.28832602 -2.17064149 -0.03404567
H  1.30153930 -2.14040876 0.18081029
H  2.43451819 0.09190311 0.08194008
H  1.33668176 2.11469205 -0.17320096
H  -1.22634633 2.18580690 0.09226389
H  -2.47461112 -0.00484763 -0.03910154
12
MD Step 85 Units = [Angstroms]
C  -0.70019634 -1.19028242 -0.02495616
C  0.70466714 -1.21761615 0.00044432
C  1.37756735 -0.01255282 0.00277055
C  0.70566511 1.20822654 -0.01370754
C  -0.70432421 1.19518296 0.00360345
C  -1.39343838 0.01269946 0.02227265
H  -1.26541810 -2.15856074 -0.04140885
H  1.28537599 -2.13584516 0.18462632
H  2.44977618 0.08460151 0.07640218
H  1.36444748 2.11110988 -0.16048240
H  -1.22583233 2.15818933 0.08648878
H  -2.48848192 -0.00775032 -0.03155709
12
MD Step 86 Units = [Angstroms]
C  -0.70286629 -1.18708876 -0.02438499
C  0.70285890 -1.21402198 0.00130486
C  1.38861129 -0.01141637 0.00328409
C  0.70346847 1.20780238 -0.01652202
C  -0.70286062 1.19340541 0.00517189
C  -1.40204363 0.00924700 0.02118044
H  -1.23912023 -2.14074932 -0.04877511
H  1.26653474 -2.13248942 0.18433995
H  2.47401388 0.07273636 0.07004257
H  1.38227318 2.10379270 -0.14372724
H  -1.22666672 2.13126623 0.07898746
H  -2.50412967 -0.00986270 -0.02211587
12
MD Step 87 Units = [Angstroms]
C  -0.70491261 -1.18461054 -0.02370699
C  0.70051018 -1.21026515 0.00267716
C  1.39966124 -0.00966709 0.00388106
C  0.70136825 1.20741235 -0.01979598
C  -0.70006885 1.19251075 0.00697175
C  -1.41103448 0.00519867 0.01964413
H  -1.21440390 -2.12463891 -0.05609454
H  1.24697548 -2.13265726 0.18042555
H  2.50236426 0.05671516 0.06275490
H  1.38850745 2.09265301 -0.12348091
H  -1.23193833 2.11206286 0.07045947
H  -2.51900517 -0.01103418 -0.01098541
12
MD Step 88 Units = [Angstroms]
C  -0.70607198 -1.18227731 -0.02294142
C  0.69781660 -1.20600070 0.00451778
C  1.41071561 -0.00751844 0.00453540
C  0.69964718 1.20681536 -0.02338084
C  -0.69612714 1.19191157 0.00891522
C  -1.42026757 0.00085454 0.01773051
H  -1.19612907 -2.11800080 -0.06344128
H  1.22834343 -2.13792168 0.17333896
H  2.52883862 0.03721030 0.05444935
H  1.38352502 2.07971920 -0.10065867
H  -1.24341829 2.10507865 0.06138982
H  -2.53091170 -0.01118797 0.00151001
12
MD Step 89 Units = [Angstroms]
C  -0.70629052 -1.17974770 -0.02210658
C  0.69505720 -1.20102808 0.00678738
C  1.42172883 -0.00524885 0.00521157
C  0.69844636 1.20569366 -0.02710641
C  -0.69149184 1.19132027 0.01093302
C  -1.42949571 -0.00345277 0.01552210
H  -1.18705242 -2.12525888 -0.07087446
H  1.21148602 -2.14828387 0.16335855
H  2.54835266 0.01523411 0.04516551
H  1.36957927 2.06876486 -0.07634819
H  -1.26019995 2.11006961 0.05196000
H  -2.53862901 -0.01033140 0.01494215
12
MD Step 90 Units = [Angstroms]
C  -0.70579621 -1.17712637 -0.02123475
C  0.69255603 -1.19534515 0.00945074
C  1.43253369 -0.00315959 0.00586334
C  0.69778889 1.20372123 -0.03080278
C  -0.68684976 1.19075976 0.01296375
C  -1.43837314 -0.00739785 0.01311091
H  -1.18660261 -2.14483752 -0.07822852
H  1.19635652 -2.16194622 0.15057608
H  2.55806364 -0.00793598 0.03509860
H  1.35013387 2.06438557 -0.05157603
H  -1.27874613 2.12241819 0.04219584
H  -2.54220303 -0.00854683 0.02882528
12
MD Step 91 Units = [Angstroms]
C  -0.70502296 -1.17489077 -0.02037650
C  0.69061837 -1.18912810 0.01246557
C  1.44281361 -0.00152089 0.00643744
C  0.69765955 1.20067437 -0.03431790
C  -0.68295276 1.19039155 0.01493777
C  -1.44648383 -0.01069827 0.01059101
H  -1.19152808 -2.17004536 -0.08503841
H  1.18234604 -2.17585934 0.13503787
H  2.55794939 -0.03092713 0.02456055
H  1.32860719 2.07040819 -0.02713336
H  -1.29437614 2.13570392 0.03218653
H  -2.54286496 -0.00596982 0.04267649
12
MD Step 92 Units = [Angstroms]
C  -0.70444402 -1.17360536 -0.01958808
C  0.68946394 -1.18265980 0.01576951
C  1.45211366 -0.00052216 0.00688042
C  0.69809844 1.19655916 -0.03751985
C  -0.68043239 1.19033112 0.01677097
C  -1.45339287 -0.01313979 0.00805248
H  -1.19774265 -2.19258584 -0.09068305
H  1.16881545 -2.18674229 0.11692422
H  2.55077615 -0.05246742 0.01390774
H  1.30697496 2.08805093 -0.00358993
H  -1.30300535 2.14437755 0.02218257
H  -2.54258150 -0.00276647 0.05606410
12
MD Step 93 Units = [Angstroms]
C  -0.70443303 -1.17366662 -0.01891356
C  0.68917887 -1.17624810 0.01927391
C  1.45989743 -0.00024071 0.00714691
C  0.69922868 1.19167452 -0.04028333
C  -0.67967273 1.19054912 0.01836950
C  -1.45871704 -0.01458823 0.00557903
H  -1.20190455 -2.20576883 -0.09460290
H  1.15554517 -2.19208559 0.09665299
H  2.54141700 -0.07155094 0.00345970
H  1.28517637 2.11493730 0.01850089
H  -1.30224786 2.14529663 0.01255917
H  -2.54331197 0.00087950 0.06861943
12
MD Step 94 Units = [Angstroms]
C  -0.70519502 -1.17518550 -0.01837278
C  0.68969663 -1.17016300 0.02286658
C  1.46566683 -0.00063873 0.00720630
C  0.70118423 1.18654668 -0.04247722
C  -0.68075163 1.19084390 0.01963914
C  -1.46219799 -0.01498874 0.00324944
H  -1.20217961 -2.20611484 -0.09645198
H  1.14296404 -2.19081803 0.07487187
H  2.53534577 -0.08749975 -0.00656013
H  1.26180094 2.14579875 0.03841454
H  -1.29185765 2.13827037 0.00372224
H  -2.54620439 0.00476651 0.08000363
12
MD Step 95 Units = [Angstroms]
C  -0.70674378 -1.17796478 -0.01795605
C  0.69080845 -1.16460286 0.02642087
C  1.46913065 -0.00158812 0.00704377
C  0.70400013 1.18177105 -0.04396857
C  -0.68343624 1.19084788 0.02049536
C  -1.46375077 -0.01435663 0.00114068
H  -1.19846915 -2.19382978 -0.09616977
H  1.13215341 -2.18354877 0.05236687
H  2.53649145 -0.09986797 -0.01602184
H  1.23541593 2.17440536 0.05527540
H  -1.27376004 2.12607626 -0.00399026
H  -2.55109244 0.00867105 0.08985384
12
MD Step 96 Units = [Angstroms]
C  -0.70890034 -1.18151671 -0.01762283
C  0.69219855 -1.15969195 0.02980729
C  1.47033987 -0.00290871 0.00665464
C  0.70754805 1.17785549 -0.04463997
C  -0.68723227 1.19006858 0.02087228
C  -1.46346588 -0.01276518 -0.00067159
H  -1.19241542 -2.17278718 -0.09400193
H  1.12466026 -2.17238076 0.02993382
H  2.54544543 -0.10825485 -0.02481660
H  1.20558544 2.19552019 0.06824584
H  -1.25168558 2.11397620 -0.01038553
H  -2.55656511 0.01235541 0.09775641
12
MD Step 97 Units = [Angstroms]
C  -0.71131461 -1.18512375 -0.01730570
C  0.69349702 -1.15551201 0.03290411
C  1.46968870 -0.00439714 0.00603700
C  0.71153893 1.17511898 -0.04440827
C  -0.69150033 1.18800518 0.02072761
C  -1.46156775 -0.01033485 -0.00211758
H  -1.18715742 -2.14996655 -0.09046246
H  1.12214256 -2.16028653 0.00826279
H  2.55925209 -0.11221691 -0.03277512
H  1.17325027 2.20616300 0.07673529
H  -1.23015647 2.10828752 -0.01543468
H  -2.56056616 0.01559375 0.10327856
12
MD Step 98 Units = [Angstroms]
C  -0.71353821 -1.18799844 -0.01692374
C  0.69434228 -1.15216206 0.03560321
C  1.46777115 -0.00583686 0.00518942
C  0.71556610 1.17364318 -0.04323789
C  -0.69562972 1.18436389 0.02003978
C  -1.45835368 -0.00722707 -0.00314174
H  -1.18649372 -2.13365776 -0.08618479
H  1.12589134 -2.15011593 -0.01211234
H  2.57292055 -0.11137720 -0.03965437
H  1.14064818 2.20618532 0.08054220
H  -1.21280213 2.11376929 -0.01919264
H  -2.56120615 0.01820615 0.10604587
12
MD Step 99 Units = [Angstroms]
C  -0.71516677 -1.18957039 -0.01640675
C  0.69444195 -1.14981999 0.03780893
C  1.46518593 -0.00700152 0.00411462
C  0.71916184 1.17326253 -0.04114662
C  -0.69919145 1.17928344 0.01879952
C  -1.45413849 -0.00364386 -0.00371125
H  -1.19324427 -2.13008242 -0.08165147
H  1.13635451 -2.14354424 -0.03077016
H  2.58154426 -0.10561871 -0.04519852
H  1.11098447 2.19832976 0.07990531
H  -1.20084170 2.13092060 -0.02165702
H  -2.55744903 0.02008325 0.10582502
12
MD Step 100 Units = [Angstroms]
C  -0.71599452 -1.18976753 -0.01571719
C  0.69362005 -1.14876212 0.03943262
C  1.46238141 -0.00766792 0.00282522
C  0.72185970 1.17360242 -0.03820186
C  -0.70196744 1.17338879 0.01700690
C  -1.44921682 0.00017036 -0.00382092
H  -1.20754277 -2.14002736 -0.07695912
H  1.15286370 -2.14047650 -0.04729827
H  2.58192877 -0.09520578 -0.04922118
H  1.08790152 2.18768245 0.07543956
H  -1.19295704 2.15534849 -0.02270605
H  -2.54948575 0.02119169 0.10257579
