12
MD Step 0 Units = [Angstroms / fs]
C  -0.00602606 0.00050303 0.00010512
C  -0.00033306 -0.00142103 -0.00237684
C  -0.00337400 -0.00273707 -0.00143296
C  -0.00167894 0.00111296 0.00209488
C  -0.00475294 -0.00008696 0.00051084
C  0.00841200 -0.00038793 0.00046197
H  0.00030889 -0.00837994 0.01008723
H  -0.00200811 -0.00558905 0.00489129
H  -0.01362200 0.00428387 0.01041706
H  0.03237311 -0.00383807 -0.01331722
H  -0.01881389 -0.01859095 -0.00483529
H  0.00477700 -0.01670286 -0.01299606
12
MD Step 1 Units = [Angstroms / fs]
C  -0.00576015 -0.00192084 0.00045486
C  0.00117327 -0.00225633 -0.00260110
C  -0.00531523 -0.00303903 -0.00155362
C  -0.00055051 0.00141124 0.00274495
C  -0.00574736 0.00090214 -0.00042236
C  0.00846843 0.00090702 0.00089292
H  0.00299913 0.00234936 0.00895570
H  -0.00558233 -0.00257081 0.00456490
H  -0.00841014 0.00274741 0.01062347
H  0.02819886 -0.00031341 -0.01544804
H  -0.01675657 -0.02449279 -0.00092377
H  0.00231045 -0.01487336 -0.01534437
12
MD Step 2 Units = [Angstroms / fs]
C  -0.00494726 -0.00436527 0.00082640
C  0.00232176 -0.00314814 -0.00279178
C  -0.00724102 -0.00320017 -0.00162327
C  0.00058282 0.00192797 0.00331751
C  -0.00611924 0.00178461 -0.00131294
C  0.00798368 0.00200198 0.00127816
H  0.00444168 0.01145620 0.00758914
H  -0.00856201 -0.00007472 0.00405442
H  -0.00196944 0.00103385 0.01058646
H  0.02041417 -0.00007195 -0.01712520
H  -0.01622530 -0.02531554 0.00259692
H  0.00093917 -0.01222696 -0.01739998
12
MD Step 3 Units = [Angstroms / fs]
C  -0.00359105 -0.00641962 0.00121090
C  0.00298547 -0.00402237 -0.00295086
C  -0.00883600 -0.00317278 -0.00163287
C  0.00158442 0.00256787 0.00378599
C  -0.00581000 0.00245552 -0.00212835
C  0.00704672 0.00277092 0.00159733
H  0.00338810 0.01589175 0.00611626
H  -0.01003292 0.00059354 0.00344457
H  0.00272188 -0.00083810 0.01022621
H  0.01020013 -0.00196947 -0.01816163
H  -0.01781273 -0.02022690 0.00552257
H  0.00105501 -0.00886172 -0.01908710
12
MD Step 4 Units = [Angstroms / fs]
C  -0.00176644 -0.00776578 0.00159624
C  0.00310995 -0.00483886 -0.00307852
C  -0.00987552 -0.00293283 -0.00157259
C  0.00230352 0.00319145 0.00413202
C  -0.00490140 0.00294584 -0.00285364
C  0.00581020 0.00312460 0.00182909
H  -0.00085761 0.01375548 0.00468555
H  -0.00948234 -0.00126047 0.00280503
H  0.00358653 -0.00283892 0.00943041
H  -0.00071078 -0.00424345 -0.01846815
H  -0.02097570 -0.01045889 0.00787404
H  0.00245943 -0.00494143 -0.02029724
12
MD Step 5 Units = [Angstroms / fs]
C  0.00036260 -0.00830660 0.00197290
C  0.00272314 -0.00561422 -0.00317052
C  -0.01029442 -0.00248841 -0.00143790
C  0.00260706 0.00365316 0.00434946
C  -0.00361573 0.00341662 -0.00348828
C  0.00445874 0.00303530 0.00195628
H  -0.00791186 0.00550811 0.00338696
H  -0.00698936 -0.00536526 0.00214707
H  0.00024483 -0.00488503 0.00813570
H  -0.01046215 -0.00502718 -0.01809322
H  -0.02396079 0.00082450 0.00984702
H  0.00449718 -0.00070240 -0.02093513
12
MD Step 6 Units = [Angstroms / fs]
C  0.00253160 -0.00822862 0.00233897
C  0.00193042 -0.00642007 -0.00321687
C  -0.01017668 -0.00187980 -0.00123341
C  0.00241114 0.00383507 0.00444440
C  -0.00224423 0.00405192 -0.00403138
C  0.00317641 0.00254335 0.00196990
H  -0.01600881 -0.00549366 0.00219126
H  -0.00322384 -0.01044338 0.00139866
H  -0.00612346 -0.00683643 0.00637944
H  -0.01749276 -0.00282388 -0.01720774
H  -0.02457350 0.00993180 0.01161476
H  0.00630929 0.00356370 -0.02095636
12
MD Step 7 Units = [Angstroms / fs]
C  0.00441944 -0.00789259 0.00269750
C  0.00089132 -0.00734361 -0.00320418
C  -0.00970282 -0.00117160 -0.00097287
C  0.00171610 0.00368997 0.00442940
C  -0.00103884 0.00492415 -0.00446926
C  0.00212063 0.00174436 0.00187026
H  -0.02253358 -0.01437572 0.00098763
H  0.00081772 -0.01467313 0.00042835
H  -0.01341327 -0.00852876 0.00429800
H  -0.02100703 0.00291968 -0.01602065
H  -0.02135567 0.01442696 0.01316362
H  0.00711794 0.00754725 -0.02038127
12
MD Step 8 Units = [Angstroms / fs]
C  0.00574736 -0.00760640 0.00304727
C  -0.00021586 -0.00842615 -0.00312137
C  -0.00909385 -0.00044096 -0.00067674
C  0.00063124 0.00328404 0.00431216
C  -0.00014429 0.00594238 -0.00477795
C  0.00140115 0.00076560 0.00166515
H  -0.02529081 -0.01742453 -0.00029640
H  0.00422537 -0.01648354 -0.00088438
H  -0.01925776 -0.00981452 0.00209013
H  -0.02134802 0.01128076 -0.01462934
H  -0.01423924 0.01394145 0.01431298
H  0.00649099 0.01096641 -0.01928115
12
MD Step 9 Units = [Angstroms / fs]
C  0.00636031 -0.00747692 0.00337738
C  -0.00122769 -0.00961980 -0.00296534
C  -0.00855904 0.00023448 -0.00036841
C  -0.00064192 0.00279626 0.00408574
C  0.00040311 0.00689940 -0.00493504
C  0.00106376 -0.00025847 0.00136603
H  -0.02350088 -0.01377154 -0.00161997
H  0.00649772 -0.01520397 -0.00257841
H  -0.02162816 -0.01059744 -0.00003737
H  -0.01989045 0.01988529 -0.01289874
H  -0.00437543 0.00979398 0.01485609
H  0.00452660 0.01360327 -0.01774251
12
MD Step 10 Units = [Angstroms / fs]
C  0.00623962 -0.00742786 0.00367035
C  -0.00201792 -0.01078830 -0.00274278
C  -0.00823930 0.00078622 -0.00006864
C  -0.00187795 0.00244347 0.00373243
C  0.00064444 0.00754988 -0.00492973
C  0.00108501 -0.00120511 0.00098434
H  -0.01785794 -0.00507080 -0.00285894
H  0.00762871 -0.01122707 -0.00458585
H  -0.01946491 -0.01084839 -0.00193651
H  -0.01830191 0.02584941 -0.01051342
H  0.00640093 0.00418967 0.01468070
H  0.00186837 0.01531429 -0.01582684
12
MD Step 11 Units = [Angstroms / fs]
C  0.00547337 -0.00729344 0.00390848
C  -0.00250842 -0.01174306 -0.00246794
C  -0.00815344 0.00116035 0.00021030
C  -0.00290545 0.00236989 0.00324131
C  0.00066744 0.00766884 -0.00476696
C  0.00138529 -0.00197417 0.00052999
H  -0.01000915 0.00573158 -0.00387880
H  0.00800283 -0.00574347 -0.00675685
H  -0.01325157 -0.01058747 -0.00357836
H  -0.01765618 0.02714879 -0.00720429
H  0.01604243 -0.00041812 0.01381961
H  -0.00051099 0.01601628 -0.01355192
12
MD Step 12 Units = [Angstroms / fs]
C  0.00422750 -0.00688980 0.00407851
C  -0.00267245 -0.01228999 -0.00215847
C  -0.00818357 0.00131910 0.00046652
C  -0.00364182 0.00258225 0.00262398
C  0.00057673 0.00709146 -0.00446688
C  0.00185829 -0.00249259 0.00001322
H  -0.00205139 0.01535229 -0.00458744
H  0.00821325 -0.00030215 -0.00890907
H  -0.00510156 -0.00983435 -0.00505938
H  -0.01805251 0.02343324 -0.00295659
H  0.02268504 -0.00182807 0.01244463
H  -0.00169675 0.01566953 -0.01091137
12
MD Step 13 Units = [Angstroms / fs]
C  0.00272306 -0.00605355 0.00417394
C  -0.00253100 -0.01227262 -0.00183128
C  -0.00813206 0.00124146 0.00070335
C  -0.00408018 0.00296231 0.00191639
C  0.00045221 0.00575959 -0.00405963
C  0.00240337 -0.00271628 -0.00055165
H  0.00383054 0.02072757 -0.00496138
H  0.00886136 0.00363909 -0.01087898
H  0.00202654 -0.00857086 -0.00652275
H  -0.01882741 0.01591041 0.00195512
H  0.02514888 0.00126479 0.01080074
H  -0.00120413 0.01427999 -0.00792030
12
MD Step 14 Units = [Angstroms / fs]
C  0.00119548 -0.00468651 0.00419576
C  -0.00214011 -0.01160942 -0.00149910
C  -0.00782606 0.00092650 0.00092055
C  -0.00426164 0.00332132 0.00116992
C  0.00030093 0.00377984 -0.00357405
C  0.00294597 -0.00263271 -0.00114348
H  0.00584800 0.01964921 -0.00505195
H  0.01033657 0.00513583 -0.01256313
H  0.00567407 -0.00676409 -0.00804353
H  -0.01897572 0.00672723 0.00707183
H  0.02350656 0.00846173 0.00906796
H  0.00084390 0.01191890 -0.00465406
12
MD Step 15 Units = [Angstroms / fs]
C  -0.00018099 -0.00283220 0.00415009
C  -0.00156960 -0.01032153 -0.00116891
C  -0.00719728 0.00039752 0.00110964
C  -0.00425475 0.00345481 0.00044027
C  0.00004315 0.00144699 -0.00302563
C  0.00344078 -0.00226476 -0.00173481
H  0.00341717 0.01177960 -0.00495378
H  0.01259658 0.00409785 -0.01393610
H  0.00489194 -0.00443335 -0.00957200
H  -0.01749239 -0.00166607 0.01189109
H  0.01924652 0.01729583 0.00721592
H  0.00377838 0.00873889 -0.00125562
12
MD Step 16 Units = [Angstroms / fs]
C  -0.00136821 -0.00074171 0.00404141
C  -0.00088281 -0.00853671 -0.00084338
C  -0.00629353 -0.00029805 0.00125612
C  -0.00413937 0.00318968 -0.00022296
C  -0.00042962 -0.00083086 -0.00241616
C  0.00386176 -0.00167249 -0.00229533
H  -0.00210884 -0.00049627 -0.00471993
H  0.01505697 0.00138100 -0.01502974
H  0.00037301 -0.00169515 -0.01096725
H  -0.01362831 -0.00708827 0.01599969
H  0.01456962 0.02409707 0.00500746
H  0.00661199 0.00496913 0.00208956
12
MD Step 17 Units = [Angstroms / fs]
C  -0.00245364 0.00117238 0.00386592
C  -0.00013133 -0.00645570 -0.00052507
C  -0.00524174 -0.00109458 0.00134482
C  -0.00398426 0.00243528 -0.00078630
C  -0.00115821 -0.00268599 -0.00174895
C  0.00418598 -0.00094765 -0.00279676
H  -0.00776480 -0.01263251 -0.00428189
H  0.01673585 -0.00153716 -0.01587721
H  -0.00605180 0.00124630 -0.01207293
H  -0.00715777 -0.00827840 0.01919296
H  0.01119028 0.02582529 0.00220062
H  0.00833903 0.00088778 0.00519662
12
MD Step 18 Units = [Angstroms / fs]
C  -0.00353211 0.00251731 0.00361379
C  0.00063149 -0.00428953 -0.00022036
C  -0.00420131 -0.00191741 0.00136459
C  -0.00381795 0.00123537 -0.00123872
C  -0.00206523 -0.00391084 -0.00104451
C  0.00437652 -0.00019919 -0.00321728
H  -0.01059818 -0.02016293 -0.00348085
H  0.01665798 -0.00321225 -0.01646043
H  -0.01206405 0.00414487 -0.01278065
H  0.00135104 -0.00556285 0.02153695
H  0.00961685 0.02146422 -0.00123589
H  0.00824660 -0.00321845 0.00792489
12
MD Step 19 Units = [Angstroms / fs]
C  -0.00459082 0.00309678 0.00327950
C  0.00133310 -0.00220088 0.00006025
C  -0.00332196 -0.00269189 0.00131100
C  -0.00361112 -0.00021908 -0.00158660
C  -0.00298275 -0.00447434 -0.00034173
C  0.00437071 0.00046527 -0.00354393
H  -0.00925671 -0.02087920 -0.00219915
H  0.01429662 -0.00284718 -0.01670459
H  -0.01545427 0.00676794 -0.01306229
H  0.01047231 -0.00103009 0.02328741
H  0.00928942 0.01209759 -0.00508119
H  0.00617765 -0.00709295 0.01020528
12
MD Step 20 Units = [Angstroms / fs]
C  -0.00550232 0.00294865 0.00286928
C  0.00187891 -0.00027865 0.00030557
C  -0.00269906 -0.00335124 0.00118696
C  -0.00329319 -0.00165821 -0.00183696
C  -0.00371589 -0.00447395 0.00031257
C  0.00408119 0.00095351 -0.00377195
H  -0.00426287 -0.01528303 -0.00045472
H  0.00978979 -0.00053330 -0.01652160
H  -0.01473223 0.00894566 -0.01296931
H  0.01830870 0.00230806 0.02466872
H  0.00910950 0.00015055 -0.00896703
H  0.00264466 -0.01052886 0.01203639
12
MD Step 21 Units = [Angstroms / fs]
C  -0.00609564 0.00227356 0.00240024
C  0.00216794 0.00145310 0.00050758
C  -0.00232545 -0.00384182 0.00100040
C  -0.00280019 -0.00285597 -0.00198285
C  -0.00409521 -0.00408710 0.00087467
C  0.00341551 0.00119563 -0.00390128
H  0.00270877 -0.00568342 0.00160764
H  0.00386311 0.00289907 -0.01586509
H  -0.00975223 0.01059397 -0.01259382
H  0.02323060 0.00203423 0.02568876
H  0.00787141 -0.01139125 -0.01250636
H  -0.00131233 -0.01336128 0.01344765
12
MD Step 22 Units = [Angstroms / fs]
C  -0.00622159 0.00135435 0.00189579
C  0.00211601 0.00300901 0.00066332
C  -0.00206687 -0.00412393 0.00075916
C  -0.00211947 -0.00371704 -0.00200443
C  -0.00400622 -0.00353458 0.00131166
C  0.00231082 0.00114716 -0.00393220
H  0.00958753 0.00481013 0.00377513
H  -0.00242401 0.00622554 -0.01476244
H  -0.00202627 0.01168560 -0.01199831
H  0.02449350 -0.00257831 0.02615525
H  0.00452683 -0.01957773 -0.01539353
H  -0.00451832 -0.01544499 0.01445122
12
MD Step 23 Units = [Angstroms / fs]
C  -0.00578187 0.00050275 0.00138132
C  0.00167599 0.00441303 0.00077432
C  -0.00169946 -0.00416917 0.00046640
C  -0.00130311 -0.00427735 -0.00188226
C  -0.00340870 -0.00302863 0.00160670
C  0.00076746 0.00079351 -0.00386299
H  0.01434333 0.01291131 0.00582354
H  -0.00798142 0.00820874 -0.01331204
H  0.00574341 0.01217975 -0.01116054
H  0.02237787 -0.01052206 0.02584358
H  -0.00154673 -0.02219248 -0.01748449
H  -0.00612890 -0.01664681 0.01501716
12
MD Step 24 Units = [Angstroms / fs]
C  -0.00474391 0.00000562 0.00087985
C  0.00085193 0.00567048 0.00084393
C  -0.00100750 -0.00396097 0.00012142
C  -0.00045467 -0.00465024 -0.00160966
C  -0.00235946 -0.00268909 0.00176155
C  -0.00113655 0.00015641 -0.00369086
H  0.01534053 0.01573240 0.00757309
H  -0.01198541 0.00797231 -0.01164781
H  0.01087893 0.01197949 -0.00999035
H  0.01794346 -0.01969257 0.02465367
H  -0.01015672 -0.01873723 -0.01883702
H  -0.00593218 -0.01686762 0.01508799
12
MD Step 25 Units = [Angstroms / fs]
C  -0.00317077 0.00003426 0.00040638
C  -0.00029289 0.00674485 0.00087332
C  0.00012083 -0.00350256 -0.00027469
C  0.00029329 -0.00497133 -0.00119833
C  -0.00103045 -0.00247117 0.00179068
C  -0.00325577 -0.00070216 -0.00341522
H  0.01190805 0.01178372 0.00895451
H  -0.01412957 0.00533781 -0.00987916
H  0.01191902 0.01097063 -0.00841157
H  0.01267867 -0.02758785 0.02267660
H  -0.01995858 -0.01118323 -0.01963984
H  -0.00437430 -0.01608010 0.01461773
12
MD Step 26 Units = [Angstroms / fs]
C  -0.00126163 0.00053631 -0.00003565
C  -0.00163776 0.00755005 0.00085795
C  0.00165921 -0.00282734 -0.00071388
C  0.00080622 -0.00535942 -0.00067770
C  0.00031173 -0.00219562 0.00170655
C  -0.00540374 -0.00168442 -0.00304074
H  0.00499984 0.00220684 0.01004366
H  -0.01472946 0.00099644 -0.00803178
H  0.00904393 0.00910700 -0.00643709
H  0.00816219 -0.03187355 0.02018086
H  -0.02863554 -0.00341787 -0.02002469
H  -0.00236338 -0.01435540 0.01360740
12
MD Step 27 Units = [Angstroms / fs]
C  0.00065412 0.00121779 -0.00044926
C  -0.00302162 0.00797169 0.00078745
C  0.00346853 -0.00200229 -0.00118014
C  0.00098513 -0.00588064 -0.00008835
C  0.00138412 -0.00169718 0.00150893
C  -0.00738414 -0.00267140 -0.00257846
H  -0.00279001 -0.00903433 0.01098642
H  -0.01456608 -0.00366780 -0.00603241
H  0.00373805 0.00646691 -0.00418592
H  0.00565887 -0.03095884 0.01752680
H  -0.03380501 0.00077601 -0.01992748
H  -0.00096818 -0.01186231 0.01211911
12
MD Step 28 Units = [Angstroms / fs]
C  0.00221413 0.00170000 -0.00083169
C  -0.00427368 0.00791640 0.00065058
C  0.00534275 -0.00112014 -0.00165164
C  0.00081372 -0.00650733 0.00053157
C  0.00198194 -0.00096501 0.00119049
C  -0.00902207 -0.00354426 -0.00204460
H  -0.00839706 -0.01703598 0.01184074
H  -0.01449360 -0.00712378 -0.00376330
H  -0.00183167 0.00325246 -0.00185128
H  0.00559866 -0.02464797 0.01500288
H  -0.03408520 -0.00034214 -0.01915468
H  -0.00108966 -0.00883788 0.01026468
12
MD Step 29 Units = [Angstroms / fs]
C  0.00315436 0.00174504 -0.00116867
C  -0.00524515 0.00736377 0.00044254
C  0.00705214 -0.00028301 -0.00210388
C  0.00039062 -0.00709545 0.00116210
C  0.00202724 -0.00015702 0.00075172
C  -0.01019443 -0.00420582 -0.00145778
H  -0.00987675 -0.01866304 0.01250334
H  -0.01503283 -0.00833364 -0.00115502
H  -0.00540926 -0.00025245 0.00035098
H  0.00718165 -0.01452971 0.01264206
H  -0.02953695 -0.00608033 -0.01756954
H  -0.00314956 -0.00553958 0.00817292
12
MD Step 30 Units = [Angstroms / fs]
C  0.00337050 0.00135379 -0.00144132
C  -0.00583026 0.00638929 0.00016944
C  0.00838919 0.00041725 -0.00251360
C  -0.00009328 -0.00742380 0.00180606
C  0.00156196 0.00048230 0.00021006
C  -0.01085441 -0.00459572 -0.00083587
H  -0.00708637 -0.01374500 0.01279741
H  -0.01618367 -0.00712445 0.00174883
H  -0.00523327 -0.00374828 0.00224161
H  0.00858949 -0.00354316 0.01017772
H  -0.02139868 -0.01416968 -0.01521330
H  -0.00687216 -0.00219799 0.00594805
12
MD Step 31 Units = [Angstroms / fs]
C  0.00289569 0.00070439 -0.00163658
C  -0.00597487 0.00514893 -0.00015247
C  0.00922606 0.00091620 -0.00286377
C  -0.00043848 -0.00729608 0.00247427
C  0.00071887 0.00070599 -0.00040029
C  -0.01103820 -0.00469405 -0.00019418
H  -0.00126751 -0.00437125 0.01260516
H  -0.01749824 -0.00415803 0.00479213
H  -0.00069147 -0.00699636 0.00373802
H  0.00791214 0.00530048 0.00723753
H  -0.01159294 -0.02175375 -0.01231441
H  -0.01128797 0.00100756 0.00364148
12
MD Step 32 Units = [Angstroms / fs]
C  0.00185682 0.00004729 -0.00175234
C  -0.00567729 0.00383990 -0.00050136
C  0.00956709 0.00118572 -0.00314730
C  -0.00052532 -0.00663731 0.00316329
C  -0.00030851 0.00031150 -0.00103315
C  -0.01084494 -0.00451322 0.00045352
H  0.00567369 0.00633641 0.01193608
H  -0.01829527 -0.00062815 0.00775676
H  0.00715299 -0.00986951 0.00488613
H  0.00414586 0.01019322 0.00362827
H  -0.00231510 -0.02603098 -0.00923841
H  -0.01504435 0.00394068 0.00125920
12
MD Step 33 Units = [Angstroms / fs]
C  0.00044704 -0.00036365 -0.00179804
C  -0.00498443 0.00265625 -0.00085502
C  0.00955101 0.00123049 -0.00336549
C  -0.00034630 -0.00551880 0.00384551
C  -0.00130569 -0.00082706 -0.00163803
C  -0.01039609 -0.00408346 0.00109177
H  0.01165695 0.01504133 0.01093433
H  -0.01789858 0.00213907 0.01042941
H  0.01568533 -0.01232692 0.00582241
H  -0.00245900 0.01097286 -0.00053001
H  0.00439398 -0.02478184 -0.00639932
H  -0.01692572 0.00648266 -0.00119701
12
MD Step 34 Units = [Angstroms / fs]
C  -0.00109782 -0.00031404 -0.00179298
C  -0.00398198 0.00174755 -0.00119527
C  0.00937602 0.00107546 -0.00352085
C  0.00001800 -0.00411830 0.00447522
C  -0.00210366 -0.00270817 -0.00217261
C  -0.00979505 -0.00344045 0.00170040
H  0.01477605 0.01873881 0.00985217
H  -0.01585744 0.00309774 0.01266058
H  0.02179531 -0.01432376 0.00667168
H  -0.01071080 0.00877143 -0.00487279
H  0.00732414 -0.01712767 -0.00410791
H  -0.01632026 0.00851985 -0.00368464
12
MD Step 35 Units = [Angstroms / fs]
C  -0.00254737 0.00030991 -0.00176043
C  -0.00277778 0.00118385 -0.00151028
C  0.00919048 0.00075509 -0.00361014
C  0.00044059 -0.00266351 0.00500069
C  -0.00265617 -0.00514040 -0.00261832
C  -0.00910588 -0.00262144 0.00225456
H  0.01381491 0.01556317 0.00896815
H  -0.01213172 0.00186311 0.01439866
H  0.02330722 -0.01574709 0.00745944
H  -0.01899214 0.00541908 -0.00894184
H  0.00688826 -0.00439047 -0.00238484
H  -0.01340915 0.00995598 -0.00610446
12
MD Step 36 Units = [Angstroms / fs]
C  -0.00375132 0.00143080 -0.00171453
C  -0.00148363 0.00093631 -0.00179387
C  0.00902753 0.00031168 -0.00362364
C  0.00078347 -0.00138704 0.00537470
C  -0.00305847 -0.00773597 -0.00298564
C  -0.00835466 -0.00167062 0.00272814
H  0.00896353 0.00596263 0.00841830
H  -0.00718327 -0.00106086 0.01568133
H  0.01981168 -0.01644424 0.00810835
H  -0.02568931 0.00292960 -0.01232027
H  0.00525176 0.00980602 -0.00090245
H  -0.00905358 0.01073587 -0.00831987
12
MD Step 37 Units = [Angstroms / fs]
C  -0.00468756 0.00273378 -0.00164604
C  -0.00020411 0.00088915 -0.00204139
C  0.00881178 -0.00020084 -0.00354956
C  0.00092926 -0.00048716 0.00556292
C  -0.00345397 -0.01002280 -0.00329716
C  -0.00754571 -0.00064875 0.00309865
H  0.00213527 -0.00668861 0.00802172
H  -0.00188426 -0.00439661 0.01657916
H  0.01255052 -0.01630374 0.00850154
H  -0.02955623 0.00301321 -0.01473665
H  0.00517180 0.02093662 0.00079937
H  -0.00449991 0.01086113 -0.01019493
12
MD Step 38 Units = [Angstroms / fs]
C  -0.00541875 0.00377089 -0.00152435
C  0.00096370 0.00088817 -0.00224481
C  0.00840507 -0.00071599 -0.00337928
C  0.00081621 -0.00007921 0.00555056
C  -0.00389655 -0.01161922 -0.00356105
C  -0.00668297 0.00036210 0.00335135
H  -0.00385168 -0.01733673 0.00731317
H  0.00277356 -0.00660868 0.01712374
H  0.00377583 -0.01531428 0.00855104
H  -0.03008915 0.00646976 -0.01613720
H  0.00831305 0.02573151 0.00297524
H  -0.00102016 0.01038911 -0.01163024
12
MD Step 39 Units = [Angstroms / fs]
C  -0.00598619 0.00418180 -0.00132058
C  0.00192667 0.00080419 -0.00239135
C  0.00765463 -0.00116053 -0.00311094
C  0.00046586 -0.00014558 0.00534353
C  -0.00429652 -0.01233865 -0.00376056
C  -0.00579017 0.00126434 0.00348100
H  -0.00684217 -0.02191543 0.00584068
H  0.00603558 -0.00657648 0.01727433
H  -0.00393757 -0.01357542 0.00823611
H  -0.02779006 0.01259545 -0.01668257
H  0.01451184 0.02339971 0.00552998
H  0.00045509 0.00941690 -0.01258289
12
MD Step 40 Units = [Angstroms / fs]
C  -0.00635055 0.00384752 -0.00103032
C  0.00259823 0.00057718 -0.00246680
C  0.00643781 -0.00146583 -0.00275094
C  -0.00002274 -0.00052796 0.00496034
C  -0.00447542 -0.01218016 -0.00386454
C  -0.00492429 0.00195913 0.00349076
H  -0.00629519 -0.01918269 0.00345696
H  0.00761427 -0.00403858 0.01694706
H  -0.00832389 -0.01126971 0.00760865
H  -0.02401119 0.01914083 -0.01662741
H  0.02227008 0.01535390 0.00813164
H  -0.00034618 0.00805582 -0.01306183
12
MD Step 41 Units = [Angstroms / fs]
C  -0.00642080 0.00288130 -0.00067630
C  0.00290923 0.00022409 -0.00246091
C  0.00471289 -0.00158198 -0.00231282
C  -0.00052160 -0.00099820 0.00441919
C  -0.00425345 -0.01127240 -0.00384319
C  -0.00417456 0.00236304 0.00338876
H  -0.00306382 -0.01056315 0.00036125
H  0.00770666 0.00037756 0.01607686
H  -0.00810864 -0.00860386 0.00676695
H  -0.02028892 0.02323358 -0.01614767
H  0.02960588 0.00428742 0.01039673
H  -0.00289231 0.00640659 -0.01309914
12
MD Step 42 Units = [Angstroms / fs]
C  -0.00611171 0.00153615 -0.00029717
C  0.00282071 -0.00018099 -0.00237102
C  0.00256908 -0.00149066 -0.00181314
C  -0.00093190 -0.00137201 0.00373205
C  -0.00350957 -0.00983280 -0.00367753
C  -0.00364003 0.00242274 0.00318392
H  0.00131452 0.00101283 -0.00303769
H  0.00685776 0.00543492 0.01466695
H  -0.00365579 -0.00573086 0.00579999
H  -0.01759254 0.02280175 -0.01526288
H  0.03461926 -0.00657353 0.01201349
H  -0.00601132 0.00454924 -0.01271313
12
MD Step 43 Units = [Angstroms / fs]
C  -0.00537421 0.00012579 0.00006359
C  0.00233202 -0.00053820 -0.00220259
C  0.00023636 -0.00121076 -0.00126615
C  -0.00121035 -0.00158123 0.00290949
C  -0.00220991 -0.00813967 -0.00336305
C  -0.00338967 0.00212577 0.00288352
H  0.00513636 0.01206439 -0.00626424
H  0.00576597 0.00968333 0.01280263
H  0.00289345 -0.00269995 0.00472965
H  -0.01602185 0.01746785 -0.01390438
H  0.03579476 -0.01399106 0.01280487
H  -0.00835680 0.00255331 -0.01189168
12
MD Step 44 Units = [Angstroms / fs]
C  -0.00419858 -0.00102908 0.00036531
C  0.00148276 -0.00075658 -0.00196692
C  -0.00198146 -0.00079225 -0.00068204
C  -0.00136092 -0.00166783 0.00196881
C  -0.00042239 -0.00647844 -0.00291071
C  -0.00342454 0.00150567 0.00249384
H  0.00680805 0.01914893 -0.00887729
H  0.00507808 0.01187071 0.01062801
H  0.00843832 0.00050711 0.00350347
H  -0.01500489 0.00847478 -0.01203234
H  0.03229436 -0.01541829 0.01276479
H  -0.00895406 0.00049714 -0.01061107
12
MD Step 45 Units = [Angstroms / fs]
C  -0.00261967 -0.00166953 0.00057882
C  0.00035143 -0.00078881 -0.00167678
C  -0.00382465 -0.00030180 -0.00007072
C  -0.00141682 -0.00173416 0.00093781
C  0.00167295 -0.00503870 -0.00234516
C  -0.00366373 0.00063938 0.00202317
H  0.00516466 0.01959548 -0.01058009
H  0.00518361 0.01133473 0.00829294
H  0.01037429 0.00386994 0.00205573
H  -0.01366675 -0.00193737 -0.00970205
H  0.02432490 -0.01013093 0.01205381
H  -0.00754258 -0.00152283 -0.00887596
12
MD Step 46 Units = [Angstroms / fs]
C  -0.00074626 -0.00170758 0.00069768
C  -0.00094757 -0.00065772 -0.00134128
C  -0.00516580 0.00018975 0.00055313
C  -0.00142737 -0.00189273 -0.00014638
C  0.00379122 -0.00381144 -0.00169733
C  -0.00395958 -0.00036494 0.00148470
H  0.00003025 0.01274018 -0.01135598
H  0.00604622 0.00828732 0.00588864
H  0.00769718 0.00725193 0.00038321
H  -0.01112599 -0.01119064 -0.00706453
H  0.01333092 -0.00021293 0.01091118
H  -0.00459420 -0.00339996 -0.00674996
12
MD Step 47 Units = [Angstroms / fs]
C  0.00120350 -0.00131972 0.00074319
C  -0.00227151 -0.00045805 -0.00096319
C  -0.00602066 0.00061289 0.00116865
C  -0.00144471 -0.00222557 -0.00124126
C  0.00559171 -0.00260052 -0.00099370
C  -0.00413087 -0.00138777 0.00089748
H  -0.00725369 0.00102106 -0.01151978
H  0.00717046 0.00381333 0.00340937
H  0.00115167 0.01041351 -0.00142899
H  -0.00670897 -0.01696270 -0.00432526
H  0.00163146 0.00990743 0.00951351
H  -0.00108423 -0.00503510 -0.00435897
12
MD Step 48 Units = [Angstroms / fs]
C  0.00292155 -0.00089561 0.00075059
C  -0.00346614 -0.00032332 -0.00054128
C  -0.00650499 0.00090187 0.00175143
C  -0.00150249 -0.00274127 -0.00230504
C  0.00676285 -0.00118412 -0.00025210
C  -0.00400081 -0.00231922 0.00028494
H  -0.01407602 -0.01062522 -0.01153916
H  0.00778880 -0.00053328 0.00077766
H  -0.00730486 0.01308238 -0.00323586
H  -0.00016639 -0.01785758 -0.00167672
H  -0.00846732 0.01570803 0.00790958
H  0.00184991 -0.00635298 -0.00186765
12
MD Step 49 Units = [Angstroms / fs]
C  0.00411073 -0.00081712 0.00074374
C  -0.00439076 -0.00037095 -0.00007702
C  -0.00678236 0.00099921 0.00227761
C  -0.00159089 -0.00333144 -0.00330360
C  0.00709849 0.00051338 0.00051219
C  -0.00343457 -0.00307421 -0.00032831
H  -0.01783011 -0.01740130 -0.01172018
H  0.00721329 -0.00338211 -0.00207436
H  -0.01518288 0.01502176 -0.00488111
H  0.00809730 -0.01410721 0.00077259
H  -0.01549287 0.01487615 0.00608883
H  0.00327860 -0.00731204 0.00056055
12
MD Step 50 Units = [Angstroms / fs]
C  0.00459383 -0.00125153 0.00072287
C  -0.00494345 -0.00065711 0.00041957
C  -0.00701861 0.00086275 0.00272760
C  -0.00164664 -0.00376443 -0.00421429
C  0.00652968 0.00238459 0.00127926
C  -0.00237347 -0.00359894 -0.00092005
H  -0.01723313 -0.01714659 -0.01206021
H  0.00515348 -0.00408038 -0.00512646
H  -0.02008131 0.01607537 -0.00624153
H  0.01693292 -0.00780189 0.00301896
H  -0.01906784 0.00788298 0.00408105
H  0.00282192 -0.00790710 0.00280643
12
MD Step 51 Units = [Angstroms / fs]
C  0.00434768 -0.00212345 0.00067321
C  -0.00507747 -0.00116352 0.00092916
C  -0.00733361 0.00047259 0.00308929
C  -0.00157684 -0.00375918 -0.00502266
C  0.00511924 0.00421467 0.00202381
C  -0.00085649 -0.00387053 -0.00147278
H  -0.01264018 -0.01070767 -0.01236105
H  0.00183260 -0.00284843 -0.00824924
H  -0.02034749 0.01618974 -0.00725887
H  0.02471048 -0.00209422 0.00509479
H  -0.01970536 -0.00291233 0.00198756
H  0.00085838 -0.00816475 0.00482137
12
MD Step 52 Units = [Angstroms / fs]
C  0.00347251 -0.00321495 0.00057916
C  -0.00480567 -0.00181312 0.00142736
C  -0.00774760 -0.00016309 0.00335930
C  -0.00131094 -0.00311464 -0.00571536
C  0.00304351 0.00576350 0.00271903
C  0.00098489 -0.00389231 -0.00197326
H  -0.00551818 -0.00076550 -0.01241218
H  -0.00210484 -0.00059001 -0.01124287
H  -0.01579288 0.01540305 -0.00794621
H  0.02991919 0.00034421 0.00696412
H  -0.01849920 -0.01435357 -0.00004537
H  -0.00154876 -0.00813088 0.00661754
12
MD Step 53 Units = [Angstroms / fs]
C  0.00215277 -0.00426339 0.00043204
C  -0.00419444 -0.00249917 0.00189045
C  -0.00815192 -0.00100295 0.00354063
C  -0.00084717 -0.00180323 -0.00627725
C  0.00057070 0.00680966 0.00334054
C  0.00296399 -0.00368735 -0.00240958
H  0.00216170 0.00933624 -0.01209356
H  -0.00579874 0.00145831 -0.01390158
H  -0.00808209 0.01378912 -0.00835181
H  0.03173944 -0.00149535 0.00848926
H  -0.01688622 -0.02318601 -0.00186706
H  -0.00306143 -0.00785411 0.00822262
12
MD Step 54 Units = [Angstroms / fs]
C  0.00062962 -0.00501324 0.00023237
C  -0.00334872 -0.00311760 0.00230010
C  -0.00834940 -0.00197079 0.00363717
C  -0.00026310 0.00002769 -0.00669443
C  -0.00197395 0.00718147 0.00386900
C  0.00489308 -0.00329166 -0.00276807
H  0.00830229 0.01624002 -0.01140294
H  -0.00841633 0.00211156 -0.01607206
H  -0.00022474 0.01139142 -0.00849419
H  0.03024175 -0.00684208 0.00949296
H  -0.01639051 -0.02660544 -0.00336235
H  -0.00263921 -0.00737296 0.00962989
12
MD Step 55 Units = [Angstroms / fs]
C  -0.00083394 -0.00525694 -0.00001031
C  -0.00238895 -0.00359991 0.00264571
C  -0.00816161 -0.00296304 0.00364977
C  0.00030698 0.00211682 -0.00695843
C  -0.00427274 0.00681466 0.00429188
C  0.00662770 -0.00274849 -0.00303290
H  0.01103817 0.01712300 -0.01044839
H  -0.00940320 0.00061953 -0.01768695
H  0.00480532 0.00821796 -0.00832627
H  0.02623028 -0.01376574 0.00984668
H  -0.01813771 -0.02307983 -0.00448790
H  0.00003533 -0.00671295 0.01077995
12
MD Step 56 Units = [Angstroms / fs]
C  -0.00201896 -0.00491034 -0.00028038
C  -0.00142430 -0.00394189 0.00292366
C  -0.00752878 -0.00386625 0.00357723
C  0.00070593 0.00415724 -0.00706789
C  -0.00610600 0.00583238 0.00460318
C  0.00808372 -0.00210472 -0.00318897
H  0.00937314 0.01067971 -0.00940228
H  -0.00869744 -0.00300408 -0.01875862
H  0.00541286 0.00431081 -0.00776817
H  0.02095950 -0.01989142 0.00952596
H  -0.02212265 -0.01337301 -0.00527729
H  0.00446941 -0.00589263 0.01158266
12
MD Step 57 Units = [Angstroms / fs]
C  -0.00283320 -0.00411031 -0.00056415
C  -0.00053344 -0.00421355 0.00313301
C  -0.00653441 -0.00457735 0.00342019
C  0.00078556 0.00585204 -0.00702845
C  -0.00741507 0.00457000 0.00479886
C  0.00922941 -0.00140988 -0.00322612
H  0.00396788 -0.00163753 -0.00839560
H  -0.00679877 -0.00786476 -0.01932825
H  0.00182016 -0.00018123 -0.00677510
H  0.01584647 -0.02297064 0.00862296
H  -0.02677426 -0.00083808 -0.00578056
H  0.00956945 -0.00493325 0.01195770
12
MD Step 58 Units = [Angstroms / fs]
C  -0.00333790 -0.00322768 -0.00085874
C  0.00023632 -0.00453458 0.00327010
C  -0.00536243 -0.00501870 0.00318402
C  0.00043985 0.00696754 -0.00685114
C  -0.00826848 0.00346370 0.00487099
C  0.01006491 -0.00071663 -0.00314238
H  -0.00275309 -0.01543875 -0.00740653
H  -0.00458668 -0.01245729 -0.01939732
H  -0.00435686 -0.00498786 -0.00538155
H  0.01212108 -0.02143281 0.00731611
H  -0.02957861 0.00995434 -0.00597679
H  0.01399389 -0.00386660 0.01186789
12
MD Step 59 Units = [Angstroms / fs]
C  -0.00366389 -0.00270395 -0.00117127
C  0.00085363 -0.00501870 0.00332627
C  -0.00423720 -0.00514578 0.00287936
C  -0.00035434 0.00739166 -0.00654769
C  -0.00874896 0.00285704 0.00480840
C  0.01059963 -0.00007976 -0.00294463
H  -0.00781380 -0.02537382 -0.00627391
H  -0.00293351 -0.01528073 -0.01889670
H  -0.01081915 -0.00975391 -0.00370247
H  0.01034861 -0.01500185 0.00578647
H  -0.02854246 0.01554735 -0.00576411
H  0.01653780 -0.00273749 0.01133136
12
MD Step 60 Units = [Angstroms / fs]
C  -0.00388749 -0.00281526 -0.00150699
C  0.00128730 -0.00571655 0.00329120
C  -0.00337462 -0.00494866 0.00252129
C  -0.00150303 0.00717402 -0.00612330
C  -0.00887066 0.00287947 0.00460463
C  0.01083375 0.00044760 -0.00264656
H  -0.00936467 -0.02798936 -0.00484954
H  -0.00233312 -0.01546597 -0.01772502
H  -0.01523018 -0.01409766 -0.00190486
H  0.01000624 -0.00509804 0.00410063
H  -0.02322984 0.01498501 -0.00504569
H  0.01649545 -0.00159924 0.01040953
12
MD Step 61 Units = [Angstroms / fs]
C  -0.00398643 -0.00356533 -0.00185960
C  0.00150355 -0.00658858 0.00315913
C  -0.00293828 -0.00444859 0.00212696
C  -0.00280436 0.00650306 -0.00557329
C  -0.00858565 0.00345659 0.00426494
C  0.01074804 0.00081974 -0.00226455
H  -0.00734926 -0.02300607 -0.00312617
H  -0.00275061 -0.01306907 -0.01582605
H  -0.01582432 -0.01767857 -0.00015984
H  0.00956154 0.00550269 0.00215117
H  -0.01468513 0.00954353 -0.00381449
H  0.01392615 -0.00050394 0.00917651
12
MD Step 62 Units = [Angstroms / fs]
C  -0.00388456 -0.00474361 -0.00221199
C  0.00147554 -0.00751515 0.00293343
C  -0.00299012 -0.00369209 0.00171132
C  -0.00401882 0.00561159 -0.00489080
C  -0.00783501 0.00438064 0.00380706
C  0.01030699 0.00100451 -0.00181353
H  -0.00300724 -0.01259216 -0.00123656
H  -0.00371009 -0.00896259 -0.01324727
H  -0.01205894 -0.02026042 0.00141990
H  0.00725704 0.01384275 -0.00025769
H  -0.00477186 0.00173117 -0.00217241
H  0.00968953 0.00050707 0.00768571
12
MD Step 63 Units = [Angstroms / fs]
C  -0.00350726 -0.00603227 -0.00254223
C  0.00119588 -0.00832944 0.00262715
C  -0.00345183 -0.00274647 0.00128274
C  -0.00495849 0.00467187 -0.00408088
C  -0.00658629 0.00537073 0.00325800
C  0.00947835 0.00098971 -0.00130517
H  0.00187487 -0.00008210 0.00061687
H  -0.00450257 -0.00449168 -0.01014902
H  -0.00508624 -0.02173061 0.00283147
H  0.00209307 0.01805028 -0.00323425
H  0.00439562 -0.00551909 -0.00030472
H  0.00515357 0.00140584 0.00595695
12
MD Step 64 Units = [Angstroms / fs]
C  -0.00280358 -0.00708272 -0.00282863
C  0.00068485 -0.00885869 0.00226006
C  -0.00411956 -0.00169812 0.00084285
C  -0.00553409 0.00374957 -0.00316864
C  -0.00484915 0.00612052 0.00264993
C  0.00826180 0.00078881 -0.00074945
H  0.00541605 0.01087414 0.00222504
H  -0.00441386 -0.00106040 -0.00676703
H  0.00247149 -0.02204739 0.00417327
H  -0.00572199 0.01786449 -0.00668991
H  0.01082814 -0.00938920 0.00156225
H  0.00166503 0.00217217 0.00399591
12
MD Step 65 Units = [Angstroms / fs]
C  -0.00174998 -0.00757397 -0.00305343
C  -0.00000628 -0.00896791 0.00185343
C  -0.00475003 -0.00064922 0.00039254
C  -0.00574715 0.00282259 -0.00219635
C  -0.00269392 0.00636507 0.00201458
C  0.00670959 0.00044326 -0.00015839
H  0.00592024 0.01689554 0.00342035
H  -0.00294459 0.00029074 -0.00334131
H  0.00764237 -0.02116642 0.00556017
H  -0.01498755 0.01436040 -0.01036421
H  0.01311037 -0.00784621 0.00322584
H  0.00005060 0.00278553 0.00183083
12
MD Step 66 Units = [Angstroms / fs]
C  -0.00037024 -0.00729794 -0.00320718
C  -0.00079528 -0.00860090 0.00142356
C  -0.00516764 0.00029420 -0.00006075
C  -0.00565775 0.00182361 -0.00121459
C  -0.00028880 0.00598035 0.00137592
C  0.00492629 0.00001814 0.00045119
H  0.00233547 0.01579021 0.00412955
H  -0.00001050 -0.00072893 -0.00003110
H  0.00848167 -0.01903786 0.00702584
H  -0.02400016 0.00937149 -0.01392450
H  0.01106044 -0.00064747 0.00459756
H  0.00038665 0.00322180 -0.00046220
12
MD Step 67 Units = [Angstroms / fs]
C  0.00121511 -0.00627616 -0.00329224
C  -0.00157338 -0.00780422 0.00097730
C  -0.00531877 0.00104103 -0.00050104
C  -0.00535150 0.00067726 -0.00027310
C  0.00207394 0.00506224 0.00074561
C  0.00305072 -0.00041011 0.00105747
H  -0.00500753 0.00791945 0.00441353
H  0.00394395 -0.00345694 0.00314414
H  0.00477735 -0.01567981 0.00849293
H  -0.03100599 0.00495972 -0.01706814
H  0.00619982 0.00990538 0.00575941
H  0.00207317 0.00345659 -0.00276152
12
MD Step 68 Units = [Angstroms / fs]
C  0.00275421 -0.00481275 -0.00332025
C  -0.00221825 -0.00671397 0.00051342
C  -0.00525628 0.00153126 -0.00090759
C  -0.00490698 -0.00066727 0.00058682
C  0.00402485 0.00388678 0.00012848
C  0.00123201 -0.00077071 0.00163601
H  -0.01394572 -0.00313128 0.00443036
H  0.00802910 -0.00646293 0.00628617
H  -0.00214758 -0.01124693 0.00981808
H  -0.03460365 0.00291366 -0.01960266
H  0.00128278 0.01961387 0.00689182
H  0.00409341 0.00347212 -0.00492435
12
MD Step 69 Units = [Angstroms / fs]
C  0.00392000 -0.00336225 -0.00330229
C  -0.00261752 -0.00550290 0.00003057
C  -0.00509308 0.00174273 -0.00126059
C  -0.00436173 -0.00219599 0.00133743
C  0.00524228 0.00274199 -0.00046432
C  -0.00039296 -0.00101347 0.00216320
H  -0.02120926 -0.01207457 0.00431362
H  0.01122250 -0.00814615 0.00951434
H  -0.01006987 -0.00604072 0.01085972
H  -0.03416253 0.00414211 -0.02148829
H  -0.00113110 0.02452947 0.00810261
H  0.00533902 0.00326342 -0.00681903
12
MD Step 70 Units = [Angstroms / fs]
C  0.00444851 -0.00227486 -0.00324135
C  -0.00269644 -0.00431499 -0.00046368
C  -0.00495859 0.00168797 -0.00154546
C  -0.00369190 -0.00379010 0.00196384
C  0.00556510 0.00177109 -0.00100876
C  -0.00172119 -0.00111535 0.00261925
H  -0.02413152 -0.01493777 0.00408264
H  0.01276737 -0.00743680 0.01284652
H  -0.01649903 -0.00047054 0.01152905
H  -0.03012969 0.00808963 -0.02280359
H  0.00007442 0.02290620 0.00932811
H  0.00494621 0.00284162 -0.00835311
12
MD Step 71 Units = [Angstroms / fs]
C  0.00424415 -0.00164514 -0.00313442
C  -0.00243843 -0.00322443 -0.00094990
C  -0.00495983 0.00140347 -0.00175543
C  -0.00283152 -0.00522614 0.00245577
C  0.00501785 0.00094619 -0.00147442
C  -0.00270527 -0.00107806 0.00298965
H  -0.02188060 -0.01087724 0.00367441
H  0.01243555 -0.00419525 0.01615258
H  -0.01925646 0.00501588 0.01181506
H  -0.02390911 0.01268982 -0.02361958
H  0.00440527 0.01551564 0.01038903
H  0.00260359 0.00223190 -0.00948700
12
MD Step 72 Units = [Angstroms / fs]
C  0.00338264 -0.00135242 -0.00297912
C  -0.00189098 -0.00223253 -0.00140125
C  -0.00513423 0.00093439 -0.00189169
C  -0.00173344 -0.00624840 0.00279840
C  0.00376963 0.00013616 -0.00183564
C  -0.00336789 -0.00092074 0.00326468
H  -0.01538855 -0.00170780 0.00303122
H  0.01055116 0.00083028 0.01920027
H  -0.01713312 0.01002560 0.01177901
H  -0.01720853 0.01524919 -0.02387327
H  0.01034960 0.00475778 0.01110808
H  -0.00126691 0.00146673 -0.01022518
12
MD Step 73 Units = [Angstroms / fs]
C  0.00205682 -0.00117639 -0.00277746
C  -0.00115638 -0.00129026 -0.00179106
C  -0.00540066 0.00032190 -0.00196020
C  -0.00042951 -0.00667858 0.00297286
C  0.00208118 -0.00082407 -0.00207851
C  -0.00379665 -0.00067245 0.00343743
H  -0.00660694 0.00947490 0.00215078
H  0.00783465 0.00632878 0.02174552
H  -0.01054844 0.01430492 0.01150781
H  -0.01126747 0.01381015 -0.02337307
H  0.01599974 -0.00629473 0.01139051
H  -0.00559704 0.00057977 -0.01058632
12
MD Step 74 Units = [Angstroms / fs]
C  0.00052622 -0.00087676 -0.00253627
C  -0.00037091 -0.00033012 -0.00209920
C  -0.00554903 -0.00039775 -0.00196567
C  0.00095703 -0.00648375 0.00296630
C  0.00025768 -0.00209240 -0.00220259
C  -0.00411371 -0.00036773 0.00350180
H  0.00210463 0.01925914 0.00108965
H  0.00516928 0.01083230 0.02361369
H  -0.00172019 0.01774331 0.01103756
H  -0.00650299 0.00800665 -0.02193659
H  0.01946604 -0.01451941 0.01125509
H  -0.00907039 -0.00039320 -0.01057143
12
MD Step 75 Units = [Angstroms / fs]
C  -0.00092296 -0.00023290 -0.00226632
C  0.00032408 0.00069957 -0.00231526
C  -0.00530882 -0.00118056 -0.00190755
C  0.00224800 -0.00577002 0.00278152
C  -0.00140574 -0.00377702 -0.00221922
C  -0.00443298 -0.00004566 0.00345257
H  0.00835716 0.02442467 -0.00005292
H  0.00333832 0.01312057 0.02474392
H  0.00614864 0.02026930 0.01030649
H  -0.00264906 -0.00100153 -0.01952987
H  0.01928062 -0.01736011 0.01082730
H  -0.01066216 -0.00140700 -0.01015502
12
MD Step 76 Units = [Angstroms / fs]
C  -0.00203488 0.00090685 -0.00198033
C  0.00081507 0.00180074 -0.00243796
C  -0.00447156 -0.00196103 -0.00178253
C  0.00326032 -0.00473487 0.00243975
C  -0.00269461 -0.00586016 -0.00214573
C  -0.00482734 0.00024883 0.00328774
H  0.01025030 0.02259435 -0.00116539
H  0.00275139 0.01260581 0.02518257
H  0.01036707 0.02174009 0.00919461
H  0.00091692 -0.01111211 -0.01631759
H  0.01497768 -0.01380396 0.01027702
H  -0.01003309 -0.00240236 -0.00930602
12
MD Step 77 Units = [Angstroms / fs]
C  -0.00267511 0.00253310 -0.00168882
C  0.00104378 0.00290264 -0.00247046
C  -0.00298201 -0.00265302 -0.00159140
C  0.00384237 -0.00361721 0.00197777
C  -0.00353588 -0.00811558 -0.00199510
C  -0.00531919 0.00046341 0.00301164
H  0.00729171 0.01340749 -0.00217482
H  0.00323455 0.00960249 0.02502047
H  0.00990162 0.02194985 0.00762209
H  0.00490173 -0.01989520 -0.01263345
H  0.00761241 -0.00539357 0.00968753
H  -0.00760781 -0.00331143 -0.00802057
12
MD Step 78 Units = [Angstroms / fs]
C  -0.00290908 0.00439154 -0.00139609
C  0.00101496 0.00386876 -0.00241369
C  -0.00094577 -0.00316641 -0.00134372
C  0.00389402 -0.00265081 0.00144153
C  -0.00399202 -0.01012044 -0.00176737
C  -0.00589028 0.00053974 0.00263656
H  0.00121121 -0.00043209 -0.00309200
H  0.00403390 0.00528539 0.02430066
H  0.00551557 0.02074104 0.00562094
H  0.00989018 -0.02515090 -0.00889726
H  -0.00044376 0.00391244 0.00894208
H  -0.00438048 -0.00407142 -0.00634340
12
MD Step 79 Units = [Angstroms / fs]
C  -0.00296652 0.00603492 -0.00110149
C  0.00077733 0.00454290 -0.00226275
C  0.00142050 -0.00342891 -0.00105752
C  0.00338394 -0.00200803 0.00087495
C  -0.00417224 -0.01141910 -0.00145432
C  -0.00649962 0.00042114 0.00218199
H  -0.00453274 -0.01379497 -0.00398877
H  0.00412419 0.00122894 0.02296474
H  -0.00081176 0.01810892 0.00333890
H  0.01610545 -0.02555268 -0.00547457
H  -0.00666409 0.00967333 0.00777679
H  -0.00158818 -0.00463810 -0.00436758
12
MD Step 80 Units = [Angstroms / fs]
C  -0.00307823 0.00703942 -0.00080651
C  0.00039003 0.00481546 -0.00201038
C  0.00384648 -0.00340372 -0.00075639
C  0.00237157 -0.00173818 0.00030498
C  -0.00413713 -0.01172900 -0.00105548
C  -0.00710163 0.00006759 0.00167168
H  -0.00673964 -0.02177497 -0.00490747
H  0.00268823 -0.00127291 0.02089298
H  -0.00659555 0.01423927 0.00099840
H  0.02310675 -0.02132489 -0.00249624
H  -0.00961917 0.00932261 0.00598588
H  -0.00035093 -0.00499124 -0.00221452
12
MD Step 81 Units = [Angstroms / fs]
C  -0.00333288 0.00720794 -0.00051955
C  -0.00010247 0.00467224 -0.00165516
C  0.00605551 -0.00309808 -0.00046580
C  0.00102018 -0.00174293 -0.00026762
C  -0.00387875 -0.01102882 -0.00058889
C  -0.00766200 -0.00052807 0.00112960
H  -0.00420602 -0.02215927 -0.00580305
H  -0.00052494 -0.00170800 0.01801114
H  -0.00945197 0.00948489 -0.00116045
H  0.02961785 -0.01445237 0.00024447
H  -0.00933915 0.00302996 0.00357675
H  -0.00132410 -0.00512963 -0.00000211
12
MD Step 82 Units = [Angstroms / fs]
C  -0.00367191 0.00660081 -0.00025329
C  -0.00067432 0.00420262 -0.00120791
C  0.00781402 -0.00256010 -0.00020840
C  -0.00042851 -0.00183507 -0.00085903
C  -0.00336460 -0.00951505 -0.00008818
C  -0.00816943 -0.00133135 0.00057606
H  0.00218853 -0.01577170 -0.00657504
H  -0.00514103 -0.00043536 0.01438036
H  -0.00771096 0.00428889 -0.00294675
H  0.03381722 -0.00788862 0.00316604
H  -0.00686816 -0.00701673 0.00076341
H  -0.00443197 -0.00505905 0.00218604
12
MD Step 83 Units = [Angstroms / fs]
C  -0.00396986 0.00544405 -0.00001929
C  -0.00130708 0.00357248 -0.00069221
C  0.00899265 -0.00186430 0.00000190
C  -0.00172320 -0.00185522 -0.00147772
C  -0.00258251 -0.00751863 0.00040664
C  -0.00863738 -0.00226873 0.00002609
H  0.01043830 -0.00531607 -0.00713384
H  -0.01034288 0.00155685 0.01021609
H  -0.00111306 -0.00094192 -0.00429054
H  0.03410948 -0.00407695 0.00658751
H  -0.00369316 -0.01770122 -0.00212727
H  -0.00881487 -0.00478117 0.00431218
12
MD Step 84 Units = [Angstroms / fs]
C  -0.00410113 0.00403836 0.00017564
C  -0.00197563 0.00298045 -0.00014018
C  0.00961542 -0.00109340 0.00016411
C  -0.00267639 -0.00175549 -0.00210614
C  -0.00155514 -0.00543392 0.00085697
C  -0.00909011 -0.00323964 -0.00050904
H  0.01824745 0.00575252 -0.00744335
H  -0.01514257 0.00302542 0.00584017
H  0.00871322 -0.00595876 -0.00528144
H  0.02986773 -0.00387959 0.01049613
H  -0.00138384 -0.02574837 -0.00474729
H  -0.01309780 -0.00429332 0.00636503
12
MD Step 85 Units = [Angstroms / fs]
C  -0.00396694 0.00270663 0.00033092
C  -0.00263818 0.00260984 0.00041446
C  0.00984608 -0.00032844 0.00028765
C  -0.00319995 -0.00159796 -0.00270268
C  -0.00033736 -0.00364608 0.00123136
C  -0.00953707 -0.00413299 -0.00101800
H  0.02344968 0.01385225 -0.00753690
H  -0.01865550 0.00286584 0.00159265
H  0.01859463 -0.01067721 -0.00612094
H  0.02164249 -0.00654350 0.01456468
H  -0.00131341 -0.02836416 -0.00681040
H  -0.01591249 -0.00360137 0.00832065
12
MD Step 86 Units = [Angstroms / fs]
C  -0.00351136 0.00174211 0.00045240
C  -0.00323170 0.00258167 0.00094424
C  0.00989373 0.00034904 0.00038307
C  -0.00330165 -0.00150092 -0.00321640
C  0.00097446 -0.00242994 0.00151197
C  -0.00995127 -0.00484422 -0.00148645
H  0.02435388 0.01586708 -0.00751503
H  -0.02035347 0.00050012 -0.00227257
H  0.02514082 -0.01503700 -0.00699582
H  0.01087677 -0.01032227 0.01832856
H  -0.00420622 -0.02415707 -0.00818684
H  -0.01641484 -0.00273576 0.01011366
12
MD Step 87 Units = [Angstroms / fs]
C  -0.00275607 0.00131190 0.00054960
C  -0.00367437 0.00291681 0.00143427
C  0.00989895 0.00085514 0.00045347
C  -0.00306386 -0.00158734 -0.00360160
C  0.00221352 -0.00184075 0.00169948
C  -0.01026519 -0.00529006 -0.00189715
H  0.02034237 0.01028043 -0.00750527
H  -0.02024887 -0.00380996 -0.00567268
H  0.02625915 -0.01885686 -0.00796880
H  -0.00052730 -0.01313058 0.02136210
H  -0.00952900 -0.01418762 -0.00897100
H  -0.01454424 -0.00175646 0.01164076
12
MD Step 88 Units = [Angstroms / fs]
C  -0.00184217 0.00133759 0.00062802
C  -0.00387971 0.00352470 0.00188293
C  0.00988058 0.00111529 0.00049307
C  -0.00261416 -0.00195318 -0.00382740
C  0.00313529 -0.00168907 0.00180845
C  -0.01038383 -0.00541955 -0.00223320
H  0.01252252 -0.00140381 -0.00756215
H  -0.01889795 -0.00890713 -0.00870568
H  0.02184099 -0.02183436 -0.00896688
H  -0.01061731 -0.01303791 0.02339418
H  -0.01528403 -0.00209045 -0.00942192
H  -0.01096514 -0.00074244 0.01279160
12
MD Step 89 Units = [Angstroms / fs]
C  -0.00101533 0.00148164 0.00068115
C  -0.00378350 0.00423395 0.00229430
C  0.00975582 0.00108560 0.00049179
C  -0.00208236 -0.00264089 -0.00388315
C  0.00348547 -0.00166973 0.00185208
C  -0.01020600 -0.00522003 -0.00248198
H  0.00361001 -0.01451219 -0.00756580
H  -0.01714667 -0.01310610 -0.01155362
H  0.01345929 -0.02366697 -0.00984756
H  -0.01784879 -0.00876065 0.02436914
H  -0.01881714 0.00757594 -0.00976917
H  -0.00679888 0.00022674 0.01348545
12
MD Step 90 Units = [Angstroms / fs]
C  -0.00051944 0.00133463 0.00069286
C  -0.00337263 0.00485616 0.00266691
C  0.00938917 0.00077015 0.00044075
C  -0.00154662 -0.00360348 -0.00377793
C  0.00311632 -0.00155819 0.00183019
C  -0.00964728 -0.00471658 -0.00263773
H  -0.00339105 -0.02348708 -0.00725416
H  -0.01572321 -0.01488156 -0.01433252
H  0.00364514 -0.02417445 -0.01047467
H  -0.02163926 -0.00027217 0.02443523
H  -0.01824132 0.01172333 -0.01005892
H  -0.00327119 0.00108696 0.01369499
12
MD Step 91 Units = [Angstroms / fs]
C  -0.00047713 0.00066667 0.00065115
C  -0.00269926 0.00524884 0.00298720
C  0.00863677 0.00022488 0.00033636
C  -0.00099845 -0.00467487 -0.00353072
C  0.00205547 -0.00130815 0.00173142
C  -0.00866308 -0.00396480 -0.00270140
H  -0.00672324 -0.02496799 -0.00639945
H  -0.01492375 -0.01349187 -0.01699811
H  -0.00479696 -0.02335955 -0.01076762
H  -0.02273267 0.01073885 0.02382087
H  -0.01328283 0.00988585 -0.01017882
H  -0.00134245 0.00179635 0.01344723
12
MD Step 92 Units = [Angstroms / fs]
C  -0.00085826 -0.00048176 0.00055929
C  -0.00187296 0.00534617 0.00323199
C  0.00738869 -0.00045374 0.00018255
C  -0.00036865 -0.00559375 -0.00315490
C  0.00048680 -0.00101505 0.00154368
C  -0.00726982 -0.00303881 -0.00267817
H  -0.00634145 -0.01895556 -0.00495442
H  -0.01455366 -0.00920696 -0.01936462
H  -0.00941941 -0.02140573 -0.01072261
H  -0.02286863 0.02117073 0.02264494
H  -0.00508907 0.00370252 -0.00998586
H  -0.00137672 0.00233083 0.01279929
12
MD Step 93 Units = [Angstroms / fs]
C  -0.00152872 -0.00188390 0.00043547
C  -0.00103688 0.00515457 0.00337635
C  0.00562336 -0.00115211 -0.00000925
C  0.00038968 -0.00610007 -0.00265087
C  -0.00131284 -0.00083744 0.00126190
C  -0.00555578 -0.00201830 -0.00257370
H  -0.00337170 -0.00785833 -0.00305665
H  -0.01407892 -0.00313170 -0.02119836
H  -0.00886841 -0.01860999 -0.01040611
H  -0.02374023 0.02778008 0.02083005
H  0.00442063 -0.00414742 -0.00940234
H  -0.00296466 0.00267266 0.01179759
12
MD Step 94 Units = [Angstroms / fs]
C  -0.00230859 -0.00324291 0.00030657
C  -0.00033843 0.00472879 0.00340130
C  0.00346339 -0.00176754 -0.00022375
C  0.00123251 -0.00604557 -0.00201480
C  -0.00303497 -0.00094445 0.00089075
C  -0.00367008 -0.00097803 -0.00239136
H  0.00056448 0.00487569 -0.00095562
H  -0.01284909 0.00317458 -0.02231524
H  -0.00361599 -0.01525235 -0.00991295
H  -0.02603344 0.02864020 0.01821507
H  0.01309069 -0.01070401 -0.00844690
H  -0.00504345 0.00280194 0.01044502
12
MD Step 95 Units = [Angstroms / fs]
C  -0.00300588 -0.00425944 0.00020279
C  0.00009774 0.00414169 0.00329817
C  0.00118330 -0.00222882 -0.00044801
C  0.00202869 -0.00543943 -0.00125356
C  -0.00439354 -0.00148149 0.00044439
C  -0.00178716 0.00001795 -0.00213270
H  0.00372888 0.01557000 0.00105284
H  -0.01030511 0.00812480 -0.02264121
H  0.00389661 -0.01147138 -0.00930042
H  -0.02926097 0.02376689 0.01474347
H  0.01893282 -0.01324091 -0.00722607
H  -0.00633357 0.00270062 0.00870420
12
MD Step 96 Units = [Angstroms / fs]
C  -0.00343863 -0.00467331 0.00015299
C  0.00019107 0.00345160 0.00306944
C  -0.00087419 -0.00249834 -0.00067557
C  0.00261618 -0.00441986 -0.00039203
C  -0.00518526 -0.00251518 -0.00005606
C  -0.00006171 0.00091706 -0.00180131
H  0.00450265 0.02083778 0.00268147
H  -0.00615864 0.01053729 -0.02222422
H  0.01022710 -0.00726830 -0.00854882
H  -0.03223605 0.01478499 0.01055776
H  0.02064857 -0.00998820 -0.00589439
H  -0.00589008 0.00236752 0.00654018
12
MD Step 97 Units = [Angstroms / fs]
C  -0.00347215 -0.00433469 0.00017736
C  -0.00008135 0.00267112 0.00272578
C  -0.00243758 -0.00255790 -0.00090479
C  0.00285580 -0.00319998 0.00052886
C  -0.00535194 -0.00394618 -0.00058843
C  0.00140288 0.00167522 -0.00140726
H  0.00180763 0.01847088 0.00373639
H  -0.00053768 0.01003858 -0.02119526
H  0.01258434 -0.00265500 -0.00759107
H  -0.03362185 0.00423874 0.00597600
H  0.01828851 -0.00119729 -0.00457573
H  -0.00347374 0.00183154 0.00397255
12
MD Step 98 Units = [Angstroms / fs]
C  -0.00307930 -0.00331715 0.00027729
C  -0.00068076 0.00175218 0.00228023
C  -0.00340460 -0.00239602 -0.00113337
C  0.00265824 -0.00202206 0.00145864
C  -0.00499878 -0.00545470 -0.00113623
C  0.00256141 0.00225167 -0.00096902
H  -0.00419664 0.00884824 0.00423332
H  0.00595276 0.00727732 -0.01968866
H  0.00999287 0.00220527 -0.00638388
H  -0.03228612 -0.00501045 0.00141283
H  0.01350417 0.01022271 -0.00328335
H  0.00040535 0.00115092 0.00110105
12
MD Step 99 Units = [Angstroms / fs]
C  -0.00238137 -0.00197837 0.00043109
C  -0.00151433 0.00060614 0.00174253
C  -0.00384809 -0.00200936 -0.00135428
C  0.00199359 -0.00111421 0.00234583
C  -0.00432207 -0.00658138 -0.00168862
C  0.00341521 0.00260489 -0.00051177
H  -0.01167774 -0.00427863 0.00444065
H  0.01233296 0.00372589 -0.01776514
H  0.00335089 0.00699188 -0.00495559
H  -0.02752655 -0.01034527 -0.00272350
H  0.00876933 0.01969577 -0.00192889
H  0.00470699 0.00039894 -0.00190723
12
MD Step 100 Units = [Angstroms / fs]
C  -0.00160099 -0.00083378 0.00060569
C  -0.00245342 -0.00084079 0.00111824
C  -0.00396200 -0.00141412 -0.00155526
C  0.00089914 -0.00062690 0.00314910
C  -0.00348761 -0.00693047 -0.00223241
C  0.00399413 0.00269518 -0.00006299
H  -0.01779262 -0.01525280 0.00473256
H  0.01752838 0.00104751 -0.01539771
H  -0.00521866 0.01132167 -0.00340558
H  -0.01928680 -0.01016624 -0.00616156
H  0.00597211 0.02337934 -0.00043647
H  0.00820152 -0.00035430 -0.00485720
