12
MD Step 0 Units = [Angstroms / fs]
C  0.00180894 0.00249903 0.00386208
C  0.00346894 0.00013396 -0.00588400
C  0.00078500 0.00079993 -0.00245108
C  0.00307506 -0.00534603 -0.00106708
C  0.00748506 -0.00119796 0.00012399
C  -0.00394900 0.00570307 -0.00662692
H  0.03431488 -0.00434594 0.00740914
H  -0.00095909 0.00817495 -0.00120499
H  0.00866300 0.00287287 0.00237486
H  -0.01191089 0.03173294 0.00394586
H  -0.01565189 0.01789206 -0.00710701
H  0.00837101 -0.01702686 -0.00409487
12
MD Step 1 Units = [Angstroms / fs]
C  0.00116962 0.00271866 0.00387041
C  0.00314189 0.00045444 -0.00569650
C  0.00081326 0.00138412 -0.00237925
C  0.00306704 -0.00517925 -0.00157028
C  0.00742076 -0.00198484 0.00033979
C  -0.00288771 0.00588450 -0.00661635
H  0.03462449 -0.00065734 0.00798881
H  0.00286636 0.00160596 -0.00262753
H  0.00803716 0.00219045 0.00303385
H  -0.01071399 0.02984358 0.00522082
H  -0.01603761 0.01735319 -0.00679397
H  0.00344461 -0.01920580 -0.00538978
12
MD Step 2 Units = [Angstroms / fs]
C  0.00059644 0.00300013 0.00385752
C  0.00279245 0.00078769 -0.00549464
C  0.00093600 0.00194634 -0.00231225
C  0.00310734 -0.00480644 -0.00207102
C  0.00717997 -0.00261167 0.00052707
C  -0.00174093 0.00598852 -0.00659065
H  0.03412611 0.00240619 0.00856347
H  0.00670535 -0.00498273 -0.00406581
H  0.00687387 0.00147461 0.00367190
H  -0.01002827 0.02614118 0.00658246
H  -0.01511091 0.01491969 -0.00632888
H  -0.00208996 -0.02106599 -0.00661203
12
MD Step 3 Units = [Angstroms / fs]
C  0.00010731 0.00334846 0.00382488
C  0.00244795 0.00109136 -0.00526716
C  0.00114244 0.00247185 -0.00224866
C  0.00318514 -0.00425021 -0.00256319
C  0.00677643 -0.00308902 0.00068551
C  -0.00056899 0.00601694 -0.00654219
H  0.03275904 0.00464880 0.00913044
H  0.01019870 -0.01098296 -0.00568614
H  0.00528646 0.00074187 0.00427878
H  -0.00972144 0.02092850 0.00798264
H  -0.01301634 0.01086063 -0.00571868
H  -0.00763986 -0.02261377 -0.00785601
12
MD Step 4 Units = [Angstroms / fs]
C  -0.00028469 0.00376346 0.00377394
C  0.00213244 0.00132956 -0.00500512
C  0.00141773 0.00294723 -0.00218702
C  0.00328765 -0.00354154 -0.00304070
C  0.00623109 -0.00343570 0.00081569
C  0.00056656 0.00597035 -0.00646340
H  0.03050825 0.00594444 0.00968905
H  0.01303465 -0.01586969 -0.00762594
H  0.00342310 0.00001039 0.00484409
H  -0.00963751 0.01458961 0.00937112
H  -0.00996713 0.00554711 -0.00497985
H  -0.01259880 -0.02384509 -0.00921755
12
MD Step 5 Units = [Angstroms / fs]
C  -0.00057180 0.00423828 0.00370616
C  0.00186353 0.00147772 -0.00470376
C  0.00174391 0.00336106 -0.00212596
C  0.00340129 -0.00271711 -0.00349783
C  0.00557024 -0.00367512 0.00091887
C  0.00161029 0.00584778 -0.00634835
H  0.02740902 0.00625658 0.01024005
H  0.01498645 -0.01926462 -0.00997027
H  0.00145413 -0.00070118 0.00535816
H  -0.00961214 0.00755598 0.01070010
H  -0.00621888 -0.00059327 -0.00413605
H  -0.01643399 -0.02474200 -0.01077534
12
MD Step 6 Units = [Angstroms / fs]
C  -0.00075174 0.00475837 0.00362299
C  0.00165098 0.00152482 -0.00436322
C  0.00210106 0.00370439 -0.00206435
C  0.00351239 -0.00181743 -0.00392953
C  0.00482401 -0.00383276 0.00099679
C  0.00251874 0.00564700 -0.00619383
H  0.02354770 0.00565187 0.01078465
H  0.01593030 -0.02096622 -0.01274192
H  -0.00044086 -0.00137480 0.00581280
H  -0.00948151 0.00028346 0.01192737
H  -0.00205094 -0.00710677 -0.00321614
H  -0.01875576 -0.02527546 -0.01257665
12
MD Step 7 Units = [Angstroms / fs]
C  -0.00082733 0.00530127 0.00352595
C  0.00149672 0.00147280 -0.00398824
C  0.00246848 0.00397100 -0.00200137
C  0.00360753 -0.00088553 -0.00433146
C  0.00402526 -0.00393497 0.00105150
C  0.00326362 0.00536534 -0.00599991
H  0.01905733 0.00430239 0.01132318
H  0.01584404 -0.02094664 -0.01590522
H  -0.00208627 -0.00199417 0.00620188
H  -0.00908717 -0.00676269 0.01301836
H  0.00224513 -0.01353087 -0.00225268
H  -0.01935506 -0.02541270 -0.01463111
12
MD Step 8 Units = [Angstroms / fs]
C  -0.00080567 0.00583764 0.00341672
C  0.00139615 0.00133434 -0.00358705
C  0.00282596 0.00415742 -0.00193650
C  0.00367379 0.00003418 -0.00470019
C  0.00320876 -0.00400827 0.00108535
C  0.00383218 0.00500076 -0.00576978
H  0.01410785 0.00247248 0.01185348
H  0.01479205 -0.01932529 -0.01937881
H  -0.00332354 -0.00254563 0.00652163
H  -0.00827942 -0.01312011 0.01394772
H  0.00637291 -0.01940432 -0.00128081
H  -0.01820656 -0.02512623 -0.01691249
12
MD Step 9 Units = [Angstroms / fs]
C  -0.00069689 0.00633363 0.00329726
C  0.00133989 0.00112970 -0.00317007
C  0.00315511 0.00426282 -0.00186960
C  0.00369917 0.00089748 -0.00503323
C  0.00241019 -0.00407891 0.00110081
C  0.00422545 0.00455282 -0.00550906
H  0.00889163 0.00048935 0.01236966
H  0.01290420 -0.01633220 -0.02305208
H  -0.00402429 -0.00301880 0.00677081
H  -0.00692184 -0.01834500 0.01470088
H  0.01003799 -0.02427655 -0.00033717
H  -0.01544529 -0.02440123 -0.01936639
12
MD Step 10 Units = [Angstroms / fs]
C  -0.00051279 0.00675419 0.00316988
C  0.00131555 0.00088385 -0.00274867
C  0.00344067 0.00428883 -0.00180083
C  0.00367314 0.00166262 -0.00532915
C  0.00166485 -0.00417188 0.00110048
C  0.00445529 0.00402344 -0.00522500
H  0.00360682 -0.00129851 0.01286147
H  0.01035511 -0.01227215 -0.02680045
H  -0.00410265 -0.00340706 0.00695045
H  -0.00489925 -0.02203679 0.01527533
H  0.01295866 -0.02772312 0.00054174
H  -0.01132984 -0.02324000 -0.02192039
12
MD Step 11 Units = [Angstroms / fs]
C  -0.00026560 0.00706683 0.00303720
C  0.00130918 0.00062413 -0.00233424
C  0.00367171 0.00423919 -0.00173059
C  0.00358769 0.00229385 -0.00558763
C  0.00100578 -0.00430902 0.00108686
C  0.00454140 0.00341734 -0.00492571
H  -0.00155904 -0.00256703 0.01331465
H  0.00734719 -0.00749548 -0.03049762
H  -0.00352587 -0.00370752 0.00706340
H  -0.00213055 -0.02387556 0.01568120
H  0.01488394 -0.02937306 0.00132208
H  -0.00620381 -0.02166333 -0.02449407
12
MD Step 12 Units = [Angstroms / fs]
C  0.00003304 0.00724494 0.00290211
C  0.00130633 0.00037863 -0.00193749
C  0.00384255 0.00411949 -0.00165942
C  0.00343872 0.00276578 -0.00580936
C  0.00046113 -0.00450587 0.00106211
C  0.00450872 0.00274231 -0.00461942
H  -0.00644228 -0.00305715 0.01371220
H  0.00409853 -0.00237703 -0.03402431
H  -0.00232142 -0.00392073 0.00711357
H  0.00141343 -0.02367123 0.01594009
H  0.01562076 -0.02895109 0.00197649
H  -0.00046296 -0.01970953 -0.02700702
12
MD Step 13 Units = [Angstroms / fs]
C  0.00037266 0.00727009 0.00276762
C  0.00129279 0.00017512 -0.00156804
C  0.00395321 0.00393686 -0.00158793
C  0.00322764 0.00306820 -0.00599578
C  0.00005103 -0.00476750 0.00102772
C  0.00438557 0.00200915 -0.00431407
H  -0.01091197 -0.00260261 0.01403632
H  0.00083414 0.00269893 -0.03727452
H  -0.00057865 -0.00404996 0.00710503
H  0.00568926 -0.02141670 0.01608113
H  0.01506873 -0.02633215 0.00248895
H  0.00546979 -0.01743242 -0.02938500
12
MD Step 14 Units = [Angstroms / fs]
C  0.00074411 0.00713307 0.00263669
C  0.00125521 0.00004016 -0.00123403
C  0.00400918 0.00369966 -0.00151661
C  0.00296288 0.00320978 -0.00614851
C  -0.00021560 -0.00508413 0.00098415
C  0.00420228 0.00123155 -0.00401690
H  -0.01487384 -0.00114181 0.01427057
H  -0.00222140 0.00735134 -0.04016035
H  0.00155650 -0.00410036 0.00704104
H  0.01056286 -0.01732868 0.01613362
H  0.01325508 -0.02159751 0.00285954
H  0.01116302 -0.01489865 -0.03156416
12
MD Step 15 Units = [Angstroms / fs]
C  0.00113945 0.00683375 0.00251213
C  0.00118172 -0.00000197 -0.00094178
C  0.00402053 0.00341724 -0.00144580
C  0.00266056 0.00321902 -0.00626863
C  -0.00034324 -0.00542822 0.00093058
C  0.00399006 0.00042570 -0.00373419
H  -0.01827030 0.00128518 0.01440179
H  -0.00485244 0.01121708 -0.04261648
H  0.00389430 -0.00407796 0.00692330
H  0.01580230 -0.01185588 0.01611755
H  0.01035738 -0.01507277 0.00310747
H  0.01619266 -0.01218467 -0.03349445
12
MD Step 16 Units = [Angstroms / fs]
C  0.00155162 0.00638012 0.00239642
C  0.00106283 0.00006929 -0.00069545
C  0.00400042 0.00309959 -0.00137556
C  0.00234377 0.00314105 -0.00635592
C  -0.00034974 -0.00575482 0.00086499
C  0.00377976 -0.00039025 -0.00347098
H  -0.02107757 0.00455028 0.01442156
H  -0.00686445 0.01397145 -0.04460446
H  0.00622054 -0.00398894 0.00675153
H  0.02108892 -0.00563837 0.01603451
H  0.00669983 -0.00732516 0.00327023
H  0.02015988 -0.00937302 -0.03514236
12
MD Step 17 Units = [Angstroms / fs]
C  0.00197406 0.00578681 0.00229168
C  0.00089269 0.00026855 -0.00049672
C  0.00396312 0.00275704 -0.00130571
C  0.00204013 0.00303038 -0.00640856
C  -0.00026362 -0.00600642 0.00078463
C  0.00360013 -0.00119699 -0.00323085
H  -0.02330143 0.00845663 0.01432698
H  -0.00810100 0.01535683 -0.04611609
H  0.00831974 -0.00383915 0.00652353
H  0.02605030 0.00058205 0.01586314
H  0.00271509 0.00089458 0.00339780
H  0.02271490 -0.00654748 -0.03649318
12
MD Step 18 Units = [Angstroms / fs]
C  0.00240036 0.00507369 0.00219954
C  0.00067067 0.00060177 -0.00034470
C  0.00392206 0.00239995 -0.00123583
C  0.00177805 0.00294105 -0.00642328
C  -0.00011873 -0.00612188 0.00068673
C  0.00347536 -0.00197511 -0.00301570
H  -0.02497261 0.01275918 0.01412104
H  -0.00846520 0.01521837 -0.04717438
H  0.00999867 -0.00363406 0.00623571
H  0.03030985 0.00608044 0.01556153
H  -0.00112384 0.00876052 0.00354277
H  0.02358905 -0.00378670 -0.03755230
12
MD Step 19 Units = [Angstroms / fs]
C  0.00282406 0.00426436 0.00212111
C  0.00040296 0.00106336 -0.00023615
C  0.00388804 0.00203839 -0.00116541
C  0.00158256 0.00291733 -0.00639609
C  0.00005191 -0.00604718 0.00056934
C  0.00342200 -0.00270620 -0.00282581
H  -0.02614227 0.01718419 0.01381241
H  -0.00794187 0.01354113 -0.04782986
H  0.01110642 -0.00337901 0.00588400
H  0.03354080 0.01026220 0.01507652
H  -0.00438289 0.01550240 0.00374950
H  0.02263417 -0.00115678 -0.03834425
12
MD Step 20 Units = [Angstroms / fs]
C  0.00323847 0.00338489 0.00205693
C  0.00010380 0.00163406 -0.00016622
C  0.00386796 0.00168181 -0.00109395
C  0.00147191 0.00298729 -0.00632334
C  0.00022149 -0.00574471 0.00043195
C  0.00344576 -0.00337398 -0.00266005
H  -0.02687776 0.02144691 0.01341505
H  -0.00661431 0.01047779 -0.04815072
H  0.01154823 -0.00307963 0.00546486
H  0.03550952 0.01273991 0.01435645
H  -0.00673350 0.02052045 0.00404582
H  0.01986279 0.00129616 -0.03890829
12
MD Step 21 Units = [Angstroms / fs]
C  0.00363669 0.00246262 0.00200690
C  -0.00020456 0.00228067 -0.00012968
C  0.00386421 0.00133881 -0.00102110
C  0.00145572 0.00316080 -0.00620260
C  0.00037231 -0.00519860 0.00027566
C  0.00353900 -0.00396511 -0.00251650
H  -0.02725820 0.02526796 0.01294735
H  -0.00466728 0.00635388 -0.04820724
H  0.01129194 -0.00274221 0.00497630
H  0.03609822 0.01335881 0.01336280
H  -0.00798877 0.02345321 0.00443962
H  0.01547783 0.00355093 -0.03928985
12
MD Step 22 Units = [Angstroms / fs]
C  0.00401156 0.00152484 0.00197027
C  -0.00049347 0.00295839 -0.00012233
C  0.00387462 0.00101698 -0.00094683
C  0.00153479 0.00343114 -0.00603324
C  0.00049617 -0.00441534 0.00010297
C  0.00368021 -0.00446952 -0.00239335
H  -0.02736933 0.02838918 0.01243096
H  -0.00237028 0.00164013 -0.04805389
H  0.01036721 -0.00237388 0.00441856
H  0.03530513 0.01217640 0.01207754
H  -0.00810538 0.02418909 0.00492053
H  0.00987731 0.00561152 -0.03952853
12
MD Step 23 Units = [Angstroms / fs]
C  0.00435566 0.00059750 0.00194570
C  -0.00073113 0.00361595 -0.00014216
C  0.00389292 0.00072275 -0.00087143
C  0.00170224 0.00377897 -0.00581659
C  0.00059273 -0.00342068 -0.00008269
C  0.00383628 -0.00488010 -0.00228989
H  -0.02729702 0.03058997 0.01188911
H  -0.00004078 -0.00310864 -0.04771473
H  0.00885920 -0.00198262 0.00379457
H  0.03322819 0.00941495 0.01050522
H  -0.00716020 0.02283360 0.00546490
H  0.00362303 0.00750108 -0.03964553
12
MD Step 24 Units = [Angstroms / fs]
C  0.00466123 -0.00029628 0.00193137
C  -0.00088703 0.00420250 -0.00018978
C  0.00390958 0.00046143 -0.00079559
C  0.00194520 0.00417679 -0.00555575
C  0.00066718 -0.00225452 -0.00027748
C  0.00396773 -0.00519197 -0.00220712
H  -0.02711889 0.03170380 0.01134446
H  0.00200515 -0.00733596 -0.04717770
H  0.00689839 -0.00157700 0.00311000
H  0.03004113 0.00540726 0.00867109
H  -0.00531596 0.01965438 0.00604167
H  -0.00262792 0.00925074 -0.03963479
12
MD Step 25 Units = [Angstroms / fs]
C  0.00491991 -0.00113759 0.00192522
C  -0.00093617 0.00467440 -0.00026805
C  0.00391281 0.00023715 -0.00072037
C  0.00224641 0.00459273 -0.00525526
C  0.00072801 -0.00096587 -0.00047756
C  0.00403577 -0.00540155 -0.00214795
H  -0.02689442 0.03163377 0.01081645
H  0.00350179 -0.01056636 -0.04639993
H  0.00464837 -0.00116580 0.00237296
H  0.02596989 0.00054985 0.00661719
H  -0.00278797 0.01502503 0.00661757
H  -0.00821610 0.01088648 -0.03946148
12
MD Step 26 Units = [Angstroms / fs]
C  0.00512249 -0.00191287 0.00192514
C  -0.00086232 0.00500035 -0.00038091
C  0.00388965 0.00005295 -0.00064709
C  0.00258563 0.00499329 -0.00492077
C  0.00078552 0.00039149 -0.00067937
C  0.00400950 -0.00550593 -0.00211656
H  -0.02665435 0.03036466 0.01031852
H  0.00426952 -0.01246683 -0.04532182
H  0.00229277 -0.00075758 0.00159357
H  0.02127387 -0.00473055 0.00439820
H  0.00018121 0.00937998 0.00716079
H  -0.01257382 0.01241880 -0.03906900
12
MD Step 27 Units = [Angstroms / fs]
C  0.00525867 -0.00261457 0.00192933
C  -0.00065947 0.00516368 -0.00053201
C  0.00382709 -0.00008917 -0.00057723
C  0.00294057 0.00534502 -0.00455875
C  0.00085098 0.00176198 -0.00087980
C  0.00387112 -0.00550277 -0.00211742
H  -0.02639186 0.02796824 0.00985564
H  0.00423025 -0.01287516 -0.04388443
H  0.00002191 -0.00036024 0.00078321
H  0.01623305 -0.00999787 0.00207775
H  0.00333784 0.00318430 0.00764313
H  -0.01529694 0.01383823 -0.03839215
12
MD Step 28 Units = [Angstroms / fs]
C  0.00531711 -0.00324100 0.00193645
C  -0.00033165 0.00516198 -0.00072357
C  0.00371319 -0.00018824 -0.00051232
C  0.00328757 0.00561550 -0.00417624
C  0.00093640 0.00309025 -0.00107617
C  0.00361818 -0.00539073 -0.00215412
H  -0.02605792 0.02459907 0.00942285
H  0.00340333 -0.01179553 -0.04204455
H  -0.00198073 0.00001941 -0.00004626
H  0.01113956 -0.01481921 -0.00027454
H  0.00642563 -0.00308421 0.00804124
H  -0.01617963 0.01511747 -0.03737194
12
MD Step 29 Units = [Angstroms / fs]
C  0.00528587 -0.00379535 0.00194572
C  0.00010844 0.00500485 -0.00095562
C  0.00353823 -0.00024420 -0.00045379
C  0.00360229 0.00577415 -0.00378066
C  0.00105440 0.00432252 -0.00126630
C  0.00326278 -0.00517028 -0.00222842
H  -0.02556350 0.02047935 0.00900530
H  0.00188816 -0.00937148 -0.03978423
H  -0.00355205 0.00037593 -0.00088338
H  0.00629036 -0.01877495 -0.00258601
H  0.00919062 -0.00894614 0.00833727
H  -0.01521191 0.01621814 -0.03596773
12
MD Step 30 Units = [Angstroms / fs]
C  0.00515341 -0.00428403 0.00195688
C  0.00064140 0.00471084 -0.00122582
C  0.00329575 -0.00025785 -0.00040285
C  0.00386062 0.00579328 -0.00337950
C  0.00121812 0.00540798 -0.00144844
C  0.00282871 -0.00484445 -0.00233982
H  -0.02478995 0.01587435 0.00858016
H  -0.00015844 -0.00584951 -0.03711425
H  -0.00456283 0.00070548 -0.00171796
H  0.00197747 -0.02147252 -0.00478454
H  0.01138611 -0.01393169 0.00851942
H  -0.01255031 0.01709902 -0.03416435
12
MD Step 31 Units = [Angstroms / fs]
C  0.00491002 -0.00471463 0.00196997
C  0.00124292 0.00430459 -0.00152955
C  0.00298361 -0.00023067 -0.00036038
C  0.00404017 0.00564993 -0.00297994
C  0.00144054 0.00630057 -0.00162133
C  0.00234762 -0.00441937 -0.00248546
H  -0.02360618 0.01106227 0.00812011
H  -0.00254375 -0.00154372 -0.03407316
H  -0.00493032 0.00100598 -0.00254183
H  -0.00152825 -0.02256898 -0.00680364
H  0.01278164 -0.01759892 0.00858263
H  -0.00847646 0.01772333 -0.03197397
12
MD Step 32 Units = [Angstroms / fs]
C  0.00454953 -0.00509387 0.00198501
C  0.00188550 0.00381444 -0.00186019
C  0.00260474 -0.00016468 -0.00032688
C  0.00412241 0.00532855 -0.00258829
C  0.00173331 0.00696173 -0.00178422
C  0.00185541 -0.00390434 -0.00266033
H  -0.02188967 0.00630428 0.00759768
H  -0.00505634 0.00319257 -0.03072387
H  -0.00462867 0.00127712 -0.00334941
H  -0.00400219 -0.02180566 -0.00858948
H  0.01317917 -0.01956475 0.00852906
H  -0.00335574 0.01806375 -0.02943447
12
MD Step 33 Units = [Angstroms / fs]
C  0.00407075 -0.00542614 0.00200172
C  0.00253974 0.00327076 -0.00220953
C  0.00216756 -0.00006233 -0.00030244
C  0.00409549 0.00482471 -0.00220927
C  0.00210463 0.00736433 -0.00193686
C  0.00138936 -0.00331152 -0.00285764
H  -0.01954673 0.00181990 0.00698957
H  -0.00747847 0.00798747 -0.02714939
H  -0.00369522 0.00152021 -0.00413787
H  -0.00529954 -0.01905372 -0.01010934
H  0.01243810 -0.01955114 0.00836829
H  0.00239667 0.01810504 -0.02660579
12
MD Step 34 Units = [Angstroms / fs]
C  0.00347856 -0.00571272 0.00201928
C  0.00317544 0.00270480 -0.00256805
C  0.00168592 0.00007370 -0.00028675
C  0.00395727 0.00414896 -0.00184534
C  0.00255660 0.00749730 -0.00207951
C  0.00098607 -0.00265534 -0.00306921
H  -0.01652778 -0.00222859 0.00628008
H  -0.00959503 0.01246542 -0.02344832
H  -0.00223077 0.00173793 -0.00490683
H  -0.00539183 -0.01436272 -0.01135949
H  0.01050710 -0.01744257 0.00811621
H  0.00834090 0.01784498 -0.02356585
12
MD Step 35 Units = [Angstroms / fs]
C  0.00278423 -0.00595172 0.00203614
C  0.00376263 0.00214765 -0.00292534
C  0.00117837 0.00024047 -0.00027927
C  0.00371764 0.00332976 -0.00149629
C  0.00308238 0.00737004 -0.00221265
C  0.00068015 -0.00195170 -0.00328583
H  -0.01283552 -0.00574211 0.00546299
H  -0.01120128 0.01626039 -0.01973001
H  -0.00039216 0.00193400 -0.00565771
H  -0.00439518 -0.00799716 -0.01236951
H  0.00745626 -0.01334160 0.00779236
H  0.01403064 0.01729422 -0.02040643
12
MD Step 36 Units = [Angstroms / fs]
C  0.00200511 -0.00613862 0.00205007
C  0.00427283 0.00162907 -0.00327053
C  0.00066675 0.00043473 -0.00027926
C  0.00339898 0.00241384 -0.00115944
C  0.00366428 0.00701478 -0.00233679
C  0.00050318 -0.00121719 -0.00349766
H  -0.00852538 -0.00868232 0.00454199
H  -0.01211183 0.01903148 -0.01610840
H  0.00162278 0.00211263 -0.00639251
H  -0.00257597 -0.00044183 -0.01319954
H  0.00349739 -0.00760111 0.00741557
H  0.01902864 0.01647554 -0.01722879
12
MD Step 37 Units = [Angstroms / fs]
C  0.00116375 -0.00626715 0.00205816
C  0.00468046 0.00117586 -0.00359294
C  0.00017439 0.00065275 -0.00028604
C  0.00303384 0.00146281 -0.00083047
C  0.00427376 0.00648501 -0.00245203
C  0.00048258 -0.00046831 -0.00369462
H  -0.00370003 -0.01106373 0.00352981
H  -0.01217254 0.02048461 -0.01269372
H  0.00359659 0.00227816 -0.00711266
H  -0.00032316 0.00763875 -0.01392897
H  -0.00102040 -0.00081039 0.00699883
H  0.02292443 0.01542258 -0.01413840
12
MD Step 38 Units = [Angstroms / fs]
C  0.00028662 -0.00633019 0.00205698
C  0.00496463 0.00080952 -0.00388299
C  -0.00027605 0.00089001 -0.00029910
C  0.00266004 0.00054596 -0.00050488
C  0.00487402 0.00584919 -0.00255784
C  0.00064001 0.00027911 -0.00386704
H  0.00150015 -0.01294289 0.00244656
H  -0.01127629 0.02040215 -0.00958139
H  0.00531672 0.00243450 -0.00781779
H  0.00191232 0.01548674 -0.01463868
H  -0.00564778 0.00627616 0.00654532
H  0.02535847 0.01417796 -0.01123761
12
MD Step 39 Units = [Angstroms / fs]
C  -0.00059730 -0.00632063 0.00204273
C  0.00511107 0.00054343 -0.00413331
C  -0.00066463 0.00114096 -0.00031821
C  0.00231433 -0.00026919 -0.00017947
C  0.00542506 0.00518055 -0.00265298
C  0.00098901 0.00101038 -0.00400641
H  0.00690832 -0.01440698 0.00131762
H  -0.00938154 0.01867880 -0.00683848
H  0.00659911 0.00258491 -0.00850503
H  0.00369621 0.02236460 -0.01539229
H  -0.00990073 0.01285686 0.00604736
H  0.02605509 0.01279021 -0.00861584
12
MD Step 40 Units = [Angstroms / fs]
C  -0.00145804 -0.00623200 0.00201140
C  0.00511399 0.00037989 -0.00433983
C  -0.00097582 0.00139883 -0.00034351
C  0.00202643 -0.00092603 0.00014661
C  0.00588965 0.00454583 -0.00273577
C  0.00153208 0.00171232 -0.00410637
H  0.01234299 -0.01556285 0.00017143
H  -0.00653013 0.01535729 -0.00449008
H  0.00730740 0.00273173 -0.00916879
H  0.00468398 0.02766400 -0.01622292
H  -0.01333728 0.01821448 0.00548903
H  0.02486286 0.01130947 -0.00633740
12
MD Step 41 Units = [Angstroms / fs]
C  -0.00226610 -0.00605900 0.00195894
C  0.00497731 0.00030813 -0.00450270
C  -0.00119961 0.00165563 -0.00037547
C  0.00181537 -0.00138518 0.00047152
C  0.00623856 0.00399622 -0.00280456
C  0.00225759 0.00237363 -0.00416377
H  0.01761951 -0.01652654 -0.00096270
H  -0.00285878 0.01065297 -0.00250943
H  0.00736494 0.00287637 -0.00980111
H  0.00466730 0.03098066 -0.01712928
H  -0.01562290 0.02182242 0.00485140
H  0.02179595 0.00978216 -0.00442877
12
MD Step 42 Units = [Angstroms / fs]
C  -0.00299387 -0.00579795 0.00188149
C  0.00471478 0.00030409 -0.00462646
C  -0.00133207 0.00190240 -0.00041485
C  0.00168858 -0.00162694 0.00079119
C  0.00645370 0.00356277 -0.00285810
C  0.00313766 0.00298504 -0.00417946
H  0.02256122 -0.01741319 -0.00205674
H  0.00140232 0.00495407 -0.00081669
H  0.00675904 0.00301934 -0.01039250
H  0.00358567 0.03214064 -0.01808082
H  -0.01656734 0.02339840 0.00411828
H  0.01706428 0.00824575 -0.00286883
12
MD Step 43 Units = [Angstroms / fs]
C  -0.00361696 -0.00544723 0.00177561
C  0.00434857 0.00033298 -0.00471922
C  -0.00137526 0.00212968 -0.00046255
C  0.00164336 -0.00165008 0.00110018
C  0.00652859 0.00325651 -0.00289593
C  0.00412798 0.00353941 -0.00415851
H  0.02701032 -0.01832644 -0.00308600
H  0.00594804 -0.00121142 0.00071060
H  0.00553816 0.00316038 -0.01093293
H  0.00150857 0.03118303 -0.01902823
H  -0.01612861 0.02290213 0.00328044
H  0.01107776 0.00672516 -0.00158635
12
MD Step 44 Units = [Angstroms / fs]
C  -0.00411545 -0.00500784 0.00163846
C  0.00390641 0.00035446 -0.00479100
C  -0.00133671 0.00232801 -0.00051950
C  0.00166955 -0.00146857 0.00139259
C  0.00646700 0.00307186 -0.00291840
C  0.00517086 0.00403147 -0.00410957
H  0.03083802 -0.01934727 -0.00403112
H  0.01043327 -0.00724164 0.00221573
H  0.00380385 0.00329860 -0.01141301
H  -0.00139823 0.02831625 -0.01991495
H  -0.01439188 0.02049326 0.00233735
H  0.00441340 0.00523241 -0.00046830
12
MD Step 45 Units = [Angstroms / fs]
C  -0.00447482 -0.00448402 0.00146812
C  0.00341792 0.00032937 -0.00485151
C  -0.00122860 0.00248865 -0.00058649
C  0.00175238 -0.00110754 0.00166287
C  0.00628066 0.00299154 -0.00292661
C  0.00620115 0.00445737 -0.00404329
H  0.03395337 -0.02052250 -0.00487971
H  0.01451757 -0.01254594 0.00383519
H  0.00169947 0.00343255 -0.01182493
H  -0.00490861 0.02386691 -0.02068664
H  -0.01153664 0.01647332 0.00129693
H  -0.00225532 0.00376999 0.00062135
12
MD Step 46 Units = [Angstroms / fs]
C  -0.00468665 -0.00388391 0.00126368
C  0.00291091 0.00022629 -0.00490814
C  -0.00106672 0.00260415 -0.00066411
C  0.00187479 -0.00059984 0.00190629
C  0.00598687 0.00299107 -0.00292220
C  0.00715421 0.00481405 -0.00397029
H  0.03630937 -0.02185434 -0.00562752
H  0.01790852 -0.01662791 0.00567320
H  -0.00060272 0.00356033 -0.01216324
H  -0.00876561 0.01823518 -0.02129749
H  -0.00780395 0.01123102 0.00017389
H  -0.00825352 0.00233697 0.00181615
12
MD Step 47 Units = [Angstroms / fs]
C  -0.00474871 -0.00322002 0.00102542
C  0.00240856 0.00002615 -0.00496465
C  -0.00086940 0.00266879 -0.00075261
C  0.00201897 0.00001655 0.00211917
C  0.00560672 0.00304216 -0.00290712
C  0.00797389 0.00509862 -0.00389916
H  0.03790474 -0.02329319 -0.00627874
H  0.02039375 -0.01914524 0.00778547
H  -0.00291487 0.00367962 -0.01242539
H  -0.01270160 0.01186249 -0.02171367
H  -0.00347080 0.00520109 -0.00101221
H  -0.01300049 0.00093536 0.00322271
12
MD Step 48 Units = [Angstroms / fs]
C  -0.00466451 -0.00250923 0.00075471
C  0.00192794 -0.00027588 -0.00502090
C  -0.00065629 0.00267890 -0.00085190
C  0.00216727 0.00070020 0.00229906
C  0.00516387 0.00311487 -0.00288344
C  0.00861848 0.00530810 -0.00383512
H  0.03878022 -0.02473639 -0.00684510
H  0.02185581 -0.01993557 0.01017533
H  -0.00504701 0.00378771 -0.01261186
H  -0.01645001 0.00521130 -0.02191500
H  0.00116676 -0.00116145 -0.00223875
H  -0.01608182 -0.00042557 0.00490382
12
MD Step 49 Units = [Angstroms / fs]
C  -0.00444230 -0.00177224 0.00045389
C  0.00147989 -0.00067128 -0.00507336
C  -0.00044709 0.00263298 -0.00096149
C  0.00230264 0.00140733 0.00244470
C  0.00468373 0.00317866 -0.00285322
C  0.00906359 0.00543940 -0.00377954
H  0.03900916 -0.02603514 -0.00734388
H  0.02227058 -0.01900960 0.01280044
H  -0.00682053 0.00388150 -0.01272605
H  -0.01975216 -0.00124714 -0.02189563
H  0.00580341 -0.00739541 -0.00348150
H  -0.01728384 -0.00172827 0.00687291
12
MD Step 50 Units = [Angstroms / fs]
C  -0.00409365 -0.00103227 0.00012599
C  0.00106979 -0.00114074 -0.00511618
C  -0.00026021 0.00253170 -0.00108060
C  0.00240908 0.00209284 0.00255610
C  0.00419288 0.00320300 -0.00281845
C  0.00930180 0.00548969 -0.00373039
H  0.03868370 -0.02701027 -0.00779493
H  0.02169409 -0.01652207 0.01558581
H  -0.00808156 0.00395758 -0.01277382
H  -0.02236262 -0.00704304 -0.02166444
H  0.01013083 -0.01304188 -0.00471586
H  -0.01659033 -0.00294883 0.00909876
12
MD Step 51 Units = [Angstroms / fs]
C  -0.00363187 -0.00031313 -0.00022563
C  0.00069873 -0.00165758 -0.00514228
C  -0.00011142 0.00237769 -0.00120819
C  0.00247214 0.00271185 0.00263451
C  0.00371839 0.00315804 -0.00278090
C  0.00934023 0.00545692 -0.00368312
H  0.03789924 -0.02747498 -0.00821730
H  0.02024432 -0.01273376 0.01843811
H  -0.00871428 0.00401226 -0.01276260
H  -0.02405704 -0.01172276 -0.02124496
H  0.01384493 -0.01765399 -0.00591824
H  -0.01415252 -0.00406061 0.01151671
12
MD Step 52 Units = [Angstroms / fs]
C  -0.00307058 0.00036284 -0.00059758
C  0.00036473 -0.00219082 -0.00514437
C  -0.00001243 0.00217542 -0.00134310
C  0.00247984 0.00322202 0.00268234
C  0.00328657 0.00301598 -0.00274211
C  0.00919704 0.00534029 -0.00363171
H  0.03674045 -0.02726094 -0.00862613
H  0.01808331 -0.00797502 0.02125822
H  -0.00865301 0.00404164 -0.01270025
H  -0.02464495 -0.01487401 -0.02067438
H  0.01665830 -0.02081472 -0.00706765
H  -0.01024717 -0.00503799 0.01404188
12
MD Step 53 Units = [Angstroms / fs]
C  -0.00242275 0.00097688 -0.00098672
C  0.00006367 -0.00270775 -0.00511564
C  0.00003016 0.00193088 -0.00148419
C  0.00242409 0.00358727 0.00270294
C  0.00292117 0.00275344 -0.00270323
C  0.00889797 0.00514072 -0.00356964
H  0.03527151 -0.02624234 -0.00903056
H  0.01540244 -0.00261647 0.02395064
H  -0.00789172 0.00404168 -0.01259361
H  -0.02398920 -0.01616551 -0.02000045
H  0.01832169 -0.02216800 -0.00814783
H  -0.00523528 -0.00585937 0.01658106
12
MD Step 54 Units = [Angstroms / fs]
C  -0.00170021 0.00151522 -0.00139028
C  -0.00020998 -0.00317574 -0.00505028
C  0.00001567 0.00165142 -0.00163048
C  0.00230245 0.00378250 0.00270014
C  0.00264069 0.00235525 -0.00266494
C  0.00847363 0.00486110 -0.00349054
H  0.03353185 -0.02435371 -0.00943277
H  0.01241174 0.00295232 0.02642995
H  -0.00648906 0.00400821 -0.01244713
H  -0.02203050 -0.01540024 -0.01927529
H  0.01865568 -0.02146529 -0.00914954
H  0.00047169 -0.00650904 0.01904179
12
MD Step 55 Units = [Angstroms / fs]
C  -0.00091360 0.00196995 -0.00180594
C  -0.00046277 -0.00356352 -0.00494373
C  -0.00005049 0.00134542 -0.00178127
C  0.00211991 0.00379878 0.00267743
C  0.00245520 0.00181909 -0.00262732
C  0.00795740 0.00450644 -0.00338870
H  0.03153718 -0.02159867 -0.00982836
H  0.00933199 0.00833831 0.02862509
H  -0.00456681 0.00393698 -0.01226156
H  -0.01881256 -0.01257357 -0.01854544
H  0.01758942 -0.01862318 -0.01007253
H  0.00643637 -0.00697815 0.02133865
12
MD Step 56 Units = [Angstroms / fs]
C  -0.00007277 0.00233901 -0.00223174
C  -0.00070172 -0.00384219 -0.00479303
C  -0.00015741 0.00102213 -0.00193626
C  0.00189008 0.00364744 0.00263704
C  0.00236337 0.00115994 -0.00258984
C  0.00738408 0.00408386 -0.00325930
H  0.02928405 -0.01804967 -0.01020759
H  0.00638766 0.01315834 0.03048262
H  -0.00230053 0.00382363 -0.01203336
H  -0.01449906 -0.00791861 -0.01783957
H  0.01519711 -0.01377833 -0.01092579
H  0.01221303 -0.00726504 0.02339745
12
MD Step 57 Units = [Angstroms / fs]
C  0.00081275 0.00262568 -0.00266605
C  -0.00093380 -0.00398644 -0.00459696
C  -0.00028992 0.00069128 -0.00209552
C  0.00163495 0.00336111 0.00257894
C  0.00235078 0.00041262 -0.00255164
C  0.00678874 0.00360244 -0.00309868
H  0.02675640 -0.01384030 -0.01055715
H  0.00379825 0.01705458 0.03196937
H  0.00009741 0.00366377 -0.01175478
H  -0.00937283 -0.00191593 -0.01715703
H  0.01171734 -0.00731796 -0.01172533
H  0.01736239 -0.00737509 0.02515832
12
MD Step 58 Units = [Angstroms / fs]
C  0.00173319 0.00283765 -0.00310739
C  -0.00116492 -0.00397601 -0.00435623
C  -0.00043043 0.00036283 -0.00225946
C  0.00138284 0.00299034 0.00250045
C  0.00239085 -0.00036967 -0.00251186
C  0.00620545 0.00307302 -0.00290453
H  0.02393210 -0.00915291 -0.01086202
H  0.00176557 0.01971540 0.03307456
H  0.00240054 0.00345304 -0.01141489
H  -0.00381057 0.00474979 -0.01646217
H  0.00754050 0.00013668 -0.01248891
H  0.02146832 -0.00732049 0.02657852
12
MD Step 59 Units = [Angstroms / fs]
C  0.00267810 0.00298596 -0.00355438
C  -0.00139855 -0.00379785 -0.00407358
C  -0.00056103 0.00004652 -0.00242864
C  0.00116453 0.00259562 0.00239647
C  0.00244877 -0.00112153 -0.00247019
C  0.00566552 0.00250779 -0.00267609
H  0.02078880 -0.00420398 -0.01110708
H  0.00045567 0.02090329 0.03381083
H  0.00439331 0.00318737 -0.01100130
H  0.00176530 0.01128665 -0.01568836
H  0.00315804 0.00780459 -0.01322921
H  0.02416104 -0.00711948 0.02763501
12
MD Step 60 Units = [Angstroms / fs]
C  0.00363600 0.00308386 -0.00400562
C  -0.00163390 -0.00344853 -0.00375367
C  -0.00066560 -0.00024846 -0.00260362
C  0.00100870 0.00223688 0.00226066
C  0.00248771 -0.00177530 -0.00242736
C  0.00519505 0.00191983 -0.00241435
H  0.01730846 0.00077124 -0.01127857
H  -0.00002417 0.02048803 0.03421271
H  0.00589446 0.00286330 -0.01050237
H  0.00694656 0.01692302 -0.01475184
H  -0.00091723 0.01486501 -0.01394777
H  0.02514920 -0.00679518 0.02832662
12
MD Step 61 Units = [Angstroms / fs]
C  0.00459421 0.00314571 -0.00445960
C  -0.00186398 -0.00293667 -0.00340267
C  -0.00073140 -0.00051387 -0.00278467
C  0.00093768 0.00196335 0.00208697
C  0.00247554 -0.00227206 -0.00238520
C  0.00481175 0.00132265 -0.00212211
H  0.01348094 0.00553406 -0.01136511
H  0.00035016 0.01847920 0.03433151
H  0.00677498 0.00247837 -0.00990936
H  0.01139448 0.02102870 -0.01357118
H  -0.00423683 0.02058966 -0.01463235
H  0.02425985 -0.00637361 0.02867479
12
MD Step 62 Units = [Angstroms / fs]
C  0.00553875 0.00318581 -0.00491467
C  -0.00207412 -0.00228452 -0.00302746
C  -0.00075018 -0.00074270 -0.00297167
C  0.00096476 0.00180689 0.00187110
C  0.00238992 -0.00257035 -0.00234645
C  0.00452165 0.00072960 -0.00180384
H  0.00930691 0.00985796 -0.01135850
H  0.00150066 0.01504775 0.03422588
H  0.00696866 0.00203161 -0.00921812
H  0.01487631 0.02319572 -0.01208550
H  -0.00648218 0.02444794 -0.01525884
H  0.02148036 -0.00588103 0.02872139
12
MD Step 63 Units = [Angstroms / fs]
C  0.00645432 0.00321722 -0.00536890
C  -0.00224172 -0.00152765 -0.00263467
C  -0.00071862 -0.00092933 -0.00316392
C  0.00109346 0.00177968 0.00161140
C  0.00222059 -0.00265044 -0.00231427
C  0.00431648 0.00015341 -0.00146522
H  0.00480055 0.01354471 -0.01125438
H  0.00324204 0.01052535 0.03394935
H  0.00647478 0.00152395 -0.00843023
H  0.01727709 0.02326361 -0.01026585
H  -0.00749415 0.02615861 -0.01579656
H  0.01699048 -0.00534086 0.02852288
12
MD Step 64 Units = [Angstroms / fs]
C  0.00732437 0.00325043 -0.00582009
C  -0.00233767 -0.00071231 -0.00222955
C  -0.00063813 -0.00106960 -0.00336007
C  0.00131838 0.00187613 0.00130906
C  0.00196877 -0.00251388 -0.00229160
C  0.00417299 -0.00039419 -0.00111239
H  -0.00000741 0.01644113 -0.01105272
H  0.00529734 0.00537363 0.03353785
H  0.00535405 0.00095852 -0.00755322
H  0.01859023 0.02129647 -0.00811793
H  -0.00726642 0.02568559 -0.01621473
H  0.01117015 -0.00477116 0.02814063
12
MD Step 65 Units = [Angstroms / fs]
C  0.00813119 0.00329207 -0.00626569
C  -0.00232973 0.00010961 -0.00181536
C  -0.00051430 -0.00116072 -0.00355818
C  0.00162700 0.00207696 0.00096775
C  0.00164479 -0.00217986 -0.00228076
C  0.00405520 -0.00090262 -0.00075103
H  -0.00506628 0.01845553 -0.01075806
H  0.00733504 0.00012486 0.03300150
H  0.00371962 0.00034083 -0.00660021
H  0.01889571 0.01753212 -0.00567790
H  -0.00591492 0.02319489 -0.01648794
H  0.00457097 -0.00418345 0.02762941
12
MD Step 66 Units = [Angstroms / fs]
C  0.00885612 0.00334378 -0.00670280
C  -0.00218707 0.00088690 -0.00139317
C  -0.00035599 -0.00120111 -0.00375577
C  0.00200164 0.00235382 0.00059294
C  0.00126514 -0.00168018 -0.00228312
C  0.00391967 -0.00136251 -0.00038554
H  -0.01030167 0.01957161 -0.01037969
H  0.00902051 -0.00469390 0.03232368
H  0.00172542 -0.00032116 -0.00558900
H  0.01833522 0.01232525 -0.00300459
H  -0.00363911 0.01899618 -0.01659956
H  -0.00215027 -0.00358357 0.02702729
12
MD Step 67 Units = [Angstroms / fs]
C  0.00947979 0.00340149 -0.00712822
C  -0.00188495 0.00157510 -0.00096245
C  -0.00017434 -0.00119029 -0.00394995
C  0.00242125 0.00267324 0.00019135
C  0.00084983 -0.00105453 -0.00229902
C  0.00372280 -0.00176555 -0.00001861
H  -0.01561220 0.01985659 -0.00993145
H  0.01006843 -0.00863411 0.03146799
H  -0.00044694 -0.00101722 -0.00454080
H  0.01709059 0.00609896 -0.00017140
H  -0.00068723 0.01348840 -0.01654311
H  -0.00832399 -0.00297428 0.02635018
12
MD Step 68 Units = [Angstroms / fs]
C  0.00998262 0.00345554 -0.00753853
C  -0.00140847 0.00214094 -0.00052190
C  0.00001830 -0.00112870 -0.00413762
C  0.00286264 0.00299944 -0.00022971
C  0.00042060 -0.00034695 -0.00232783
C  0.00342835 -0.00210439 0.00034868
H  -0.02086779 0.01945966 -0.00943122
H  0.01028271 -0.01137863 0.03039028
H  -0.00260157 -0.00173507 -0.00347869
H  0.01536825 -0.00068934 0.00274055
H  0.00266897 0.00711908 -0.01632239
H  -0.01336333 -0.00235857 0.02559291
12
MD Step 69 Units = [Angstroms / fs]
C  0.01034553 0.00349174 -0.00793029
C  -0.00075441 0.00256428 -0.00007051
C  0.00020944 -0.00101765 -0.00431560
C  0.00330142 0.00329603 -0.00066260
C  -0.00000013 0.00039659 -0.00236803
C  0.00301322 -0.00237263 0.00071637
H  -0.02591125 0.01859828 -0.00889998
H  0.00957557 -0.01276515 0.02905154
H  -0.00454181 -0.00246081 -0.00242609
H  0.01338946 -0.00756900 0.00564748
H  0.00614944 0.00035891 -0.01595102
H  -0.01683844 -0.00174237 0.02473570
12
MD Step 70 Units = [Angstroms / fs]
C  0.01055097 0.00349353 -0.00830016
C  0.00006855 0.00283780 0.00039174
C  0.00038755 -0.00085922 -0.00448087
C  0.00371261 0.00352720 -0.00109970
C  -0.00038976 0.00112961 -0.00241731
C  0.00247013 -0.00256500 0.00108488
H  -0.03056447 0.01753219 -0.00836055
H  0.00796584 -0.01278137 0.02742797
H  -0.00608400 -0.00317945 -0.00140507
H  0.01138422 -0.01406894 0.00846680
H  0.00947391 -0.00631235 -0.01545190
H  -0.01851466 -0.00113561 0.02375343
12
MD Step 71 Units = [Angstroms / fs]
C  0.01058431 0.00344474 -0.00864514
C  0.00104106 0.00296519 0.00086349
C  0.00054316 -0.00065637 -0.00463073
C  0.00407128 0.00365858 -0.00153363
C  -0.00072590 0.00180610 -0.00247267
C  0.00180730 -0.00267767 0.00145433
H  -0.03463986 0.01652874 -0.00783606
H  0.00556235 -0.01154120 0.02551628
H  -0.00707139 -0.00387544 -0.00043472
H  0.00958595 -0.01972883 0.01112071
H  0.01236684 -0.01241485 -0.01485676
H  -0.01835316 -0.00055171 0.02262435
12
MD Step 72 Units = [Angstroms / fs]
C  0.01043536 0.00333254 -0.00896272
C  0.00213499 0.00295860 0.00134191
C  0.00066996 -0.00041288 -0.00476298
C  0.00435339 0.00365872 -0.00195761
C  -0.00098679 0.00238170 -0.00253051
C  0.00104589 -0.00270861 0.00182412
H  -0.03795611 0.01582597 -0.00734832
H  0.00254057 -0.00925308 0.02333485
H  -0.00738798 -0.00453327 0.00047027
H  0.00822347 -0.02411518 0.01354043
H  0.01456358 -0.01747968 -0.01420532
H  -0.01648408 -0.00000585 0.02133619
12
MD Step 73 Units = [Angstroms / fs]
C  0.01009998 0.00314981 -0.00925101
C  0.00331545 0.00283633 0.00182287
C  0.00076581 -0.00013340 -0.00487606
C  0.00453709 0.00350127 -0.00236585
C  -0.00115226 0.00281563 -0.00258680
C  0.00021639 -0.00265785 0.00219266
H  -0.04035582 0.01560106 -0.00691633
H  -0.00088064 -0.00618948 0.02092174
H  -0.00697127 -0.00513798 0.00130084
H  0.00750699 -0.02684807 0.01567165
H  0.01582175 -0.02106900 -0.01354363
H  -0.01316660 0.00048707 0.01988917
12
MD Step 74 Units = [Angstroms / fs]
C  0.00958121 0.00289660 -0.00950876
C  0.00454275 0.00262095 0.00230114
C  0.00083347 0.00017655 -0.00496909
C  0.00460463 0.00316833 -0.00275413
C  -0.00120529 0.00307364 -0.00263735
C  -0.00064496 -0.00252760 0.00255740
H  -0.04172181 0.01594997 -0.00655513
H  -0.00445845 -0.00266199 0.01833143
H  -0.00582218 -0.00567542 0.00205414
H  0.00760580 -0.02764125 0.01748098
H  0.01594101 -0.02281070 -0.01292054
H  -0.00874822 0.00091418 0.01829637
12
MD Step 75 Units = [Angstroms / fs]
C  0.00888996 0.00258028 -0.00973532
C  0.00577411 0.00233790 0.00277060
C  0.00088102 0.00051063 -0.00504190
C  0.00454488 0.00265459 -0.00312033
C  -0.00113441 0.00313240 -0.00267830
C  -0.00149911 -0.00232210 0.00291486
H  -0.04198903 0.01688079 -0.00627503
H  -0.00794101 0.00099710 0.01563114
H  -0.00400991 -0.00613234 0.00273346
H  0.00861790 -0.02635339 0.01896187
H  0.01479194 -0.02244932 -0.01238153
H  -0.00363065 0.00126584 0.01658260
12
MD Step 76 Units = [Angstroms / fs]
C  0.00804495 0.00221469 -0.00993054
C  0.00696540 0.00201451 0.00322444
C  0.00092152 0.00086171 -0.00509491
C  0.00435603 0.00197158 -0.00346472
C  -0.00093659 0.00298457 -0.00270680
C  -0.00230644 -0.00204732 0.00326084
H  -0.04115059 0.01831960 -0.00608140
H  -0.01107909 0.00444880 0.01289709
H  -0.00166959 -0.00649618 0.00334725
H  0.01053641 -0.02303981 0.02013755
H  0.01235073 -0.01990740 -0.01195984
H  0.00175573 0.00153624 0.01478251
12
MD Step 77 Units = [Angstroms / fs]
C  0.00707191 0.00181850 -0.01009460
C  0.00807285 0.00167901 0.00365536
C  0.00097211 0.00122193 -0.00512897
C  0.00404781 0.00115033 -0.00378979
C  -0.00061986 0.00264334 -0.00272183
C  -0.00302826 -0.00171047 0.00359053
H  -0.03925750 0.02012492 -0.00597482
H  -0.01363675 0.00736046 0.01021046
H  0.00100848 -0.00675469 0.00390738
H  0.01322294 -0.01798683 0.02105783
H  0.00873078 -0.01534152 -0.01166614
H  0.00697098 0.00172360 0.01293845
12
MD Step 78 Units = [Angstroms / fs]
C  0.00600235 0.00141342 -0.01022785
C  0.00905511 0.00135931 0.00405587
C  0.00105234 0.00158269 -0.00514510
C  0.00364195 0.00024089 -0.00409943
C  -0.00020477 0.00214458 -0.00272483
C  -0.00362816 -0.00131956 0.00389868
H  -0.03641352 0.02210639 -0.00595149
H  -0.01540340 0.00942165 0.00765246
H  0.00379785 -0.00689564 0.00442676
H  0.01640127 -0.01170769 0.02178824
H  0.00419757 -0.00916912 -0.01147987
H  0.01158199 0.00183011 0.01109815
12
MD Step 79 Units = [Angstroms / fs]
C  0.00487183 0.00102230 -0.01033062
C  0.00987545 0.00108128 0.00441869
C  0.00118210 0.00193471 -0.00514427
C  0.00317021 -0.00069247 -0.00439760
C  0.00027659 0.00154446 -0.00271992
C  -0.00407335 -0.00088291 0.00417988
H  -0.03276684 0.02404392 -0.00600395
H  -0.01620896 0.01036607 0.00529802
H  0.00646058 -0.00690677 0.00491688
H  0.01968206 -0.00488736 0.02239313
H  -0.00084612 -0.00204307 -0.01134653
H  0.01518118 0.00186160 0.00931176
12
MD Step 80 Units = [Angstroms / fs]
C  0.00371822 0.00066764 -0.01040314
C  0.01050429 0.00086627 0.00473739
C  0.00137929 0.00226811 -0.00512711
C  0.00266998 -0.00157982 -0.00468688
C  0.00078432 0.00091211 -0.00271338
C  -0.00433655 -0.00040886 0.00442883
H  -0.02850003 0.02570518 -0.00612167
H  -0.01594219 0.01000071 0.00320776
H  0.00877391 -0.00677617 0.00538580
H  0.02261874 0.00171862 0.02291797
H  -0.00590979 0.00523419 -0.01118391
H  0.01741148 0.00182725 0.00762818
12
MD Step 81 Units = [Angstroms / fs]
C  0.00257989 0.00037034 -0.01044547
C  0.01092163 0.00072823 0.00500707
C  0.00165782 0.00257255 -0.00509381
C  0.00217831 -0.00235590 -0.00496751
C  0.00127661 0.00031869 -0.00271239
C  -0.00439856 0.00009435 0.00464077
H  -0.02381922 0.02686079 -0.00629190
H  -0.01457038 0.00824029 0.00141925
H  0.01055433 -0.00649317 0.00583677
H  0.02478180 0.00740529 0.02337738
H  -0.01049030 0.01184010 -0.01089706
H  0.01799986 0.00173909 0.00609016
12
MD Step 82 Units = [Angstroms / fs]
C  0.00149398 0.00014879 -0.01045741
C  0.01111896 0.00067077 0.00522511
C  0.00202601 0.00283753 -0.00504409
C  0.00172631 -0.00296916 -0.00523718
C  0.00171601 -0.00017411 -0.00272348
C  -0.00425134 0.00061866 0.00481205
H  -0.01894266 0.02729793 -0.00650042
H  -0.01215559 0.00514027 -0.00006099
H  0.01167540 -0.00604948 0.00626802
H  0.02582908 0.01162430 0.02375337
H  -0.01415126 0.01706731 -0.01039766
H  0.01679787 0.00161135 0.00472857
12
MD Step 83 Units = [Angstroms / fs]
C  0.00049471 0.00001805 -0.01043858
C  0.01110022 0.00068523 0.00539154
C  0.00248576 0.00305284 -0.00497718
C  0.00133546 -0.00338721 -0.00549171
C  0.00207440 -0.00052244 -0.00275120
C  -0.00390113 0.00115599 0.00494056
H  -0.01408820 0.02683326 -0.00673251
H  -0.00886128 0.00091768 -0.00126158
H  0.01207730 -0.00544048 0.00667327
H  0.02555218 0.01404641 0.02400325
H  -0.01658337 0.02042429 -0.00962123
H  0.01382228 0.00145980 0.00355678
12
MD Step 84 Units = [Angstroms / fs]
C  -0.00038816 -0.00001087 -0.01038844
C  0.01088111 0.00075061 0.00550902
C  0.00303231 0.00320908 -0.00489202
C  0.00101649 -0.00359798 -0.00572604
C  0.00233526 -0.00070389 -0.00279733
C  -0.00337063 0.00169812 0.00502617
H  -0.00945911 0.02532635 -0.00697413
H  -0.00494324 -0.00405236 -0.00224411
H  0.01176802 -0.00466626 0.00704310
H  0.02389018 0.01457215 0.02407303
H  -0.01763144 0.02167746 -0.00853687
H  0.00928392 0.00130096 0.00256661
12
MD Step 85 Units = [Angstroms / fs]
C  -0.00113099 0.00006822 -0.01030625
C  0.01048688 0.00083612 0.00558217
C  0.00365469 0.00329828 -0.00478740
C  0.00077050 -0.00360745 -0.00593536
C  0.00249350 -0.00071631 -0.00286089
C  -0.00269895 0.00223651 0.00507077
H  -0.00522808 0.02269380 -0.00721342
H  -0.00072288 -0.00927186 -0.00309329
H  0.01081759 -0.00373229 0.00736649
H  0.02091477 0.01330146 0.02391086
H  -0.01728823 0.02083706 -0.00714844
H  0.00358995 0.00115146 0.00172804
12
MD Step 86 Units = [Angstroms / fs]
C  -0.00171768 0.00025582 -0.01019112
C  0.00994860 0.00090620 0.00561637
C  0.00433647 0.00331443 -0.00466215
C  0.00059136 -0.00343568 -0.00611587
C  0.00255346 -0.00057361 -0.00293863
C  -0.00193859 0.00276213 0.00507793
H  -0.00152010 0.01892350 -0.00744246
H  0.00345378 -0.01418475 -0.00390132
H  0.00934781 -0.00264959 0.00763241
H  0.01679948 0.01048277 0.02347698
H  -0.01566632 0.01810679 -0.00548891
H  -0.00269075 0.00102741 0.00099359
12
MD Step 87 Units = [Angstroms / fs]
C  -0.00214092 0.00054598 -0.01004198
C  0.00929910 0.00092688 0.00561648
C  0.00505688 0.00325395 -0.00451528
C  0.00046826 -0.00311254 -0.00626519
C  0.00252633 -0.00030059 -0.00302580
C  -0.00114945 0.00326540 0.00505220
H  0.00160333 0.01408701 -0.00765901
H  0.00726196 -0.01825742 -0.00475028
H  0.00751941 -0.00143455 0.00783126
H  0.01178566 0.00646061 0.02274905
H  -0.01296247 0.01382230 -0.00361178
H  -0.00889899 0.00094392 0.00030721
12
MD Step 88 Units = [Angstroms / fs]
C  -0.00240278 0.00092583 -0.00985755
C  0.00856927 0.00087178 0.00558573
C  0.00579193 0.00311592 -0.00434614
C  0.00038783 -0.00267423 -0.00638252
C  0.00242788 0.00007152 -0.00311684
C  -0.00039095 0.00373630 0.00499816
H  0.00415510 0.00834672 -0.00786800
H  0.01043770 -0.02105457 -0.00569800
H  0.00551836 -0.00010825 0.00795587
H  0.00615396 0.00163345 0.02172391
H  -0.00942519 0.00839690 -0.00158268
H  -0.01437954 0.00091443 -0.00038456
12
MD Step 89 Units = [Angstroms / fs]
C  -0.00251448 0.00137565 -0.00963636
C  0.00778556 0.00072622 0.00552520
C  0.00651571 0.00290211 -0.00415449
C  0.00033557 -0.00216083 -0.00646856
C  0.00227666 0.00050830 -0.00320595
C  0.00028566 0.00416460 0.00491962
H  0.00622429 0.00195432 -0.00808201
H  0.01280260 -0.02229175 -0.00677070
H  0.00354210 0.00130440 0.00800226
H  0.00020454 -0.00357482 0.02041714
H  -0.00533131 0.00228277 0.00052728
H  -0.01857454 0.00094996 -0.00112262
12
MD Step 90 Units = [Angstroms / fs]
C  -0.00249500 0.00186990 -0.00937688
C  0.00696890 0.00048881 0.00543387
C  0.00720171 0.00261682 -0.00394053
C  0.00029665 -0.00161467 -0.00652543
C  0.00209302 0.00097395 -0.00328741
C  0.00084302 0.00454019 0.00481905
H  0.00796551 -0.00476266 -0.00832037
H  0.01427090 -0.02185587 -0.00796329
H  0.00178592 0.00277577 0.00796992
H  -0.00575507 -0.00873180 0.01886182
H  -0.00097154 -0.00405224 0.00264591
H  -0.02109272 0.00105829 -0.00192902
12
MD Step 91 Units = [Angstroms / fs]
C  -0.00236858 0.00237901 -0.00907770
C  0.00613490 0.00017049 0.00530913
C  0.00782427 0.00226655 -0.00370493
C  0.00025632 -0.00107908 -0.00655659
C  0.00189840 0.00143224 -0.00335583
C  0.00126016 0.00485364 0.00469747
H  0.00957563 -0.01142660 -0.00860672
H  0.01484208 -0.01979598 -0.00924533
H  0.00042915 0.00427670 0.00786186
H  -0.01141742 -0.01340684 0.01710712
H  0.00335727 -0.01013689 0.00470285
H  -0.02174140 0.00124332 -0.00280568
12
MD Step 92 Units = [Angstroms / fs]
C  -0.00216153 0.00287211 -0.00873784
C  0.00529463 -0.00020790 0.00514750
C  0.00836005 0.00185960 -0.00344877
C  0.00020034 -0.00059728 -0.00656664
C  0.00171483 0.00184705 -0.00340623
C  0.00153208 0.00509664 0.00455464
H  0.01126139 -0.01764541 -0.00896516
H  0.01458470 -0.01629480 -0.01056976
H  -0.00037883 0.00577782 0.00768416
H  -0.01648233 -0.01718093 0.01521648
H  0.00735727 -0.01550465 0.00663179
H  -0.02052171 0.00150465 -0.00373724
12
MD Step 93 Units = [Angstroms / fs]
C  -0.00189891 0.00331999 -0.00835706
C  0.00445580 -0.00061874 0.00494530
C  0.00878961 0.00140565 -0.00317348
C  0.00011567 -0.00021065 -0.00656120
C  0.00156429 0.00218309 -0.00343427
C  0.00166720 0.00526251 0.00438946
H  0.01320474 -0.02305223 -0.00941594
H  0.01361800 -0.01163282 -0.01188156
H  -0.00053249 0.00725079 0.00744532
H  -0.02066779 -0.01966202 0.01326479
H  0.01073668 -0.01970481 0.00837306
H  -0.01759836 0.00183769 -0.00469621
12
MD Step 94 Units = [Angstroms / fs]
C  -0.00160176 0.00369793 -0.00793614
C  0.00362362 -0.00103049 0.00469923
C  0.00909890 0.00091538 -0.00288073
C  -0.00000825 0.00004383 -0.00654646
C  0.00146747 0.00240757 -0.00343642
C  0.00168385 0.00534657 0.00420039
H  0.01553387 -0.02734203 -0.00997169
H  0.01209531 -0.00615439 -0.01312479
H  0.00001700 0.00866930 0.00715521
H  -0.02372815 -0.02051099 0.01133309
H  0.01322309 -0.02232328 0.00987728
H  -0.01325834 0.00223395 -0.00564856
12
MD Step 95 Units = [Angstroms / fs]
C  -0.00128545 0.00398770 -0.00747699
C  0.00280156 -0.00141009 0.00440674
C  0.00928044 0.00040020 -0.00257235
C  -0.00017760 0.00013712 -0.00652854
C  0.00144191 0.00249301 -0.00341035
C  0.00160703 0.00534647 0.00398579
H  0.01830577 -0.03029872 -0.01063496
H  0.01019125 -0.00024023 -0.01424762
H  0.00125193 0.01000971 0.00682382
H  -0.02548082 -0.01948086 0.00949991
H  0.01458646 -0.02301812 0.01111032
H  -0.00787058 0.00268160 -0.00655845
12
MD Step 96 Units = [Angstroms / fs]
C  -0.00095926 0.00417871 -0.00698274
C  0.00199180 -0.00172476 0.00406631
C  0.00933405 -0.00012793 -0.00225017
C  -0.00039169 0.00005262 -0.00651249
C  0.00149929 0.00242135 -0.00335532
C  0.00146570 0.00526229 0.00374423
H  0.02150222 -0.03180924 -0.01139769
H  0.00809260 0.00571327 -0.01520557
H  0.00308364 0.01125109 0.00645994
H  -0.02583914 -0.01646658 0.00782856
H  0.01467233 -0.02157059 0.01205884
H  -0.00185302 0.00316606 -0.00739173
12
MD Step 97 Units = [Angstroms / fs]
C  -0.00062694 0.00426800 -0.00645752
C  0.00119549 -0.00194332 0.00367762
C  0.00926684 -0.00065660 -0.00191591
C  -0.00064068 -0.00020947 -0.00650109
C  0.00164233 0.00218897 -0.00327252
C  0.00129091 0.00509661 0.00347460
H  0.02503752 -0.03186464 -0.01224234
H  0.00599129 0.01131033 -0.01596363
H  0.00535584 0.01237457 0.00607003
H  -0.02484373 -0.01155545 0.00635216
H  0.01344119 -0.01794495 0.01273477
H  0.00435157 0.00367055 -0.00811822
12
MD Step 98 Units = [Angstroms / fs]
C  -0.00028803 0.00425956 -0.00590628
C  0.00041318 -0.00203756 0.00324162
C  0.00909233 -0.00117311 -0.00157117
C  -0.00090438 -0.00062904 -0.00649374
C  0.00186200 0.00181098 -0.00316511
C  0.00111440 0.00485445 0.00317629
H  0.02877353 -0.03055089 -0.01314423
H  0.00407761 0.01617142 -0.01649767
H  0.00785708 0.01336232 0.00565757
H  -0.02268007 -0.00506071 0.00506020
H  0.01100310 -0.01234083 0.01317613
H  0.01029332 0.00417670 -0.00871310
12
MD Step 99 Units = [Angstroms / fs]
C  0.00006065 0.00416318 -0.00533453
C  -0.00035468 -0.00198360 0.00276063
C  0.00882882 -0.00166457 -0.00121737
C  -0.00115316 -0.00116632 -0.00648595
C  0.00213649 0.00132307 -0.00303783
C  0.00096751 0.00454295 0.00284922
H  0.03253744 -0.02803359 -0.01407436
H  0.00253124 0.01995192 -0.01679563
H  0.01034182 0.01419622 0.00522305
H  -0.01966976 0.00248221 0.00389238
H  0.00763193 -0.00521435 0.01344184
H  0.01553092 0.00466520 -0.00915804
12
MD Step 100 Units = [Angstroms / fs]
C  0.00042355 0.00399311 -0.00474808
C  -0.00110676 -0.00176381 0.00223840
C  0.00849715 -0.00211824 -0.00085587
C  -0.00135150 -0.00176605 -0.00646978
C  0.00243281 0.00077899 -0.00289610
C  0.00087985 0.00417106 0.00249402
H  0.03613870 -0.02454043 -0.01500232
H  0.00150850 0.02236654 -0.01685813
H  0.01255761 0.01485700 0.00476462
H  -0.01622934 0.01036916 0.00274490
H  0.00374497 0.00275324 0.01360036
H  0.01964993 0.00511676 -0.00944194
12
MD Step 101 Units = [Angstroms / fs]
C  0.00080518 0.00376686 -0.00415281
C  -0.00183956 -0.00136905 0.00168003
C  0.00811825 -0.00252197 -0.00048807
C  -0.00146347 -0.00236567 -0.00643539
C  0.00271162 0.00024320 -0.00274485
C  0.00087738 0.00374898 0.00211202
H  0.03938334 -0.02034394 -0.01589876
H  0.00112504 0.02321962 -0.01669847
H  0.01427376 0.01532408 0.00427938
H  -0.01280342 0.01782613 0.00148976
H  -0.00015559 0.01074514 0.01371463
H  0.02228812 0.00551327 -0.00956171
12
MD Step 102 Units = [Angstroms / fs]
C  0.00120919 0.00350415 -0.00355449
C  -0.00254571 -0.00080113 0.00109186
C  0.00771098 -0.00286471 -0.00011555
C  -0.00145884 -0.00290518 -0.00637322
C  0.00293395 -0.00021972 -0.00258748
C  0.00097975 0.00328757 0.00170541
H  0.04208540 -0.01574564 -0.01673746
H  0.00143545 0.02243775 -0.01634124
H  0.01530687 0.01557638 0.00376482
H  -0.00979047 0.02412877 0.00000218
H  -0.00356680 0.01793811 0.01382863
H  0.02316983 0.00583933 -0.00952266
12
MD Step 103 Units = [Angstroms / fs]
C  0.00163768 0.00322589 -0.00295864
C  -0.00321250 -0.00007475 0.00048111
C  0.00729040 -0.00313709 0.00025985
C  -0.00131780 -0.00333599 -0.00627610
C  0.00306798 -0.00055582 -0.00242535
C  0.00119711 0.00279776 0.00127713
H  0.04407604 -0.01106126 -0.01749699
H  0.00241396 0.02009718 -0.01581930
H  0.01553907 0.01559403 0.00322021
H  -0.00748367 0.02870833 -0.00181322
H  -0.00606922 0.02363345 0.01396017
H  0.02214754 0.00608377 -0.00933825
12
MD Step 104 Units = [Angstroms / fs]
C  0.00209062 0.00295322 -0.00237038
C  -0.00382089 0.00078176 -0.00014450
C  0.00686691 -0.00333184 0.00063589
C  -0.00103328 -0.00362635 -0.00614057
C  0.00309379 -0.00072952 -0.00225787
C  0.00152670 0.00229006 0.00083084
H  0.04521145 -0.00660563 -0.01816190
H  0.00394262 0.01643541 -0.01516919
H  0.01492708 0.01536057 0.00264757
H  -0.00604153 0.03121609 -0.00400538
H  -0.00738607 0.02735126 0.01410185
H  0.01924358 0.00624089 -0.00902882
12
MD Step 105 Units = [Angstroms / fs]
C  0.00256548 0.00270630 -0.00179435
C  -0.00434582 0.00172776 -0.00077731
C  0.00644594 -0.00344409 0.00100998
C  -0.00061059 -0.00376270 -0.00596721
C  0.00300492 -0.00072655 -0.00208316
C  0.00195056 0.00177429 0.00037066
H  0.04538035 -0.00267583 -0.01872365
H  0.00581406 0.01183732 -0.01442582
H  0.01350216 0.01486515 0.00205213
H  -0.00549015 0.03153683 -0.00657281
H  -0.00740416 0.02886716 0.01422822
H  0.01467922 0.00631070 -0.00861918
12
MD Step 106 Units = [Angstroms / fs]
C  0.00305684 0.00250281 -0.00123462
C  -0.00475812 0.00271402 -0.00141018
C  0.00602840 -0.00347143 0.00137919
C  -0.00006527 -0.00374757 -0.00576002
C  0.00280720 -0.00055250 -0.00189882
C  0.00243536 0.00125946 -0.00009911
H  0.04451134 0.00046884 -0.01918084
H  0.00775295 0.00679218 -0.01361785
H  0.01136287 0.01410437 0.00144217
H  -0.00574763 0.02976133 -0.00947040
H  -0.00615992 0.02819543 0.01430555
H  0.00887620 0.00629798 -0.00813531
12
MD Step 107 Units = [Angstroms / fs]
C  0.00355619 0.00235622 -0.00069468
C  -0.00502784 0.00368815 -0.00203674
C  0.00561143 -0.00341378 0.00174035
C  0.00057976 -0.00359574 -0.00552546
C  0.00251588 -0.00022857 -0.00170262
C  0.00293536 0.00075392 -0.00057435
H  0.04257984 0.00262985 -0.01953877
H  0.00945429 0.00182771 -0.01276514
H  0.00866310 0.01308338 0.00082853
H  -0.00665744 0.02613707 -0.01262210
H  -0.00380465 0.02553894 0.01430040
H  0.00242018 0.00620992 -0.00760102
12
MD Step 108 Units = [Angstroms / fs]
C  0.00405192 0.00227380 -0.00017746
C  -0.00512841 0.00460076 -0.00265154
C  0.00518940 -0.00327309 0.00209017
C  0.00129698 -0.00333017 -0.00527132
C  0.00215241 0.00021343 -0.00149296
C  0.00339835 0.00026562 -0.00105128
H  0.03961344 0.00369368 -0.01980794
H  0.01063012 -0.00256398 -0.01187895
H  0.00559789 0.01181627 0.00022378
H  -0.00801973 0.02101645 -0.01593446
H  -0.00056494 0.02122974 0.01418556
H  -0.00401349 0.00605309 -0.00703544
12
MD Step 109 Units = [Angstroms / fs]
C  0.00452961 0.00225489 0.00031449
C  -0.00504047 0.00541061 -0.00324988
C  0.00475497 -0.00305302 0.00242536
C  0.00205642 -0.00297872 -0.00500585
C  0.00174171 0.00073538 -0.00126901
C  0.00377344 -0.00019768 -0.00152662
H  0.03569429 0.00365309 -0.02000120
H  0.01105271 -0.00599015 -0.01096448
H  0.00238849 0.01032571 -0.00035873
H  -0.00961507 0.01481418 -0.01930788
H  0.00329099 0.01567743 0.01394295
H  -0.00975646 0.00583092 -0.00645227
12
MD Step 110 Units = [Angstroms / fs]
C  0.00497267 0.00228988 0.00077884
C  -0.00475467 0.00608786 -0.00382766
C  0.00430018 -0.00275849 0.00274276
C  0.00282728 -0.00257186 -0.00473716
C  0.00131022 0.00129602 -0.00103084
C  0.00401869 -0.00062835 -0.00199752
H  0.03095682 0.00261943 -0.02012987
H  0.01058379 -0.00819711 -0.01002436
H  -0.00073254 0.00864200 -0.00090585
H  -0.01121964 0.00797807 -0.02264463
H  0.00747651 0.00933284 0.01356460
H  -0.01424237 0.00554240 -0.00586047
12
MD Step 111 Units = [Angstroms / fs]
C  0.00536341 0.00236044 0.00121315
C  -0.00427272 0.00661495 -0.00438116
C  0.00381756 -0.00239539 0.00303945
C  0.00357897 -0.00214141 -0.00447286
C  0.00088482 0.00185283 -0.00077929
C  0.00410658 -0.00101903 -0.00246142
H  0.02558004 0.00082003 -0.02019937
H  0.00918502 -0.00908140 -0.00906182
H  -0.00353614 0.00680150 -0.00140559
H  -0.01261388 0.00097136 -0.02585416
H  0.01170010 0.00266644 0.01305253
H  -0.01707618 0.00518254 -0.00526614
12
MD Step 112 Units = [Angstroms / fs]
C  0.00568440 0.00244130 0.00161469
C  -0.00360705 0.00698556 -0.00490701
C  0.00330122 -0.00197026 0.00331286
C  0.00428195 -0.00171971 -0.00421977
C  0.00049209 0.00236306 -0.00051598
C  0.00402634 -0.00136289 -0.00291590
H  0.01977447 -0.00142317 -0.02020543
H  0.00691167 -0.00867714 -0.00808271
H  -0.00581197 0.00484463 -0.00184799
H  -0.01358760 -0.00573815 -0.02885697
H  0.01567247 -0.00384292 0.01241822
H  -0.01806504 0.00474421 -0.00467437
12
MD Step 113 Units = [Angstroms / fs]
C  0.00591990 0.00250343 0.00198034
C  -0.00277942 0.00720251 -0.00540211
C  0.00274801 -0.00149000 0.00356088
C  0.00490853 -0.00133884 -0.00398365
C  0.00015786 0.00278462 -0.00024323
C  0.00378321 -0.00165411 -0.00335859
H  0.01376540 -0.00373254 -0.02013217
H  0.00389539 -0.00712950 -0.00709606
H  -0.00738406 0.00281349 -0.00222583
H  -0.01394487 -0.01168864 -0.03158801
H  0.01911153 -0.00971589 0.01168202
H  -0.01721206 0.00422048 -0.00409059
12
MD Step 114 Units = [Angstroms / fs]
C  0.00605734 0.00251818 0.00230659
C  -0.00181897 0.00727544 -0.00586370
C  0.00215869 -0.00096172 0.00378190
C  0.00543381 -0.00102926 -0.00376897
C  -0.00009351 0.00307718 0.00003600
C  0.00339571 -0.00188819 -0.00378708
H  0.00777486 -0.00572466 -0.01995290
H  0.00032309 -0.00466417 -0.00611375
H  -0.00812685 0.00074911 -0.00253517
H  -0.01351148 -0.01644080 -0.03400070
H  0.02174970 -0.01448436 0.01087233
H  -0.01468457 0.00360668 -0.00352113
12
MD Step 115 Units = [Angstroms / fs]
C  0.00608834 0.00246138 0.00258991
C  -0.00076022 0.00721873 -0.00628941
C  0.00153900 -0.00039252 0.00397490
C  0.00583687 -0.00081757 -0.00357847
C  -0.00024019 0.00320418 0.00031820
C  0.00289201 -0.00206227 -0.00419896
H  0.00200519 -0.00706082 -0.01963363
H  -0.00358307 -0.00155972 -0.00514947
H  -0.00798002 -0.00131110 -0.00277551
H  -0.01214712 -0.01960612 -0.03607128
H  0.02334729 -0.01771394 0.01002394
H  -0.01077190 0.00290184 -0.00297311
12
MD Step 116 Units = [Angstroms / fs]
C  0.00600944 0.00231654 0.00282704
C  0.00035874 0.00705007 -0.00667729
C  0.00090046 0.00021058 0.00413940
C  0.00610232 -0.00072288 -0.00341288
C  -0.00026468 0.00313621 0.00059954
C  0.00230651 -0.00217528 -0.00459182
H  -0.00337356 -0.00748768 -0.01913852
H  -0.00758221 0.00187407 -0.00421767
H  -0.00695999 -0.00333548 -0.00294959
H  -0.00976296 -0.02088968 -0.03780266
H  0.02371461 -0.01904272 0.00917503
H  -0.00584448 0.00210931 -0.00245389
12
MD Step 117 Units = [Angstroms / fs]
C  0.00582226 0.00207659 0.00301544
C  0.00149794 0.00678936 -0.00702582
C  0.00026056 0.00084060 0.00427547
C  0.00622195 -0.00075234 -0.00327072
C  -0.00015619 0.00285568 0.00087620
C  0.00167708 -0.00222793 -0.00496327
H  -0.00823133 -0.00686104 -0.01843583
H  -0.01142752 0.00531260 -0.00333239
H  -0.00516516 -0.00529923 -0.00306270
H  -0.00634340 -0.02014478 -0.03922552
H  0.02274233 -0.01823685 0.00836210
H  -0.00032074 0.00123684 -0.00197048
12
MD Step 118 Units = [Angstroms / fs]
C  0.00553326 0.00174411 0.00315357
C  0.00261705 0.00645807 -0.00733392
C  -0.00035766 0.00149049 0.00438361
C  0.00619638 -0.00089651 -0.00314861
C  0.00008668 0.00236223 0.00114491
C  0.00104300 -0.00222257 -0.00531106
H  -0.01248072 -0.00515149 -0.01750299
H  -0.01487707 0.00842965 -0.00250631
H  -0.00277183 -0.00718399 -0.00312162
H  -0.00196721 -0.01742818 -0.04039399
H  0.02043528 -0.01525554 0.00761298
H  0.00535730 0.00029629 -0.00152884
12
MD Step 119 Units = [Angstroms / fs]
C  0.00515319 0.00133023 0.00324107
C  0.00367699 0.00607837 -0.00760094
C  -0.00092714 0.00215278 0.00446464
C  0.00603589 -0.00112631 -0.00304210
C  0.00045380 0.00167736 0.00140347
C  0.00044358 -0.00216290 -0.00563302
H  -0.01607587 -0.00243494 -0.01632992
H  -0.01770451 0.01091112 -0.00174980
H  -0.00001944 -0.00897593 -0.00313327
H  0.00317933 -0.01303652 -0.04137399
H  0.01693909 -0.01030730 0.00693933
H  0.01074226 -0.00069688 -0.00113330
12
MD Step 120 Units = [Angstroms / fs]
C  0.00469634 0.00085278 0.00327877
C  0.00464162 0.00567210 -0.00782664
C  -0.00141894 0.00281912 0.00451954
C  0.00576015 -0.00139352 -0.00294705
C  0.00092288 0.00084601 0.00165123
C  -0.00008322 -0.00205367 -0.00592721
H  -0.01900863 0.00112602 -0.01492042
H  -0.01971152 0.01247232 -0.00107015
H  0.00281421 -0.01066264 -0.00310342
H  0.00880582 -0.00750162 -0.04222528
H  0.01254621 -0.00387119 0.00633113
H  0.01539789 -0.00172425 -0.00078606
12
MD Step 121 Units = [Angstroms / fs]
C  0.00417975 0.00033419 0.00326861
C  0.00547972 0.00525911 -0.00801125
C  -0.00180515 0.00347993 0.00454936
C  0.00539621 -0.00163577 -0.00286117
C  0.00146127 -0.00006660 0.00188903
C  -0.00050229 -0.00190032 -0.00619194
H  -0.02130359 0.00530441 -0.01329190
H  -0.02074321 0.01288127 -0.00047098
H  0.00544440 -0.01222979 -0.00303582
H  0.01454293 -0.00153092 -0.04298187
H  0.00767044 0.00333949 0.00575613
H  0.01891883 -0.00276537 -0.00048682
12
MD Step 122 Units = [Angstroms / fs]
C  0.00362237 -0.00020045 0.00321345
C  0.00616697 0.00485508 -0.00815537
C  -0.00206173 0.00412400 0.00455510
C  0.00497512 -0.00178575 -0.00278509
C  0.00203023 -0.00098352 0.00211880
C  -0.00078350 -0.00170860 -0.00642581
H  -0.02301275 0.00983054 -0.01147402
H  -0.02070559 0.01198800 0.00004785
H  0.00761230 -0.01365831 -0.00293173
H  0.01998744 0.00410050 -0.04363834
H  0.00278955 0.01047634 0.00516610
H  0.02095758 -0.00379886 -0.00023268
12
MD Step 123 Units = [Angstroms / fs]
C  0.00304430 -0.00072515 0.00311691
C  0.00668786 0.00446903 -0.00825995
C  -0.00217113 0.00473855 0.00453771
C  0.00452782 -0.00178219 -0.00272251
C  0.00259072 -0.00182792 0.00234260
C  -0.00090457 -0.00148433 -0.00662773
H  -0.02421045 0.01441145 -0.00950651
H  -0.01958249 0.00975633 0.00048957
H  0.00911333 -0.01492334 -0.00279020
H  0.02475724 0.00867859 -0.04414802
H  -0.00163050 0.01669554 0.00450836
H  0.02126041 -0.00480371 -0.00001856
12
MD Step 124 Units = [Angstroms / fs]
C  0.00246606 -0.00121436 0.00298320
C  0.00703691 0.00410109 -0.00832614
C  -0.00212405 0.00530945 0.00449803
C  0.00408151 -0.00157947 -0.00267934
C  0.00310886 -0.00253484 0.00256172
C  -0.00085447 -0.00123317 -0.00679692
H  -0.02498831 0.01874798 -0.00743673
H  -0.01744727 0.00629070 0.00085899
H  0.00981663 -0.01599478 -0.00260873
H  0.02854132 0.01166134 -0.04443406
H  -0.00520740 0.02129639 0.00373874
H  0.01970961 -0.00576048 0.00016175
12
MD Step 125 Units = [Angstroms / fs]
C  0.00190791 -0.00164424 0.00281690
C  0.00721896 0.00374139 -0.00835505
C  -0.00192032 0.00582191 0.00443687
C  0.00365728 -0.00115327 -0.00266213
C  0.00355964 -0.00305941 0.00277597
C  -0.00063665 -0.00096051 -0.00693274
H  -0.02544988 0.02255065 -0.00531666
H  -0.01446360 0.00184763 0.00116012
H  0.00967373 -0.01683965 -0.00238431
H  0.03113252 0.01274254 -0.04440880
H  -0.00768989 0.02381745 0.00283138
H  0.01636373 -0.00665209 0.00031364
12
MD Step 126 Units = [Angstroms / fs]
C  0.00138901 -0.00199375 0.00262274
C  0.00724804 0.00337087 -0.00834759
C  -0.00156891 0.00626136 0.00435501
C  0.00326944 -0.00050162 -0.00267650
C  0.00392815 -0.00337981 0.00298350
C  -0.00027103 -0.00067149 -0.00703460
H  -0.02570422 0.02555584 -0.00319951
H  -0.01087155 -0.00317790 0.00139363
H  0.00871696 -0.01742530 -0.00211429
H  0.03243772 0.01185991 -0.04399390
H  -0.00897189 0.02406974 0.00178250
H  0.01148247 -0.00746358 0.00043918
12
MD Step 127 Units = [Angstroms / fs]
C  0.00092661 -0.00224591 0.00240538
C  0.00714494 0.00296440 -0.00830427
C  -0.00108714 0.00661442 0.00425320
C  0.00292616 0.00035775 -0.00272598
C  0.00420865 -0.00349538 0.00318108
C  0.00020643 -0.00037115 -0.00710173
H  -0.02585764 0.02754340 -0.00113570
H  -0.00695909 -0.00829485 0.00155500
H  0.00705011 -0.01772283 -0.00179729
H  0.03246885 0.00915983 -0.04313535
H  -0.00907795 0.02211329 0.00060844
H  0.00552147 -0.00818087 0.00053467
12
MD Step 128 Units = [Angstroms / fs]
C  0.00053494 -0.00238908 0.00216904
C  0.00693395 0.00249562 -0.00822519
C  -0.00049944 0.00686986 0.00413216
C  0.00263093 0.00139195 -0.00281143
C  0.00440264 -0.00342195 0.00336463
C  0.00074737 -0.00006473 -0.00713312
H  -0.02600315 0.02835540 0.00083173
H  -0.00302420 -0.01298174 0.00163420
H  0.00483434 -0.01771018 -0.00143363
H  0.03132242 0.00494114 -0.04181091
H  -0.00813261 0.01820035 -0.00065973
H  -0.00091200 -0.00878883 0.00058924
12
MD Step 129 Units = [Angstroms / fs]
C  0.00022409 -0.00241825 0.00191719
C  0.00663951 0.00194258 -0.00811012
C  0.00016420 0.00701933 0.00399257
C  0.00238391 0.00255773 -0.00293096
C  0.00451663 -0.00318649 0.00352972
C  0.00129762 0.00024211 -0.00712754
H  -0.02620809 0.02791472 0.00267181
H  0.00066345 -0.01676059 0.00161734
H  0.00227218 -0.01737436 -0.00102560
H  0.02915646 -0.00040182 -0.04003122
H  -0.00632695 0.01271090 -0.00198262
H  -0.00713925 -0.00926962 0.00058532
12
MD Step 130 Units = [Angstroms / fs]
C  -0.00000106 -0.00233605 0.00165222
C  0.00628357 0.00129242 -0.00795883
C  0.00086992 0.00705785 0.00383502
C  0.00218314 0.00380538 -0.00308021
C  0.00456053 -0.00282256 0.00367203
C  0.00180523 0.00054314 -0.00708378
H  -0.02650131 0.02623973 0.00436960
H  0.00389233 -0.01926076 0.00148975
H  -0.00040881 -0.01671285 -0.00057740
H  0.02617050 -0.00642469 -0.03783724
H  -0.00389070 0.00609807 -0.00331787
H  -0.01250873 -0.00960235 0.00050134
12
MD Step 131 Units = [Angstroms / fs]
C  -0.00014170 -0.00215320 0.00137528
C  0.00588406 0.00054414 -0.00777127
C  0.00158176 0.00698403 0.00366000
C  0.00202498 0.00508180 -0.00325264
C  0.00454663 -0.00236705 0.00378763
C  0.00222792 0.00083157 -0.00700091
H  -0.02686279 0.02345091 0.00592841
H  0.00652499 -0.02025887 0.00123948
H  -0.00297177 -0.01573408 -0.00009489
H  0.02259134 -0.01266378 -0.03529631
H  -0.00107338 -0.00114956 -0.00462406
H  -0.01648767 -0.00976458 0.00031590
12
MD Step 132 Units = [Angstroms / fs]
C  -0.00020526 -0.00188798 0.00108628
C  0.00545450 -0.00029106 -0.00754789
C  0.00226353 0.00679991 0.00346792
C  0.00190430 0.00633250 -0.00343985
C  0.00448911 -0.00185842 0.00387311
C  0.00253805 0.00110037 -0.00687867
H  -0.02721915 0.01976504 0.00736910
H  0.00849982 -0.01968964 0.00086022
H  -0.00518608 -0.01445709 0.00041480
H  0.01866424 -0.01865450 -0.03249850
H  0.00186646 -0.00853002 -0.00586308
H  -0.01872446 -0.00973526 0.00001219
12
MD Step 133 Units = [Angstroms / fs]
C  -0.00020488 -0.00156459 0.00078426
C  0.00500439 -0.00119128 -0.00728974
C  0.00288073 0.00651070 0.00325905
C  0.00181426 0.00750331 -0.00363179
C  0.00440384 -0.00133564 0.00392565
C  0.00272439 0.00134257 -0.00671764
H  -0.02744823 0.01547515 0.00872598
H  0.00982221 -0.01763246 0.00035292
H  -0.00684293 -0.01291040 0.00094384
H  0.01464751 -0.02394296 -0.02955347
H  0.00466678 -0.01553995 -0.00700176
H  -0.01907145 -0.00949809 -0.00041872
12
MD Step 134 Units = [Angstroms / fs]
C  -0.00015786 -0.00121058 0.00046785
C  0.00454011 -0.00212673 -0.00699853
C  0.00340261 0.00612423 0.00303358
C  0.00174617 0.00854199 -0.00381710
C  0.00430819 -0.00083748 0.00394306
C  0.00279082 0.00155173 -0.00651936
H  -0.02739374 0.01091781 0.01003973
H  0.01055050 -0.01428324 -0.00027397
H  -0.00777141 -0.01113005 0.00148436
H  0.01080734 -0.02809688 -0.02658688
H  0.00706617 -0.02168375 -0.00801319
H  -0.01757220 -0.00904430 -0.00097634
12
MD Step 135 Units = [Angstroms / fs]
C  -0.00008342 -0.00085372 0.00013600
C  0.00406574 -0.00306275 -0.00667661
C  0.00380416 0.00565039 0.00279160
C  0.00168970 0.00940031 -0.00398350
C  0.00422050 -0.00040144 0.00392390
C  0.00275333 0.00172233 -0.00628622
H  -0.02688807 0.00643335 0.01134888
H  0.01078112 -0.00992177 -0.00100520
H  -0.00785471 -0.00915697 0.00202909
H  0.00740902 -0.03072181 -0.02373501
H  0.00881072 -0.02648785 -0.00887811
H  -0.01442608 -0.00837403 -0.00165107
12
MD Step 136 Units = [Angstroms / fs]
C  -0.00000023 -0.00051905 -0.00021142
C  0.00358372 -0.00396253 -0.00632684
C  0.00406798 0.00510053 0.00253309
C  0.00163375 0.01003680 -0.00411857
C  0.00415896 -0.00006166 0.00386752
C  0.00263629 0.00185007 -0.00602135
H  -0.02577870 0.00232688 0.01268197
H  0.01063597 -0.00488154 -0.00182001
H  -0.00704522 -0.00703384 0.00257201
H  0.00470112 -0.03148711 -0.02113554
H  0.00966732 -0.02952646 -0.00958667
H  -0.00994515 -0.00749657 -0.00242564
12
MD Step 137 Units = [Angstroms / fs]
C  0.00007597 -0.00022649 -0.00057323
C  0.00309533 -0.00478927 -0.00595259
C  0.00418571 0.00448691 0.00225795
C  0.00156823 0.01042035 -0.00421090
C  0.00413971 0.00015442 0.00377422
C  0.00246910 0.00193224 -0.00572840
H  -0.02395202 -0.00116235 0.01405212
H  0.01025263 0.00047478 -0.00269362
H  -0.00537595 -0.00480179 0.00310884
H  0.00288991 -0.03016332 -0.01891288
H  0.00944625 -0.03046347 -0.01013987
H  -0.00451431 -0.00642956 -0.00327704
12
MD Step 138 Units = [Angstroms / fs]
C  0.00013394 0.00001033 -0.00094677
C  0.00260090 -0.00550792 -0.00555759
C  0.00415871 0.00382233 0.00196597
C  0.00148676 0.01053427 -0.00425175
C  0.00417414 0.00023068 0.00364522
C  0.00228363 0.00196792 -0.00541136
H  -0.02135004 -0.00387885 0.01545520
H  0.00977721 0.00577484 -0.00359866
H  -0.00296540 -0.00249770 0.00363718
H  0.00210494 -0.02666765 -0.01715799
H  0.00803312 -0.02910916 -0.01055008
H  0.00144007 -0.00519787 -0.00417852
12
MD Step 139 Units = [Angstroms / fs]
C  0.00016776 0.00018429 -0.00132803
C  0.00209998 -0.00608641 -0.00514589
C  0.00399786 0.00311981 0.00165690
C  0.00138969 0.01038005 -0.00423698
C  0.00426579 0.00016737 0.00348260
C  0.00211234 0.00195815 -0.00507448
H  -0.01797729 -0.00575518 0.01687131
H  0.00935810 0.01065318 -0.00450665
H  -0.00001260 -0.00015263 0.00415620
H  0.00236158 -0.02110764 -0.01590539
H  0.00542555 -0.02548184 -0.01083940
H  0.00747276 -0.00383227 -0.00510128
12
MD Step 140 Units = [Angstroms / fs]
C  0.00017682 0.00029421 -0.00171201
C  0.00159170 -0.00649701 -0.00472170
C  0.00372223 0.00239253 0.00133048
C  0.00128660 0.00997947 -0.00416862
C  0.00440765 -0.00001506 0.00328889
C  0.00198703 0.00190600 -0.00472212
H  -0.01389878 -0.00680528 0.01826862
H  0.00913930 0.01476839 -0.00538967
H  0.00321890 0.00220799 0.00466597
H  0.00353241 -0.01380685 -0.01511372
H  0.00176383 -0.01985444 -0.01103497
H  0.01313673 -0.00236813 -0.00601602
12
MD Step 141 Units = [Angstroms / fs]
C  0.00016511 0.00034365 -0.00209308
C  0.00107529 -0.00671776 -0.00428926
C  0.00335671 0.00165376 0.00098659
C  0.00119695 0.00937370 -0.00405557
C  0.00458113 -0.00027539 0.00306651
C  0.00193771 0.00181641 -0.00435868
H  -0.00923146 -0.00711110 0.01960839
H  0.00925130 0.01782347 -0.00622221
H  0.00642751 0.00456243 0.00516638
H  0.00534233 -0.00529574 -0.01465834
H  -0.00265895 -0.01276092 -0.01116185
H  0.01799917 -0.00084397 -0.00689440
12
MD Step 142 Units = [Angstroms / fs]
C  0.00014022 0.00033982 -0.00246544
C  0.00055093 -0.00673425 -0.00385266
C  0.00292908 0.00091683 0.00062532
C  0.00114798 0.00861876 -0.00391269
C  0.00475769 -0.00055595 0.00281724
C  0.00199119 0.00169596 -0.00398846
H  -0.00413218 -0.00680659 0.02084985
H  0.00979870 0.01959081 -0.00698333
H  0.00930683 0.00688945 0.00565610
H  0.00739792 0.00374179 -0.01434314
H  -0.00741984 -0.00494409 -0.01123525
H  0.02166134 0.00070044 -0.00771072
12
MD Step 143 Units = [Angstroms / fs]
C  0.00011221 0.00029241 -0.00282342
C  0.00002110 -0.00654164 -0.00341560
C  0.00246691 0.00019502 0.00024719
C  0.00116988 0.00777775 -0.00375830
C  0.00490330 -0.00079153 0.00254179
C  0.00216909 0.00155230 -0.00361554
H  0.00121500 -0.00606183 0.02195448
H  0.01084432 0.01994041 -0.00765888
H  0.01157994 0.00916491 0.00613163
H  0.00924989 0.01255988 -0.01393196
H  -0.01202400 0.00275330 -0.01125546
H  0.02378615 0.00222652 -0.00844386
12
MD Step 144 Units = [Angstroms / fs]
C  0.00009247 0.00021277 -0.00316182
C  -0.00050804 -0.00614654 -0.00298126
C  0.00199478 -0.00049871 -0.00014681
C  0.00128958 0.00691182 -0.00361071
C  0.00498478 -0.00092079 0.00223989
C  0.00248511 0.00139351 -0.00324355
H  0.00661101 -0.00506893 0.02288930
H  0.01239213 0.01886648 -0.00824324
H  0.01302889 0.01135923 0.00658696
H  0.01047273 0.02045779 -0.01319211
H  -0.01598439 0.00952675 -0.01120770
H  0.02413444 0.00370009 -0.00907945
12
MD Step 145 Units = [Angstroms / fs]
C  0.00009262 0.00011316 -0.00347609
C  -0.00102537 -0.00556812 -0.00255214
C  0.00153238 -0.00115209 -0.00055511
C  0.00152503 0.00607234 -0.00348485
C  0.00497593 -0.00089649 0.00191071
C  0.00294182 0.00122737 -0.00287552
H  0.01185284 -0.00402938 0.02362921
H  0.01437274 0.01650445 -0.00873996
H  0.01351483 0.01343647 0.00701377
H  0.01073732 0.02687322 -0.01193615
H  -0.01889950 0.01473570 -0.01106724
H  0.02260702 0.00509470 -0.00961181
12
MD Step 146 Units = [Angstroms / fs]
C  0.00012353 0.00000609 -0.00376252
C  -0.00151418 -0.00483770 -0.00213013
C  0.00109343 -0.00175392 -0.00097560
C  0.00188165 0.00529596 -0.00338998
C  0.00486176 -0.00069180 0.00155348
C  0.00352769 0.00106067 -0.00251372
H  0.01674417 -0.00314221 0.02415848
H  0.01663753 0.01312964 -0.00916051
H  0.01298671 0.01535528 0.00740209
H  0.00985606 0.03143900 -0.01004999
H  -0.02050628 0.01798105 -0.01080729
H  0.01928349 0.00639438 -0.01004492
12
MD Step 147 Units = [Angstroms / fs]
C  0.00019434 -0.00009633 -0.00401830
C  -0.00195272 -0.00399644 -0.00171675
C  0.00068556 -0.00229442 -0.00140568
C  0.00235175 0.00460341 -0.00332906
C  0.00463983 -0.00030148 0.00116810
C  0.00421545 0.00089886 -0.00215966
H  0.02110586 -0.00259175 0.02447144
H  0.01896647 0.00913145 -0.00952119
H  0.01147951 0.01707139 0.00774143
H  0.00779276 0.03399613 -0.00750151
H  -0.02069772 0.01912176 -0.01040655
H  0.01444434 0.00759458 -0.01039166
12
MD Step 148 Units = [Angstroms / fs]
C  0.00031152 -0.00018333 -0.00424158
C  -0.00231610 -0.00309117 -0.00131342
C  0.00031078 -0.00276551 -0.00184242
C  0.00291621 0.00400105 -0.00329937
C  0.00431909 0.00026096 0.00075547
C  0.00496290 0.00074590 -0.00181427
H  0.02478712 -0.00253398 0.02457224
H  0.02109175 0.00496401 -0.00983859
H  0.00910450 0.01854084 0.00802192
H  0.00464359 0.03457169 -0.00433240
H  -0.01950898 0.01824201 -0.00985397
H  0.00856198 0.00870024 -0.01067084
12
MD Step 149 Units = [Angstroms / fs]
C  0.00047806 -0.00024658 -0.00443143
C  -0.00257928 -0.00216900 -0.00092183
C  -0.00003349 -0.00316081 -0.00228268
C  0.00354757 0.00348403 -0.00329397
C  0.00391711 0.00096822 0.00031748
C  0.00571693 0.00060463 -0.00147825
H  0.02767672 -0.00308143 0.02447358
H  0.02273409 0.00108284 -0.01012492
H  0.00603485 0.01972340 0.00823544
H  0.00060258 0.03333796 -0.00064029
H  -0.01708546 0.01559314 -0.00915034
H  0.00225280 0.00972103 -0.01090230
12
MD Step 150 Units = [Angstroms / fs]
C  0.00069283 -0.00028138 -0.00458763
C  -0.00272059 -0.00127222 -0.00054417
C  -0.00035333 -0.00347573 -0.00272326
C  0.00421325 0.00303973 -0.00330327
C  0.00345712 0.00178421 -0.00014309
C  0.00642026 0.00047722 -0.00115242
H  0.02971339 -0.00428760 0.02419413
H  0.02364359 -0.00211783 -0.01038465
H  0.00248925 0.02058563 0.00837655
H  -0.00407478 0.03056855 0.00344128
H  -0.01364693 0.01153334 -0.00830728
H  -0.00380511 0.01066503 -0.01110156
12
MD Step 151 Units = [Angstroms / fs]
C  0.00095030 -0.00028780 -0.00471047
C  -0.00272473 -0.00043436 -0.00018320
C  -0.00065713 -0.00370726 -0.00316105
C  0.00487835 0.00265057 -0.00331636
C  0.00296539 0.00266812 -0.00062276
C  0.00701953 0.00036574 -0.00083808
H  0.03089303 -0.00613355 0.02375482
H  0.02363499 -0.00435232 -0.01061345
H  -0.00128439 0.02110312 0.00844309
H  -0.00910167 0.02660166 0.00776015
H  -0.00945750 0.00647961 -0.00734525
H  -0.00897028 0.01153305 -0.01127551
12
MD Step 152 Units = [Angstroms / fs]
C  0.00124073 -0.00027140 -0.00480037
C  -0.00258486 0.00032167 0.00015789
C  -0.00095437 -0.00385385 -0.00359314
C  0.00550776 0.00229604 -0.00332207
C  0.00246936 0.00357693 -0.00111757
C  0.00747243 0.00027246 -0.00053712
H  0.03127043 -0.00852023 0.02317424
H  0.02260975 -0.00546691 -0.01079932
H  -0.00502483 0.02126205 0.00843658
H  -0.01418099 0.02181411 0.01215819
H  -0.00480492 0.00087613 -0.00629138
H  -0.01272691 0.01231564 -0.01142087
12
MD Step 153 Units = [Angstroms / fs]
C  0.00155100 -0.00024314 -0.00485753
C  -0.00230321 0.00098356 0.00047571
C  -0.00125456 -0.00391529 -0.00401689
C  0.00606768 0.00195393 -0.00330954
C  0.00199652 0.00446693 -0.00162320
C  0.00775245 0.00019987 -0.00025190
H  0.03095345 -0.01127074 0.02246418
H  0.02056209 -0.00543929 -0.01092541
H  -0.00847284 0.02105994 0.00836221
H  -0.01901854 0.01660513 0.01647984
H  0.00001120 -0.00482317 -0.00517767
H  -0.01474352 0.01299360 -0.01152537
12
MD Step 154 Units = [Angstroms / fs]
C  0.00186602 -0.00021831 -0.00488165
C  -0.00189059 0.00154811 0.00076699
C  -0.00156599 -0.00389253 -0.00442995
C  0.00652675 0.00160113 -0.00326873
C  0.00157366 0.00529441 -0.00213501
C  0.00785022 0.00015044 0.00001494
H  0.03008922 -0.01414472 0.02162642
H  0.01757149 -0.00436069 -0.01097332
H  -0.01138679 0.02050552 0.00822848
H  -0.02333183 0.01138577 0.02057812
H  0.00468573 -0.01016346 -0.00403957
H  -0.01489214 0.01354148 -0.01157111
12
MD Step 155 Units = [Angstroms / fs]
C  0.00217044 -0.00021451 -0.00487187
C  -0.00136510 0.00201916 0.00102881
C  -0.00189459 -0.00378756 -0.00483026
C  0.00685714 0.00121445 -0.00319081
C  0.00122636 0.00601630 -0.00264815
C  0.00777212 0.00012624 0.00026083
H  0.02884424 -0.01686471 0.02065189
H  0.01378686 -0.00240944 -0.01092614
H  -0.01355879 0.01961785 0.00804637
H  -0.02685803 0.00656894 0.02432021
H  0.00891310 -0.01469609 -0.00291465
H  -0.01323309 0.01393230 -0.01153865
12
MD Step 156 Units = [Angstroms / fs]
C  0.00245051 -0.00024894 -0.00482687
C  -0.00075043 0.00240550 0.00125876
C  -0.00224267 -0.00360333 -0.00521598
C  0.00703561 0.00077174 -0.00306871
C  0.00097817 0.00659133 -0.00315765
C  0.00753709 0.00012859 0.00048344
H  0.02738221 -0.01915048 0.01952273
H  0.00940798 0.00017603 -0.01077064
H  -0.01483133 0.01842450 0.00782807
H  -0.02936454 0.00255421 0.02759394
H  0.01239582 -0.01799099 -0.00184080
H  -0.00997856 0.01414200 -0.01141061
12
MD Step 157 Units = [Angstroms / fs]
C  0.00269555 -0.00033562 -0.00474522
C  -0.00007420 0.00271908 0.00145509
C  -0.00260774 -0.00334356 -0.00558542
C  0.00704498 0.00025403 -0.00289771
C  0.00084935 0.00698216 -0.00365866
C  0.00717296 0.00015782 0.00068090
H  0.02584409 -0.02075454 0.01821681
H  0.00466804 0.00312052 -0.01049860
H  -0.01511314 0.01695888 0.00758512
H  -0.03066409 -0.00029739 0.03031615
H  0.01486095 -0.01966046 -0.00085353
H  -0.00544955 0.01415268 -0.01117422
12
MD Step 158 Units = [Angstroms / fs]
C  0.00289884 -0.00048318 -0.00462576
C  0.00063360 0.00297379 0.00161676
C  -0.00298156 -0.00301259 -0.00593686
C  0.00687565 -0.00035151 -0.00267627
C  0.00085475 0.00715887 -0.00414673
C  0.00671310 0.00021316 0.00085185
H  0.02433419 -0.02149198 0.01671356
H  -0.00018117 0.00613019 -0.01010755
H  -0.01439207 0.01525698 0.00732628
H  -0.03063444 -0.00170132 0.03244220
H  0.01608742 -0.01939871 0.00001794
H  -0.00003662 0.01395440 -0.01082268
12
MD Step 159 Units = [Angstroms / fs]
C  0.00305785 -0.00069341 -0.00446807
C  0.00134209 0.00318454 0.00174339
C  -0.00334974 -0.00261535 -0.00626841
C  0.00652715 -0.00104755 -0.00240665
C  0.00100097 0.00710366 -0.00461829
C  0.00619386 0.00029279 0.00099541
H  0.02291391 -0.02125943 0.01499959
H  -0.00488170 0.00890687 -0.00960080
H  -0.01274200 0.01335400 0.00705525
H  -0.02923979 -0.00149806 0.03397438
H  0.01594395 -0.01703622 0.00075545
H  0.00583078 0.01354585 -0.01035566
12
MD Step 160 Units = [Angstroms / fs]
C  0.00317384 -0.00096107 -0.00427272
C  0.00202087 0.00336642 0.00183531
C  -0.00369201 -0.00215724 -0.00657789
C  0.00600918 -0.00182260 -0.00209518
C  0.00128316 0.00681611 -0.00507105
C  0.00565272 0.00039394 0.00111120
H  0.02160270 -0.02004134 0.01307285
H  -0.00918106 0.01116102 -0.00898721
H  -0.01032057 0.01128163 0.00676878
H  -0.02654809 0.00029705 0.03496530
H  0.01443108 -0.01259986 0.00135637
H  0.01170655 0.01293434 -0.00977928
12
MD Step 161 Units = [Angstroms / fs]
C  0.00325112 -0.00127444 -0.00404140
C  0.00264155 0.00353390 0.00189345
C  -0.00398340 -0.00164436 -0.00686278
C  0.00534171 -0.00264821 -0.00175184
C  0.00168258 0.00631722 -0.00550422
C  0.00512696 0.00051311 0.00119933
H  0.02038409 -0.01790514 0.01094466
H  -0.01284495 0.01262622 -0.00828051
H  -0.00735624 0.00906674 0.00645575
H  -0.02273641 0.00345930 0.03551251
H  0.01171415 -0.00635994 0.00183579
H  0.01714470 0.01213533 -0.00910567
12
MD Step 162 Units = [Angstroms / fs]
C  0.00329610 -0.00161662 -0.00377694
C  0.00317936 0.00369953 0.00191928
C  -0.00419638 -0.00108375 -0.00712022
C  0.00455347 -0.00347905 -0.00138890
C  0.00216619 0.00565030 -0.00591835
C  0.00465234 0.00064622 0.00126037
H  0.01921429 -0.01498883 0.00863978
H  -0.01567263 0.01307769 -0.00749803
H  -0.00412469 0.00673187 0.00609756
H  -0.01807827 0.00755427 0.03574231
H  0.00812969 0.00116045 0.00222444
H  0.02171559 0.01117175 -0.00835232
12
MD Step 163 Units = [Angstroms / fs]
C  0.00331647 -0.00196702 -0.00348315
C  0.00361504 0.00387238 0.00191468
C  -0.00430345 -0.00048382 -0.00734720
C  0.00367923 -0.00425691 -0.00101895
C  0.00268940 0.00487708 -0.00631480
C  0.00426161 0.00078879 0.00129529
H  0.01803124 -0.01148476 0.00619480
H  -0.01751525 0.01235569 -0.00665883
H  -0.00091811 0.00429753 0.00567003
H  -0.01291163 0.01198431 0.03578541
H  0.00415228 0.00923248 0.00256147
H  0.02502597 0.01007281 -0.00754094
12
MD Step 164 Units = [Angstroms / fs]
C  0.00332049 -0.00230292 -0.00316467
C  0.00393665 0.00405605 0.00188171
C  -0.00428013 0.00014524 -0.00754079
C  0.00275595 -0.00491833 -0.00065277
C  0.00320187 0.00406910 -0.00669479
C  0.00398223 0.00093609 0.00130544
H  0.01676282 -0.00762258 0.00365559
H  -0.01829529 0.01039230 -0.00578104
H  0.00198791 0.00178556 0.00514648
H  -0.00759374 0.01607784 0.03575113
H  0.00032230 0.01702507 0.00288399
H  0.02674664 0.00887206 -0.00669569
12
MD Step 165 Units = [Angstroms / fs]
C  0.00331639 -0.00260085 -0.00282672
C  0.00414104 0.00424677 0.00182235
C  -0.00410747 0.00079123 -0.00769847
C  0.00181917 -0.00540402 -0.00029779
C  0.00365496 0.00329639 -0.00705862
C  0.00383359 0.00108340 0.00129229
H  0.01533381 -0.00365280 0.00107419
H  -0.01802331 0.00723668 -0.00487888
H  0.00436372 -0.00077756 0.00450159
H  -0.00245435 0.01919977 0.03570849
H  -0.00284696 0.02373936 0.00321692
H  0.02664862 0.00760452 -0.00584047
12
MD Step 166 Units = [Angstroms / fs]
C  0.00331199 -0.00283794 -0.00247488
C  0.00423456 0.00443218 0.00173828
C  -0.00377410 0.00144002 -0.00781842
C  0.00090018 -0.00566752 0.00004249
C  0.00400849 0.00261690 -0.00740516
C  0.00382361 0.00122624 0.00125727
H  0.01367182 0.00016880 -0.00149458
H  -0.01680601 0.00307095 -0.00395983
H  0.00604689 -0.00335827 0.00371495
H  0.00224084 0.02085113 0.03567977
H  -0.00495402 0.02873392 0.00356705
H  0.02464439 0.00630277 -0.00499531
12
MD Step 167 Units = [Angstroms / fs]
C  0.00331437 -0.00299311 -0.00211481
C  0.00423247 0.00459150 0.00163070
C  -0.00327719 0.00207598 -0.00789977
C  0.00002466 -0.00568084 0.00036805
C  0.00423490 0.00206968 -0.00773182
C  0.00394571 0.00136071 0.00120142
H  0.01171273 0.00359667 -0.00399670
H  -0.01484026 -0.00179188 -0.00302299
H  0.00695301 -0.00591531 0.00277398
H  0.00630948 0.02073197 0.03564653
H  -0.00576109 0.03160472 0.00392313
H  0.02082543 0.00499277 -0.00417241
12
MD Step 168 Units = [Angstroms / fs]
C  0.00332943 -0.00304834 -0.00175202
C  0.00415690 0.00469744 0.00150031
C  -0.00262275 0.00268273 -0.00794274
C  -0.00078740 -0.00543622 0.00068124
C  0.00432013 0.00167293 -0.00803508
C  0.00417720 0.00148376 0.00112514
H  0.00940611 0.00641189 -0.00638276
H  -0.01239049 -0.00693402 -0.00205953
H  0.00707637 -0.00840069 0.00167558
H  0.00965436 0.01875776 0.03556372
H  -0.00520417 0.03220574 0.00426076
H  0.01548244 0.00369045 -0.00337281
12
MD Step 169 Units = [Angstroms / fs]
C  0.00336154 -0.00299002 -0.00139151
C  0.00403365 0.00472013 0.00134754
C  -0.00182504 0.00324407 -0.00794866
C  -0.00152100 -0.00494461 0.00098554
C  0.00426196 0.00142624 -0.00831104
C  0.00448013 0.00159331 0.00102803
H  0.00672120 0.00844000 -0.00861182
H  -0.00975219 -0.01188213 -0.00105547
H  0.00648278 -0.01076202 0.00042649
H  0.01225288 0.01503691 0.03537567
H  -0.00336946 0.03061978 0.00454949
H  0.00909473 0.00240042 -0.00258503
12
MD Step 170 Units = [Angstroms / fs]
C  0.00341305 -0.00281036 -0.00103747
C  0.00388849 0.00463188 0.00117280
C  -0.00090559 0.00374500 -0.00791986
C  -0.00216499 -0.00423228 0.00128458
C  0.00406714 0.00131508 -0.00855604
C  0.00480529 0.00168816 0.00090907
H  0.00365321 0.00956954 -0.01065504
H  -0.00720963 -0.01617042 0.00000377
H  0.00529734 -0.01294568 -0.00095730
H  0.01414086 0.00982690 0.03502957
H  -0.00045267 0.02710264 0.00475928
H  0.00228130 0.00111786 -0.00178686
12
MD Step 171 Units = [Angstroms / fs]
C  0.00348378 -0.00250873 -0.00069305
C  0.00374384 0.00441206 0.00097689
C  0.00010807 0.00417254 -0.00785958
C  -0.00271124 -0.00333687 0.00158136
C  0.00374855 0.00131557 -0.00876706
C  0.00509889 0.00176759 0.00076695
H  0.00022960 0.00976932 -0.01249852
H  -0.00499795 -0.01940315 0.00112843
H  0.00368992 -0.01490005 -0.00245196
H  0.01539635 0.00348613 0.03448428
H  0.00328239 0.02202378 0.00486516
H  -0.00428092 -0.00016679 -0.00095036
12
MD Step 172 Units = [Angstroms / fs]
C  0.00357063 -0.00209255 -0.00036020
C  0.00361656 0.00405051 0.00076122
C  0.00118390 0.00451640 -0.00777166
C  -0.00315405 -0.00230387 0.00187798
C  0.00332314 0.00139847 -0.00894190
C  0.00531042 0.00183091 0.00060058
H  -0.00348506 0.00910063 -0.01414438
H  -0.00327820 -0.02130190 0.00232067
H  0.00186019 -0.01657862 -0.00402778
H  0.01612673 -0.00356732 0.03371490
H  0.00753662 0.01581818 0.00484967
H  -0.00995370 -0.00146168 -0.00004870
12
MD Step 173 Units = [Angstroms / fs]
C  0.00366742 -0.00157752 -0.00003969
C  0.00351709 0.00354915 0.00052793
C  0.00228686 0.00476929 -0.00766038
C  -0.00349000 -0.00118376 0.00217539
C  0.00281080 0.00153174 -0.00907929
C  0.00539971 0.00187701 0.00040964
H  -0.00738712 0.00771977 -0.01560947
H  -0.00212853 -0.02172913 0.00357282
H  0.00002292 -0.01794247 -0.00565120
H  0.01645983 -0.01088588 0.03271443
H  0.01199691 0.00895427 0.00470380
H  -0.01422413 -0.00276831 0.00093708
12
MD Step 174 Units = [Angstroms / fs]
C  0.00376505 -0.00098663 0.00026853
C  0.00344983 0.00292146 0.00027985
C  0.00338058 0.00492708 -0.00753016
C  -0.00371805 -0.00002983 0.00247340
C  0.00223382 0.00168203 -0.00917889
C  0.00534145 0.00190420 0.00019489
H  -0.01133669 0.00586735 -0.01692131
H  -0.00154968 -0.02068771 0.00486802
H  -0.00160652 -0.01896234 -0.00728721
H  0.01653837 -0.01801325 0.03149360
H  0.01634784 0.00191612 0.00442724
H  -0.01676110 -0.00407865 0.00201360
12
MD Step 175 Units = [Angstroms / fs]
C  0.00385220 -0.00034814 0.00056497
C  0.00341420 0.00219060 0.00002025
C  0.00442912 0.00498857 -0.00738533
C  -0.00383986 0.00110379 0.00277058
C  0.00161680 0.00181540 -0.00924124
C  0.00512656 0.00191028 -0.00004178
H  -0.01516619 0.00384307 -0.01811163
H  -0.00147938 -0.01830273 0.00618237
H  -0.00282674 -0.01961982 -0.00890174
H  0.01651611 -0.02449994 0.03007995
H  0.02027795 -0.00480577 0.00402823
H  -0.01743345 -0.00537532 0.00317385
12
MD Step 176 Units = [Angstroms / fs]
C  0.00391644 0.00030749 0.00084993
C  0.00340600 0.00138680 -0.00024734
C  0.00539893 0.00495526 -0.00722987
C  -0.00385992 0.00216419 0.00306437
C  0.00098633 0.00189790 -0.00926772
C  0.00476083 0.00189285 -0.00029747
H  -0.01869437 0.00196894 -0.01920903
H  -0.00180983 -0.01479442 0.00748793
H  -0.00346545 -0.01990796 -0.01046419
H  0.01655331 -0.02991915 0.02851614
H  0.02348536 -0.01072242 0.00352339
H  -0.01629484 -0.00663408 0.00439880
12
MD Step 177 Units = [Angstroms / fs]
C  0.00394570 0.00095096 0.00112307
C  0.00341857 0.00054472 -0.00051937
C  0.00626083 0.00483095 -0.00706716
C  -0.00378551 0.00310220 0.00335111
C  0.00037023 0.00189663 -0.00926048
C  0.00426193 0.00184968 -0.00056859
H  -0.02174415 0.00054751 -0.02023239
H  -0.00240406 -0.01044984 0.00875568
H  -0.00339502 -0.01983087 -0.01194989
H  0.01680914 -0.03388793 0.02685721
H  0.02568735 -0.01536046 0.00293724
H  -0.01354829 -0.00782736 0.00566081
12
MD Step 178 Units = [Angstroms / fs]
C  0.00392982 0.00155728 0.00138305
C  0.00344378 -0.00029892 -0.00079244
C  0.00699192 0.00462127 -0.00689981
C  -0.00362602 0.00387552 0.00362634
C  -0.00020385 0.00178190 -0.00922235
C  0.00365584 0.00177921 -0.00085114
H  -0.02416092 -0.00017634 -0.02118679
H  -0.00310910 -0.00559798 0.00995806
H  -0.00254731 -0.01940243 -0.01334226
H  0.01742852 -0.03609652 0.02516589
H  0.02663780 -0.01828956 0.00230085
H  -0.00950449 -0.00892770 0.00692755
12
MD Step 179 Units = [Angstroms / fs]
C  0.00386184 0.00210789 0.00162748
C  0.00347262 -0.00110715 -0.00106340
C  0.00757724 0.00433332 -0.00672950
C  -0.00339161 0.00445247 0.00388532
C  -0.00071093 0.00153079 -0.00915651
C  0.00297378 0.00168084 -0.00114105
H  -0.02582808 -0.00004290 -0.02206268
H  -0.00376586 -0.00058938 0.01107105
H  -0.00092579 -0.01864399 -0.01463434
H  0.01852216 -0.03634557 0.02350541
H  0.02615414 -0.01916773 0.00164884
H  -0.00454370 -0.00991039 0.00816563
12
MD Step 180 Units = [Angstroms / fs]
C  0.00373893 0.00259168 0.00185315
C  0.00349569 -0.00184436 -0.00132948
C  0.00801081 0.00397527 -0.00655693
C  -0.00309128 0.00481572 0.00412374
C  -0.00113176 0.00113213 -0.00906611
C  0.00224964 0.00155525 -0.00143432
H  -0.02667727 0.00100966 -0.02283826
H  -0.00421682 0.00422078 0.01207576
H  0.00138792 -0.01758150 -0.01582908
H  0.02014085 -0.03458573 0.02192966
H  0.02415216 -0.01780336 0.00101412
H  0.00091395 -0.01075523 0.00934341
12
MD Step 181 Units = [Angstroms / fs]
C  0.00356280 0.00300476 0.00205629
C  0.00350359 -0.00247761 -0.00158832
C  0.00829583 0.00355608 -0.00638191
C  -0.00273062 0.00496517 0.00433859
C  -0.00145613 0.00059195 -0.00895363
C  0.00151835 0.00140460 -0.00172721
H  -0.02669224 0.00294675 -0.02348384
H  -0.00431322 0.00848897 0.01295958
H  0.00423582 -0.01624246 -0.01693826
H  0.02224897 -0.03094839 0.02047223
H  0.02068124 -0.01422293 0.00042048
H  0.00643032 -0.01144755 0.01043318
12
MD Step 182 Units = [Angstroms / fs]
C  0.00333953 0.00334942 0.00223309
C  0.00348745 -0.00297816 -0.00183808
C  0.00844384 0.00308524 -0.00620358
C  -0.00231000 0.00491873 0.00452899
C  -0.00168517 -0.00006241 -0.00882020
C  0.00081448 0.00123258 -0.00201634
H  -0.02590698 0.00564962 -0.02396708
H  -0.00392337 0.01190182 0.01371705
H  0.00739554 -0.01465353 -0.01797978
H  0.02470594 -0.02575389 0.01913699
H  0.01594731 -0.00872231 -0.00012551
H  0.01156601 -0.01197877 0.01141272
12
MD Step 183 Units = [Angstroms / fs]
C  0.00307911 0.00363266 0.00238001
C  0.00343976 -0.00332322 -0.00207743
C  0.00847290 0.00257266 -0.00602074
C  -0.00182411 0.00471017 0.00469648
C  -0.00183164 -0.00078180 -0.00866513
C  0.00017113 0.00104442 -0.00229879
H  -0.02439977 0.00893355 -0.02425779
H  -0.00294333 0.01419889 0.01435009
H  0.01060229 -0.01283932 -0.01897378
H  0.02726603 -0.01948572 0.01789399
H  0.01030916 -0.00187345 -0.00064029
H  0.01589675 -0.01234666 0.01226670
12
MD Step 184 Units = [Angstroms / fs]
C  0.00279474 0.00386463 0.00249411
C  0.00335538 -0.00349809 -0.00230552
C  0.00840504 0.00202855 -0.00583218
C  -0.00126344 0.00438394 0.00484480
C  -0.00191726 -0.00150010 -0.00848592
C  -0.00038161 0.00084669 -0.00257216
H  -0.02228500 0.01256763 -0.02433180
H  -0.00131020 0.01520000 0.01486729
H  0.01357790 -0.01082289 -0.01993826
H  0.02960315 -0.01272968 0.01668359
H  0.00423967 0.00553351 -0.00116337
H  0.01903399 -0.01255531 0.01298762
12
MD Step 185 Units = [Angstroms / fs]
C  0.00250190 0.00405735 0.00257330
C  0.00323284 -0.00349832 -0.00252189
C  0.00826341 0.00146336 -0.00563706
C  -0.00061745 0.00398798 0.00497888
C  -0.00196772 -0.00214417 -0.00827884
C  -0.00081873 0.00064711 -0.00283471
H  -0.01970428 0.01629347 -0.02417357
H  0.00098317 0.01483411 0.01528183
H  0.01606216 -0.00862751 -0.02088528
H  0.03135880 -0.00608968 0.01542858
H  -0.00174336 0.01260985 -0.00175010
H  0.02065285 -0.01261462 0.01357637
12
MD Step 186 Units = [Angstroms / fs]
C  0.00221747 0.00422355 0.00261641
C  0.00307546 -0.00333154 -0.00272620
C  0.00806965 0.00088768 -0.00543513
C  0.00012118 0.00356644 0.00510360
C  -0.00200661 -0.00264621 -0.00803999
C  -0.00112299 0.00045408 -0.00308528
H  -0.01681757 0.01984188 -0.02377763
H  0.00387518 0.01316334 0.01560791
H  0.01784104 -0.00627913 -0.02181839
H  0.03220146 -0.00010218 0.01405113
H  -0.00715825 0.01851829 -0.00245869
H  0.02052843 -0.01253896 0.01404185
12
MD Step 187 Units = [Angstroms / fs]
C  0.00195870 0.00437587 0.00262327
C  0.00289213 -0.00301809 -0.00291786
C  0.00784189 0.00031207 -0.00522686
C  0.00095286 0.00315403 0.00522244
C  -0.00205039 -0.00295479 -0.00776644
C  -0.00128804 0.00027620 -0.00332330
H  -0.01379439 0.02294777 -0.02314904
H  0.00722864 0.01039324 0.01585583
H  0.01876727 -0.00380865 -0.02273186
H  0.03188049 0.00482874 0.01248907
H  -0.01162788 0.02260668 -0.00333615
H  0.01857653 -0.01234477 0.01439898
12
MD Step 188 Units = [Angstroms / fs]
C  0.00174220 0.00452606 0.00259475
C  0.00269714 -0.00258995 -0.00309572
C  0.00759350 -0.00025310 -0.00501338
C  0.00186887 0.00277328 0.00533673
C  -0.00210578 -0.00304133 -0.00745700
C  -0.00132120 0.00012169 -0.00354846
H  -0.01080466 0.02536453 -0.02230290
H  0.01083485 0.00686101 0.01602707
H  0.01877090 -0.00125319 -0.02361164
H  0.03026034 0.00846281 0.01070694
H  -0.01491769 0.02448739 -0.00440817
H  0.01488981 -0.01204702 0.01466482
12
MD Step 189 Units = [Angstroms / fs]
C  0.00158282 0.00468421 0.00253259
C  0.00250895 -0.00208748 -0.00325777
C  0.00733276 -0.00079785 -0.00479632
C  0.00285115 0.00243445 0.00544537
C  -0.00216983 -0.00290105 -0.00711251
C  -0.00124476 -0.00000226 -0.00376038
H  -0.00800840 0.02687880 -0.02126298
H  0.01443134 0.00299825 0.01611067
H  0.01786014 0.00134385 -0.02443764
H  0.02732978 0.01072191 0.00869976
H  -0.01693922 0.02405018 -0.00567565
H  0.00975608 -0.01165522 0.01485302
12
MD Step 190 Units = [Angstroms / fs]
C  0.00149240 0.00485783 0.00243934
C  0.00234787 -0.00155454 -0.00340116
C  0.00706311 -0.00131283 -0.00457769
C  0.00387380 0.00213744 0.00554513
C  -0.00223205 -0.00254959 -0.00673552
C  -0.00109490 -0.00008995 -0.00395817
H  -0.00554396 0.02732642 -0.02005940
H  0.01773202 -0.00072728 0.01608275
H  0.01611434 0.00393407 -0.02518662
H  0.02318961 0.01166532 0.00649047
H  -0.01772811 0.02142288 -0.00711732
H  0.00364560 -0.01117031 0.01496774
12
MD Step 191 Units = [Angstroms / fs]
C  0.00147866 0.00505081 0.00231800
C  0.00223313 -0.00103293 -0.00352239
C  0.00678392 -0.00178940 -0.00435957
C  0.00490541 0.00187446 0.00563124
C  -0.00227726 -0.00201751 -0.00632981
C  -0.00091754 -0.00013756 -0.00414008
H  -0.00351499 0.02660888 -0.01872513
H  0.02046397 -0.00387811 0.01590959
H  0.01367193 0.00646616 -0.02583521
H  0.01802831 0.01145519 0.00412360
H  -0.01741058 0.01690706 -0.00869592
H  -0.00283880 -0.01058359 0.01499910
12
MD Step 192 Units = [Angstroms / fs]
C  0.00154403 0.00526245 0.00217179
C  0.00218016 -0.00055745 -0.00361791
C  0.00649141 -0.00221979 -0.00414399
C  0.00591167 0.00163271 0.00569800
C  -0.00228827 -0.00134490 -0.00589977
C  -0.00076176 -0.00014311 -0.00430345
H  -0.00197747 0.02470838 -0.01729180
H  0.02240246 -0.00610597 0.01555378
H  0.01071605 0.00888846 -0.02636260
H  0.01209457 0.01032292 0.00165796
H  -0.01617074 0.01091337 -0.01036507
H  -0.00904291 -0.00987890 0.01492218
12
MD Step 193 Units = [Angstroms / fs]
C  0.00168500 0.00548670 0.00200365
C  0.00219839 -0.00015269 -0.00368459
C  0.00617971 -0.00259712 -0.00393270
C  0.00685765 0.00139642 0.00573942
C  -0.00224789 -0.00057700 -0.00545004
C  -0.00067223 -0.00010627 -0.00444500
H  -0.00092930 0.02169826 -0.01578497
H  0.02339638 -0.00719002 0.01498146
H  0.00745941 0.01115150 -0.02675258
H  0.00567303 0.00854211 -0.00084008
H  -0.01422564 0.00391119 -0.01207512
H  -0.01435491 -0.00903740 0.01470037
12
MD Step 194 Units = [Angstroms / fs]
C  0.00189187 0.00571197 0.00181598
C  0.00229040 0.00016806 -0.00372033
C  0.00584189 -0.00291548 -0.00372712
C  0.00770948 0.00114842 0.00574960
C  -0.00214008 0.00023850 -0.00498519
C  -0.00068264 -0.00002801 -0.00456132
H  -0.00030566 0.01774502 -0.01422004
H  0.02337987 -0.00704959 0.01416879
H  0.00412954 0.01321040 -0.02699506
H  -0.00093450 0.00640943 -0.00330180
H  -0.01180948 -0.00360381 -0.01377720
H  -0.01828801 -0.00804361 0.01429246
12
MD Step 195 Units = [Angstroms / fs]
C  0.00214942 0.00592185 0.00161031
C  0.00245198 0.00040212 -0.00372428
C  0.00547102 -0.00316997 -0.00352823
C  0.00843572 0.00087114 0.00572316
C  -0.00195036 0.00105311 -0.00450958
C  -0.00081168 0.00008972 -0.00464956
H  0.00001687 0.01309863 -0.01259984
H  0.02237056 -0.00573444 0.01310604
H  0.00095422 0.01502683 -0.02708671
H  -0.00742322 0.00423133 -0.00566023
H  -0.00916562 -0.01112724 -0.01542601
H  -0.02053294 -0.00689062 0.01366091
12
MD Step 196 Units = [Angstroms / fs]
C  0.00243829 0.00609673 0.00138734
C  0.00267305 0.00055550 -0.00369698
C  0.00506118 -0.00335671 -0.00333656
C  0.00900831 0.00054743 0.00565544
C  -0.00166593 0.00181847 -0.00402735
C  -0.00106205 0.00024422 -0.00470784
H  0.00020626 0.00807046 -0.01091481
H  0.02045823 -0.00340086 0.01179911
H  -0.00185298 0.01657055 -0.02703112
H  -0.01349720 0.00231305 -0.00785359
H  -0.00654291 -0.01815554 -0.01698174
H  -0.02097332 -0.00558297 0.01277908
12
MD Step 197 Units = [Angstroms / fs]
C  0.00273711 0.00621617 0.00114711
C  0.00293900 0.00064063 -0.00364029
C  0.00460857 -0.00347291 -0.00315222
C  0.00940368 0.00016157 0.00554288
C  -0.00127556 0.00248722 -0.00354226
C  -0.00142215 0.00043204 -0.00473563
H  0.00045229 0.00300093 -0.00914625
H  0.01778892 -0.00028280 0.01026882
H  -0.00410753 0.01782037 -0.02683808
H  -0.01888206 0.00094603 -0.00982866
H  -0.00419244 -0.02419516 -0.01841204
H  -0.01966954 -0.00413684 0.01163562
12
MD Step 198 Units = [Angstroms / fs]
C  0.00302492 0.00626160 0.00088940
C  0.00323208 0.00067429 -0.00355717
C  0.00411254 -0.00351678 -0.00297499
C  0.00960388 -0.00029932 0.00538324
C  -0.00076988 0.00301464 -0.00305764
C  -0.00186919 0.00064898 -0.00473365
H  0.00093942 -0.00177757 -0.00727178
H  0.01454870 0.00333535 0.00854893
H  -0.00566856 0.01876442 -0.02652212
H  -0.02334083 0.00038993 -0.01154460
H  -0.00236050 -0.02877896 -0.01969420
H  -0.01682398 -0.00257819 0.01023572
12
MD Step 199 Units = [Angstroms / fs]
C  0.00328340 0.00621881 0.00061425
C  0.00353259 0.00067585 -0.00345152
C  0.00357662 -0.00348758 -0.00280448
C  0.00959800 -0.00084323 0.00517593
C  -0.00014213 0.00336126 -0.00257613
C  -0.00237276 0.00089011 -0.00470377
H  0.00182084 -0.00597563 -0.00527199
H  0.01094943 0.00714111 0.00668355
H  -0.00645256 0.01939961 -0.02610038
H  -0.02669357 0.00084724 -0.01297688
H  -0.00127361 -0.03149641 -0.02081782
H  -0.01274080 -0.00093997 0.00860012
12
MD Step 200 Units = [Angstroms / fs]
C  0.00349852 0.00607973 0.00032234
C  0.00382000 0.00066601 -0.00332789
C  0.00300926 -0.00338555 -0.00264034
C  0.00938370 -0.00147071 0.00492229
C  0.00061008 0.00349700 -0.00209953
C  -0.00289797 0.00114984 -0.00464877
H  0.00319904 -0.00937340 -0.00313614
H  0.00721704 0.01081127 0.00472441
H  -0.00644391 0.01973019 -0.02558972
H  -0.02883908 0.00243104 -0.01412076
H  -0.00111267 -0.03204059 -0.02178698
H  -0.00778977 0.00074081 0.00676267
12
MD Step 201 Units = [Angstroms / fs]
C  0.00366139 0.00584319 0.00001536
C  0.00407387 0.00066574 -0.00319133
C  0.00242414 -0.00321183 -0.00248243
C  0.00896838 -0.00217210 0.00462566
C  0.00148225 0.00340629 -0.00162865
C  -0.00340786 0.00142219 -0.00457207
H  0.00511577 -0.01183533 -0.00086604
H  0.00358142 0.01402621 0.00272807
H  -0.00569989 0.01976562 -0.02500377
H  -0.02977363 0.00513106 -0.01499290
H  -0.00197644 -0.03026848 -0.02262047
H  -0.00237806 0.00242547 0.00476763
12
MD Step 202 Units = [Angstroms / fs]
C  0.00376823 0.00551479 -0.00030397
C  0.00427484 0.00069528 -0.00304713
C  0.00183982 -0.00296847 -0.00233111
C  0.00836949 -0.00292549 0.00429117
C  0.00245988 0.00309318 -0.00116359
C  -0.00386515 0.00170106 -0.00447759
H  0.00755163 -0.01331292 0.00152279
H  0.00026611 0.01648413 0.00075275
H  -0.00434780 0.01951806 -0.02435012
H  -0.02959958 0.00878787 -0.01562964
H  -0.00384066 -0.02626134 -0.02334833
H  0.00307040 0.00407551 0.00266689
12
MD Step 203 Units = [Angstroms / fs]
C  0.00381978 0.00510597 -0.00063197
C  0.00440571 0.00077291 -0.00290051
C  0.00127868 -0.00265850 -0.00218727
C  0.00761358 -0.00369635 0.00392527
C  0.00351609 0.00258452 -0.00070426
C  -0.00423351 0.00198064 -0.00436957
H  0.01043312 -0.01383778 0.00400222
H  -0.00252393 0.01791791 -0.00114549
H  -0.00257302 0.01900006 -0.02362857
H  -0.02851687 0.01308740 -0.01608104
H  -0.00652618 -0.02036214 -0.02400341
H  0.00813091 0.00565403 0.00051742
12
MD Step 204 Units = [Angstroms / fs]
C  0.00382036 0.00463272 -0.00096418
C  0.00445288 0.00091336 -0.00275628
C  0.00076514 -0.00228606 -0.00205241
C  0.00673370 -0.00443967 0.00353483
C  0.00461113 0.00192904 -0.00025132
C  -0.00447880 0.00225560 -0.00425244
H  0.01364408 -0.01350893 0.00653435
H  -0.00461786 0.01811655 -0.00291754
H  -0.00059839 0.01822319 -0.02283085
H  -0.02679499 0.01758589 -0.01640157
H  -0.00969346 -0.01316513 -0.02460896
H  0.01239403 0.00712711 -0.00162170
12
MD Step 205 Units = [Angstroms / fs]
C  0.00377682 0.00411419 -0.00129568
C  0.00440787 0.00112582 -0.00261841
C  0.00032344 -0.00185667 -0.00192846
C  0.00576587 -0.00510477 0.00312635
C  0.00569508 0.00119144 0.00019285
C  -0.00457063 0.00252121 -0.00413066
H  0.01703852 -0.01247751 0.00907500
H  -0.00589750 0.01695110 -0.00452685
H  0.00134193 0.01719784 -0.02194205
H  -0.02472967 0.02176638 -0.01663953
H  -0.01287664 -0.00544423 -0.02516611
H  0.01548575 0.00846539 -0.00369285
12
MD Step 206 Units = [Angstroms / fs]
C  0.00369757 0.00357135 -0.00162129
C  0.00426903 0.00141181 -0.00248952
C  -0.00002478 -0.00137744 -0.00181757
C  0.00474519 -0.00564190 0.00270515
C  0.00671363 0.00044212 0.00062360
C  -0.00448454 0.00277320 -0.00400833
H  0.02045298 -0.01093169 0.01157746
H  -0.00631685 0.01440182 -0.00595505
H  0.00303005 0.01593440 -0.02094364
H  -0.02259547 0.02511589 -0.01682851
H  -0.01555601 0.00196935 -0.02564688
H  0.01709532 0.00964596 -0.00564458
12
MD Step 207 Units = [Angstroms / fs]
C  0.00359174 0.00302592 -0.00193587
C  0.00404277 0.00176348 -0.00237059
C  -0.00026254 -0.00085723 -0.00172169
C  0.00370292 -0.00600899 0.00227509
C  0.00761538 -0.00025428 0.00103428
C  -0.00420490 0.00300745 -0.00388886
H  0.02371754 -0.00908250 0.01399593
H  -0.00591774 0.01058047 -0.00720626
H  0.00428848 0.01444532 -0.01981725
H  -0.02060702 0.02720368 -0.01698337
H  -0.01724984 0.00832547 -0.02599647
H  0.01701125 0.01065455 -0.00743742
12
MD Step 208 Units = [Angstroms / fs]
C  0.00346852 0.00249933 -0.00223456
C  0.00374395 0.00216285 -0.00226079
C  -0.00037907 -0.00030662 -0.00164233
C  0.00266481 -0.00617676 0.00183862
C  0.00835849 -0.00084821 0.00141709
C  -0.00372817 0.00321963 -0.00377440
H  0.02666554 -0.00715068 0.01628857
H  -0.00483561 0.00573886 -0.00830814
H  0.00499735 0.01274743 -0.01854856
H  -0.01889789 0.02774025 -0.01710148
H  -0.01759643 0.01306678 -0.02614463
H  0.01516184 0.01148732 -0.00904996
12
MD Step 209 Units = [Angstroms / fs]
C  0.00333646 0.00201187 -0.00251295
C  0.00339503 0.00258285 -0.00215776
C  -0.00037061 0.00026236 -0.00158022
C  0.00165113 -0.00613138 0.00139718
C  0.00891465 -0.00130991 0.00176444
C  -0.00306590 0.00340487 -0.00366547
H  0.02914258 -0.00535370 0.01842007
H  -0.00328988 0.00025583 -0.00930834
H  0.00510277 0.01086380 -0.01713049
H  -0.01751880 0.02660497 -0.01716771
H  -0.01640230 0.01588480 -0.02602147
H  0.01165114 0.01215169 -0.01048368
12
MD Step 210 Units = [Angstroms / fs]
C  0.00320299 0.00158168 -0.00276727
C  0.00302361 0.00299022 -0.00205824
C  -0.00024051 0.00083671 -0.00153517
C  0.00067761 -0.00587441 0.00095170
C  0.00926971 -0.00162912 0.00207002
C  -0.00224616 0.00355762 -0.00356074
H  0.03101540 -0.00389187 0.02036372
H  -0.00155735 -0.00540042 -0.01026612
H  0.00461688 0.00882474 -0.01556515
H  -0.01645020 0.02384258 -0.01716104
H  -0.01364870 0.01671665 -0.02557168
H  0.00677713 0.01266522 -0.01176442
12
MD Step 211 Units = [Angstroms / fs]
C  0.00307376 0.00122366 -0.00299457
C  0.00265898 0.00335003 -0.00195900
C  0.00000130 0.00140310 -0.00150602
C  -0.00024320 -0.00542088 0.00050302
C  0.00942186 -0.00181151 0.00232958
C  -0.00131257 0.00367182 -0.00345730
H  0.03218071 -0.00293295 0.02210276
H  0.00006766 -0.01073019 -0.01124073
H  0.00361127 0.00666771 -0.01386452
H  -0.01562167 0.01963744 -0.01706066
H  -0.00946563 0.01570043 -0.02476347
H  0.00101882 0.01305224 -0.01293859
12
MD Step 212 Units = [Angstroms / fs]
C  0.00295220 0.00094823 -0.00319278
C  0.00232827 0.00363083 -0.00185773
C  0.00033917 0.00194856 -0.00149068
C  -0.00110066 -0.00479652 0.00005222
C  0.00937861 -0.00187370 0.00254108
C  -0.00032011 0.00374129 -0.00335130
H  0.03257375 -0.00259551 0.02363078
H  0.00131700 -0.01526805 -0.01227974
H  0.00220623 0.00443620 -0.01204990
H  -0.01493133 0.01427824 -0.01685031
H  -0.00409042 0.01311476 -0.02359128
H  -0.00501417 0.01333871 -0.01406404
12
MD Step 213 Units = [Angstroms / fs]
C  0.00283910 0.00076004 -0.00336069
C  0.00205318 0.00380908 -0.00175368
C  0.00075290 0.00246111 -0.00148627
C  -0.00188520 -0.00403486 -0.00039928
C  0.00915382 -0.00183875 0.00270457
C  0.00067154 0.00376025 -0.00323896
H  0.03217539 -0.00293267 0.02495075
H  0.00198572 -0.01864105 -0.01341051
H  0.00055788 0.00217803 -0.01015053
H  -0.01426139 0.00812324 -0.01652079
H  0.00217318 0.00932270 -0.02207428
H  -0.01066342 0.01354653 -0.01519728
12
MD Step 214 Units = [Angstroms / fs]
C  0.00273245 0.00065699 -0.00349780
C  0.00184790 0.00387200 -0.00164793
C  0.00121899 0.00293025 -0.00148934
C  -0.00258795 -0.00317478 -0.00084964
C  0.00876569 -0.00173285 0.00282190
C  0.00160586 0.00372381 -0.00311756
H  0.03101597 -0.00391917 0.02607240
H  0.00195418 -0.02060719 -0.01463672
H  -0.00115537 -0.00005684 -0.00820153
H  -0.01348879 0.00157153 -0.01607091
H  0.00898668 0.00473078 -0.02025294
H  -0.01531662 0.01368920 -0.01638096
12
MD Step 215 Units = [Angstroms / fs]
C  0.00262774 0.00062973 -0.00360403
C  0.00171855 0.00381833 -0.00154320
C  0.00171198 0.00334726 -0.00149602
C  -0.00320075 -0.00225852 -0.00129663
C  0.00823547 -0.00158344 0.00289646
C  0.00243634 0.00362837 -0.00298611
H  0.02917433 -0.00544587 0.02700815
H  0.00119303 -0.02106876 -0.01594004
H  -0.00274641 -0.00221871 -0.00624151
H  -0.01249171 -0.00495873 -0.01550759
H  0.01599680 -0.00023564 -0.01818555
H  -0.01849122 0.01376995 -0.01763522
12
MD Step 216 Units = [Angstroms / fs]
C  0.00251852 0.00066211 -0.00367937
C  0.00166378 0.00365732 -0.00144339
C  0.00220593 0.00370542 -0.00150234
C  -0.00371640 -0.00132995 -0.00173768
C  0.00758710 -0.00141830 0.00293301
C  0.00313094 0.00347175 -0.00284552
H  0.02677071 -0.00732531 0.02776819
H  -0.00024595 -0.02006385 -0.01728555
H  -0.00403311 -0.00426047 -0.00430980
H  -0.01115382 -0.01104773 -0.01484530
H  0.02284643 -0.00514444 -0.01594566
H  -0.01988764 0.01378263 -0.01895523
12
MD Step 217 Units = [Angstroms / fs]
C  0.00239750 0.00073268 -0.00372350
C  0.00167616 0.00340665 -0.00135299
C  0.00267589 0.00399995 -0.00150446
C  -0.00412893 -0.00043281 -0.00216992
C  0.00684698 -0.00126532 0.00293753
C  0.00367337 0.00325327 -0.00269838
H  0.02395394 -0.00931005 0.02835585
H  -0.00224727 -0.01774366 -0.01862854
H  -0.00485218 -0.00613993 -0.00244356
H  -0.00936822 -0.01629096 -0.01410508
H  0.02918108 -0.00956257 -0.01362008
H  -0.01940469 0.01371451 -0.02031443
12
MD Step 218 Units = [Angstroms / fs]
C  0.00225778 0.00081710 -0.00373557
C  0.00174371 0.00308991 -0.00127655
C  0.00309954 0.00422800 -0.00149897
C  -0.00443383 0.00039143 -0.00259030
C  0.00604369 -0.00115209 0.00291714
C  0.00406186 0.00297371 -0.00254843
H  0.02088457 -0.01112234 0.02876454
H  -0.00465127 -0.01434445 -0.01992113
H  -0.00507343 -0.00782175 -0.00067472
H  -0.00704296 -0.02032016 -0.01331317
H  0.03465623 -0.01306254 -0.01130677
H  -0.01712284 0.01354987 -0.02167151
12
MD Step 219 Units = [Angstroms / fs]
C  0.00209405 0.00089105 -0.00371412
C  0.00185147 0.00273428 -0.00121827
C  0.00345877 0.00438849 -0.00148318
C  -0.00462790 0.00110637 -0.00299571
C  0.00520718 -0.00110502 0.00287984
C  0.00430629 0.00263528 -0.00239994
H  0.01771728 -0.01249006 0.02897745
H  -0.00727172 -0.01016070 -0.02111763
H  -0.00461362 -0.00927908 0.00097301
H  -0.00410971 -0.02283144 -0.01249870
H  0.03895055 -0.01523661 -0.00911081
H  -0.01326833 0.01327310 -0.02297846
12
MD Step 220 Units = [Angstroms / fs]
C  0.00190362 0.00093314 -0.00365732
C  0.00198266 0.00236865 -0.00118165
C  0.00374116 0.00448198 -0.00145534
C  -0.00470891 0.00168403 -0.00338323
C  0.00436703 -0.00114724 0.00283395
C  0.00442496 0.00224171 -0.00225717
H  0.01458562 -0.01318200 0.02897004
H  -0.00990997 -0.00552267 -0.02217839
H  -0.00344885 -0.01049432 0.00248660
H  -0.00053611 -0.02362105 -0.01169055
H  0.04178885 -0.01572482 -0.00713693
H  -0.00817175 0.01287102 -0.02418768
12
MD Step 221 Units = [Angstroms / fs]
C  0.00168688 0.00092709 -0.00356326
C  0.00211975 0.00202210 -0.00116936
C  0.00394106 0.00451045 -0.00141481
C  -0.00467481 0.00210856 -0.00375049
C  0.00354985 -0.00129510 0.00278720
C  0.00444168 0.00179822 -0.00212404
H  0.01159174 -0.01303543 0.02871472
H  -0.01236556 -0.00077845 -0.02307239
H  -0.00162292 -0.01145913 0.00386526
H  0.00365883 -0.02262446 -0.01091321
H  0.04297548 -0.01426056 -0.00547713
H  -0.00223065 0.01233421 -0.02525736
12
MD Step 222 Units = [Angstroms / fs]
C  0.00144740 0.00086300 -0.00343044
C  0.00224527 0.00172275 -0.00118308
C  0.00406005 0.00447718 -0.00136217
C  -0.00452285 0.00237936 -0.00409600
C  0.00277595 -0.00155338 0.00274536
C  0.00438359 0.00131157 -0.00200387
H  0.00880197 -0.01197194 0.02818652
H  -0.01444499 0.00372132 -0.02377890
H  0.00075053 -0.01217334 0.00512051
H  0.00838930 -0.01994952 -0.01018232
H  0.04243389 -0.01073095 -0.00419346
H  0.00411957 0.01165770 -0.02615500
12
MD Step 223 Units = [Angstroms / fs]
C  0.00119157 0.00073757 -0.00325811
C  0.00234265 0.00149655 -0.00122345
C  0.00410665 0.00438645 -0.00129903
C  -0.00424888 0.00251250 -0.00441951
C  0.00205638 -0.00191026 0.00271065
C  0.00427955 0.00078988 -0.00189928
H  0.00624756 -0.01000059 0.02736831
H  -0.01597030 0.00763905 -0.02428856
H  0.00349448 -0.01264308 0.00627448
H  0.01349228 -0.01588999 -0.00950109
H  0.04024132 -0.00523983 -0.00329892
H  0.01042725 0.01084128 -0.02685962
12
MD Step 224 Units = [Angstroms / fs]
C  0.00092804 0.00055348 -0.00304660
C  0.00239714 0.00136588 -0.00129000
C  0.00409508 0.00424336 -0.00122782
C  -0.00384733 0.00253946 -0.00472207
C  0.00139143 -0.00233386 0.00268058
C  0.00415896 0.00024247 -0.00181201
H  0.00392916 -0.00721066 0.02625459
H  -0.01678896 0.01066909 -0.02460368
H  0.00638419 -0.01287838 0.00735636
H  0.01872840 -0.01090722 -0.00885892
H  0.03664275 0.00184949 -0.00274295
H  0.01624150 0.00988966 -0.02736300
12
MD Step 225 Units = [Angstroms / fs]
C  0.00066700 0.00031827 -0.00279741
C  0.00239689 0.00134770 -0.00138125
C  0.00404328 0.00405352 -0.00115135
C  -0.00331228 0.00250267 -0.00500591
C  0.00077186 -0.00277265 0.00264767
C  0.00405058 -0.00032047 -0.00174295
H  0.00182310 -0.00375770 0.02485354
H  -0.01678610 0.01256172 -0.02473768
H  0.00917087 -0.01289097 0.00839765
H  0.02379870 -0.00557543 -0.00823347
H  0.03203018 0.00991837 -0.00240907
H  0.02112962 0.00881248 -0.02767032
12
MD Step 226 Units = [Angstroms / fs]
C  0.00041955 0.00004305 -0.00251330
C  0.00233414 0.00145138 -0.00149479
C  0.00397047 0.00382289 -0.00107246
C  -0.00263947 0.00244875 -0.00527394
C  0.00018302 -0.00316106 0.00260067
C  0.00398091 -0.00088827 -0.00169200
H  -0.00011199 0.00015316 0.02318738
H  -0.01589852 0.01315199 -0.02471318
H  0.01160969 -0.01269270 0.00942691
H  0.02837730 -0.00049911 -0.00759590
H  0.02688411 0.01816043 -0.00213045
H  0.02469928 0.00762397 -0.02779991
12
MD Step 227 Units = [Angstroms / fs]
C  0.00019705 -0.00025872 -0.00219816
C  0.00220643 0.00167632 -0.00162760
C  0.00389472 0.00355755 -0.00099353
C  -0.00182901 0.00242086 -0.00552913
C  -0.00038926 -0.00342969 0.00252698
C  0.00397201 -0.00145011 -0.00165817
H  -0.00192909 0.00428423 0.02129144
H  -0.01412841 0.01238963 -0.02455818
H  0.01348754 -0.01229491 0.01046527
H  0.03215364 0.00377727 -0.00691793
H  0.02169123 0.02570487 -0.00172136
H  0.02662865 0.00634215 -0.02778167
12
MD Step 228 Units = [Angstroms / fs]
C  0.00001065 -0.00057229 -0.00185693
C  0.00201739 0.00201018 -0.00177646
C  0.00383075 0.00326362 -0.00091629
C  -0.00088776 0.00245244 -0.00577387
C  -0.00095297 -0.00351733 0.00241568
C  0.00403859 -0.00199521 -0.00163974
H  -0.00368746 0.00838121 0.01921213
H  -0.01155324 0.01036304 -0.02430051
H  0.01464572 -0.01170885 0.01152344
H  0.03487401 0.00684327 -0.00617848
H  0.01686390 0.03176158 -0.00101519
H  0.02670451 0.00498700 -0.02765346
12
MD Step 229 Units = [Angstroms / fs]
C  -0.00012921 -0.00088262 -0.00149536
C  0.00177694 0.00242827 -0.00193847
C  0.00378856 0.00294719 -0.00084166
C  0.00016927 0.00256356 -0.00600958
C  -0.00150672 -0.00338101 0.00225992
C  0.00418493 -0.00251283 -0.00163469
H  -0.00544800 0.01218812 0.01700426
H  -0.00832712 0.00730756 -0.02396131
H  0.01499428 -0.01094668 0.01260062
H  0.03637192 0.00846370 -0.00536786
H  0.01268640 0.03574258 0.00010424
H  0.02486373 0.00357792 -0.02745474
12
MD Step 230 Units = [Angstroms / fs]
C  -0.00021333 -0.00117522 -0.00111979
C  0.00150047 0.00289497 -0.00211155
C  0.00377275 0.00261427 -0.00076977
C  0.00131896 0.00276026 -0.00623650
C  -0.00203951 -0.00300139 0.00205803
C  0.00440220 -0.00299217 -0.00164131
H  -0.00726867 0.01546216 0.01472757
H  -0.00467042 0.00359001 -0.02354906
H  0.01451713 -0.01002264 0.01368535
H  0.03658146 0.00858331 -0.00448891
H  0.00929895 0.03732677 0.00168716
H  0.02122793 0.00213061 -0.02721787
12
MD Step 231 Units = [Angstroms / fs]
C  -0.00023422 -0.00143715 -0.00073685
C  0.00120706 0.00336722 -0.00229466
C  0.00378251 0.00227080 -0.00070012
C  0.00253140 0.00303618 -0.00645383
C  -0.00253317 -0.00238276 0.00181323
C  0.00466752 -0.00342215 -0.00165892
H  -0.00919947 0.01798910 0.01244248
H  -0.00084677 -0.00033317 -0.02305640
H  0.01326860 -0.00895407 0.01475771
H  0.03553426 0.00730334 -0.00355542
H  0.00671437 0.03646127 0.00371980
H  0.01611755 0.00065443 -0.02695843
12
MD Step 232 Units = [Angstroms / fs]
C  -0.00018680 -0.00165802 -0.00035305
C  0.00091694 0.00379981 -0.00248781
C  0.00381230 0.00192266 -0.00063175
C  0.00377205 0.00337550 -0.00665994
C  -0.00296594 -0.00154930 0.00153234
C  0.00494555 -0.00379140 -0.00168843
H  -0.01127664 0.01959994 0.01020499
H  0.00286882 -0.00397817 -0.02246096
H  0.01136394 -0.00776183 0.01579228
H  0.03334498 0.00484378 -0.00258906
H  0.00485215 0.03331656 0.00613828
H  0.01003274 -0.00084865 -0.02666752
12
MD Step 233 Units = [Angstroms / fs]
C  -0.00006896 -0.00183120 0.00002565
C  0.00064882 0.00415113 -0.00269166
C  0.00385265 0.00157561 -0.00056349
C  0.00500406 0.00375597 -0.00685261
C  -0.00331602 -0.00053966 0.00122428
C  0.00519303 -0.00408844 -0.00173256
H  -0.01351585 0.02018789 0.00806103
H  0.00622406 -0.00690240 -0.02173048
H  0.00896621 -0.00647033 0.01676130
H  0.03019196 0.00150417 -0.00161599
H  0.00357479 0.02822253 0.00884682
H  0.00359652 -0.00238260 -0.02630909
12
MD Step 234 Units = [Angstroms / fs]
C  0.00011770 -0.00195482 0.00039435
C  0.00041763 0.00438811 -0.00290693
C  0.00389134 0.00123529 -0.00049417
C  0.00619045 0.00415148 -0.00702938
C  -0.00356406 0.00059832 0.00089875
C  0.00536568 -0.00430228 -0.00179543
H  -0.01590504 0.01972377 0.00604091
H  0.00901798 -0.00876309 -0.02083062
H  0.00627160 -0.00510696 0.01763761
H  0.02629824 -0.00236939 -0.00066387
H  0.00271681 0.02160777 0.01173422
H  -0.00253089 -0.00395343 -0.02582440
12
MD Step 235 Units = [Angstroms / fs]
C  0.00036736 -0.00203248 0.00074956
C  0.00023318 0.00448929 -0.00313381
C  0.00391446 0.00090715 -0.00042275
C  0.00729575 0.00453399 -0.00718770
C  -0.00369460 0.00181161 0.00056529
C  0.00542553 -0.00442315 -0.00188172
H  -0.01839808 0.01826626 0.00415480
H  0.01111858 -0.00935349 -0.01973309
H  0.00349459 -0.00370128 0.01839702
H  0.02191577 -0.00640839 0.00024043
H  0.00210337 0.01395436 0.01468582
H  -0.00774653 -0.00556406 -0.02514308
12
MD Step 236 Units = [Angstroms / fs]
C  0.00066975 -0.00207332 0.00108947
C  0.00009983 0.00444575 -0.00337152
C  0.00390759 0.00059636 -0.00034850
C  0.00828710 0.00487494 -0.00732518
C  -0.00369635 0.00304465 0.00023283
C  0.00534701 -0.00444346 -0.00199552
H  -0.02091125 0.01596318 0.00239082
H  0.01246791 -0.00861266 -0.01842187
H  0.00085310 -0.00228390 0.01902031
H  0.01731308 -0.01023883 0.00107251
H  0.00155969 0.00577026 0.01759084
H  -0.01158374 -0.00720968 -0.02419738
12
MD Step 237 Units = [Angstroms / fs]
C  0.00101031 -0.00209105 0.00141382
C  0.00001700 0.00426016 -0.00361810
C  0.00385697 0.00030775 -0.00027110
C  0.00913514 0.00514638 -0.00743972
C  -0.00356188 0.00424101 -0.00009052
C  0.00512015 -0.00435850 -0.00213931
H  -0.02332457 0.01304067 0.00071671
H  0.01307667 -0.00661316 -0.01689638
H  -0.00144614 -0.00088529 0.01949450
H  0.01276485 -0.01349439 0.00181180
H  0.00091436 -0.00242502 0.02034650
H  -0.01375856 -0.00887508 -0.02293549
12
MD Step 238 Units = [Angstroms / fs]
C  0.00137097 -0.00210224 0.00172353
C  -0.00001991 0.00394476 -0.00387048
C  0.00375071 0.00004574 -0.00019071
C  0.00981462 0.00532213 -0.00752967
C  -0.00328693 0.00534457 -0.00039756
C  0.00475084 -0.00416710 -0.00231332
H  -0.02548940 0.00977969 -0.00091452
H  0.01301258 -0.00353534 -0.01517181
H  -0.00322252 0.00046555 0.01981362
H  0.00854087 -0.01583039 0.00244272
H  -0.00000005 -0.01010846 0.02286081
H  -0.01417896 -0.01053469 -0.02133040
12
MD Step 239 Units = [Angstroms / fs]
C  0.00173149 -0.00212372 0.00202000
C  -0.00001832 0.00351892 -0.00412463
C  0.00358003 -0.00018571 -0.00010795
C  0.01030523 0.00537947 -0.00759396
C  -0.00286968 0.00630089 -0.00068211
C  0.00425859 -0.00387179 -0.00251537
H  -0.02724251 0.00648291 -0.00255561
H  0.01238651 0.00036254 -0.01327723
H  -0.00433649 0.00174230 0.01997888
H  0.00489160 -0.01694259 0.00295588
H  -0.00134580 -0.01676364 0.02505562
H  -0.01292431 -0.01215466 -0.01938302
12
MD Step 240 Units = [Angstroms / fs]
C  0.00207117 -0.00216989 0.00230436
C  0.00001246 0.00300691 -0.00437585
C  0.00334045 -0.00038311 -0.00002395
C  0.01059275 0.00530131 -0.00763227
C  -0.00231037 0.00705939 -0.00093937
C  0.00367302 -0.00347888 -0.00274108
H  -0.02842436 0.00343780 -0.00425472
H  0.01133961 0.00477209 -0.01125277
H  -0.00470370 0.00292247 0.01999802
H  0.00202839 -0.01659350 0.00334908
H  -0.00327491 -0.02190140 0.02687126
H  -0.01020861 -0.01369617 -0.01712063
12
MD Step 241 Units = [Angstroms / fs]
C  0.00237077 -0.00225046 0.00257671
C  0.00006199 0.00243604 -0.00461900
C  0.00303277 -0.00054342 0.00005983
C  0.01067053 0.00507902 -0.00764501
C  -0.00161154 0.00757700 -0.00116636
C  0.00303018 -0.00299810 -0.00298434
H  -0.02889855 0.00088332 -0.00604621
H  0.01003251 0.00935764 -0.00914645
H  -0.00430661 0.00398816 0.01988402
H  0.00009848 -0.01464602 0.00362778
H  -0.00591714 -0.02509798 0.02827278
H  -0.00634038 -0.01511884 -0.01459241
12
MD Step 242 Units = [Angstroms / fs]
C  0.00261418 -0.00236894 0.00283565
C  0.00011933 0.00183511 -0.00484877
C  0.00266364 -0.00066408 0.00014170
C  0.01054114 0.00471540 -0.00763337
C  -0.00077910 0.00782325 -0.00136251
C  0.00236945 -0.00244212 -0.00323778
H  -0.02856835 -0.00101379 -0.00794445
H  0.00863671 0.01377444 -0.00701101
H  -0.00320120 0.00492646 0.01965304
H  -0.00084190 -0.01109976 0.00380449
H  -0.00935873 -0.02605356 0.02925681
H  -0.00168754 -0.01638363 -0.01186400
12
MD Step 243 Units = [Angstroms / fs]
C  0.00278968 -0.00252237 0.00307818
C  0.00017337 0.00123319 -0.00505985
C  0.00224556 -0.00074297 0.00021994
C  0.01021757 0.00422713 -0.00759906
C  0.00017556 0.00778642 -0.00153007
C  0.00173113 -0.00182569 -0.00349326
H  -0.02738749 -0.00217004 -0.00994170
H  0.00732692 0.01768430 -0.00490095
H  -0.00151621 0.00572912 0.01932192
H  -0.00084913 -0.00612064 0.00389672
H  -0.01361204 -0.02466478 0.02985606
H  0.00334964 -0.01745527 -0.00901232
12
MD Step 244 Units = [Angstroms / fs]
C  0.00289062 -0.00270183 0.00329984
C  0.00021341 0.00065827 -0.00524718
C  0.00179609 -0.00077849 0.00029302
C  0.00972341 0.00364545 -0.00754399
C  0.00123298 0.00747914 -0.00167405
C  0.00115478 -0.00116477 -0.00374224
H  -0.02536415 -0.00258426 -0.01200981
H  0.00627298 0.02077166 -0.00286918
H  0.00055693 0.00639188 0.01890560
H  -0.00009909 -0.00005052 0.00392326
H  -0.01858147 -0.02109231 0.03013736
H  0.00835833 -0.01830402 -0.00612091
12
MD Step 245 Units = [Angstroms / fs]
C  0.00291557 -0.00289383 0.00349507
C  0.00022974 0.00013575 -0.00540624
C  0.00133628 -0.00076971 0.00035976
C  0.00909127 0.00301437 -0.00746989
C  0.00236345 0.00694089 -0.00180138
C  0.00067792 -0.00047547 -0.00397613
H  -0.02255855 -0.00232747 -0.01410471
H  0.00562954 0.02276258 -0.00096340
H  0.00278330 0.00691333 0.01841504
H  0.00112863 0.00661416 0.00389975
H  -0.02403711 -0.01579342 0.03019024
H  0.01292941 -0.01890717 -0.00327566
12
MD Step 246 Units = [Angstroms / fs]
C  0.00286800 -0.00308177 0.00365768
C  0.00021464 -0.00031345 -0.00553328
C  0.00088849 -0.00071653 0.00041944
C  0.00835944 0.00238594 -0.00737790
C  0.00352635 0.00623495 -0.00191924
C  0.00033476 0.00022687 -0.00418663
H  -0.01907626 -0.00152789 -0.01617211
H  0.00552265 0.02344803 0.00077815
H  0.00491087 0.00729376 0.01785610
H  0.00249065 0.01327844 0.00383472
H  -0.02961179 -0.00949006 0.03010628
H  0.01667414 -0.01925034 -0.00056029
12
MD Step 247 Units = [Angstroms / fs]
C  0.00275570 -0.00324761 0.00378136
C  0.00016363 -0.00067502 -0.00562575
C  0.00047406 -0.00062000 0.00047180
C  0.00756741 0.00181337 -0.00726843
C  0.00467250 0.00543934 -0.00203319
C  0.00015455 0.00092845 -0.00436611
H  -0.01505896 -0.00035452 -0.01815342
H  0.00603330 0.02271044 0.00233101
H  0.00669960 0.00753431 0.01722950
H  0.00363606 0.01933017 0.00372763
H  -0.03483348 -0.00306276 0.02995525
H  0.01924563 -0.01932829 0.00194916
12
MD Step 248 Units = [Angstroms / fs]
C  0.00259002 -0.00337305 0.00386006
C  0.00007690 -0.00094333 -0.00568250
C  0.00011097 -0.00048250 0.00051692
C  0.00675134 0.00134381 -0.00714119
C  0.00574927 0.00463333 -0.00214571
C  0.00015936 0.00161739 -0.00450817
H  -0.01067452 0.00099863 -0.01999098
H  0.00717991 0.02054936 0.00368816
H  0.00794856 0.00763662 0.01653213
H  0.00426387 0.02422699 0.00356972
H  -0.03919247 0.00260641 0.02976727
H  0.02036728 -0.01914483 0.00419094
12
MD Step 249 Units = [Angstroms / fs]
C  0.00238491 -0.00344066 0.00388836
C  -0.00003947 -0.00112292 -0.00570401
C  -0.00018788 -0.00030791 0.00055510
C  0.00594071 0.00101236 -0.00699550
C  0.00670732 0.00388412 -0.00225576
C  0.00036133 0.00228371 -0.00460822
H  -0.00610705 0.00232651 -0.02163238
H  0.00890382 0.01709921 0.00486165
H  0.00851638 0.00760299 0.01575894
H  0.00416618 0.02756657 0.00334726
H  -0.04222584 0.00679188 0.02952844
H  0.01986791 -0.01871133 0.00612505
12
MD Step 250 Units = [Angstroms / fs]
C  0.00215598 -0.00343469 0.00386171
C  -0.00017297 -0.00122861 -0.00569224
C  -0.00041571 -0.00010164 0.00058668
C  0.00515678 0.00083882 -0.00683068
C  0.00750676 0.00323768 -0.00235962
C  0.00075970 0.00291893 -0.00466406
H  -0.00154711 0.00342590 -0.02303391
H  0.01106333 0.01263074 0.00588113
H  0.00833285 0.00743689 0.01490525
H  0.00324773 0.02912481 0.00304583
H  -0.04359232 0.00903263 0.02919071
H  0.01771852 -0.01804320 0.00774000
12
MD Step 251 Units = [Angstroms / fs]
C  0.00191935 -0.00334171 0.00377669
C  -0.00030517 -0.00128402 -0.00565023
C  -0.00057212 0.00012961 0.00061182
C  0.00441288 0.00082732 -0.00664638
C  0.00812100 0.00271601 -0.00245229
C  0.00133858 0.00351533 -0.00467626
H  0.00281852 0.00410778 -0.02416317
H  0.01344141 0.00752997 0.00678852
H  0.00740106 0.00714368 0.01396875
H  0.00152195 0.02885926 0.00265421
H  -0.04311519 0.00916477 0.02869036
H  0.01406113 -0.01715448 0.00905685
12
MD Step 252 Units = [Angstroms / fs]
C  0.00169049 -0.00315139 0.00363112
C  -0.00041363 -0.00131802 -0.00558147
C  -0.00066264 0.00037813 0.00063045
C  0.00371567 0.00096816 -0.00644284
C  0.00853748 0.00231996 -0.00252895
C  0.00206631 0.00406507 -0.00464811
H  0.00681786 0.00421037 -0.02500086
H  0.01576887 0.00225414 0.00762977
H  0.00579185 0.00673121 0.01295092
H  -0.00090889 0.02688614 0.00216697
H  -0.04078654 0.00728716 0.02796659
H  0.00921730 -0.01605186 0.01012788
12
MD Step 253 Units = [Angstroms / fs]
C  0.00148293 -0.00285736 0.00342426
C  -0.00047476 -0.00136019 -0.00548918
C  -0.00069790 0.00063569 0.00064218
C  0.00306698 0.00124086 -0.00622094
C  0.00875619 0.00203516 -0.00258600
C  0.00289739 0.00455950 -0.00458502
H  0.01030590 0.00361335 -0.02554169
H  0.01776009 -0.00272788 0.00844557
H  0.00363298 0.00621016 0.01185788
H  -0.00387993 0.02344400 0.00158546
H  -0.03674183 0.00369026 0.02697477
H  0.00366576 -0.01473019 0.01102870
12
MD Step 254 Units = [Angstroms / fs]
C  0.00130710 -0.00245812 0.00315672
C  -0.00046724 -0.00143603 -0.00537566
C  -0.00069243 0.00089403 0.00064627
C  0.00246531 0.00161723 -0.00598223
C  0.00878692 0.00183828 -0.00262146
C  0.00377717 0.00498880 -0.00449349
H  0.01317722 0.00225262 -0.02579417
H  0.01915336 -0.00699743 0.00926371
H  0.00109554 0.00559410 0.01070041
H  -0.00718850 0.01885611 0.00091757
H  -0.03122114 -0.00122037 0.02569259
H  -0.00201325 -0.01317180 0.01184452
12
MD Step 255 Units = [Angstroms / fs]
C  0.00116929 -0.00195809 0.00283049
C  -0.00037494 -0.00156318 -0.00524202
C  -0.00066341 0.00114533 0.00064169
C  0.00190701 0.00206416 -0.00572877
C  0.00864672 0.00170210 -0.00263506
C  0.00464853 0.00534228 -0.00437983
H  0.01537749 0.00013418 -0.02577880
H  0.01974632 -0.01023589 0.01009503
H  -0.00162070 0.00489926 0.00949354
H  -0.01061339 0.01349890 0.00017692
H  -0.02453186 -0.00698500 0.02412086
H  -0.00721794 -0.01135094 0.01265401
12
MD Step 256 Units = [Angstroms / fs]
C  0.00107109 -0.00136832 0.00244859
C  -0.00018896 -0.00174947 -0.00508813
C  -0.00062931 0.00138259 0.00062718
C  0.00138701 0.00254559 -0.00546307
C  0.00835786 0.00159857 -0.00262800
C  0.00545896 0.00560913 -0.00424904
H  0.01691108 -0.00265628 -0.02552474
H  0.01941869 -0.01225284 0.01093353
H  -0.00430183 0.00414402 0.00825566
H  -0.01392807 0.00777853 -0.00061829
H  -0.01702096 -0.01312863 0.02228146
H  -0.01141013 -0.00924230 0.01351519
12
MD Step 257 Units = [Angstroms / fs]
C  0.00100944 -0.00070670 0.00201484
C  0.00009174 -0.00199283 -0.00491299
C  -0.00060860 0.00159990 0.00060132
C  0.00089925 0.00302406 -0.00518799
C  0.00794668 0.00150029 -0.00260280
C  0.00616635 0.00577946 -0.00410416
H  0.01784211 -0.00595145 -0.02506515
H  0.01813957 -0.01299093 0.01175993
H  -0.00673430 0.00334826 0.00700732
H  -0.01690936 0.00211427 -0.00144637
H  -0.00905875 -0.01918011 0.02021484
H  -0.01418481 -0.00683092 0.01445735
12
MD Step 258 Units = [Angstroms / fs]
C  0.00097743 0.00000265 0.00153334
C  0.00046071 -0.00228263 -0.00471505
C  -0.00061841 0.00179252 0.00056271
C  0.00043708 0.00346196 -0.00490661
C  0.00744293 0.00138086 -0.00256313
C  0.00674226 0.00584531 -0.00394625
H  0.01828658 -0.00951168 -0.02443193
H  0.01596135 -0.01251206 0.01254694
H  -0.00871947 0.00253262 0.00576979
H  -0.01934422 -0.00307544 -0.00228336
H  -0.00103158 -0.02467849 0.01797794
H  -0.01530930 -0.00412006 0.01548014
12
MD Step 259 Units = [Angstroms / fs]
C  0.00096582 0.00073107 0.00100816
C  0.00090522 -0.00260181 -0.00449271
C  -0.00067310 0.00195692 0.00051004
C  -0.00000622 0.00382295 -0.00462212
C  0.00687945 0.00121471 -0.00251376
C  0.00717247 0.00580151 -0.00377476
H  0.01839567 -0.01304635 -0.02365111
H  0.01300509 -0.01097338 0.01326468
H  -0.01008849 0.00171766 0.00456337
H  -0.02103750 -0.00738875 -0.00310438
H  0.00666165 -0.02917456 0.01564274
H  -0.01472921 -0.00113503 0.01655877
12
MD Step 260 Units = [Angstroms / fs]
C  0.00096501 0.00144778 0.00044307
C  0.00140775 -0.00292914 -0.00424466
C  -0.00078295 0.00209070 0.00044228
C  -0.00043665 0.00407398 -0.00433772
C  0.00629144 0.00097723 -0.00246048
C  0.00745536 0.00564605 -0.00358817
H  0.01833269 -0.01624543 -0.02274002
H  0.00944294 -0.00860065 0.01388517
H  -0.01071720 0.00092301 0.00340561
H  -0.02182263 -0.01046270 -0.00388540
H  0.01361493 -0.03223527 0.01329461
H  -0.01254835 0.00207753 0.01765236
12
MD Step 261 Units = [Angstroms / fs]
C  0.00096702 0.00212280 -0.00015856
C  0.00194748 -0.00324112 -0.00397010
C  -0.00095285 0.00219245 0.00035885
C  -0.00085821 0.00418796 -0.00405644
C  0.00571514 0.00064565 -0.00240992
C  0.00759924 0.00538038 -0.00338464
H  0.01824838 -0.01881590 -0.02170696
H  0.00548130 -0.00566431 0.01438555
H  -0.01054018 0.00016664 0.00230953
H  -0.02157683 -0.01200486 -0.00460563
H  0.01942957 -0.03345839 0.01102894
H  -0.00899475 0.00545355 0.01871279
12
MD Step 262 Units = [Angstroms / fs]
C  0.00096708 0.00272967 -0.00079357
C  0.00250165 -0.00351346 -0.00366892
C  -0.00118126 0.00226162 0.00025974
C  -0.00127148 0.00414728 -0.00378083
C  0.00518517 0.00020123 -0.00236903
C  0.00761940 0.00500939 -0.00316252
H  0.01826000 -0.02051613 -0.02055334
H  0.00134668 -0.00246014 0.01475009
H  -0.00956173 -0.00053572 0.00128220
H  -0.02023992 -0.01183384 -0.00525027
H  0.02374354 -0.03250356 0.00894420
H  -0.00438399 0.00891690 0.01969207
12
MD Step 263 Units = [Angstroms / fs]
C  0.00096444 0.00324764 -0.00145878
C  0.00304673 -0.00372221 -0.00334179
C  -0.00145974 0.00229834 0.00014558
C  -0.00167205 0.00394751 -0.00351283
C  0.00473044 -0.00036686 -0.00234418
C  0.00753567 0.00454133 -0.00292063
H  0.01843797 -0.02118167 -0.01927723
H  -0.00272601 0.00070594 0.01497123
H  -0.00786137 -0.00117087 0.00032380
H  -0.01783375 -0.00992284 -0.00581327
H  0.02627922 -0.02914296 0.00712973
H  0.00091273 0.01238488 0.02054768
12
MD Step 264 Units = [Angstroms / fs]
C  0.00096241 0.00366276 -0.00215074
C  0.00355955 -0.00384460 -0.00299022
C  -0.00177312 0.00230322 0.00001769
C  -0.00204943 0.00360041 -0.00325346
C  0.00436883 -0.00105633 -0.00233980
C  0.00737061 0.00398770 -0.00265846
H  0.01880178 -0.02073896 -0.01787745
H  -0.00650389 0.00353122 0.01505005
H  -0.00559124 -0.00172821 -0.00057227
H  -0.01447645 -0.00643422 -0.00629915
H  0.02690542 -0.02332763 0.00564808
H  0.00649344 0.01577294 0.02124587
12
MD Step 265 Units = [Angstroms / fs]
C  0.00096769 0.00396814 -0.00286545
C  0.00401843 -0.00386007 -0.00261656
C  -0.00210052 0.00227720 -0.00012201
C  -0.00238699 0.00313486 -0.00300288
C  0.00410208 -0.00184650 -0.00235679
C  0.00714816 0.00336288 -0.00237620
H  0.01932384 -0.01920654 -0.01635689
H  -0.00976724 0.00573026 0.01499611
H  -0.00296378 -0.00219941 -0.00141833
H  -0.01038445 -0.00172955 -0.00672281
H  0.02569849 -0.01525429 0.00451496
H  0.01194424 0.01899871 0.02176370
12
MD Step 266 Units = [Angstroms / fs]
C  0.00098925 0.00416333 -0.00359825
C  0.00440454 -0.00375149 -0.00222396
C  -0.00241727 0.00222136 -0.00027118
C  -0.00266330 0.00259469 -0.00276053
C  0.00391277 -0.00269495 -0.00239123
C  0.00689264 0.00268364 -0.00207476
H  0.01993861 -0.01668635 -0.01472448
H  -0.01232281 0.00705241 0.01482664
H  -0.00023012 -0.00257804 -0.00223029
H  -0.00585674 0.00365786 -0.00710685
H  0.02297651 -0.00540625 0.00368355
H  0.01685543 0.02198563 0.02209007
12
MD Step 267 Units = [Angstroms / fs]
C  0.00103715 0.00425342 -0.00434384
C  0.00470330 -0.00350684 -0.00181625
C  -0.00269733 0.00213684 -0.00042731
C  -0.00285493 0.00203308 -0.00252548
C  0.00376584 -0.00353871 -0.00243423
C  0.00662760 0.00196834 -0.00175578
H  0.02055408 -0.01334904 -0.01299593
H  -0.01402018 0.00730395 0.01456485
H  0.00234805 -0.00285919 -0.00302489
H  -0.00124086 0.00909037 -0.00747646
H  0.01927964 0.00546120 0.00304202
H  0.02083899 0.02466649 0.02222620
12
MD Step 268 Units = [Angstroms / fs]
C  0.00112138 0.00424781 -0.00509632
C  0.00490604 -0.00312134 -0.00139774
C  -0.00291599 0.00202474 -0.00058790
C  -0.00294012 0.00150470 -0.00229690
C  0.00361543 -0.00430120 -0.00247329
C  0.00637425 0.00123589 -0.00142164
H  0.02106307 -0.00941695 -0.01119316
H  -0.01477008 0.00637436 0.01423705
H  0.00452848 -0.00303930 -0.00381685
H  0.00311302 0.01392057 -0.00785353
H  0.01528634 0.01640677 0.00243026
H  0.02355129 0.02698706 0.02218534
12
MD Step 269 Units = [Angstroms / fs]
C  0.00125095 0.00415926 -0.00584933
C  0.00501135 -0.00259951 -0.00097289
C  -0.00305232 0.00188625 -0.00075075
C  -0.00290242 0.00105751 -0.00207450
C  0.00341539 -0.00490390 -0.00249493
C  0.00614934 0.00050463 -0.00107541
H  0.02135316 -0.00514714 -0.00934308
H  -0.01456170 0.00426251 0.01386860
H  0.00611516 -0.00311622 -0.00461652
H  0.00689881 0.01758847 -0.00825173
H  0.01168385 0.02644728 0.00167332
H  0.02472292 0.02890938 0.02199153
12
MD Step 270 Units = [Angstroms / fs]
C  0.00143321 0.00400285 -0.00659627
C  0.00502594 -0.00195684 -0.00054590
C  -0.00309099 0.00172271 -0.00091403
C  -0.00273341 0.00072643 -0.00185867
C  0.00313001 -0.00527947 -0.00248790
C  0.00596253 -0.00020863 -0.00072069
H  0.02131494 -0.00081552 -0.00747582
H  -0.01347382 0.00109621 0.01347913
H  0.00697760 -0.00308951 -0.00542841
H  0.00989016 0.01969557 -0.00867410
H  0.00903665 0.03471797 0.00062037
H  0.02419461 0.03041366 0.02167661
12
MD Step 271 Units = [Angstroms / fs]
C  0.00167337 0.00379512 -0.00733048
C  0.00496440 -0.00122016 -0.00012029
C  -0.00302338 0.00153591 -0.00107640
C  -0.00243382 0.00053019 -0.00165049
C  0.00274106 -0.00538194 -0.00244550
C  0.00581367 -0.00088912 -0.00036129
H  0.02084885 0.00329834 -0.00562282
H  -0.01167418 -0.00286384 0.01307814
H  0.00706046 -0.00296077 -0.00625082
H  0.01195834 0.02004040 -0.00911358
H  0.00769766 0.04059773 -0.00082510
H  0.02195355 0.03149754 0.02127549
12
MD Step 272 Units = [Angstroms / fs]
C  0.00197414 0.00355316 -0.00804541
C  0.00484776 -0.00042620 0.00030129
C  -0.00284775 0.00132831 -0.00123697
C  -0.00201328 0.00047138 -0.00145153
C  0.00224937 -0.00519145 -0.00236644
C  0.00569097 -0.00152414 -0.00000081
H  0.01987151 0.00692672 -0.00381469
H  -0.00940329 -0.00724241 0.01266229
H  0.00638374 -0.00273393 -0.00707641
H  0.01307183 0.01861506 -0.00955575
H  0.00778408 0.04376640 -0.00269322
H  0.01815992 0.03217163 0.02081960
12
MD Step 273 Units = [Angstroms / fs]
C  0.00233543 0.00329341 -0.00873491
C  0.00470065 0.00038179 0.00071719
C  -0.00256884 0.00110325 -0.00139522
C  -0.00148887 0.00053876 -0.00126354
C  0.00167180 -0.00471328 -0.00225429
C  0.00557077 -0.00210240 0.00035788
H  0.01832183 0.00983086 -0.00207915
H  -0.00694331 -0.01159179 0.01221568
H  0.00503547 -0.00241541 -0.00789346
H  0.01328299 0.01557443 -0.00998239
H  0.00920957 0.04419247 -0.00495356
H  0.01315122 0.03245147 0.02033010
12
MD Step 274 Units = [Angstroms / fs]
C  0.00275413 0.00303040 -0.00939335
C  0.00454788 0.00115897 0.00112644
C  -0.00219698 0.00086507 -0.00155095
C  -0.00088322 0.00071064 -0.00108822
C  0.00103566 -0.00397304 -0.00211599
C  0.00541995 -0.00261325 0.00071307
H  0.01616753 0.01182020 -0.00043911
H  -0.00457788 -0.01545105 0.01171345
H  0.00315955 -0.00201394 -0.00868746
H  0.01270868 0.01119373 -0.01037495
H  0.01174568 0.04207510 -0.00753184
H  0.00741478 0.03234783 0.01981258
12
MD Step 275 Units = [Angstroms / fs]
C  0.00322374 0.00277510 -0.01001583
C  0.00441095 0.00186406 0.00152840
C  -0.00174690 0.00061917 -0.00170412
C  -0.00022251 0.00095813 -0.00092702
C  0.00037315 -0.00301064 -0.00196017
C  0.00520072 -0.00304592 0.00106427
H  0.01341169 0.01277294 0.00108885
H  -0.00255249 -0.01840910 0.01112781
H  0.00094121 -0.00154035 -0.00944274
H  0.01151091 0.00582721 -0.01071718
H  0.01508536 0.03777135 -0.01032910
H  0.00152788 0.03185896 0.01925536
12
MD Step 276 Units = [Angstroms / fs]
C  0.00373424 0.00253349 -0.01059827
C  0.00430556 0.00246381 0.00192223
C  -0.00123651 0.00037183 -0.00185478
C  0.00046518 0.00124792 -0.00078099
C  -0.00028294 -0.00187498 -0.00179593
C  0.00487714 -0.00338931 0.00141210
H  0.01009862 0.01265554 0.00249508
H  -0.00104471 -0.02015686 0.01043475
H  -0.00140819 -0.00100703 -0.01014400
H  0.00988084 -0.00012499 -0.01099684
H  0.01889189 0.03173208 -0.01323761
H  -0.00392361 0.03096791 0.01863246
12
MD Step 277 Units = [Angstroms / fs]
C  0.00427186 0.00230547 -0.01113743
C  0.00424034 0.00293567 0.00230655
C  -0.00068563 0.00012999 -0.00200296
C  0.00115132 0.00154425 -0.00065074
C  -0.00090184 -0.00061999 -0.00163192
C  0.00442152 -0.00363244 0.00175767
H  0.00631756 0.01153655 0.00377619
H  -0.00014953 -0.02051810 0.00961936
H  -0.00366618 -0.00042750 -0.01077757
H  0.00802707 -0.00624047 -0.01120674
H  0.02282866 0.02445749 -0.01615132
H  -0.00842820 0.02964655 0.01791048
12
MD Step 278 Units = [Angstroms / fs]
C  0.00481934 0.00208455 -0.01163075
C  0.00421692 0.00326854 0.00267924
C  -0.00011465 -0.00009910 -0.00214858
C  0.00180797 0.00181048 -0.00053640
C  -0.00145592 0.00069760 -0.00147597
C  0.00381922 -0.00376555 0.00210197
H  0.00220260 0.00958962 0.00493285
H  0.00011997 -0.01945614 0.00867898
H  -0.00561414 0.00018425 -0.01133248
H  0.00616711 -0.01209131 -0.01134530
H  0.02657305 0.01647269 -0.01897163
H  -0.01161292 0.02786467 0.01705715
12
MD Step 279 Units = [Angstroms / fs]
C  0.00535630 0.00185890 -0.01207611
C  0.00423101 0.00346200 0.00303745
C  0.00045676 -0.00030833 -0.00229142
C  0.00240882 0.00201044 -0.00043759
C  -0.00192086 0.00201949 -0.00133495
C  0.00307076 -0.00378141 0.00244535
H  -0.00207300 0.00708143 0.00596648
H  -0.00017905 -0.01706092 0.00762349
H  -0.00705241 0.00081426 -0.01180124
H  0.00451978 -0.01725863 -0.01141683
H  0.02982034 0.00831813 -0.02161011
H  -0.01327603 0.02560083 0.01604889
12
MD Step 280 Units = [Angstroms / fs]
C  0.00586027 0.00161346 -0.01247158
C  0.00427391 0.00352456 0.00337777
C  0.00101103 -0.00049105 -0.00243099
C  0.00293009 0.00211018 -0.00035343
C  -0.00227546 0.00328646 -0.00121467
C  0.00219125 -0.00367655 0.00278708
H  -0.00630842 0.00434316 0.00687530
H  -0.00093623 -0.01352465 0.00647391
H  -0.00781569 0.00144917 -0.01218032
H  0.00329611 -0.02134978 -0.01143150
H  0.03228399 0.00054714 -0.02399029
H  -0.01338731 0.02285131 0.01487562
12
MD Step 281 Units = [Angstroms / fs]
C  0.00630803 0.00133316 -0.01281506
C  0.00433407 0.00347161 0.00369644
C  0.00153410 -0.00064149 -0.00256655
C  0.00335178 0.00208021 -0.00028257
C  -0.00250146 0.00443924 -0.00111981
C  0.00120790 -0.00345205 0.00312534
H  -0.01029232 0.00172924 0.00765130
H  -0.00200543 -0.00911426 0.00525976
H  -0.00778845 0.00207661 -0.01247038
H  0.00268601 -0.02402283 -0.01140489
H  0.03369766 -0.00627836 -0.02604984
H  -0.01206469 0.01963502 0.01354234
12
MD Step 282 Units = [Angstroms / fs]
C  0.00667720 0.00100630 -0.01310418
C  0.00439845 0.00332361 0.00398953
C  0.00201671 -0.00075494 -0.00269709
C  0.00365913 0.00189857 -0.00022328
C  -0.00258382 0.00542028 -0.00105362
C  0.00015660 -0.00311394 0.00345726
H  -0.01382261 -0.00042893 0.00827880
H  -0.00321973 -0.00414596 0.00401636
H  -0.00691906 0.00268551 -0.01267604
H  0.00283943 -0.02502024 -0.01135654
H  0.03382353 -0.01160349 -0.02774445
H  -0.00953919 0.01599416 0.01206802
12
MD Step 283 Units = [Angstroms / fs]
C  0.00694792 0.00062744 -0.01333632
C  0.00445353 0.00310450 0.00425320
C  0.00245535 -0.00082793 -0.00282138
C  0.00384431 0.00155441 -0.00017365
C  -0.00251179 0.00617716 -0.00101756
C  -0.00092143 -0.00267290 0.00377911
H  -0.01672586 -0.00186460 0.00873554
H  -0.00440303 0.00103577 0.00278219
H  -0.00523030 0.00326615 -0.01280519
H  0.00384227 -0.02420982 -0.01130736
H  0.03247022 -0.01491682 -0.02905321
H  -0.00611918 0.01199192 0.01048310
12
MD Step 284 Units = [Angstroms / fs]
C  0.00710428 0.00019902 -0.01350873
C  0.00448610 0.00284046 0.00448377
C  0.00285279 -0.00085822 -0.00293803
C  0.00390817 0.00105158 -0.00013189
C  -0.00228076 0.00666814 -0.00101077
C  -0.00198254 -0.00214370 0.00408648
H  -0.01887260 -0.00240448 0.00899566
H  -0.00537910 0.00607554 0.00159661
H  -0.00282364 0.00381001 -0.01286788
H  0.00569118 -0.02162511 -0.01127564
H  0.02952153 -0.01581402 -0.02998439
H  -0.00215999 0.00770840 0.00882653
12
MD Step 285 Units = [Angstroms / fs]
C  0.00713544 -0.00026840 -0.01361883
C  0.00448375 0.00255863 0.00467790
C  0.00321774 -0.00084482 -0.00304566
C  0.00386133 0.00041086 -0.00009679
C  -0.00189499 0.00686962 -0.00102983
C  -0.00298282 -0.00154422 0.00437451
H  -0.02018666 -0.00198106 0.00903393
H  -0.00597940 0.01062291 0.00049769
H  0.00012548 0.00430934 -0.01287486
H  0.00827417 -0.01749200 -0.01127210
H  0.02497297 -0.01408617 -0.03057857
H  0.00195941 0.00323626 0.00714293
12
MD Step 286 Units = [Angstroms / fs]
C  0.00703620 -0.00075729 -0.01366450
C  0.00443549 0.00228578 0.00483268
C  0.00356376 -0.00078790 -0.00314300
C  0.00372402 -0.00033011 -0.00006806
C  -0.00137023 0.00678397 -0.00106896
C  -0.00387974 -0.00089423 0.00463794
H  -0.02064780 -0.00062912 0.00882996
H  -0.00605157 0.01434996 -0.00048001
H  0.00338251 0.00475673 -0.01283599
H  0.01136680 -0.01222637 -0.01129528
H  0.01896700 -0.00981452 -0.03090514
H  0.00585418 -0.00132387 0.00547996
12
MD Step 287 Units = [Angstroms / fs]
C  0.00680723 -0.00124510 -0.01364426
C  0.00433240 0.00204647 0.00494581
C  0.00390734 -0.00068881 -0.00322902
C  0.00352424 -0.00112035 -0.00004661
C  -0.00073531 0.00644483 -0.00112102
C  -0.00463365 -0.00021408 0.00487140
H  -0.02028866 0.00152893 0.00837152
H  -0.00546977 0.01697297 -0.00130795
H  0.00667794 0.00514471 -0.01275892
H  0.01465073 -0.00639301 -0.01132903
H  0.01181236 -0.00343605 -0.03104918
H  0.00914968 -0.00586803 0.00388574
12
MD Step 288 Units = [Angstroms / fs]
C  0.00645496 -0.00170655 -0.01355748
C  0.00416850 0.00186086 0.00501574
C  0.00426545 -0.00055006 -0.00330300
C  0.00329414 -0.00190205 -0.00003457
C  -0.00003135 0.00591629 -0.00117919
C  -0.00520930 0.00047665 0.00506953
H  -0.01918802 0.00430347 0.00765663
H  -0.00414766 0.01827929 -0.00196628
H  0.00973734 0.00546555 -0.01264823
H  0.01775549 -0.00062846 -0.01134342
H  0.00397187 0.00426288 -0.03108967
H  0.01149984 -0.01029427 0.00240585
12
MD Step 289 Units = [Angstroms / fs]
C  0.00599117 -0.00211573 -0.01340443
C  0.00394180 0.00174215 0.00504191
C  0.00465301 -0.00037544 -0.00336455
C  0.00306554 -0.00261869 -0.00003488
C  0.00069202 0.00528406 -0.00123886
C  -0.00557787 0.00116042 0.00522738
H  -0.01746210 0.00745909 0.00669425
H  -0.00205316 0.01815768 -0.00244643
H  0.01231228 0.00571154 -0.01250520
H  0.02031456 0.00445487 -0.01129960
H  -0.00398841 0.01224915 -0.03107609
H  0.01261148 -0.01450872 0.00107978
12
MD Step 290 Units = [Angstroms / fs]
C  0.00543243 -0.00244789 -0.01318629
C  0.00365542 0.00169416 0.00502478
C  0.00508073 -0.00017005 -0.00341359
C  0.00286561 -0.00322276 -0.00005079
C  0.00138296 0.00463997 -0.00129882
C  -0.00571951 0.00182270 0.00534078
H  -0.01525563 0.01073420 0.00550398
H  0.00077740 0.01662650 -0.00275291
H  0.01420676 0.00587548 -0.01232838
H  0.02202111 0.00835760 -0.01115729
H  -0.01148030 0.01942580 -0.03101328
H  0.01227609 -0.01843236 -0.00006352
12
MD Step 291 Units = [Angstroms / fs]
C  0.00479932 -0.00268055 -0.01290516
C  0.00331826 0.00170976 0.00496593
C  0.00555358 0.00005968 -0.00345023
C  0.00271390 -0.00368096 -0.00008515
C  0.00199435 0.00406477 -0.00136122
C  -0.00562639 0.00245268 0.00540685
H  -0.01273301 0.01385788 0.00411494
H  0.00422989 0.01385143 -0.00290354
H  0.01529516 0.00595146 -0.01211450
H  0.02266835 0.01075273 -0.01088249
H  -0.01798198 0.02483707 -0.03086210
H  0.01040697 -0.02200700 -0.00101014
12
MD Step 292 Units = [Angstroms / fs]
C  0.00411548 -0.00279443 -0.01256394
C  0.00294512 0.00177091 0.00486784
C  0.00607010 0.00030609 -0.00347465
C  0.00262117 -0.00397625 -0.00013999
C  0.00248943 0.00361502 -0.00143035
C  -0.00530548 0.00304333 0.00542443
H  -0.01006970 0.01656465 0.00256408
H  0.00811251 0.01014292 -0.00292755
H  0.01553007 0.00593560 -0.01185968
H  0.02216674 0.01150563 -0.01045324
H  -0.02310694 0.02782509 -0.03055493
H  0.00707461 -0.02519866 -0.00176490
12
MD Step 293 Units = [Angstroms / fs]
C  0.00340637 -0.00277400 -0.01216624
C  0.00255567 0.00185085 0.00473358
C  0.00662251 0.00056055 -0.00348706
C  0.00258984 -0.00410694 -0.00021618
C  0.00284461 0.00331777 -0.00151088
C  -0.00478026 0.00359099 0.00539431
H  -0.00744310 0.01860844 0.00089385
H  0.01216896 0.00592732 -0.00286136
H  0.01494069 0.00582672 -0.01156061
H  0.02053892 0.01065917 -0.00986238
H  -0.02663630 0.02809469 -0.03001795
H  0.00252849 -0.02799584 -0.00235269
12
MD Step 294 Units = [Angstroms / fs]
C  0.00269788 -0.00260806 -0.01171620
C  0.00217249 0.00191828 0.00456640
C  0.00719740 0.00081379 -0.00348755
C  0.00261543 -0.00408400 -0.00031339
C  0.00304956 0.00317283 -0.00160639
C  -0.00409017 0.00409415 0.00531912
H  -0.00502203 0.01977716 -0.00085077
H  0.01610489 0.00169312 -0.00274306
H  0.01362402 0.00562662 -0.01121548
H  0.01789988 0.00839780 -0.00911737
H  -0.02851374 0.02568746 -0.02919085
H  -0.00280781 -0.03040189 -0.00281593
12
MD Step 295 Units = [Angstroms / fs]
C  0.00201465 -0.00229049 -0.01121823
C  0.00181829 0.00194267 0.00436928
C  0.00777683 0.00105633 -0.00347609
C  0.00268841 -0.00392773 -0.00043023
C  0.00310533 0.00315975 -0.00171854
C  -0.00328717 0.00455191 0.00520294
H  -0.00295434 0.01990887 -0.00262600
H  0.01962330 -0.00207755 -0.00260673
H  0.01173180 0.00534012 -0.01082452
H  0.01443156 0.00500543 -0.00823825
H  -0.02881555 0.02090006 -0.02803832
H  -0.00837673 -0.03242270 -0.00320796
12
MD Step 296 Units = [Angstroms / fs]
C  0.00137834 -0.00182110 -0.01067669
C  0.00151307 0.00189953 0.00414461
C  0.00833962 0.00127900 -0.00345248
C  0.00279574 -0.00366478 -0.00056442
C  0.00302172 0.00324586 -0.00184693
C  -0.00242958 0.00496239 0.00505048
H  -0.00135283 0.01890905 -0.00439361
H  0.02246116 -0.00497558 -0.00247820
H  0.00945553 0.00497488 -0.01039036
H  0.01035907 0.00082775 -0.00725482
H  -0.02771194 0.01418888 -0.02655301
H  -0.01355972 -0.03405389 -0.00358339
12
MD Step 297 Units = [Angstroms / fs]
C  0.00080593 -0.00120667 -0.01009554
C  0.00127177 0.00177408 0.00389409
C  0.00886268 0.00147339 -0.00341636
C  0.00292213 -0.00332574 -0.00071297
C  0.00281499 0.00339294 -0.00198938
C  -0.00157440 0.00532158 0.00486633
H  -0.00028069 0.01676721 -0.00612551
H  0.02441919 -0.00671438 -0.00237312
H  0.00701110 0.00454086 -0.00991795
H  0.00593207 -0.00375627 -0.00620402
H  -0.02543220 0.00609047 -0.02475313
H  -0.01776774 -0.03527260 -0.00398815
12
MD Step 298 Units = [Angstroms / fs]
C  0.00030838 -0.00046164 -0.00947799
C  0.00110293 0.00156285 0.00361880
C  0.00932242 0.00163222 -0.00336728
C  0.00305084 -0.00294343 -0.00087234
C  0.00250609 0.00356159 -0.00214231
C  -0.00077018 0.00562305 0.00465429
H  0.00026058 0.01356937 -0.00780759
H  0.02537897 -0.00715317 -0.00229721
H  0.00462365 0.00404985 -0.00941433
H  0.00141158 -0.00835390 -0.00512763
H  -0.02224008 -0.00283060 -0.02267807
H  -0.02052638 -0.03603726 -0.00445198
12
MD Step 299 Units = [Angstroms / fs]
C  -0.00011003 0.00039154 -0.00882635
C  0.00100844 0.00127323 0.00331933
C  0.00969610 0.00174972 -0.00330470
C  0.00316434 -0.00255164 -0.00103864
C  0.00211965 0.00371334 -0.00230113
C  -0.00005205 0.00585851 0.00441709
H  0.00033722 0.00950179 -0.00944176
H  0.02530653 -0.00629454 -0.00224830
H  0.00251257 0.00351473 -0.00888811
H  -0.00293954 -0.01257253 -0.00407043
H  -0.01842008 -0.01200813 -0.02038439
H  -0.02153438 -0.03629518 -0.00498526
12
MD Step 300 Units = [Angstroms / fs]
C  -0.00045149 0.00132318 -0.00814207
C  0.00098412 0.00092144 0.00299609
C  0.00996333 0.00182180 -0.00322814
C  0.00324501 -0.00218389 -0.00120775
C  0.00168344 0.00381126 -0.00246036
C  0.00056020 0.00601891 0.00415644
H  0.00007970 0.00484216 -0.01104502
H  0.02424480 -0.00426341 -0.00221885
H  0.00087611 0.00294877 -0.00834881
H  -0.00686533 -0.01603233 -0.00307832
H  -0.01427224 -0.02088302 -0.01794318
H  -0.02068541 -0.03599455 -0.00558032
12
MD Step 301 Units = [Angstroms / fs]
C  -0.00072338 0.00229802 -0.00742604
C  0.00102085 0.00052996 0.00264948
C  0.01010754 0.00184623 -0.00313719
C  0.00327608 -0.00187195 -0.00137553
C  0.00122803 0.00381985 -0.00261374
C  0.00106119 0.00609567 0.00387333
H  -0.00033217 -0.00006374 -0.01264502
H  0.02229993 -0.00127732 -0.00219851
H  -0.00012442 0.00236495 -0.00780593
H  -0.01012773 -0.01838255 -0.00219591
H  -0.01011166 -0.02890402 -0.01543855
H  -0.01805585 -0.03509634 -0.00621581
12
MD Step 302 Units = [Angstroms / fs]
C  -0.00093613 0.00327801 -0.00667914
C  0.00110580 0.00012496 0.00228005
C  0.01011744 0.00182270 -0.00303171
C  0.00324299 -0.00164371 -0.00153812
C  0.00078634 0.00370502 -0.00275430
C  0.00145724 0.00608186 0.00356839
H  -0.00069396 -0.00483764 -0.01427282
H  0.01962574 0.00238363 -0.00217610
H  -0.00038044 0.00177516 -0.00726797
H  -0.01252227 -0.01932508 -0.00146325
H  -0.00626745 -0.03553038 -0.01296618
H  -0.01387071 -0.03358284 -0.00686226
12
MD Step 303 Units = [Angstroms / fs]
C  -0.00110065 0.00422552 -0.00590296
C  0.00122364 -0.00026581 0.00188862
C  0.00998838 0.00175281 -0.00291189
C  0.00313527 -0.00152041 -0.00169227
C  0.00039274 0.00343500 -0.00287451
C  0.00176301 0.00597300 0.00324224
H  -0.00080667 -0.00911100 -0.01595443
H  0.01640943 0.00640256 -0.00214084
H  0.00014973 0.00118963 -0.00674129
H  -0.01389934 -0.01864690 -0.00091141
H  -0.00307586 -0.04024553 -0.01063025
H  -0.00846178 -0.03146165 -0.00748724
12
MD Step 304 Units = [Angstroms / fs]
C  -0.00122594 0.00510644 -0.00510030
C  0.00135750 -0.00061456 0.00147632
C  0.00972323 0.00163993 -0.00277834
C  0.00294866 -0.00151328 -0.00183586
C  0.00008107 0.00298274 -0.00296676
C  0.00199833 0.00576768 0.00289571
H  -0.00050530 -0.01256558 -0.01770337
H  0.01285973 0.01044578 -0.00208313
H  0.00143066 0.00061644 -0.00622910
H  -0.01418909 -0.01625903 -0.00055726
H  -0.00086098 -0.04259015 -0.00853674
H  -0.00222872 -0.02876597 -0.00805924
12
MD Step 305 Units = [Angstroms / fs]
C  -0.00131727 0.00589265 -0.00427557
C  0.00148984 -0.00089464 0.00104465
C  0.00933279 0.00148903 -0.00263222
C  0.00268701 -0.00162025 -0.00196826
C  -0.00011858 0.00233036 -0.00302430
C  0.00218585 0.00546790 0.00252998
H  0.00031989 -0.01496485 -0.01951622
H  0.00919700 0.01417851 -0.00199493
H  0.00334684 0.00006135 -0.00573080
H  -0.01342461 -0.01223408 -0.00039856
H  0.00010195 -0.04221901 -0.00678141
H  0.00439129 -0.02555264 -0.00855032
12
MD Step 306 Units = [Angstroms / fs]
C  -0.00137546 0.00656338 -0.00343482
C  0.00160331 -0.00108148 0.00059544
C  0.00883516 0.00130638 -0.00247518
C  0.00236339 -0.00182392 -0.00209064
C  -0.00018461 0.00147515 -0.00304259
C  0.00234939 0.00507928 0.00214656
H  0.00171301 -0.01617157 -0.02137181
H  0.00564393 0.01727874 -0.00186990
H  0.00570924 -0.00047205 -0.00524174
H  -0.01175483 -0.00682965 -0.00041096
H  -0.00035887 -0.03897838 -0.00543202
H  0.01094530 -0.02189919 -0.00893753
12
MD Step 307 Units = [Angstroms / fs]
C  -0.00139702 0.00710548 -0.00258548
C  0.00168165 -0.00115363 0.00013090
C  0.00825433 0.00109909 -0.00230935
C  0.00199950 -0.00209175 -0.00220593
C  -0.00010932 0.00043610 -0.00302099
C  0.00251281 0.00461118 0.00174732
H  0.00365308 -0.01615094 -0.02323396
H  0.00241480 0.01945252 -0.00170352
H  0.00827269 -0.00098186 -0.00475379
H  -0.00943845 -0.00048347 -0.00054878
H  -0.00224839 -0.03298690 -0.00450789
H  0.01698031 -0.01790051 -0.00920376
12
MD Step 308 Units = [Angstroms / fs]
C  -0.00137511 0.00751287 -0.00173593
C  0.00171098 -0.00109413 -0.00034636
C  0.00761787 0.00087466 -0.00213718
C  0.00162324 -0.00237942 -0.00231835
C  0.00009666 -0.00074194 -0.00296404
C  0.00269910 0.00407638 0.00133445
H  0.00606282 -0.01496222 -0.02505636
H  -0.00029829 0.02045288 -0.00149336
H  0.01076253 -0.00146717 -0.00425646
H  -0.00681415 0.00622856 -0.00075066
H  -0.00535387 -0.02468885 -0.00396345
H  0.02205783 -0.01366511 -0.00933825
12
MD Step 309 Units = [Angstroms / fs]
C  -0.00130082 0.00778552 -0.00089503
C  0.00168123 -0.00089222 -0.00083335
C  0.00695418 0.00064042 -0.00196130
C  0.00126459 -0.00263699 -0.00243267
C  0.00040342 -0.00198918 -0.00288173
C  0.00292919 0.00349057 0.00091041
H  0.00882190 -0.01274326 -0.02678829
H  -0.00234305 0.02010336 -0.00123934
H  0.01290648 -0.00192731 -0.00373859
H  -0.00425094 0.01266794 -0.00094916
H  -0.00923518 -0.01484465 -0.00368504
H  0.02577201 -0.00931002 -0.00933698
12
MD Step 310 Units = [Angstroms / fs]
C  -0.00116461 0.00792828 -0.00007159
C  0.00158796 -0.00054535 -0.00132664
C  0.00628971 0.00040318 -0.00178427
C  0.00095111 -0.00281651 -0.00255323
C  0.00076579 -0.00321847 -0.00278819
C  0.00322012 0.00287134 0.00047802
H  0.01178125 -0.00969233 -0.02838014
H  -0.00362750 0.01832450 -0.00094434
H  0.01446628 -0.00236120 -0.00319014
H  -0.00209061 0.01822613 -0.00108210
H  -0.01327707 -0.00443858 -0.00350703
H  0.02777562 -0.00495374 -0.00920290
12
MD Step 311 Units = [Angstroms / fs]
C  -0.00095754 0.00794989 0.00072604
C  0.00143391 -0.00006110 -0.00182234
C  0.00564662 0.00016887 -0.00160844
C  0.00070397 -0.00287914 -0.00268315
C  0.00113231 -0.00433859 -0.00269893
C  0.00358247 0.00223666 0.00004040
H  0.01477619 -0.00605040 -0.02978789
H  -0.00413967 0.01515858 -0.00061479
H  0.01526356 -0.00276700 -0.00260384
H  -0.00059808 0.02240958 -0.00110226
H  -0.01679884 0.00548138 -0.00324557
H  0.02781590 -0.00070642 -0.00894594
12
MD Step 312 Units = [Angstroms / fs]
C  -0.00067238 0.00786209 0.00149028
C  0.00123012 0.00054158 -0.00231611
C  0.00504118 -0.00005759 -0.00143582
C  0.00053579 -0.00279988 -0.00282386
C  0.00145605 -0.00526892 -0.00262757
C  0.00401710 0.00160318 -0.00039900
H  0.01763741 -0.00208519 -0.03097656
H  -0.00396086 0.01078497 -0.00026133
H  0.01519615 -0.00314198 -0.00197627
H  0.00006824 0.02489628 -0.00098303
H  -0.01918783 0.01398278 -0.00273845
H  0.02577799 0.00334195 -0.00858239
12
MD Step 313 Units = [Angstroms / fs]
C  -0.00030437 0.00767896 0.00221464
C  0.00099583 0.00123265 -0.00280312
C  0.00448310 -0.00027216 -0.00126800
C  0.00045033 -0.00256935 -0.00297499
C  0.00170364 -0.00595095 -0.00258332
C  0.00451193 0.00098457 -0.00083647
H  0.02020023 0.00192312 -0.03192254
H  -0.00326556 0.00551777 0.00010072
H  0.01424368 -0.00348267 -0.00130830
H  -0.00013774 0.02555479 -0.00071920
H  -0.02000937 0.02038820 -0.00187657
H  0.02172822 0.00713309 -0.00813350
12
MD Step 314 Units = [Angstroms / fs]
C  0.00014815 0.00741622 0.00289385
C  0.00075685 0.00197295 -0.00327818
C  0.00397565 -0.00047153 -0.00110613
C  0.00044365 -0.00219267 -0.00313466
C  0.00185951 -0.00635334 -0.00256994
C  0.00503985 0.00039037 -0.00126825
H  0.02231249 0.00569548 -0.03261499
H  -0.00230366 -0.00021977 0.00045151
H  0.01246376 -0.00378512 -0.00060499
H  -0.00116330 0.02443035 -0.00032396
H  -0.01905961 0.02433747 -0.00061709
H  0.01594355 0.01064782 -0.00762320
12
MD Step 315 Units = [Angstroms / fs]
C  0.00068328 0.00709039 0.00352395
C  0.00054252 0.00271813 -0.00373582
C  0.00351636 -0.00065280 -0.00095098
C  0.00050604 -0.00168683 -0.00329986
C  0.00192506 -0.00647081 -0.00258617
C  0.00555906 -0.00017416 -0.00169066
H  0.02384236 0.00896849 -0.03305622
H  -0.00136546 -0.00594326 0.00076753
H  0.00998138 -0.00404515 0.00012506
H  -0.00288058 0.02171090 0.00017616
H  -0.01635692 0.02577251 0.00102161
H  0.00891118 0.01390504 -0.00707543
12
MD Step 316 Units = [Angstroms / fs]
C  0.00129530 0.00671764 0.00410236
C  0.00038168 0.00342359 -0.00417056
C  0.00309812 -0.00081318 -0.00080301
C  0.00062397 -0.00107743 -0.00346690
C  0.00191453 -0.00631886 -0.00262712
C  0.00601665 -0.00070708 -0.00210040
H  0.02468634 0.01151094 -0.03326082
H  -0.00073644 -0.01116905 0.00102348
H  0.00697449 -0.00425865 0.00087060
H  -0.00511188 0.01768703 0.00074644
H  -0.01209237 0.02487255 0.00297648
H  0.00128691 0.01695024 -0.00651155
12
MD Step 317 Units = [Angstroms / fs]
C  0.00197441 0.00631237 0.00462763
C  0.00029879 0.00404952 -0.00457714
C  0.00271046 -0.00094972 -0.00066247
C  0.00078170 -0.00039577 -0.00363179
C  0.00184967 -0.00592750 -0.00268585
C  0.00635543 -0.00120784 -0.00249470
H  0.02477767 0.01314266 -0.03325322
H  -0.00065296 -0.01547590 0.00119470
H  0.00365832 -0.00442169 0.00161874
H  -0.00765104 0.01271615 0.00134841
H  -0.00656734 0.02197486 0.00515887
H  -0.00618636 0.01983553 -0.00594875
12
MD Step 318 Units = [Angstroms / fs]
C  0.00270668 0.00588562 0.00509923
C  0.00031096 0.00456475 -0.00495086
C  0.00234081 -0.00105916 -0.00052945
C  0.00096243 0.00032341 -0.00379051
C  0.00175532 -0.00533578 -0.00275458
C  0.00652249 -0.00167525 -0.00287138
H  0.02409433 0.01375442 -0.03306333
H  -0.00126969 -0.01855273 0.00125991
H  0.00026958 -0.00453068 0.00235599
H  -0.01027880 0.00719508 0.00194291
H  -0.00013947 0.01750652 0.00747036
H  -0.01278363 0.02259766 -0.00539968
12
MD Step 319 Units = [Angstroms / fs]
C  0.00347411 0.00544354 0.00551705
C  0.00042646 0.00494881 -0.00528783
C  0.00197582 -0.00113791 -0.00040404
C  0.00114911 0.00104350 -0.00393915
C  0.00165636 -0.00458808 -0.00282554
C  0.00647738 -0.00210581 -0.00322886
H  0.02266512 0.01332572 -0.03272035
H  -0.00264490 -0.02022379 0.00120351
H  -0.00294894 -0.00458247 0.00306927
H  -0.01277295 0.00154107 0.00249221
H  0.00681372 0.01193807 0.00981319
H  -0.01789920 0.02524163 -0.00487314
12
MD Step 320 Units = [Angstroms / fs]
C  0.00425495 0.00498647 0.00588089
C  0.00064483 0.00519218 -0.00558513
C  0.00160264 -0.00118206 -0.00028633
C  0.00132502 0.00172717 -0.00407410
C  0.00157621 -0.00373212 -0.00289137
C  0.00619774 -0.00249319 -0.00356610
H  0.02057182 0.01193581 -0.03224534
H  -0.00474341 -0.02045081 0.00101702
H  -0.00576384 -0.00457440 0.00374679
H  -0.01491544 -0.00382221 0.00296145
H  0.01391390 0.00575905 0.01209587
H  -0.02111899 0.02773524 -0.00437535
12
MD Step 321 Units = [Angstroms / fs]
C  0.00502440 0.00450899 0.00618986
C  0.00095797 0.00529507 -0.00584096
C  0.00121025 -0.00118761 -0.00017656
C  0.00147443 0.00233759 -0.00419211
C  0.00153647 -0.00281810 -0.00294531
C  0.00568138 -0.00282882 -0.00388257
H  0.01794556 0.00976285 -0.03164410
H  -0.00745198 -0.01931741 0.00069963
H  -0.00796702 -0.00450440 0.00437894
H  -0.01649907 -0.00847830 0.00331991
H  0.02078886 -0.00053089 0.01423569
H  -0.02225039 0.03001476 -0.00391101
12
MD Step 322 Units = [Angstroms / fs]
C  0.00575568 0.00400112 0.00644206
C  0.00135190 0.00526560 -0.00605462
C  0.00079086 -0.00115065 -0.00007511
C  0.00158337 0.00283996 -0.00429046
C  0.00155696 -0.00189824 -0.00298126
C  0.00494488 -0.00310316 -0.00417813
H  0.01495635 0.00706804 -0.03090228
H  -0.01060046 -0.01700451 0.00025788
H  -0.00939227 -0.00437104 0.00495902
H  -0.01733635 -0.01203633 0.00354248
H  0.02707395 -0.00642333 0.01616006
H  -0.02131209 0.03199782 -0.00348394
12
MD Step 323 Units = [Angstroms / fs]
C  0.00642146 0.00345073 0.00663450
C  0.00180852 0.00511783 -0.00622646
C  0.00034120 -0.00106758 0.00001745
C  0.00164083 0.00320395 -0.00436711
C  0.00165596 -0.00102615 -0.00299401
C  0.00402018 -0.00330731 -0.00445306
H  0.01179672 0.00416487 -0.02998471
H  -0.01398283 -0.01376382 -0.00029526
H  -0.00993168 -0.00417363 0.00548375
H  -0.01727254 -0.01415836 0.00361160
H  0.03241475 -0.01140367 0.01780823
H  -0.01849732 0.03359824 -0.00309723
12
MD Step 324 Units = [Angstroms / fs]
C  0.00699555 0.00284665 0.00676340
C  0.00230720 0.00487003 -0.00635777
C  -0.00013629 -0.00093539 0.00010033
C  0.00164017 0.00340691 -0.00442096
C  0.00184980 -0.00025527 -0.00297943
C  0.00295009 -0.00343435 -0.00470800
H  0.00866168 0.00137847 -0.02883972
H  -0.01737503 -0.00989445 -0.00094139
H  -0.00955033 -0.00391217 0.00595349
H  -0.01620328 -0.01459725 0.00351940
H  0.03647709 -0.01496405 0.01913441
H  -0.01412711 0.03473855 -0.00275304
12
MD Step 325 Units = [Angstroms / fs]
C  0.00745450 0.00218173 0.00682487
C  0.00282605 0.00454344 -0.00645066
C  -0.00063271 -0.00075184 0.00017258
C  0.00158068 0.00343781 -0.00445197
C  0.00215151 0.00036433 -0.00293495
C  0.00178431 -0.00348031 -0.00494382
H  0.00572882 -0.00099682 -0.02740797
H  -0.02054882 -0.00572384 -0.00165790
H  -0.00829602 -0.00358736 0.00637204
H  -0.01409517 -0.01324203 0.00326977
H  0.03896958 -0.01663538 0.02011255
H  -0.00860633 0.03535844 -0.00245240
12
MD Step 326 Units = [Angstroms / fs]
C  0.00777897 0.00145522 0.00681570
C  0.00334297 0.00416126 -0.00650791
C  -0.00113266 -0.00051575 0.00023318
C  0.00146897 0.00330109 -0.00446133
C  0.00256833 0.00079119 -0.00286009
C  0.00057607 -0.00344455 -0.00516158
H  0.00314200 -0.00273284 -0.02563346
H  -0.02328259 -0.00159223 -0.00241912
H  -0.00630111 -0.00320049 0.00674588
H  -0.01100478 -0.01016137 0.00287946
H  0.03968073 -0.01604495 0.02074192
H  -0.00238908 0.03541938 -0.00219491
12
MD Step 327 Units = [Angstroms / fs]
C  0.00795468 0.00067384 0.00673413
C  0.00383657 0.00374769 -0.00653283
C  -0.00161505 -0.00022715 0.00028113
C  0.00131952 0.00301901 -0.00445139
C  0.00309811 0.00099961 -0.00275682
C  -0.00062017 -0.00332978 -0.00536237
H  0.00100104 -0.00368974 -0.02347415
H  -0.02537078 0.00216185 -0.00319756
H  -0.00377362 -0.00275330 0.00708295
H  -0.00708921 -0.00562968 0.00237730
H  0.03852716 -0.01299788 0.02105110
H  0.00404565 0.03490649 -0.00197867
12
MD Step 328 Units = [Angstroms / fs]
C  0.00797294 -0.00014836 0.00658036
C  0.00428707 0.00332693 -0.00652903
C  -0.00205489 0.00011240 0.00031564
C  0.00115394 0.00263123 -0.00442541
C  0.00372576 0.00098733 -0.00262959
C  -0.00175046 -0.00314180 -0.00554724
H  -0.00064196 -0.00382291 -0.02090980
H  -0.02663374 0.00521815 -0.00396549
H  -0.00097702 -0.00224789 0.00739116
H  -0.00260095 -0.00011953 0.00180120
H  0.03560057 -0.00756674 0.02109710
H  0.01021119 0.03382896 -0.00180005
12
MD Step 329 Units = [Angstroms / fs]
C  0.00783088 -0.00099142 0.00635681
C  0.00467727 0.00292162 -0.00650024
C  -0.00242584 0.00049964 0.00033621
C  0.00099868 0.00219075 -0.00438710
C  0.00442122 0.00078114 -0.00248465
C  -0.00276277 -0.00288896 -0.00571707
H  -0.00178060 -0.00317673 -0.01794585
H  -0.02692903 0.00729571 -0.00469693
H  0.00179924 -0.00168663 0.00767686
H  0.00213656 0.00574894 0.00119300
H  0.03119302 -0.00015679 0.02095647
H  0.01562802 0.03221968 -0.00165367
12
MD Step 330 Units = [Angstroms / fs]
C  0.00753129 -0.00183131 0.00606804
C  0.00499360 0.00255086 -0.00645002
C  -0.00270311 0.00092940 0.00034280
C  0.00088157 0.00175665 -0.00434007
C  0.00514067 0.00043691 -0.00232875
C  -0.00360862 -0.00258159 -0.00587256
H  -0.00244840 -0.00186978 -0.01461352
H  -0.02616433 0.00817964 -0.00537008
H  0.00427376 -0.00107229 0.00794368
H  0.00677021 0.01129633 0.00059241
H  0.02578020 0.00849316 0.02070850
H  0.01984200 0.03013406 -0.00153240
12
MD Step 331 Units = [Angstroms / fs]
C  0.00708245 -0.00264212 0.00572047
C  0.00522719 0.00222784 -0.00638148
C  -0.00286626 0.00139452 0.00033586
C  0.00082787 0.00138534 -0.00428737
C  0.00583175 0.00003212 -0.00216751
C  -0.00424541 -0.00223129 -0.00601417
H  -0.00271117 -0.00007611 -0.01096694
H  -0.02431033 0.00775179 -0.00597019
H  0.00620562 -0.00040808 0.00819201
H  0.01096581 0.01588858 0.00003174
H  0.01995468 0.01739996 0.02041532
H  0.02245074 0.02764728 -0.00142752
12
MD Step 332 Units = [Angstroms / fs]
C  0.00649774 -0.00339787 0.00532200
C  0.00537472 0.00195739 -0.00629706
C  -0.00290138 0.00188582 0.00031627
C  0.00085695 0.00112269 -0.00423116
C  0.00644161 -0.00034825 -0.00200417
C  -0.00463954 -0.00185015 -0.00614213
H  -0.00265892 0.00199347 -0.00707850
H  -0.02141106 0.00602023 -0.00649219
H  0.00741972 0.00030215 0.00841908
H  0.01445143 0.01902940 -0.00046735
H  0.01432364 0.02550385 0.02010683
H  0.02314131 0.02484887 -0.00132933
12
MD Step 333 Units = [Angstroms / fs]
C  0.00579522 -0.00407405 0.00488158
C  0.00543869 0.00173428 -0.00619827
C  -0.00280239 0.00239235 0.00028529
C  0.00098034 0.00099901 -0.00417263
C  0.00692514 -0.00062808 -0.00183924
C  -0.00477041 -0.00144978 -0.00625645
H  -0.00239831 0.00410855 -0.00303344
H  -0.01758754 0.00313902 -0.00694239
H  0.00782139 0.00105371 0.00861973
H  0.01704540 0.02041732 -0.00089449
H  0.00940436 0.03186302 0.01977703
H  0.02173758 0.02183365 -0.00122823
12
MD Step 334 Units = [Angstroms / fs]
C  0.00499692 -0.00464870 0.00440878
C  0.00542701 0.00154304 -0.00608575
C  -0.00257140 0.00290169 0.00024440
C  0.00120125 0.00102760 -0.00411213
C  0.00725086 -0.00075313 -0.00167118
C  -0.00463449 -0.00104018 -0.00635690
H  -0.00204549 0.00603413 0.00107600
H  -0.01303174 -0.00059151 -0.00733833
H  0.00739984 0.00184102 0.00878746
H  0.01866507 0.01995943 -0.00124911
H  0.00555138 0.03580847 0.01939245
H  0.01824992 0.01868944 -0.00111658
12
MD Step 335 Units = [Angstroms / fs]
C  0.00412806 -0.00510319 0.00391333
C  0.00535174 0.00135976 -0.00595935
C  -0.00221828 0.00340044 0.00019517
C  0.00151537 0.00120610 -0.00404938
C  0.00740277 -0.00069705 -0.00149753
C  -0.00424843 -0.00062870 -0.00644295
H  -0.00171912 0.00754444 0.00515651
H  -0.00798948 -0.00475045 -0.00770629
H  0.00622213 0.00265748 0.00891572
H  0.01931920 0.01774928 -0.00153787
H  0.00293281 0.03701467 0.01890747
H  0.01291229 0.01548376 -0.00099106
12
MD Step 336 Units = [Angstroms / fs]
C  0.00321585 -0.00542289 0.00340459
C  0.00522710 0.00115600 -0.00581858
C  -0.00175956 0.00387473 0.00013909
C  0.00191231 0.00151963 -0.00398366
C  0.00737903 -0.00046005 -0.00131608
C  -0.00364953 -0.00021931 -0.00651366
H  -0.00153278 0.00843681 0.00912004
H  -0.00273424 -0.00884774 -0.00807659
H  0.00442071 0.00349548 0.00899892
H  0.01909060 0.01402495 -0.00177194
H  0.00154998 0.03548348 0.01827928
H  0.00618900 0.01225363 -0.00085492
12
MD Step 337 Units = [Angstroms / fs]
C  0.00228813 -0.00559780 0.00289112
C  0.00506735 0.00090390 -0.00566297
C  -0.00121713 0.00431083 0.00007743
C  0.00237707 0.00194424 -0.00391407
C  0.00718866 -0.00006281 -0.00112563
C  -0.00289256 0.00018735 -0.00656773
H  -0.00158642 0.00854656 0.01289038
H  0.00246291 -0.01239148 -0.00847776
H  0.00217778 0.00434635 0.00903334
H  0.01811620 0.00912321 -0.00196473
H  0.00128094 0.03147166 0.01747791
H  -0.00126308 0.00900315 -0.00071948
12
MD Step 338 Units = [Angstroms / fs]
C  0.00137172 -0.00562334 0.00238004
C  0.00488476 0.00058138 -0.00549257
C  -0.00061675 0.00469570 0.00001118
C  0.00289143 0.00244992 -0.00383963
C  0.00684822 0.00046095 -0.00092630
C  -0.00204288 0.00059292 -0.00660351
H  -0.00195643 0.00776321 0.01640981
H  0.00736105 -0.01495574 -0.00893114
H  -0.00029136 0.00520040 0.00901769
H  0.01656925 0.00344019 -0.00213034
H  0.00192752 0.02540178 0.01649025
H  -0.00867740 0.00571130 -0.00060368
12
MD Step 339 Units = [Angstroms / fs]
C  0.00049081 -0.00550122 0.00187662
C  0.00468836 0.00017598 -0.00530821
C  0.00001352 0.00501745 -0.00005899
C  0.00343482 0.00300286 -0.00375934
C  0.00637911 0.00107102 -0.00071946
C  -0.00116714 0.00099968 -0.00661923
H  -0.00268527 0.00604685 0.01964499
H  0.01176943 -0.01623284 -0.00944725
H  -0.00275466 0.00604696 0.00895335
H  0.01464588 -0.00259741 -0.00228274
H  0.00325273 0.01778557 0.01531977
H  -0.01528906 0.00234819 -0.00053159
12
MD Step 340 Units = [Angstroms / fs]
C  -0.00033462 -0.00524019 0.00138387
C  0.00448334 -0.00031332 -0.00511155
C  0.00064479 0.00526578 -0.00013280
C  0.00398513 0.00356704 -0.00367224
C  0.00580601 0.00172503 -0.00050756
C  -0.00032405 0.00140854 -0.00661335
H  -0.00377193 0.00344220 0.02259083
H  0.01555740 -0.01606064 -0.01002470
H  -0.00497924 0.00687444 0.00884438
H  0.01255566 -0.00855179 -0.00243535
H  0.00500466 0.00917231 0.01398431
H  -0.02044551 -0.00110622 -0.00052835
12
MD Step 341 Units = [Angstroms / fs]
C  -0.00108991 -0.00485645 0.00090252
C  0.00427128 -0.00087640 -0.00490504
C  0.00124898 0.00543232 -0.00021028
C  0.00451921 0.00410547 -0.00357738
C  0.00515609 0.00238077 -0.00029394
C  0.00044231 0.00181759 -0.00658480
H  -0.00516575 0.00008625 0.02527068
H  0.01865484 -0.01442394 -0.01065138
H  -0.00674731 0.00767049 0.00869718
H  0.01051462 -0.01398834 -0.00260086
H  0.00692808 0.00012176 0.01251365
H  -0.02368767 -0.00464757 -0.00061567
12
MD Step 342 Units = [Angstroms / fs]
C  -0.00176622 -0.00437334 0.00043133
C  0.00405075 -0.00149380 -0.00469166
C  0.00180045 0.00551084 -0.00029173
C  0.00501370 0.00458150 -0.00347389
C  0.00445860 0.00299702 -0.00008273
C  0.00110558 0.00222152 -0.00653330
H  -0.00676632 -0.00379452 0.02773156
H  0.02104608 -0.01143644 -0.01130718
H  -0.00787238 0.00842222 0.00851984
H  0.00873806 -0.01848983 -0.00279110
H  0.00876811 -0.00880547 0.01094763
H  -0.02478584 -0.00824135 -0.00080825
12
MD Step 343 Units = [Angstroms / fs]
C  -0.00236018 -0.00382005 -0.00003215
C  0.00381810 -0.00213942 -0.00447463
C  0.00227763 0.00549749 -0.00037763
C  0.00544594 0.00496064 -0.00336094
C  0.00374472 0.00353354 0.00012126
C  0.00165653 0.00261179 -0.00645934
H  -0.00843119 -0.00790038 0.03003454
H  0.02276049 -0.00731253 -0.01196721
H  -0.00821584 0.00911647 0.00832123
H  0.00743043 -0.02167576 -0.00301672
H  0.01027036 -0.01704972 0.00933494
H  -0.02373174 -0.01182582 -0.00111197
12
MD Step 344 Units = [Angstroms / fs]
C  -0.00287275 -0.00322933 -0.00049052
C  0.00356825 -0.00278311 -0.00425724
C  0.00266473 0.00539092 -0.00046849
C  0.00579547 0.00521312 -0.00323782
C  0.00304701 0.00395124 0.00031264
C  0.00210001 0.00297764 -0.00636420
H  -0.00999186 -0.01188763 0.03224149
H  0.02386278 -0.00233729 -0.01260490
H  -0.00770281 0.00974014 0.00810967
H  0.00676996 -0.02323056 -0.00328658
H  0.01118212 -0.02405581 0.00773186
H  -0.02070103 -0.01532085 -0.00152377
12
MD Step 345 Units = [Angstroms / fs]
C  -0.00330748 -0.00263452 -0.00094546
C  0.00329532 -0.00339309 -0.00404256
C  0.00295300 0.00519235 -0.00056469
C  0.00604604 0.00531720 -0.00310404
C  0.00239851 0.00421321 0.00048557
C  0.00245102 0.00330722 -0.00624979
H  -0.01127531 -0.01540708 0.03440135
H  0.02444434 0.00316035 -0.01319444
H  -0.00633520 0.01028038 0.00789148
H  0.00688699 -0.02294137 -0.00360661
H  0.01125900 -0.02928833 0.00620005
H  -0.01600405 -0.01863833 -0.00203284
12
MD Step 346 Units = [Angstroms / fs]
C  -0.00366852 -0.00206648 -0.00139687
C  0.00299303 -0.00393774 -0.00383338
C  0.00314164 0.00490566 -0.00066641
C  0.00618785 0.00526304 -0.00295936
C  0.00183089 0.00428737 0.00063414
C  0.00273097 0.00358880 -0.00611841
H  -0.01212713 -0.01814451 0.03653930
H  0.02461630 0.00882938 -0.01371270
H  -0.00419889 0.01072474 0.00766949
H  0.00783766 -0.02074124 -0.00397842
H  0.01028137 -0.03226717 0.00480222
H  -0.01003912 -0.02169151 -0.00262231
12
MD Step 347 Units = [Angstroms / fs]
C  -0.00395885 -0.00155093 -0.00184236
C  0.00265508 -0.00438710 -0.00363208
C  0.00323777 0.00453730 -0.00077341
C  0.00621976 0.00505600 -0.00280399
C  0.00137166 0.00415118 0.00075296
C  0.00296481 0.00381182 -0.00597266
H  -0.01243127 -0.01985524 0.03865136
H  0.02450365 0.01431463 -0.01414059
H  -0.00146182 0.01106106 0.00744178
H  0.00957848 -0.01674722 -0.00439765
H  0.00808343 -0.03262880 0.00359450
H  -0.00325569 -0.02440181 -0.00327104
12
MD Step 348 Units = [Angstroms / fs]
C  -0.00417916 -0.00110672 -0.00227742
C  0.00227544 -0.00471409 -0.00344055
C  0.00325552 0.00409618 -0.00088508
C  0.00615062 0.00471838 -0.00263863
C  0.00104039 0.00379824 0.00083807
C  0.00317908 0.00396778 -0.00581527
H  -0.01212264 -0.02038694 0.04070544
H  0.02423948 0.01927305 -0.01446400
H  0.00163890 0.01127736 0.00720121
H  0.01195080 -0.01127840 -0.00485256
H  0.00459432 -0.03020926 0.00261572
H  0.00387145 -0.02670319 -0.00395506
12
MD Step 349 Units = [Angstroms / fs]
C  -0.00432732 -0.00074524 -0.00269582
C  0.00184882 -0.00489581 -0.00326023
C  0.00321410 0.00359343 -0.00100036
C  0.00599890 0.00428812 -0.00246455
C  0.00084455 0.00324513 0.00088794
C  0.00340071 0.00405081 -0.00564900
H  -0.01119135 -0.01968812 0.04264753
H  0.02395777 0.02339106 -0.01467453
H  0.00482092 0.01136169 0.00693573
H  0.01468490 -0.00483914 -0.00532359
H  -0.00011641 -0.02513056 0.00187530
H  0.01085992 -0.02854501 -0.00464885
12
MD Step 350 Units = [Angstroms / fs]
C  -0.00439859 -0.00047066 -0.00309041
C  0.00137132 -0.00491502 -0.00309204
C  0.00313516 0.00304190 -0.00111792
C  0.00579034 0.00381416 -0.00228350
C  0.00077631 0.00253575 0.00090426
C  0.00365606 0.00405823 -0.00547663
H  -0.00967935 -0.01780389 0.04441102
H  0.02378354 0.02640484 -0.01476984
H  0.00778842 0.01130216 0.00662976
H  0.01742941 0.00193829 -0.00578427
H  -0.00580508 -0.01785625 0.00134417
H  0.01723426 -0.02989397 -0.00532642
12
MD Step 351 Units = [Angstroms / fs]
C  -0.00438632 -0.00028088 -0.00345390
C  0.00084148 -0.00476179 -0.00293642
C  0.00303990 0.00245568 -0.00123630
C  0.00555382 0.00334908 -0.00209755
C  0.00081198 0.00174000 0.00089201
C  0.00396987 0.00399070 -0.00530081
H  -0.00767200 -0.01486276 0.04592657
H  0.02381949 0.02812372 -0.01475349
H  0.01026642 0.01108735 0.00626634
H  0.01980276 0.00838319 -0.00620377
H  -0.01205203 -0.00917771 0.00095401
H  0.02254301 -0.03073567 -0.00596253
12
MD Step 352 Units = [Angstroms / fs]
C  -0.00428289 -0.00016872 -0.00377951
C  0.00026156 -0.00443528 -0.00279343
C  0.00294641 0.00184939 -0.00135409
C  0.00531656 0.00294083 -0.00190883
C  0.00091527 0.00094517 0.00085865
C  0.00436355 0.00385223 -0.00512406
H  -0.00528730 -0.01105897 0.04713090
H  0.02412967 0.02845423 -0.01463414
H  0.01203145 0.01070709 0.00582964
H  0.02145398 0.01388550 -0.00655073
H  -0.01830589 -0.00011095 0.00060813
H  0.02638285 -0.03107548 -0.00653433
12
MD Step 353 Units = [Angstroms / fs]
C  -0.00408073 -0.00012301 -0.00406159
C  -0.00036111 -0.00394508 -0.00266288
C  0.00286770 0.00123754 -0.00147014
C  0.00510000 0.00262595 -0.00171928
C  0.00104406 0.00024139 0.00081243
C  0.00485274 0.00364975 -0.00494856
H  -0.00266500 -0.00663409 0.04797352
H  0.02472250 0.02741983 -0.01442371
H  0.01293355 0.01015344 0.00530732
H  0.02211603 0.01797797 -0.00679732
H  -0.02396982 0.00827816 0.00020217
H  0.02843266 -0.03093796 -0.00702338
12
MD Step 354 Units = [Angstroms / fs]
C  -0.00377331 -0.00012961 -0.00429589
C  -0.00101295 -0.00331159 -0.00254453
C  0.00281062 0.00063395 -0.00158371
C  0.00491736 0.00242563 -0.00153039
C  0.00115879 -0.00029414 0.00076051
C  0.00544410 0.00339239 -0.00477601
H  0.00004314 -0.00185989 0.04842121
H  0.02553751 0.02516922 -0.01413491
H  0.01290697 0.00942183 0.00469231
H  0.02163784 0.02038236 -0.00692263
H  -0.02850492 0.01506497 -0.00035247
H  0.02849620 -0.03036345 -0.00741806
12
MD Step 355 Units = [Angstroms / fs]
C  -0.00335604 -0.00017225 -0.00447987
C  -0.00167385 -0.00256508 -0.00243831
C  0.00277569 0.00005122 -0.00169454
C  0.00477321 0.00234520 -0.00134313
C  0.00122955 -0.00060893 0.00070754
C  0.00613195 0.00309040 -0.00460750
H  0.00268180 0.00297699 0.04846060
H  0.02644148 0.02196691 -0.01377824
H  0.01197000 0.00851197 0.00398380
H  0.01999103 0.02101547 -0.00691467
H  -0.03151644 0.01960943 -0.00111131
H  0.02654635 -0.02940129 -0.00771582
12
MD Step 356 Units = [Angstroms / fs]
C  -0.00282699 -0.00023335 -0.00461272
C  -0.00231798 -0.00174300 -0.00234449
C  0.00275769 -0.00049947 -0.00180285
C  0.00466461 0.00237608 -0.00115792
C  0.00123977 -0.00067972 0.00065517
C  0.00689579 0.00275386 -0.00444333
H  0.00509951 0.00758927 0.04809901
H  0.02723819 0.01816352 -0.01335954
H  0.01021624 0.00742850 0.00318729
H  0.01725566 0.01996445 -0.00677071
H  -0.03279759 0.02161320 -0.00209068
H  0.02275836 -0.02809960 -0.00792444
12
MD Step 357 Units = [Angstroms / fs]
C  -0.00218753 -0.00029491 -0.00469536
C  -0.00291584 -0.00088603 -0.00226380
C  0.00274673 -0.00100860 -0.00190936
C  0.00458298 0.00249919 -0.00097469
C  0.00118619 -0.00051022 0.00060246
C  0.00769994 0.00239143 -0.00428311
H  0.00715601 0.01170340 0.04736379
H  0.02769286 0.01414943 -0.01287866
H  0.00780075 0.00618125 0.00231414
H  0.01359494 0.01744651 -0.00649653
H  -0.03232668 0.02109373 -0.00327217
H  0.01751641 -0.02649437 -0.00806160
12
MD Step 358 Units = [Angstroms / fs]
C  -0.00144280 -0.00033968 -0.00473029
C  -0.00343732 -0.00003366 -0.00219734
C  0.00272950 -0.00146824 -0.00201513
C  0.00451604 0.00268836 -0.00079299
C  0.00107618 -0.00012463 0.00054668
C  0.00849625 0.00200952 -0.00412590
H  0.00873001 0.01507533 0.04629975
H  0.02756719 0.01030145 -0.01232998
H  0.00492389 0.00478517 0.00138049
H  0.00922803 0.01376733 -0.00610499
H  -0.03023185 0.01830803 -0.00461320
H  0.01138177 -0.02460144 -0.00815211
12
MD Step 359 Units = [Angstroms / fs]
C  -0.00060215 -0.00035264 -0.00472121
C  -0.00385502 0.00077987 -0.00214639
C  0.00269073 -0.00187204 -0.00212150
C  0.00444939 0.00291334 -0.00061209
C  0.00092409 0.00043963 0.00048421
C  0.00922993 0.00161213 -0.00397057
H  0.00972795 0.01750811 0.04496464
H  0.02665684 0.00693461 -0.01170440
H  0.00181508 0.00325999 0.00040599
H  0.00440717 0.00928656 -0.00561453
H  -0.02674378 0.01366457 -0.00605853
H  0.00502177 -0.02241543 -0.00822331
12
MD Step 360 Units = [Angstroms / fs]
C  0.00032062 -0.00032263 -0.00467253
C  -0.00414702 0.00152823 -0.00211213
C  0.00261446 -0.00221500 -0.00222994
C  0.00436755 0.00314189 -0.00043103
C  0.00074796 0.00113806 0.00041131
C  0.00984737 0.00120163 -0.00381617
H  0.01009324 0.01887057 0.04342210
H  0.02482217 0.00426922 -0.01099241
H  -0.00128283 0.00162958 -0.00058755
H  -0.00059896 0.00439316 -0.00504793
H  -0.02215324 0.00765016 -0.00754939
H  -0.00088626 -0.01991691 -0.00829980
12
MD Step 361 Units = [Angstroms / fs]
C  0.00130712 -0.00024400 -0.00458866
C  -0.00429873 0.00219403 -0.00209537
C  0.00248541 -0.00249341 -0.00234193
C  0.00425470 0.00334128 -0.00024871
C  0.00056734 0.00192297 0.00032450
C  0.01030378 0.00077992 -0.00366225
H  0.00981499 0.01911463 0.04173253
H  0.02200621 0.00241765 -0.01018696
H  -0.00412869 -0.00007881 -0.00157772
H  -0.00551647 -0.00051103 -0.00443131
H  -0.01678129 0.00078183 -0.00902926
H  -0.00575177 -0.01708561 -0.00839899
12
MD Step 362 Units = [Angstroms / fs]
C  0.00233449 -0.00011788 -0.00447318
C  -0.00430345 0.00276846 -0.00209640
C  0.00229031 -0.00270459 -0.00245882
C  0.00409523 0.00347943 -0.00006390
C  0.00040204 0.00274550 0.00022078
C  0.01056895 0.00034987 -0.00350899
H  0.00893401 0.01828717 0.03994263
H  0.01823807 0.00138876 -0.00928570
H  -0.00649819 -0.00183566 -0.00254307
H  -0.01007462 -0.00502364 -0.00379329
H  -0.01096321 -0.00641758 -0.01044689
H  -0.00914395 -0.01391464 -0.00852885
12
MD Step 363 Units = [Angstroms / fs]
C  0.00337599 0.00004743 -0.00432810
C  -0.00416193 0.00324990 -0.00211480
C  0.00201920 -0.00284680 -0.00258165
C  0.00387443 0.00352599 0.00012467
C  0.00027186 0.00355637 0.00009770
C  0.01062963 -0.00008376 -0.00335718
H  0.00754396 0.01653189 0.03807589
H  0.01362462 0.00110421 -0.00829203
H  -0.00819959 -0.00361037 -0.00346477
H  -0.01401464 -0.00875487 -0.00316404
H  -0.00504259 -0.01342777 -0.01175753
H  -0.01082688 -0.01042079 -0.00868799
12
MD Step 364 Units = [Angstroms / fs]
C  0.00440195 0.00023718 -0.00415336
C  -0.00388140 0.00364221 -0.00214948
C  0.00166686 -0.00291902 -0.00271106
C  0.00357954 0.00345395 0.00031825
C  0.00019665 0.00430610 -0.00004662
C  0.01048898 -0.00051398 -0.00320798
H  0.00578559 0.01407783 0.03612629
H  0.00833530 0.00141978 -0.00721515
H  -0.00909004 -0.00537270 -0.00432830
H  -0.01710201 -0.01134642 -0.00257368
H  0.00062952 -0.01973225 -0.01292364
H  -0.01075713 -0.00664810 -0.00886764
12
MD Step 365 Units = [Angstroms / fs]
C  0.00538122 0.00043211 -0.00394682
C  -0.00347424 0.00395306 -0.00219874
C  0.00123408 -0.00292084 -0.00284712
C  0.00320127 0.00324194 0.00051781
C  0.00019641 0.00494548 -0.00021340
C  0.01016368 -0.00093181 -0.00306271
H  0.00383365 0.01121371 0.03405792
H  0.00258475 0.00214642 -0.00606936
H  -0.00909142 -0.00709419 -0.00512500
H  -0.01914419 -0.01249988 -0.00204993
H  0.00569633 -0.02482153 -0.01391585
H  -0.00905501 -0.00266527 -0.00905450
12
MD Step 366 Units = [Angstroms / fs]
C  0.00628308 0.00061128 -0.00370473
C  -0.00295675 0.00419262 -0.00226033
C  0.00072868 -0.00285237 -0.00298927
C  0.00273566 0.00287737 0.00072386
C  0.00029080 0.00542702 -0.00040308
C  0.00968026 -0.00132700 -0.00292263
H  0.00187792 0.00825189 0.03181124
H  -0.00338353 0.00306816 -0.00487303
H  -0.00820343 -0.00874927 -0.00585325
H  -0.02001373 -0.01201527 -0.00161459
H  0.00980431 -0.02820732 -0.01471472
H  -0.00596425 0.00144087 -0.00923355
12
MD Step 367 Units = [Angstroms / fs]
C  0.00707917 0.00075524 -0.00342273
C  -0.00234803 0.00437249 -0.00233160
C  0.00016607 -0.00271423 -0.00313632
C  0.00218616 0.00236004 0.00093608
C  0.00049765 0.00570799 -0.00061516
C  0.00907150 -0.00168877 -0.00278875
H  0.00010156 0.00548858 0.02931520
H  -0.00931168 0.00395653 -0.00364731
H  -0.00651080 -0.01031593 -0.00651888
H  -0.01967358 -0.00983529 -0.00127923
H  0.01262560 -0.02945556 -0.01531320
H  -0.00181221 0.00557315 -0.00939027
12
MD Step 368 Units = [Angstroms / fs]
C  0.00774525 0.00084882 -0.00309698
C  -0.00166896 0.00450497 -0.00240967
C  -0.00043105 -0.00250769 -0.00328648
C  0.00156516 0.00170536 0.00115298
C  0.00082991 0.00575542 -0.00084791
C  0.00837357 -0.00200654 -0.00266181
H  -0.00133894 0.00316853 0.02650222
H  -0.01494041 0.00458275 -0.00241484
H  -0.00418138 -0.01177545 -0.00713466
H  -0.01819749 -0.00608457 -0.00104105
H  0.01389825 -0.02824314 -0.01571918
H  0.00302259 0.00963116 -0.00951217
12
MD Step 369 Units = [Angstroms / fs]
C  0.00826262 0.00088305 -0.00272531
C  -0.00094116 0.00460225 -0.00249151
C  -0.00103394 -0.00223494 -0.00343752
C  0.00089435 0.00094586 0.00137172
C  0.00129129 0.00555271 -0.00109835
C  0.00762396 -0.00227048 -0.00254219
H  -0.00232877 0.00146058 0.02332226
H  -0.02002190 0.00472961 -0.00119831
H  -0.00145276 -0.01311133 -0.00771858
H  -0.01577668 -0.00108805 -0.00088015
H  0.01348278 -0.02443482 -0.01595661
H  0.00813432 0.01351699 -0.00958965
12
MD Step 370 Units = [Angstroms / fs]
C  0.00861886 0.00085588 -0.00230797
C  -0.00018590 0.00467558 -0.00257419
C  -0.00160997 -0.00189946 -0.00358706
C  0.00020331 0.00012974 0.00158812
C  0.00187133 0.00510649 -0.00136232
C  0.00686011 -0.00247193 -0.00243001
H  -0.00280282 0.00044701 0.01975310
H  -0.02433415 0.00420543 -0.00001895
H  0.00139216 -0.01430766 -0.00829119
H  -0.01270471 0.00464668 -0.00076001
H  0.01142337 -0.01816341 -0.01606328
H  0.01310714 0.01713977 -0.00961648
12
MD Step 371 Units = [Angstroms / fs]
C  0.00880809 0.00077190 -0.00184798
C  0.00057724 0.00473410 -0.00265498
C  -0.00212555 -0.00150644 -0.00373276
C  -0.00047379 -0.00068412 0.00179705
C  0.00254176 0.00445108 -0.00163510
C  0.00611832 -0.00260371 -0.00232512
H  -0.00274679 0.00012561 0.01580507
H  -0.02769748 0.00286125 0.00110519
H  0.00405774 -0.01534729 -0.00887236
H  -0.00933950 0.01048907 -0.00063196
H  0.00799081 -0.00988204 -0.01608394
H  0.01753008 0.02041944 -0.00959009
12
MD Step 372 Units = [Angstroms / fs]
C  0.00883075 0.00064131 -0.00135103
C  0.00133174 0.00478330 -0.00273159
C  -0.00254925 -0.00106309 -0.00387265
C  -0.00110262 -0.00143384 0.00199303
C  0.00325663 0.00364762 -0.00191217
C  0.00543255 -0.00266050 -0.00222715
H  -0.00219279 0.00042093 0.01152067
H  -0.02999245 0.00061170 0.00216079
H  0.00627068 -0.01621067 -0.00947826
H  -0.00604951 0.01577799 -0.00044312
H  0.00367942 -0.00035267 -0.01605968
H  0.02101406 0.02329034 -0.00951158
12
MD Step 373 Units = [Angstroms / fs]
C  0.00869320 0.00047852 -0.00082512
C  0.00206550 0.00482341 -0.00280221
C  -0.00285469 -0.00057876 -0.00400528
C  -0.00165315 -0.00206322 0.00217102
C  0.00395737 0.00277620 -0.00219014
C  0.00483277 -0.00263924 -0.00213552
H  -0.00121181 0.00120025 0.00697015
H  -0.03117623 -0.00254313 0.00314051
H  0.00781119 -0.01687558 -0.01011899
H  -0.00315859 0.01992325 -0.00014565
H  -0.00085793 0.00944859 -0.01601690
H  0.02321503 0.02570475 -0.00938566
12
MD Step 374 Units = [Angstroms / fs]
C  0.00840706 0.00030075 -0.00028000
C  0.00277168 0.00484800 -0.00286561
C  -0.00302268 -0.00006473 -0.00412985
C  -0.00210279 -0.00252879 0.00232707
C  0.00458222 0.00192246 -0.00246723
C  0.00434257 -0.00253955 -0.00204951
H  0.00009520 0.00229066 0.00224498
H  -0.03129310 -0.00649941 0.00404331
H  0.00853527 -0.01731808 -0.01079744
H  -0.00090425 0.02248846 0.00029527
H  -0.00492680 0.01849386 -0.01596074
H  0.02386529 0.02763585 -0.00922025
12
MD Step 375 Units = [Angstroms / fs]
C  0.00798857 0.00012668 0.00027340
C  0.00344872 0.00484329 -0.00292106
C  -0.00304242 0.00046616 -0.00424615
C  -0.00243787 -0.00280392 0.00245871
C  0.00507693 0.00116256 -0.00274326
C  0.00397625 -0.00236399 -0.00196828
H  0.00160634 0.00349509 -0.00254970
H  -0.03047374 -0.01104183 0.00487350
H  0.00838540 -0.01751427 -0.01150936
H  0.00058207 0.02323588 0.00089687
H  -0.00792257 0.02588334 -0.01587603
H  0.02281149 0.02907907 -0.00902549
12
MD Step 376 Units = [Angstroms / fs]
C  0.00745784 -0.00002466 0.00082364
C  0.00409925 0.00478885 -0.00296813
C  -0.00291180 0.00100021 -0.00435454
C  -0.00265326 -0.00287950 0.00256504
C  0.00540302 0.00055171 -0.00301898
C  0.00373571 -0.00211803 -0.00189093
H  0.00318739 0.00460667 -0.00730266
H  -0.02892007 -0.01585302 0.00563845
H  0.00738996 -0.01744262 -0.01224450
H  0.00127271 0.02212973 0.00165833
H  -0.00943095 0.03098295 -0.01573492
H  0.02005317 0.03005041 -0.00881226
12
MD Step 377 Units = [Angstroms / fs]
C  0.00683798 -0.00013486 0.00135927
C  0.00472793 0.00465986 -0.00300641
C  -0.00263687 0.00152361 -0.00445575
C  -0.00275103 -0.00276197 0.00264654
C  0.00554137 0.00011922 -0.00329535
C  0.00360830 -0.00180953 -0.00181664
H  0.00470033 0.00542206 -0.01190413
H  -0.02687645 -0.02054326 0.00634532
H  0.00565413 -0.01708614 -0.01298835
H  0.00122647 0.01930814 0.00256325
H  -0.00926940 0.03348274 -0.01550719
H  0.01577049 0.03058085 -0.00859005
12
MD Step 378 Units = [Angstroms / fs]
C  0.00615413 -0.00018717 0.00186950
C  0.00533887 0.00443082 -0.00303522
C  -0.00223090 0.00202313 -0.00455073
C  -0.00273861 -0.00247014 0.00270478
C  0.00549097 -0.00013003 -0.00357284
C  0.00356652 -0.00144784 -0.00174479
H  0.00601228 0.00575464 -0.01625332
H  -0.02459269 -0.02469748 0.00699770
H  0.00334530 -0.01643422 -0.01372410
H  0.00056515 0.01504008 0.00358392
H  -0.00747040 0.03337711 -0.01516899
H  0.01032767 0.03070727 -0.00836471
12
MD Step 379 Units = [Angstroms / fs]
C  0.00543215 -0.00016759 0.00234475
C  0.00593307 0.00407980 -0.00305344
C  -0.00171307 0.00248673 -0.00464051
C  -0.00262731 -0.00203180 0.00274213
C  0.00526498 -0.00021004 -0.00385111
C  0.00357051 -0.00104269 -0.00167507
H  0.00700550 0.00544894 -0.02026582
H  -0.02228791 -0.02793019 0.00759338
H  0.00067634 -0.01548393 -0.01443459
H  -0.00054873 0.00968178 0.00468556
H  -0.00422900 0.03089610 -0.01470761
H  0.00424237 0.03046206 -0.00813665
12
MD Step 380 Units = [Angstroms / fs]
C  0.00469717 -0.00006602 0.00277727
C  0.00650692 0.00359241 -0.00305942
C  -0.00110713 0.00290401 -0.00472602
C  -0.00243114 -0.00148091 0.00276142
C  0.00488597 -0.00014710 -0.00412898
C  0.00357340 -0.00060328 -0.00160748
H  0.00758849 0.00439639 -0.02388073
H  -0.02012378 -0.02993590 0.00812378
H  -0.00211155 -0.01424067 -0.01510391
H  -0.00192935 0.00364108 0.00583010
H  0.00015808 0.02642366 -0.01412247
H  -0.00187939 0.02986506 -0.00790038
12
MD Step 381 Units = [Angstroms / fs]
C  0.00397202 0.00012238 0.00316164
C  0.00705180 0.00296446 -0.00305107
C  -0.00043997 0.00326637 -0.00480804
C  -0.00216603 -0.00085559 0.00276576
C  0.00438204 0.00002586 -0.00440454
C  0.00352831 -0.00013785 -0.00154231
H  0.00770750 0.00255188 -0.02706657
H  -0.01819207 -0.03052393 0.00857519
H  -0.00476536 -0.01271827 -0.01571875
H  -0.00337950 -0.00264794 0.00697878
H  0.00534322 0.02042842 -0.01342381
H  -0.00742997 0.02892089 -0.00764548
12
MD Step 382 Units = [Angstroms / fs]
C  0.00327571 0.00039600 0.00349512
C  0.00755491 0.00220297 -0.00302611
C  0.00025990 0.00356709 -0.00488709
C  -0.00184938 -0.00019656 0.00275835
C  0.00378430 0.00027300 -0.00467538
C  0.00339539 0.00034618 -0.00147990
H  0.00735678 -0.00005142 -0.02982443
H  -0.01651638 -0.02963245 0.00893130
H  -0.00703659 -0.01093856 -0.01626931
H  -0.00469829 -0.00874234 0.00809424
H  0.01096105 0.01341748 -0.01263065
H  -0.01188702 0.02762265 -0.00735905
12
MD Step 383 Units = [Angstroms / fs]
C  0.00262222 0.00074605 0.00377760
C  0.00800083 0.00132551 -0.00298230
C  0.00096391 0.00380120 -0.00496338
C  -0.00149954 0.00045411 0.00274231
C  0.00312560 0.00055757 -0.00493864
C  0.00314714 0.00084164 -0.00142050
H  0.00658479 -0.00329270 -0.03218701
H  -0.01506382 -0.02732331 0.00917610
H  -0.00869765 -0.00893032 -0.01674997
H  -0.00568723 -0.01420427 0.00914208
H  0.01664549 0.00591260 -0.01176900
H  -0.01487893 0.02596012 -0.00702875
12
MD Step 384 Units = [Angstroms / fs]
C  0.00201996 0.00115648 0.00401121
C  0.00837335 0.00035848 -0.00291767
C  0.00164521 0.00396528 -0.00503680
C  -0.00113522 0.00105460 0.00272051
C  0.00243998 0.00084255 -0.00519116
C  0.00277073 0.00134092 -0.00136411
H  0.00549367 -0.00696408 -0.03421215
H  -0.01376120 -0.02376347 0.00929647
H  -0.00955912 -0.00672775 -0.01715951
H  -0.00615742 -0.01861704 0.01009258
H  0.02203602 -0.00155810 -0.01087068
H  -0.01621619 0.02392915 -0.00664543
12
MD Step 385 Units = [Angstroms / fs]
C  0.00147206 0.00160502 0.00419948
C  0.00865704 -0.00066506 -0.00283075
C  0.00228053 0.00405722 -0.00510692
C  -0.00077441 0.00156551 0.00269539
C  0.00176239 0.00109078 -0.00542947
C  0.00226776 0.00183549 -0.00131040
H  0.00422976 -0.01078437 -0.03597142
H  -0.01251107 -0.01920063 0.00928399
H  -0.00948745 -0.00436827 -0.01750092
H  -0.00594030 -0.02160826 0.01092264
H  0.02677971 -0.00846150 -0.00997262
H  -0.01588891 0.02153879 -0.00620492
12
MD Step 386 Units = [Angstroms / fs]
C  0.00097752 0.00206529 0.00434618
C  0.00883852 -0.00170766 -0.00272069
C  0.00285201 0.00407596 -0.00517308
C  -0.00043294 0.00195299 0.00266869
C  0.00112815 0.00126521 -0.00564981
C  0.00165185 0.00231578 -0.00125871
H  0.00296562 -0.01442659 -0.03753552
H  -0.01120490 -0.01393874 0.00913606
H  -0.00842190 -0.00189007 -0.01778069
H  -0.00490391 -0.02288330 0.01161812
H  0.03053545 -0.01426341 -0.00911603
H  -0.01403998 0.01881468 -0.00570859
12
MD Step 387 Units = [Angstroms / fs]
C  0.00053293 0.00250973 0.00445425
C  0.00890715 -0.00272951 -0.00258733
C  0.00334875 0.00402139 -0.00523443
C  -0.00012256 0.00219263 0.00264127
C  0.00057172 0.00133008 -0.00584830
C  0.00094551 0.00277145 -0.00120816
H  0.00187633 -0.01755557 -0.03895997
H  -0.00973272 -0.00831651 0.00885628
H  -0.00638813 0.00067048 -0.01800747
H  -0.00297464 -0.02226809 0.01217610
H  0.03298621 -0.01844438 -0.00834483
H  -0.01092737 0.01579884 -0.00516304
12
MD Step 388 Units = [Angstroms / fs]
C  0.00013446 0.00291277 0.00452500
C  0.00885541 -0.00369018 -0.00243125
C  0.00376787 0.00389423 -0.00529011
C  0.00015118 0.00227371 0.00261290
C  0.00012440 0.00125372 -0.00602110
C  0.00017700 0.00319190 -0.00115771
H  0.00111491 -0.01986883 -0.04027475
H  -0.00798974 -0.00268928 0.00845436
H  -0.00350491 0.00328067 -0.01819031
H  -0.00016147 -0.01975471 0.01260613
H  0.03386371 -0.02053639 -0.00770246
H  -0.00688638 0.01254706 -0.00457920
12
MD Step 389 Units = [Angstroms / fs]
C  -0.00022047 0.00325358 0.00455777
C  0.00867897 -0.00455028 -0.00225377
C  0.00411454 0.00369615 -0.00533938
C  0.00039067 0.00220242 0.00258232
C  -0.00018915 0.00101347 -0.00616488
C  -0.00062222 0.00356685 -0.00110631
H  0.00079227 -0.02113225 -0.04148026
H  -0.00588146 0.00258764 0.00794567
H  0.00001963 0.00591224 -0.01833652
H  0.00342353 -0.01553630 0.01292964
H  0.03298728 -0.02018559 -0.00722646
H  -0.00229817 0.00912532 -0.00397133
12
MD Step 390 Units = [Angstroms / fs]
C  -0.00053210 0.00351793 0.00455017
C  0.00837669 -0.00527314 -0.00205688
C  0.00440100 0.00342999 -0.00538175
C  0.00060682 0.00200291 0.00254742
C  -0.00035505 0.00060235 -0.00627738
C  -0.00141934 0.00388702 -0.00105292
H  0.00096542 -0.02120419 -0.04254990
H  -0.00332852 0.00717659 0.00735034
H  0.00390413 0.00854049 -0.01844976
H  0.00755756 -0.01001431 0.01317649
H  0.03031193 -0.01723723 -0.00694099
H  0.00243415 0.00560608 -0.00335604
12
MD Step 391 Units = [Angstroms / fs]
C  -0.00079789 0.00369893 0.00449868
C  0.00795068 -0.00582689 -0.00184311
C  0.00464449 0.00310003 -0.00541707
C  0.00081800 0.00171479 0.00250572
C  -0.00037425 0.00003606 -0.00635808
C  -0.00218151 0.00414463 -0.00099656
H  0.00163487 -0.02004499 -0.04343774
H  -0.00027267 0.01077912 0.00669181
H  0.00782212 0.01114189 -0.01852872
H  0.01192048 -0.00376485 0.01337897
H  0.02597268 -0.01182346 -0.00684873
H  0.00690371 0.00206481 -0.00275139
12
MD Step 392 Units = [Angstroms / fs]
C  -0.00101280 0.00379669 0.00439942
C  0.00740645 -0.00618679 -0.00161539
C  0.00486443 0.00271225 -0.00544554
C  0.00104701 0.00138714 0.00245496
C  -0.00026441 -0.00064273 -0.00640863
C  -0.00287699 0.00433387 -0.00093637
H  0.00274996 -0.01771305 -0.04408859
H  0.00331533 0.01316259 0.00599468
H  0.01143819 0.01369080 -0.01856677
H  0.01613170 0.00253690 0.01356458
H  0.02030465 -0.00441906 -0.00692518
H  0.01071622 -0.00142340 -0.00217602
12
MD Step 393 Units = [Angstroms / fs]
C  -0.00116994 0.00381733 0.00424893
C  0.00675339 -0.00633790 -0.00137673
C  0.00507933 0.00227452 -0.00546763
C  0.00131669 0.00107016 0.00239355
C  -0.00005840 -0.00136586 -0.00643289
C  -0.00347636 0.00445121 -0.00087158
H  0.00421890 -0.01435151 -0.04444785
H  0.00742582 0.01419081 0.00528181
H  0.01444590 0.01615641 -0.01855285
H  0.01980426 0.00821854 0.01374991
H  0.01381984 0.00417425 -0.00711882
H  0.01350861 -0.00478741 -0.00164815
12
MD Step 394 Units = [Angstroms / fs]
C  -0.00126138 0.00377176 0.00404478
C  0.00600531 -0.00627760 -0.00112996
C  0.00530412 0.00179652 -0.00548390
C  0.00164547 0.00080688 0.00232087
C  0.00020126 -0.00204870 -0.00643621
C  -0.00395429 0.00449562 -0.00080164
H  0.00592075 -0.01017012 -0.04446974
H  0.01199954 0.01385383 0.00457094
H  0.01660075 0.01850083 -0.01847330
H  0.02260220 0.01271108 0.01393770
H  0.00713511 0.01293474 -0.00735893
H  0.01497343 -0.00796412 -0.00118423
12
MD Step 395 Units = [Angstroms / fs]
C  -0.00127907 0.00367439 0.00378596
C  0.00518100 -0.00601725 -0.00087739
C  0.00554807 0.00128944 -0.00549487
C  0.00204397 0.00062707 0.00223722
C  0.00047063 -0.00260500 -0.00642438
C  -0.00429189 0.00446869 -0.00072626
H  0.00771684 -0.00542632 -0.04412285
H  0.01691873 0.01228841 0.00387145
H  0.01774269 0.02067919 -0.01831426
H  0.02428563 0.01562132 0.01411770
H  0.00086824 0.02079899 -0.00756961
H  0.01489032 -0.01090271 -0.00079735
12
MD Step 396 Units = [Angstroms / fs]
C  -0.00121560 0.00354211 0.00347314
C  0.00430442 -0.00558222 -0.00062064
C  0.00581394 0.00076558 -0.00550080
C  0.00251352 0.00054462 0.00214355
C  0.00071241 -0.00296286 -0.00640231
C  -0.00447940 0.00437465 -0.00064553
H  0.00946064 -0.00040759 -0.04339351
H  0.02200363 0.00977932 0.00318231
H  0.01780611 0.02264148 -0.01806400
H  0.02473345 0.01676176 0.01427068
H  -0.00446444 0.02685451 -0.00768510
H  0.01316225 -0.01356838 -0.00049531
12
MD Step 397 Units = [Angstroms / fs]
C  -0.00106500 0.00339335 0.00310869
C  0.00340426 -0.00500959 -0.00036061
C  0.00609788 0.00023764 -0.00550159
C  0.00304651 0.00055822 0.00204114
C  0.00090135 -0.00307637 -0.00637321
C  -0.00451889 0.00422019 -0.00056007
H  0.01100586 0.00458427 -0.04228702
H  0.02701833 0.00673392 0.00249225
H  0.01681791 0.02433596 -0.01771495
H  0.02394263 0.01614036 0.01437368
H  -0.00851636 0.03048187 -0.00766100
H  0.00984956 -0.01594403 -0.00027885
12
MD Step 398 Units = [Angstroms / fs]
C  -0.00082332 0.00324727 0.00269663
C  0.00251255 -0.00434372 -0.00009768
C  0.00639023 -0.00028176 -0.00549672
C  0.00362808 0.00065418 0.00193119
C  0.00102572 -0.00292988 -0.00633822
C  -0.00442586 0.00401405 -0.00047111
H  0.01221360 0.00924792 -0.04082741
H  0.03168816 0.00362992 0.00178256
H  0.01488690 0.02571300 -0.01726492
H  0.02201053 0.01392402 0.01440486
H  -0.01113017 0.03140881 -0.00747842
H  0.00519059 -0.01802871 -0.00014049
12
MD Step 399 Units = [Angstroms / fs]
C  -0.00048924 0.00312285 0.00224247
C  0.00166237 -0.00363023 0.00016791
C  0.00667667 -0.00078077 -0.00548520
C  0.00423828 0.00081009 0.00181463
C  0.00108550 -0.00253533 -0.00629667
C  -0.00422887 0.00376631 -0.00038046
H  0.01295917 0.01329766 -0.03905564
H  0.03572743 0.00094580 0.00103208
H  0.01218798 0.02672886 -0.01671767
H  0.01910957 0.01039299 0.01434701
H  -0.01231544 0.02968137 -0.00714148
H  -0.00040334 -0.01983221 -0.00006468
12
MD Step 400 Units = [Angstroms / fs]
C  -0.00006461 0.00303768 0.00175293
C  0.00088511 -0.00291009 0.00043556
C  0.00693968 -0.00124864 -0.00546566
C  0.00485410 0.00099818 0.00169199
C  0.00108896 -0.00192543 -0.00624659
C  -0.00396657 0.00348743 -0.00029044
H  0.01313950 0.01648048 -0.03702636
H  0.03887263 -0.00090957 0.00022300
H  0.00894455 0.02734885 -0.01608286
H  0.01546231 0.00589886 0.01418955
H  -0.01220451 0.02558590 -0.00667120
H  -0.00638627 -0.02136681 -0.00002945
12
MD Step 401 Units = [Angstroms / fs]
C  0.00044512 0.00300643 0.00123550
C  0.00020778 -0.00221500 0.00070401
C  0.00715992 -0.00167614 -0.00543640
C  0.00545104 0.00118798 0.00156335
C  0.00104905 -0.00114598 -0.00618527
C  -0.00368221 0.00318724 -0.00020360
H  0.01268159 0.01859563 -0.03480278
H  0.04091366 -0.00165082 -0.00065427
H  0.00541106 0.02754953 -0.01537549
H  0.01132127 0.00083258 0.01392935
H  -0.01100591 0.01956065 -0.00609867
H  -0.01214672 -0.02263877 -0.00000964
12
MD Step 402 Units = [Angstroms / fs]
C  0.00103044 0.00303917 0.00069786
C  -0.00034911 -0.00156513 0.00097105
C  0.00731764 -0.00205568 -0.00539550
C  0.00600423 0.00134811 0.00142834
C  0.00098084 -0.00024950 -0.00610973
C  -0.00341698 0.00287426 -0.00012244
H  0.01155148 0.01951570 -0.03244973
H  0.04171634 -0.00114286 -0.00159854
H  0.00185642 0.02732012 -0.01461503
H  0.00695458 -0.00439722 0.01357087
H  -0.00896784 0.01212309 -0.00545974
H  -0.01709357 -0.02364275 0.00001919
12
MD Step 403 Units = [Angstroms / fs]
C  0.00167757 0.00313954 0.00014724
C  -0.00077261 -0.00096912 0.00123362
C  0.00739401 -0.00238139 -0.00534091
C  0.00648917 0.00144755 0.00128617
C  0.00089992 0.00070901 -0.00601697
C  -0.00320371 0.00255534 -0.00004916
H  0.00976270 0.01920659 -0.03002521
H  0.04123252 0.00060039 -0.00259775
H  -0.00145182 0.02666296 -0.01382419
H  0.00263594 -0.00937853 0.01312593
H  -0.00635522 0.00382273 -0.00479156
H  -0.02073742 -0.02436114 0.00007718
12
MD Step 404 Units = [Angstroms / fs]
C  0.00236847 0.00330342 -0.00041033
C  -0.00105752 -0.00042590 0.00148797
C  0.00737252 -0.00264908 -0.00527065
C  0.00688245 0.00145671 0.00113566
C  0.00082190 0.00167436 -0.00590412
C  -0.00306251 0.00223571 0.00001456
H  0.00738222 0.01774145 -0.02757160
H  0.03949802 0.00343806 -0.00363099
H  -0.00426337 0.02559314 -0.01302737
H  -0.00136388 -0.01370797 0.01261329
H  -0.00343887 -0.00478281 -0.00413102
H  -0.02274821 -0.02476826 0.00017765
12
MD Step 405 Units = [Angstroms / fs]
C  0.00308117 0.00351851 -0.00097061
C  -0.00120580 0.00007269 0.00172990
C  0.00724027 -0.00285602 -0.00518293
C  0.00716264 0.00134867 0.00097533
C  0.00076245 0.00259215 -0.00576852
C  -0.00299929 0.00191938 0.00006757
H  0.00453121 0.01530320 -0.02510850
H  0.03662215 0.00713454 -0.00467154
H  -0.00636175 0.02413718 -0.01224877
H  -0.00478732 -0.01700566 0.01205776
H  -0.00049259 -0.01313626 -0.00351415
H  -0.02297919 -0.02483733 0.00032629
12
MD Step 406 Units = [Angstroms / fs]
C  0.00379070 0.00376515 -0.00153142
C  -0.00122562 0.00053931 0.00195512
C  0.00698948 -0.00300063 -0.00507632
C  0.00731152 0.00110108 0.00080345
C  0.00073761 0.00340924 -0.00560771
C  -0.00300674 0.00160951 0.00010926
H  0.00137898 0.01217142 -0.02262939
H  0.03277312 0.01139227 -0.00569004
H  -0.00758137 0.02233061 -0.01151018
H  -0.00740500 -0.01893770 0.01148861
H  0.00220670 -0.02068319 -0.00297607
H  -0.02145936 -0.02454761 0.00052168
12
MD Step 407 Units = [Angstroms / fs]
C  0.00447046 0.00401846 -0.00209245
C  -0.00113025 0.00098894 0.00215943
C  0.00661875 -0.00308206 -0.00494997
C  0.00731586 0.00069880 0.00061833
C  0.00076390 0.00407446 -0.00541948
C  -0.00306701 0.00130880 0.00013943
H  -0.00187091 0.00869255 -0.02010386
H  0.02816329 0.01587955 -0.00665725
H  -0.00782424 0.02021463 -0.01082852
H  -0.00903678 -0.01924870 0.01093667
H  0.00438053 -0.02687850 -0.00255056
H  -0.01836458 -0.02388970 0.00075676
12
MD Step 408 Units = [Angstroms / fs]
C  0.00509407 0.00425163 -0.00265466
C  -0.00093710 0.00143723 0.00233901
C  0.00613420 -0.00309969 -0.00480378
C  0.00716957 0.00013725 0.00041857
C  0.00085788 0.00454042 -0.00520200
C  -0.00315503 0.00101969 0.00015815
H  -0.00500065 0.00523767 -0.01748543
H  0.02303621 0.02025150 -0.00754624
H  -0.00707391 0.01783193 -0.01021337
H  -0.00957808 -0.01780321 0.01042987
H  0.00575740 -0.03120602 -0.00226887
H  -0.01398003 -0.02286814 0.00102057
12
MD Step 409 Units = [Angstroms / fs]
C  0.00563729 0.00443947 -0.00321935
C  -0.00066673 0.00189951 0.00249052
C  0.00555000 -0.00305281 -0.00463854
C  0.00687571 -0.00057409 0.00020356
C  0.00103473 0.00476691 -0.00495400
C  -0.00324165 0.00074459 0.00016573
H  -0.00780108 0.00215589 -0.01472342
H  0.01765571 0.02416546 -0.00833400
H  -0.00540355 0.01522256 -0.00966509
H  -0.00902632 -0.01462872 0.00998738
H  0.00609319 -0.03321927 -0.00215710
H  -0.00866392 -0.02150185 0.00129987
12
MD Step 410 Units = [Angstroms / fs]
C  0.00607982 0.00456158 -0.00378716
C  -0.00034198 0.00238993 0.00261129
C  0.00488822 -0.00294034 -0.00445594
C  0.00644784 -0.00140917 -0.00002606
C  0.00130550 0.00472628 -0.00467511
C  -0.00329607 0.00048605 0.00016255
H  -0.01009316 -0.00026697 -0.01177563
H  0.01229570 0.02729368 -0.00900272
H  -0.00297466 0.01242048 -0.00917384
H  -0.00749912 -0.00994701 0.00961334
H  0.00520632 -0.03260660 -0.00223208
H  -0.00281771 -0.01982304 0.00158040
12
MD Step 411 Units = [Angstroms / fs]
C  0.00640662 0.00460447 -0.00435725
C  0.00001314 0.00292068 0.00269943
C  0.00417762 -0.00276093 -0.00425857
C  0.00590976 -0.00232506 -0.00026807
C  0.00167324 0.00441020 -0.00436627
C  -0.00328761 0.00024701 0.00014910
H  -0.01174405 -0.00183656 -0.00861863
H  0.00722860 0.02933664 -0.00954084
H  -0.00002447 0.00945218 -0.00872006
H  -0.00523407 -0.00417745 0.00929214
H  0.00302577 -0.02927350 -0.00249614
H  0.00313631 -0.01787541 0.00184785
12
MD Step 412 Units = [Angstroms / fs]
C  0.00660858 0.00456234 -0.00492690
C  0.00037480 0.00350098 0.00275390
C  0.00345162 -0.00251349 -0.00404967
C  0.00529321 -0.00326507 -0.00051858
C  0.00212881 0.00383590 -0.00403011
C  -0.00318699 0.00003099 0.00012589
H  -0.01267590 -0.00246181 -0.00525351
H  0.00271010 0.03003989 -0.00994385
H  0.00315800 0.00633766 -0.00827653
H  -0.00256350 0.00209971 0.00898750
H  -0.00035897 -0.02342035 -0.00293206
H  0.00877246 -0.01571213 0.00208851
12
MD Step 413 Units = [Angstroms / fs]
C  0.00668266 0.00443673 -0.00549151
C  0.00072124 0.00413554 0.00277457
C  0.00274545 -0.00219784 -0.00383289
C  0.00463370 -0.00416506 -0.00077242
C  0.00264799 0.00304926 -0.00367117
C  -0.00296740 -0.00015774 0.00009341
H  -0.01286714 -0.00215153 -0.00170667
H  -0.00104142 0.02921605 -0.01021461
H  0.00626415 0.00309379 -0.00781190
H  0.00013402 0.00821972 0.00864676
H  -0.00466601 -0.01558071 -0.00350036
H  0.01367803 -0.01339345 0.00228993
12
MD Step 414 Units = [Angstroms / fs]
C  0.00663144 0.00423527 -0.00604487
C  0.00103494 0.00482282 0.00276213
C  0.00209310 -0.00181565 -0.00361190
C  0.00396556 -0.00496182 -0.00102379
C  0.00319184 0.00212168 -0.00329577
C  -0.00260582 -0.00031427 0.00005210
H  -0.01234792 -0.00100053 0.00197354
H  -0.00387021 0.02677141 -0.01036287
H  0.00900080 -0.00026070 -0.00729491
H  0.00249406 0.01353307 0.00820989
H  -0.00942982 -0.00658631 -0.00414105
H  0.01747267 -0.01098369 0.00244163
12
MD Step 415 Units = [Angstroms / fs]
C  0.00646251 0.00397021 -0.00657970
C  0.00130500 0.00555301 0.00271800
C  0.00152452 -0.00137126 -0.00339008
C  0.00331749 -0.00560112 -0.00126721
C  0.00371145 0.00114014 -0.00291140
C  -0.00208489 -0.00043346 0.00000224
H  -0.01119211 0.00082965 0.00572263
H  -0.00571013 0.02273329 -0.01040354
H  0.01112191 -0.00370025 -0.00669862
H  0.00422181 0.01750172 0.00762077
H  -0.01406261 0.00255215 -0.00478083
H  0.01983426 -0.00854710 0.00253598
12
MD Step 416 Units = [Angstroms / fs]
C  0.00618758 0.00365693 -0.00708817
C  0.00152900 0.00630658 0.00264399
C  0.00106342 -0.00087209 -0.00317023
C  0.00270988 -0.00604361 -0.00149829
C  0.00415612 0.00019259 -0.00252583
C  -0.00139544 -0.00051060 -0.00005606
H  -0.00950796 0.00313065 0.00946657
H  -0.00660615 0.01727114 -0.01035363
H  0.01245187 -0.00718879 -0.00600371
H  0.00512789 0.01976648 0.00683720
H  -0.01795719 0.01082092 -0.00534423
H  0.02053223 -0.00614237 0.00256927
12
MD Step 417 Units = [Angstroms / fs]
C  0.00582178 0.00331261 -0.00756245
C  0.00171372 0.00705391 0.00254194
C  0.00072593 -0.00032874 -0.00295442
C  0.00215413 -0.00626728 -0.00171419
C  0.00448245 -0.00064662 -0.00214614
C  -0.00053942 -0.00054236 -0.00012304
H  -0.00742887 0.00566558 0.01312823
H  -0.00672170 0.01070196 -0.01022820
H  0.01289780 -0.01067829 -0.00520057
H  0.00513894 0.02017298 0.00583713
H  -0.02059858 0.01737879 -0.00576558
H  0.01946572 -0.00381613 0.00254274
12
MD Step 418 Units = [Angstroms / fs]
C  0.00538278 0.00295527 -0.00799513
C  0.00187399 0.00775681 0.00241338
C  0.00052018 0.00024546 -0.00274393
C  0.00165383 -0.00626684 -0.00191376
C  0.00466123 -0.00132644 -0.00177797
C  0.00046741 -0.00052771 -0.00019926
H  -0.00510473 0.00818465 0.01663302
H  -0.00632421 0.00347236 -0.01003620
H  0.01245093 -0.01410962 -0.00428986
H  0.00428629 0.01875949 0.00462013
H  -0.02164670 0.02167555 -0.00599791
H  0.01669876 -0.00159652 0.00246331
12
MD Step 419 Units = [Angstroms / fs]
C  0.00489010 0.00260287 -0.00837963
C  0.00202957 0.00837200 0.00225922
C  0.00044659 0.00083529 -0.00253928
C  0.00120665 -0.00605116 -0.00209736
C  0.00468018 -0.00182197 -0.00142523
C  0.00159387 -0.00046859 -0.00028563
H  -0.00269371 0.01043911 0.01991380
H  -0.00574708 -0.00388529 -0.00977782
H  0.01117957 -0.01741543 -0.00328180
H  0.00268235 0.01572037 0.00320507
H  -0.02096801 0.02348653 -0.00601672
H  0.01248070 0.00051095 0.00234364
12
MD Step 420 Units = [Angstroms / fs]
C  0.00436430 0.00227249 -0.00871046
C  0.00220073 0.00885612 0.00207974
C  0.00049863 0.00142461 -0.00234032
C  0.00080646 -0.00563992 -0.00226655
C  0.00454280 -0.00213130 -0.00109018
C  0.00279417 -0.00037008 -0.00038334
H  -0.00035372 0.01219461 0.02291496
H  -0.00533514 -0.01081647 -0.00944422
H  0.00921649 -0.02052403 -0.00219468
H  0.00049406 0.01136170 0.00162587
H  -0.01861839 0.02287482 -0.00581879
H  0.00723937 0.00252324 0.00220103
12
MD Step 421 Units = [Angstroms / fs]
C  0.00382600 0.00197935 -0.00898351
C  0.00240359 0.00917125 0.00187472
C  0.00066387 0.00199747 -0.00214638
C  0.00044501 -0.00506067 -0.00242375
C  0.00426474 -0.00226928 -0.00077372
C  0.00401140 -0.00023998 -0.00049370
H  0.00176718 0.01324566 0.02559586
H  -0.00538729 -0.01681416 -0.00902010
H  0.00674391 -0.02336376 -0.00105290
H  -0.00207978 0.00606089 -0.00007316
H  -0.01479704 0.02011468 -0.00541784
H  0.00153954 0.00447390 0.00205529
12
MD Step 422 Units = [Angstroms / fs]
C  0.00329488 0.00173564 -0.00919623
C  0.00264665 0.00928955 0.00164380
C  0.00092505 0.00253903 -0.00195638
C  0.00011310 -0.00434650 -0.00257198
C  0.00386968 -0.00226095 -0.00047581
C  0.00518376 -0.00008783 -0.00061784
H  0.00354206 0.01343177 0.02793325
H  -0.00611161 -0.02147832 -0.00848819
H  0.00397782 -0.02586710 0.00011520
H  -0.00482479 0.00023613 -0.00184141
H  -0.00979402 0.01561089 -0.00483939
H  -0.00398990 0.00640241 0.00192584
12
MD Step 423 Units = [Angstroms / fs]
C  0.00278836 0.00154918 -0.00934769
C  0.00292915 0.00919608 0.00138683
C  0.00126133 0.00303633 -0.00176895
C  -0.00019872 -0.00353450 -0.00271464
C  0.00338590 -0.00213644 -0.00019582
C  0.00625191 0.00007628 -0.00075655
H  0.00487755 0.01265520 0.02992226
H  -0.00760283 -0.02455287 -0.00783404
H  0.00115261 -0.02797435 0.00127943
H  -0.00752141 -0.00567433 -0.00362499
H  -0.00394704 0.00983522 -0.00411630
H  -0.00874475 0.00834169 0.00182881
12
MD Step 424 Units = [Angstroms / fs]
C  0.00232039 0.00142203 -0.00943850
C  0.00324159 0.00888947 0.00110411
C  0.00164947 0.00347874 -0.00158254
C  -0.00049971 -0.00266464 -0.00285532
C  0.00284392 -0.00192794 0.00006730
C  0.00716595 0.00024283 -0.00091004
H  0.00572624 0.01089806 0.03157509
H  -0.00984336 -0.02593621 -0.00704982
H  -0.00149407 -0.02963661 0.00240983
H  -0.00995149 -0.01122649 -0.00536925
H  0.00238664 0.00328682 -0.00328584
H  -0.01222845 0.01030762 0.00177487
12
MD Step 425 Units = [Angstroms / fs]
C  0.00190023 0.00134939 -0.00947051
C  0.00356767 0.00838089 0.00079658
C  0.00206517 0.00385826 -0.00139559
C  -0.00079853 -0.00177870 -0.00299765
C  0.00227532 -0.00166831 0.00031489
C  0.00789022 0.00040352 -0.00107785
H  0.00609638 0.00823523 0.03291687
H  -0.01272178 -0.02566956 -0.00613617
H  -0.00373667 -0.03081803 0.00347872
H  -0.01190401 -0.01598367 -0.00702099
H  0.00884440 -0.00352646 -0.00238813
H  -0.01410949 0.01229375 0.00176829
12
MD Step 426 Units = [Angstroms / fs]
C  0.00153189 0.00131926 -0.00944632
C  0.00388691 0.00769185 0.00046579
C  0.00248457 0.00416951 -0.00120661
C  -0.00110264 -0.00091865 -0.00314508
C  0.00171211 -0.00139085 0.00054858
C  0.00840523 0.00055154 -0.00125890
H  0.00605540 0.00483825 0.03397874
H  -0.01605951 -0.02391192 -0.00510238
H  -0.00537773 -0.03149714 0.00446265
H  -0.01318295 -0.01953385 -0.00853126
H  0.01506358 -0.01009359 -0.00146563
H  -0.01424429 0.01427190 0.00180736
12
MD Step 427 Units = [Angstroms / fs]
C  0.00121413 0.00131308 -0.00936856
C  0.00417724 0.00685175 0.00011382
C  0.00288589 0.00440959 -0.00101437
C  -0.00141739 -0.00012432 -0.00330054
C  0.00118645 -0.00112936 0.00077032
C  0.00870691 0.00068147 -0.00145153
H  0.00572466 0.00096586 0.03478920
H  -0.01963764 -0.02091094 -0.00396525
H  -0.00626434 -0.03166700 0.00534431
H  -0.01361975 -0.02151619 -0.00985899
H  0.02068381 -0.01590139 -0.00056301
H  -0.01266802 0.01619728 0.00188565
12
MD Step 428 Units = [Angstroms / fs]
C  0.00094139 0.00130763 -0.00923935
C  0.00441715 0.00589559 -0.00025681
C  0.00325102 0.00457781 -0.00081801
C  -0.00174461 0.00057013 -0.00346611
C  0.00073001 -0.00091793 0.00098236
C  0.00880423 0.00078899 -0.00165368
H  0.00526407 -0.00306027 0.03536569
H  -0.02321916 -0.01697595 -0.00274739
H  -0.00630399 -0.03133410 0.00611409
H  -0.01309167 -0.02165906 -0.01097562
H  0.02535267 -0.02044039 0.00027352
H  -0.00956439 0.01801575 0.00199377
12
MD Step 429 Units = [Angstroms / fs]
C  0.00070545 0.00127785 -0.00905980
C  0.00458717 0.00486211 -0.00064329
C  0.00356704 0.00467524 -0.00061718
C  -0.00208095 0.00114046 -0.00364254
C  0.00037272 -0.00078950 0.00118712
C  0.00871599 0.00087070 -0.00186302
H  0.00484879 -0.00689233 0.03570889
H  -0.02656514 -0.01245628 -0.00147535
H  -0.00547764 -0.03051574 0.00677111
H  -0.01154511 -0.01982730 -0.01187014
H  0.02874059 -0.02322435 0.00099802
H  -0.00522733 0.01967084 0.00212100
12
MD Step 430 Units = [Angstroms / fs]
C  0.00049741 0.00120017 -0.00882997
C  0.00467088 0.00379229 -0.00104254
C  0.00382720 0.00470424 -0.00041209
C  -0.00241613 0.00157683 -0.00382892
C  0.00014036 -0.00077273 0.00138690
C  0.00846787 0.00092399 -0.00207706
H  0.00464257 -0.01019905 0.03580168
H  -0.02944601 -0.00772446 -0.00017792
H  -0.00384705 -0.02923640 0.00732334
H  -0.00901959 -0.01606961 -0.01255315
H  0.03056936 -0.02383158 0.00156881
H  -0.00002424 0.02110944 0.00225665
12
MD Step 431 Units = [Angstroms / fs]
C  0.00030954 0.00105563 -0.00854922
C  0.00465550 0.00272806 -0.00145139
C  0.00403121 0.00466792 -0.00020350
C  -0.00273197 0.00188693 -0.00402256
C  0.00005115 -0.00088677 0.00158341
C  0.00809005 0.00094713 -0.00229336
H  0.00477368 -0.01270557 0.03561303
H  -0.03165003 -0.00316195 0.00111562
H  -0.00155349 -0.02752365 0.00778663
H  -0.00566447 -0.01065037 -0.01305791
H  0.03065505 -0.02197126 0.00195499
H  0.00563394 0.02228565 0.00239105
12
MD Step 432 Units = [Angstroms / fs]
C  0.00013662 0.00083206 -0.00821677
C  0.00453234 0.00171092 -0.00186659
C  0.00418466 0.00456976 0.00000734
C  -0.00300267 0.00209639 -0.00421926
C  0.00011150 -0.00113451 0.00177703
C  0.00761542 0.00093931 -0.00250953
H  0.00531851 -0.01422278 0.03510565
H  -0.03299127 0.00085610 0.00237723
H  0.00119405 -0.02540473 0.00818256
H  -0.00173926 -0.00404769 -0.01343689
H  0.02895887 -0.01756797 0.00214480
H  0.01131551 0.02316328 0.00251623
12
MD Step 433 Units = [Angstroms / fs]
C  -0.00002348 0.00052513 -0.00783240
C  0.00429720 0.00078009 -0.00228499
C  0.00429751 0.00441330 0.00021887
C  -0.00319700 0.00224537 -0.00441398
C  0.00031249 -0.00149613 0.00196618
C  0.00707830 0.00090071 -0.00272343
H  0.00629511 -0.01466179 0.03424514
H  -0.03331896 0.00398060 0.00358215
H  0.00414069 -0.02290471 0.00853545
H  0.00240933 0.00309410 -0.01375316
H  0.02563044 -0.01084209 0.00215386
H  0.01658598 0.02371740 0.00262634
12
MD Step 434 Units = [Angstroms / fs]
C  -0.00016987 0.00013824 -0.00739709
C  0.00395088 -0.00002984 -0.00270366
C  0.00438195 0.00420212 0.00042940
C  -0.00328228 0.00238151 -0.00460178
C  0.00062863 -0.00192590 0.00214688
C  0.00651314 0.00083241 -0.00293318
H  0.00766596 -0.01403388 0.03300815
H  -0.03252893 0.00591558 0.00471101
H  0.00701465 -0.02004688 0.00886902
H  0.00639258 0.01005396 -0.01406866
H  0.02102129 -0.00235021 0.00202943
H  0.02102552 0.02393543 0.00271798
12
MD Step 435 Units = [Angstroms / fs]
C  -0.00029923 -0.00031844 -0.00691340
C  0.00349979 -0.00069204 -0.00312010
C  0.00445005 0.00393992 0.00063730
C  -0.00322916 0.00255111 -0.00477875
C  0.00102052 -0.00235522 0.00231306
C  0.00595309 0.00073632 -0.00313724
H  0.00934740 -0.01243925 0.03138819
H  -0.03057673 0.00645270 0.00575199
H  0.00955842 -0.01685521 0.00920331
H  0.00983732 0.01614459 -0.01443263
H  0.01565072 0.00705010 0.00184716
H  0.02424976 0.02381784 0.00279032
12
MD Step 436 Units = [Angstroms / fs]
C  -0.00040659 -0.00082938 -0.00638562
C  0.00295647 -0.00119074 -0.00353227
C  0.00451158 0.00363083 0.00084110
C  -0.00301603 0.00279095 -0.00494257
C  0.00144146 -0.00270281 0.00245742
C  0.00542793 0.00061490 -0.00333440
H  0.01122189 -0.01004967 0.02939849
H  -0.02748993 0.00550962 0.00670223
H  0.01155657 -0.01335797 0.00955252
H  0.01244024 0.02081287 -0.01487385
H  0.01012333 0.01632277 0.00169891
H  0.02593738 0.02337806 0.00284515
12
MD Step 437 Units = [Angstroms / fs]
C  -0.00048608 -0.00137516 -0.00581975
C  0.00233976 -0.00152427 -0.00393869
C  0.00457241 0.00327971 0.00103963
C  -0.00263188 0.00312297 -0.00509270
C  0.00184605 -0.00288981 0.00257297
C  0.00496143 0.00047106 -0.00352382
H  0.01315070 -0.00708922 0.02707227
H  -0.02337610 0.00316355 0.00756775
H  0.01285602 -0.00959136 0.00992398
H  0.01400453 0.02370440 -0.01539846
H  0.00502061 0.02443496 0.00167481
H  0.02586497 0.02264117 0.00288646
12
MD Step 438 Units = [Angstroms / fs]
C  -0.00053168 -0.00193377 -0.00522324
C  0.00167441 -0.00170659 -0.00433825
C  0.00463366 0.00289241 0.00123193
C  -0.00207708 0.00355269 -0.00523006
C  0.00219806 -0.00285480 0.00265439
C  0.00456833 0.00030819 -0.00370486
H  0.01498511 -0.00381611 0.02446115
H  -0.01842200 -0.00033224 0.00836121
H  0.01337625 -0.00560203 0.01031830
H  0.01445261 0.02468170 -0.01599312
H  0.00080327 0.03053847 0.00184543
H  0.02394580 0.02164070 0.00291961
12
MD Step 439 Units = [Angstroms / fs]
C  -0.00053771 -0.00248183 -0.00460479
C  0.00098981 -0.00176637 -0.00472989
C  0.00469165 0.00247586 0.00141728
C  -0.00136250 0.00407082 -0.00535655
C  0.00247488 -0.00256376 0.00269895
C  0.00425157 0.00013043 -0.00387704
H  0.01657577 -0.00050628 0.02163226
H  -0.01288125 -0.00456084 0.00909737
H  0.01311020 -0.00144779 0.01073040
H  0.01381720 0.02380324 -0.01663117
H  -0.00224556 0.03409155 0.00225053
H  0.02026422 0.02041341 0.00294983
12
MD Step 440 Units = [Angstroms / fs]
C  -0.00049939 -0.00299554 -0.00397391
C  0.00031789 -0.00174328 -0.00511218
C  0.00473840 0.00203800 0.00159509
C  -0.00050749 0.00465663 -0.00547447
C  0.00266789 -0.00201272 0.00270670
C  0.00400079 -0.00005693 -0.00403978
H  0.01778074 0.00256145 0.01866438
H  -0.00705035 -0.00898835 0.00978735
H  0.01211747 0.00280336 0.01115105
H  0.01221938 0.02128025 -0.01727948
H  -0.00402703 0.03489346 0.00289674
H  0.01509351 0.01899275 0.00298024
12
MD Step 441 Units = [Angstroms / fs]
C  -0.00041329 -0.00345185 -0.00334059
C  -0.00030952 -0.00168179 -0.00548291
C  0.00476258 0.00158764 0.00176483
C  0.00046225 0.00528172 -0.00558608
C  0.00277995 -0.00122405 0.00267999
C  0.00379300 -0.00024703 -0.00419225
H  0.01847288 0.00512041 0.01564316
H  -0.00123687 -0.01303841 0.01043335
H  0.01051288 0.00707573 0.01156862
H  0.00984280 0.01742874 -0.01790421
H  -0.00459533 0.03304360 0.00376289
H  0.00888483 0.01740283 0.00300979
12
MD Step 442 Units = [Angstroms / fs]
C  -0.00027781 -0.00382960 -0.00271477
C  -0.00086339 -0.00162418 -0.00583889
C  0.00475061 0.00113417 0.00192597
C  0.00151671 0.00591323 -0.00569326
C  0.00282155 -0.00023931 0.00262270
C  0.00359604 -0.00043133 -0.00433320
H  0.01854757 0.00693245 0.01265513
H  0.00427339 -0.01617766 0.01102580
H  0.00845266 0.01128920 0.01197069
H  0.00691066 0.01262828 -0.01847492
H  -0.00411018 0.02886094 0.00480893
H  0.00222142 0.01565495 0.00303178
12
MD Step 443 Units = [Angstroms / fs]
C  -0.00009376 -0.00411103 -0.00210578
C  -0.00131968 -0.00160431 -0.00617601
C  0.00468791 0.00068713 0.00207791
C  0.00262306 0.00651621 -0.00579738
C  0.00280741 0.00088820 0.00253950
C  0.00337430 -0.00059991 -0.00446092
H  0.01793101 0.00780688 0.00978042
H  0.00924364 -0.01798997 0.01154397
H  0.00612000 0.01536284 0.01234540
H  0.00366851 0.00729239 -0.01896700
H  -0.00279181 0.02279943 0.00598489
H  -0.00425722 0.01374845 0.00303370
12
MD Step 444 Units = [Angstroms / fs]
C  0.00013518 -0.00428347 -0.00152168
C  -0.00166076 -0.00164383 -0.00648959
C  0.00456003 0.00025594 0.00221992
C  0.00374679 0.00705515 -0.00589920
C  0.00275406 0.00209958 0.00243529
C  0.00309543 -0.00074232 -0.00457331
H  0.01658905 0.00762138 0.00708437
H  0.01350281 -0.01822280 0.01195962
H  0.00371067 0.01921847 0.01268255
H  0.00037242 0.00184923 -0.01936299
H  -0.00088798 0.01538165 0.00723776
H  -0.00994441 0.01167585 0.00299858
12
MD Step 445 Units = [Angstroms / fs]
C  0.00040196 -0.00434106 -0.00096856
C  -0.00187590 -0.00175109 -0.00677476
C  0.00435391 -0.00015051 0.00235112
C  0.00485265 0.00749500 -0.00599884
C  0.00267864 0.00333439 0.00231480
C  0.00273631 -0.00084868 -0.00466807
H  0.01453536 0.00634268 0.00460896
H  0.01695086 -0.01679951 0.01224231
H  0.00141885 0.02278399 0.01297439
H  -0.00271944 -0.00327126 -0.01965327
H  0.00134497 0.00715724 0.00851573
H  -0.01434665 0.00943050 0.00290771
12
MD Step 446 Units = [Angstroms / fs]
C  0.00069599 -0.00428617 -0.00044999
C  -0.00196108 -0.00192251 -0.00702697
C  0.00405906 -0.00052415 0.00247047
C  0.00590565 0.00780225 -0.00609578
C  0.00259857 0.00453284 0.00218244
C  0.00228668 -0.00091079 -0.00474294
H  0.01183695 0.00404246 0.00236567
H  0.01955476 -0.01380323 0.01236469
H  -0.00057719 0.02599615 0.01321609
H  -0.00535481 -0.00764951 -0.01983651
H  0.00365015 -0.00131721 0.00977052
H  -0.01713691 0.00701402 0.00274381
12
MD Step 447 Units = [Angstroms / fs]
C  0.00100330 -0.00412994 0.00003324
C  -0.00191832 -0.00214522 -0.00724224
C  0.00366868 -0.00085792 0.00257675
C  0.00687232 0.00794640 -0.00618889
C  0.00253174 0.00563701 0.00204220
C  0.00175013 -0.00092314 -0.00479595
H  0.00861481 0.00090296 0.00033204
H  0.02133878 -0.00944394 0.01230653
H  -0.00212943 0.02880273 0.01340595
H  -0.00729824 -0.01089339 -0.01991970
H  0.00577175 -0.00948528 0.01095847
H  -0.01817331 0.00444115 0.00249381
12
MD Step 448 Units = [Angstroms / fs]
C  0.00130723 -0.00389167 0.00048298
C  -0.00175492 -0.00240017 -0.00741747
C  0.00318087 -0.00114587 0.00266863
C  0.00772237 0.00790224 -0.00627647
C  0.00249664 0.00659154 0.00189758
C  0.00114254 -0.00088332 -0.00482553
H  0.00503765 -0.00279282 -0.00154608
H  0.02237304 -0.00402091 0.01205714
H  -0.00313397 0.03116372 0.01354517
H  -0.00834726 -0.01266497 -0.01991782
H  0.00745511 -0.01679429 0.01204151
H  -0.01748719 0.00174113 0.00215066
12
MD Step 449 Units = [Angstroms / fs]
C  0.00158970 -0.00359683 0.00090302
C  -0.00148261 -0.00266478 -0.00755047
C  0.00259947 -0.00138307 0.00274465
C  0.00843088 0.00765309 -0.00635640
C  0.00251236 0.00734477 0.00175153
C  0.00048912 -0.00079225 -0.00483064
H  0.00130813 -0.00668826 -0.00334589
H  0.02276266 0.00211102 0.01161631
H  -0.00354298 0.03305129 0.01363739
H  -0.00835472 -0.01271890 -0.01985235
H  0.00844996 -0.02270504 0.01298859
H  -0.01525207 -0.00104390 0.00171390
12
MD Step 450 Units = [Angstroms / fs]
C  0.00183292 -0.00327383 0.00129797
C  -0.00111693 -0.00291502 -0.00764003
C  0.00193461 -0.00156550 0.00280339
C  0.00898068 0.00719479 -0.00642636
C  0.00259768 0.00785097 0.00160624
C  -0.00017889 -0.00065382 -0.00481080
H  -0.00235693 -0.01039480 -0.00515373
H  0.02263906 0.00856792 0.01099438
H  -0.00337255 0.03444847 0.01368773
H  -0.00725541 -0.01094977 -0.01974822
H  0.00852143 -0.02671690 0.01377794
H  -0.01174577 -0.00386227 0.00118940
12
MD Step 451 Units = [Angstroms / fs]
C  0.00202121 -0.00295031 0.00167204
C  -0.00067662 -0.00312682 -0.00768595
C  0.00120272 -0.00168975 0.00284352
C  0.00936454 0.00653954 -0.00648428
C  0.00276933 0.00807420 0.00146291
C  -0.00082725 -0.00047442 -0.00476605
H  -0.00574914 -0.01354035 -0.00704902
H  0.02215319 0.01495599 0.01021168
H  -0.00270408 0.03534660 0.01370167
H  -0.00509083 -0.00743825 -0.01962891
H  0.00747284 -0.02841519 0.01440004
H  -0.00731507 -0.00665671 0.00058849
12
MD Step 452 Units = [Angstroms / fs]
C  0.00214276 -0.00264972 0.00202784
C  -0.00018301 -0.00327707 -0.00768898
C  0.00042575 -0.00175280 0.00286392
C  0.00958635 0.00571830 -0.00652877
C  0.00303890 0.00799397 0.00132156
C  -0.00142098 -0.00026219 -0.00469697
H  -0.00868954 -0.01581455 -0.00909002
H  0.02146985 0.02088666 0.00929764
H  -0.00167721 0.03574221 0.01368374
H  -0.00202310 -0.00247967 -0.01951033
H  0.00518191 -0.02754173 0.01486048
H  -0.00234713 -0.00936788 -0.00007303
12
MD Step 453 Units = [Angstroms / fs]
C  0.00219083 -0.00238884 0.00236576
C  0.00034057 -0.00334452 -0.00765079
C  -0.00037035 -0.00175198 0.00286381
C  0.00966053 0.00478016 -0.00655959
C  0.00340890 0.00761171 0.00118088
C  -0.00192593 -0.00002617 -0.00460460
H  -0.01104428 -0.01700159 -0.01130471
H  0.02076159 0.02599082 0.00828945
H  -0.00047401 0.03563408 0.01363649
H  0.00167160 0.00342329 -0.01939492
H  0.00164629 -0.02407738 0.01518074
H  0.00275222 -0.01193749 -0.00077601
12
MD Step 454 Units = [Angstroms / fs]
C  0.00216437 -0.00217664 0.00268378
C  0.00086978 -0.00331089 -0.00757385
C  -0.00115764 -0.00168506 0.00284281
C  0.00960943 0.00378789 -0.00657791
C  0.00386888 0.00695604 0.00103847
C  -0.00230997 0.00022458 -0.00449042
H  -0.01273295 -0.01699611 -0.01368808
H  0.02020035 0.02993599 0.00722994
H  0.00070387 0.03502157 0.01355985
H  0.00563468 0.00961413 -0.01926838
H  -0.00297375 -0.01831066 0.01539523
H  0.00757578 -0.01431087 -0.00149899
12
MD Step 455 Units = [Angstroms / fs]
C  0.00206790 -0.00201449 0.00297773
C  0.00138054 -0.00316239 -0.00746117
C  -0.00190865 -0.00155060 0.00280098
C  0.00945914 0.00280999 -0.00658616
C  0.00439326 0.00608381 0.00089150
C  -0.00254398 0.00048174 -0.00435621
H  -0.01372952 -0.01580250 -0.01620534
H  0.01994505 0.03244861 0.00616419
H  0.00166135 0.03390470 0.01345106
H  0.00947748 0.01537687 -0.01910082
H  -0.00833516 -0.01085617 0.01554330
H  0.01173192 -0.01643947 -0.00221939
12
MD Step 456 Units = [Angstroms / fs]
C  0.00191097 -0.00189721 0.00324195
C  0.00185082 -0.00289161 -0.00731595
C  -0.00259858 -0.00134855 0.00273882
C  0.00923472 0.00191126 -0.00658755
C  0.00494252 0.00507463 0.00073757
C  -0.00260323 0.00073842 -0.00420396
H  -0.01405759 -0.01352175 -0.01879904
H  0.02012437 0.03334156 0.00513456
H  0.00223471 0.03228603 0.01330530
H  0.01284098 0.02004768 -0.01885250
H  -0.01393367 -0.00259380 0.01565788
H  0.01486488 -0.01828333 -0.00291502
12
MD Step 457 Units = [Angstroms / fs]
C  0.00170719 -0.00181458 0.00346998
C  0.00226277 -0.00249969 -0.00714102
C  -0.00320722 -0.00108083 0.00265724
C  0.00895644 0.00114449 -0.00658538
C  0.00546846 0.00401897 0.00057566
C  -0.00246925 0.00098948 -0.00403566
H  -0.01378238 -0.01033171 -0.02139768
H  0.02081552 0.03254354 0.00417431
H  0.00231074 0.03017386 0.01311670
H  0.01544605 0.02311258 -0.01848246
H  -0.01917326 0.00547103 0.01575468
H  0.01668143 -0.01981336 -0.00356595
12
MD Step 458 Units = [Angstroms / fs]
C  0.00147316 -0.00175285 0.00365521
C  0.00260494 -0.00199811 -0.00693830
C  -0.00372008 -0.00075180 0.00255747
C  0.00863767 0.00054525 -0.00658237
C  0.00592226 0.00300292 0.00040658
C  -0.00213231 0.00123162 -0.00385308
H  -0.01300153 -0.00646572 -0.02392415
H  0.02202236 0.03012370 0.00330059
H  0.00183766 0.02758559 0.01287962
H  0.01712228 0.02426630 -0.01795713
H  -0.02346793 0.01238826 0.01582690
H  0.01698372 -0.02101294 -0.00415689
12
MD Step 459 Units = [Angstroms / fs]
C  0.00122735 -0.00169612 0.00379152
C  0.00287399 -0.00140937 -0.00670827
C  -0.00412887 -0.00036852 0.00244097
C  0.00828488 0.00013061 -0.00658020
C  0.00626281 0.00209481 0.00023278
C  -0.00159417 0.00146312 -0.00365756
H  -0.01183620 -0.00219288 -0.02630288
H  0.02365918 0.02630200 0.00250862
H  0.00082736 0.02455045 0.01258978
H  0.01781207 0.02342407 -0.01725641
H  -0.02634322 0.01742440 0.01584764
H  0.01570501 -0.02187797 -0.00467958
12
MD Step 460 Units = [Angstroms / fs]
C  0.00098901 -0.00162735 0.00387362
C  0.00307532 -0.00076598 -0.00644975
C  -0.00443133 0.00005928 0.00230938
C  0.00789880 -0.00009907 -0.00657936
C  0.00646253 0.00133758 0.00005773
C  -0.00087039 0.00168328 -0.00344982
H  -0.01042306 0.00219922 -0.02846546
H  0.02554746 0.02143680 0.00176940
H  -0.00064982 0.02111089 0.01224525
H  0.01755587 0.02069569 -0.01637616
H  -0.02750440 0.02015470 0.01577868
H  0.01293952 -0.02241449 -0.00513478
12
MD Step 461 Units = [Angstroms / fs]
C  0.00077723 -0.00152931 0.00389742
C  0.00322205 -0.00010735 -0.00616011
C  -0.00463058 0.00051963 0.00216440
C  0.00747637 -0.00015663 -0.00657924
C  0.00650930 0.00074825 -0.00011497
C  0.00000867 0.00189168 -0.00322988
H  -0.00890686 0.00641950 -0.03035492
H  0.02743104 0.01598658 0.00103260
H  -0.00247522 0.01732248 0.01184696
H  0.01646804 0.01633957 -0.01532755
H  -0.02685611 0.02047159 0.01558112
H  0.00895534 -0.02263389 -0.00553294
12
MD Step 462 Units = [Angstroms / fs]
C  0.00060999 -0.00138543 0.00386022
C  0.00333234 0.00052498 -0.00583589
C  -0.00473416 0.00099887 0.00200772
C  0.00701246 -0.00006441 -0.00657832
C  0.00640511 0.00032252 -0.00028225
C  0.00099928 0.00208734 -0.00299720
H  -0.00743287 0.01018802 -0.03192895
H  0.02900997 0.01045069 0.00023509
H  -0.00449473 0.01325241 0.01139886
H  0.01471216 0.01071399 -0.01413465
H  -0.02447939 0.01852984 0.01522403
H  0.00417935 -0.02254655 -0.00589280
12
MD Step 463 Units = [Angstroms / fs]
C  0.00050324 -0.00118091 0.00376089
C  0.00342573 0.00109260 -0.00547380
C  -0.00475301 0.00148246 0.00184100
C  0.00650118 0.00014898 -0.00657441
C  0.00616269 0.00004167 -0.00044192
C  0.00204824 0.00226800 -0.00275090
H  -0.00613848 0.01325159 -0.03316215
H  0.02998611 0.00530221 -0.00068695
H  -0.00653251 0.00897707 0.01090783
H  0.01248102 0.00423667 -0.01283139
H  -0.02058592 0.01466495 0.01468916
H  -0.00085006 -0.02215628 -0.00623793
12
MD Step 464 Units = [Angstroms / fs]
C  0.00046998 -0.00090402 0.00359992
C  0.00351926 0.00156482 -0.00507168
C  -0.00470033 0.00195575 0.00166574
C  0.00593664 0.00045081 -0.00656488
C  0.00580197 -0.00012104 -0.00059280
C  0.00309900 0.00242984 -0.00249023
H  -0.00514302 0.01540157 -0.03404730
H  0.03010915 0.00092908 -0.00178554
H  -0.00840476 0.00457896 0.01038314
H  0.00998296 -0.00264382 -0.01145895
H  -0.01546969 0.00931570 0.01397196
H  -0.00555603 -0.02145769 -0.00659173
12
MD Step 465 Units = [Angstroms / fs]
C  0.00051936 -0.00054771 0.00337945
C  0.00362453 0.00192155 -0.00462925
C  -0.00459040 0.00240479 0.00148331
C  0.00531339 0.00080572 -0.00654674
C  0.00534722 -0.00019572 -0.00073462
C  0.00409850 0.00256757 -0.00221493
H  -0.00453608 0.01649363 -0.03459509
H  0.02921140 -0.00240404 -0.00309158
H  -0.00993319 0.00014317 0.00983578
H  0.00743370 -0.00946637 -0.01006355
H  -0.00946871 0.00296772 0.01308068
H  -0.00940575 -0.02043803 -0.00697240
12
MD Step 466 Units = [Angstroms / fs]
C  0.00065570 -0.00011121 0.00310304
C  0.00374624 0.00215407 -0.00414842
C  -0.00443749 0.00281700 0.00129493
C  0.00462663 0.00117673 -0.00651677
C  0.00482521 -0.00021325 -0.00086789
C  0.00500310 0.00267496 -0.00192558
H  -0.00436507 0.01646728 -0.03483187
H  0.02722468 -0.00456857 -0.00461063
H  -0.01095851 -0.00424619 0.00927747
H  0.00505101 -0.01577017 -0.00869467
H  -0.00294120 -0.00387913 0.01203471
H  -0.01198202 -0.01908280 -0.00738923
12
MD Step 467 Units = [Angstroms / fs]
C  0.00087782 0.00039854 0.00277537
C  0.00388217 0.00226412 -0.00363321
C  -0.00425458 0.00318170 0.00110171
C  0.00387253 0.00152635 -0.00647165
C  0.00426432 -0.00020423 -0.00099387
C  0.00578222 0.00274563 -0.00162367
H  -0.00462446 0.01536131 -0.03479501
H  0.02417930 -0.00556300 -0.00632387
H  -0.01135395 -0.00850952 0.00871945
H  0.00304949 -0.02110797 -0.00740311
H  0.00374591 -0.01072448 0.01086321
H  -0.01302809 -0.01738305 -0.00784124
12
MD Step 468 Units = [Angstroms / fs]
C  0.00117872 0.00096635 0.00240167
C  0.00402430 0.00226191 -0.00308937
C  -0.00405217 0.00349055 0.00090472
C  0.00304884 0.00181825 -0.00640811
C  0.00369411 -0.00019895 -0.00111446
C  0.00641941 0.00277380 -0.00131159
H  -0.00524983 0.01331967 -0.03452612
H  0.02019004 -0.00549050 -0.00819260
H  -0.01103855 -0.01257488 0.00817104
H  0.00163196 -0.02506559 -0.00623837
H  0.01022083 -0.01707041 0.00960433
H  -0.01246027 -0.01534168 -0.00831814
12
MD Step 469 Units = [Angstroms / fs]
C  0.00154585 0.00156929 0.00198719
C  0.00416044 0.00216388 -0.00252386
C  -0.00383710 0.00373769 0.00070506
C  0.00215597 0.00201984 -0.00632323
C  0.00314497 -0.00022754 -0.00123221
C  0.00691115 0.00275489 -0.00099236
H  -0.00611989 0.01058322 -0.03406317
H  0.01543602 -0.00453185 -0.01016440
H  -0.00998902 -0.01638040 0.00763805
H  0.00097500 -0.02729234 -0.00524475
H  0.01610913 -0.02242258 0.00830470
H  -0.01035335 -0.01297714 -0.00880278
12
MD Step 470 Units = [Angstroms / fs]
C  0.00196227 0.00217860 0.00153656
C  0.00427596 0.00199068 -0.00194439
C  -0.00361168 0.00391980 0.00050398
C  0.00119865 0.00210593 -0.00621489
C  0.00264741 -0.00031955 -0.00135031
C  0.00726428 0.00268595 -0.00066941
H  -0.00706837 0.00746528 -0.03343343
H  0.01014025 -0.00292027 -0.01217934
H  -0.00824821 -0.01987538 0.00712140
H  0.00120706 -0.02754340 -0.00445608
H  0.02104078 -0.02629793 0.00701833
H  -0.00690984 -0.01032397 -0.00927442
12
MD Step 471 Units = [Angstroms / fs]
C  0.00240840 0.00276270 0.00105352
C  0.00435525 0.00176550 -0.00135896
C  -0.00337318 0.00403590 0.00030296
C  0.00018800 0.00206305 -0.00608218
C  0.00223041 -0.00050240 -0.00147235
C  0.00749314 0.00256589 -0.00034633
H  -0.00790507 0.00431355 -0.03264914
H  0.00455204 -0.00092096 -0.01417527
H  -0.00592779 -0.02301983 0.00661610
H  0.00238058 -0.02572979 -0.00388959
H  0.02466809 -0.02824763 0.00580409
H  -0.00242430 -0.00743108 -0.00971158
12
MD Step 472 Units = [Angstroms / fs]
C  0.00286422 0.00329085 0.00054089
C  0.00438291 0.00151300 -0.00077549
C  -0.00311408 0.00408696 0.00010374
C  -0.00085642 0.00189349 -0.00592592
C  0.00191860 -0.00079807 -0.00160195
C  0.00761695 0.00239567 -0.00002660
H  -0.00844207 0.00146535 -0.03170740
H  -0.00106701 0.00118441 -0.01609204
H  -0.00320267 -0.02578247 0.00611089
H  0.00444365 -0.02196365 -0.00354028
H  0.02669939 -0.02790162 0.00472023
H  0.00274909 -0.00435880 -0.01009449
12
MD Step 473 Units = [Angstroms / fs]
C  0.00331139 0.00373650 0.00000086
C  0.00434475 0.00125832 -0.00020158
C  -0.00282302 0.00407537 -0.00009170
C  -0.00190541 0.00161748 -0.00574889
C  0.00172807 -0.00121783 -0.00174205
C  0.00765783 0.00217840 0.00028654
H  -0.00851976 -0.00079442 -0.03059396
H  -0.00645456 0.00311031 -0.01787505
H  -0.00029632 -0.02813756 0.00558907
H  0.00722118 -0.01658090 -0.00337814
H  0.02694853 -0.02503622 0.00381536
H  0.00822240 -0.00117553 -0.01040672
12
MD Step 474 Units = [Angstroms / fs]
C  0.00373488 0.00407986 -0.00056450
C  0.00422862 0.00102620 0.00035583
C  -0.00248653 0.00400435 -0.00028128
C  -0.00292066 0.00127204 -0.00555562
C  0.00166164 -0.00175584 -0.00189393
C  0.00763933 0.00191932 0.00059025
H  -0.00802707 -0.00226420 -0.02928994
H  -0.01135883 0.00457968 -0.01947818
H  0.00254238 -0.03006162 0.00503020
H  0.01041684 -0.01012343 -0.00335004
H  0.02539219 -0.01965509 0.00311630
H  0.01359349 0.00204543 -0.01063625
12
MD Step 475 Units = [Angstroms / fs]
C  0.00412387 0.00430922 -0.00115271
C  0.00402549 0.00083985 0.00089068
C  -0.00209119 0.00387745 -0.00046293
C  -0.00385758 0.00090586 -0.00535184
C  0.00170501 -0.00238360 -0.00205619
C  0.00758536 0.00162570 0.00088218
H  -0.00691251 -0.00284131 -0.02777905
H  -0.01555158 0.00533892 -0.02086677
H  0.00506724 -0.03153106 0.00441280
H  0.01364297 -0.00327345 -0.00338742
H  0.02221602 -0.01205921 0.00261577
H  0.01846216 0.00522901 -0.01077620
12
MD Step 476 Units = [Angstroms / fs]
C  0.00447180 0.00442097 -0.00176045
C  0.00373057 0.00071932 0.00139806
C  -0.00162594 0.00369820 -0.00063484
C  -0.00467015 0.00057111 -0.00514347
C  0.00182592 -0.00304805 -0.00222419
C  0.00751908 0.00130646 0.00116054
H  -0.00518577 -0.00252207 -0.02605370
H  -0.01884445 0.00517774 -0.02202007
H  0.00706335 -0.03252171 0.00371736
H  0.01647608 0.00324916 -0.00341807
H  0.01782450 -0.00287075 0.00226510
H  0.02244662 0.00830164 -0.01082513
12
MD Step 477 Units = [Angstroms / fs]
C  0.00477589 0.00441886 -0.00238331
C  0.00334477 0.00067944 0.00187441
C  -0.00108401 0.00347000 -0.00079565
C  -0.00531670 0.00031429 -0.00493562
C  0.00197796 -0.00367598 -0.00239025
C  0.00746151 0.00097158 0.00142413
H  -0.00291161 -0.00139050 -0.02411876
H  -0.02110828 0.00395413 -0.02293311
H  0.00837094 -0.03301032 0.00292914
H  0.01852407 0.00879932 -0.00337883
H  0.01279554 0.00701937 0.00197727
H  0.02520412 0.01119495 -0.01078710
12
MD Step 478 Units = [Angstroms / fs]
C  0.00503634 0.00431265 -0.00301582
C  0.00287604 0.00072745 0.00231757
C  -0.00046430 0.00319619 -0.00094456
C  -0.00576496 0.00016884 -0.00473182
C  0.00210877 -0.00418490 -0.00254493
C  0.00742958 0.00063135 0.00167233
H  -0.00019937 0.00039934 -0.02199294
H  -0.02229292 0.00162218 -0.02361665
H  0.00890091 -0.03297773 0.00204028
H  0.01948612 0.01289702 -0.00322530
H  0.00778222 0.01658394 0.00164231
H  0.02645835 0.01384999 -0.01067110
12
MD Step 479 Units = [Angstroms / fs]
C  0.00525538 0.00411679 -0.00365158
C  0.00234038 0.00086084 0.00272664
C  0.00022806 0.00288040 -0.00108143
C  -0.00599515 0.00015139 -0.00453370
C  0.00217022 -0.00449772 -0.00267893
C  0.00743364 0.00029549 0.00190492
H  0.00280897 0.00264268 -0.01970813
H  -0.02244256 -0.00174321 -0.02409453
H  0.00864064 -0.03241268 0.00105086
H  0.01918935 0.01527390 -0.00293633
H  0.00339064 0.02483768 0.00115096
H  0.02603316 0.01622141 -0.01048971
12
MD Step 480 Units = [Angstroms / fs]
C  0.00543648 0.00384907 -0.00428347
C  0.00176195 0.00106613 0.00310154
C  0.00098187 0.00252678 -0.00120679
C  -0.00600080 0.00026166 -0.00434105
C  0.00212719 -0.00455628 -0.00278505
C  0.00747479 -0.00002750 0.00212195
H  0.00595039 0.00510232 -0.01730748
H  -0.02169996 -0.00593342 -0.02439784
H  0.00765074 -0.03131532 -0.00003116
H  0.01759689 0.01587343 -0.00251312
H  0.00007569 0.03100250 0.00041819
H  0.02388862 0.01828054 -0.01025673
12
MD Step 481 Units = [Angstroms / fs]
C  0.00558364 0.00352956 -0.00490400
C  0.00117170 0.00131931 0.00344242
C  0.00178059 0.00214035 -0.00132174
C  -0.00578756 0.00048518 -0.00415224
C  0.00196206 -0.00432960 -0.00285937
C  0.00754268 -0.00033068 0.00232337
H  0.00905119 0.00752469 -0.01484262
H  -0.02029430 -0.01061376 -0.02455665
H  0.00605519 -0.02969954 -0.00119073
H  0.01479265 0.01481745 -0.00197468
H  -0.00191296 0.03460814 -0.00060204
H  0.02015051 0.02001613 -0.00998376
12
MD Step 482 Units = [Angstroms / fs]
C  0.00570091 0.00317952 -0.00550557
C  0.00060475 0.00158837 0.00374894
C  0.00260346 0.00172720 -0.00142791
C  -0.00537112 0.00079721 -0.00396470
C  0.00167460 -0.00381513 -0.00290150
C  0.00761482 -0.00060850 0.00250877
H  0.01193652 0.00965438 -0.01237046
H  -0.01851140 -0.01535634 -0.02459131
H  0.00402765 -0.02759395 -0.00240726
H  0.01095354 0.01235807 -0.00135200
H  -0.00252877 0.03550959 -0.00191381
H  0.01512137 0.02143134 -0.00967649
12
MD Step 483 Units = [Angstroms / fs]
C  0.00579192 0.00282042 -0.00608087
C  0.00009652 0.00183774 0.00401982
C  0.00342680 0.00129448 -0.00152729
C  -0.00477493 0.00116647 -0.00377537
C  0.00127842 -0.00303465 -0.00291398
C  0.00765810 -0.00085625 0.00267706
H  0.01443972 0.01124851 -0.00994955
H  -0.01665133 -0.01969505 -0.02450613
H  0.00177628 -0.02504148 -0.00365633
H  0.00631993 0.00883095 -0.00068261
H  -0.00188652 0.03383860 -0.00348623
H  0.00926244 0.02253736 -0.00933156
12
MD Step 484 Units = [Angstroms / fs]
C  0.00585933 0.00247265 -0.00662315
C  -0.00032119 0.00203354 0.00425270
C  0.00422541 0.00085033 -0.00162206
C  -0.00402817 0.00155819 -0.00358100
C  0.00079628 -0.00202752 -0.00290137
C  0.00763294 -0.00106926 0.00282637
H  0.01641265 0.01209235 -0.00763589
H  -0.01498341 -0.02319104 -0.02428770
H  -0.00047157 -0.02209785 -0.00491153
H  0.00117092 0.00461879 -0.00000655
H  -0.00020651 0.02992435 -0.00526489
H  0.00314281 0.02334502 -0.00893534
12
MD Step 485 Units = [Angstroms / fs]
C  0.00590438 0.00215417 -0.00712661
C  -0.00062345 0.00214851 0.00444440
C  0.00497397 0.00040366 -0.00171446
C  -0.00316433 0.00193611 -0.00337840
C  0.00025583 -0.00084407 -0.00286925
C  0.00749939 -0.00124221 0.00295416
H  0.01773721 0.01201722 -0.00547840
H  -0.01370991 -0.02549287 -0.02390843
H  -0.00248443 -0.01882914 -0.00614634
H  -0.00419340 0.00012687 0.00063630
H  0.00223556 0.02421538 -0.00718321
H  -0.00263697 0.02385741 -0.00846554
12
MD Step 486 Units = [Angstroms / fs]
C  0.00592613 0.00187885 -0.00758675
C  -0.00079414 0.00216532 0.00459149
C  0.00564843 -0.00003624 -0.00180657
C  -0.00221992 0.00226381 -0.00316452
C  -0.00031342 0.00045946 -0.00282358
C  0.00722372 -0.00136891 0.00305753
H  0.01833791 0.01092016 -0.00351412
H  -0.01294615 -0.02637749 -0.02333382
H  -0.00404177 -0.01530871 -0.00733586
H  -0.00946386 -0.00423206 0.00120775
H  0.00514335 0.01722087 -0.00917090
H  -0.00752938 0.02406631 -0.00789538
12
MD Step 487 Units = [Angstroms / fs]
C  0.00592097 0.00165487 -0.00800063
C  -0.00082632 0.00207789 0.00469098
C  0.00622761 -0.00046007 -0.00190018
C  -0.00123333 0.00250567 -0.00293661
C  -0.00088185 0.00182415 -0.00277022
C  0.00678393 -0.00144257 0.00313369
H  0.01819382 0.00878330 -0.00176402
H  -0.01271833 -0.02576589 -0.02253097
H  -0.00494973 -0.01161351 -0.00845864
H  -0.01433164 -0.00804875 0.00167243
H  0.00821892 0.00947565 -0.01115926
H  -0.01111163 0.02395355 -0.00719923
12
MD Step 488 Units = [Angstroms / fs]
C  0.00588211 0.00148349 -0.00836705
C  -0.00072148 0.00189070 0.00474082
C  0.00669465 -0.00085900 -0.00199661
C  -0.00024348 0.00262804 -0.00269226
C  -0.00142045 0.00319003 -0.00271472
C  0.00617271 -0.00145661 0.00318037
H  0.01734713 0.00568859 -0.00023027
H  -0.01297531 -0.02371544 -0.02147577
H  -0.00505773 -0.00781998 -0.00949823
H  -0.01849907 -0.01093021 0.00199881
H  0.01117008 0.00152437 -0.01308395
H  -0.01312899 0.02349655 -0.00635801
12
MD Step 489 Units = [Angstroms / fs]
C  0.00579968 0.00135850 -0.00868650
C  -0.00048815 0.00161696 0.00474024
C  0.00703862 -0.00122509 -0.00209655
C  0.00071215 0.00260103 -0.00242959
C  -0.00190108 0.00449699 -0.00266219
C  0.00539779 -0.00140563 0.00319613
H  0.01590502 0.00182266 0.00110381
H  -0.01360757 -0.02039708 -0.02015756
H  -0.00427543 -0.00399969 -0.01044458
H  -0.02169562 -0.01251983 0.00216086
H  0.01371175 -0.00608317 -0.01488649
H  -0.01350505 0.02267541 -0.00536278
12
MD Step 490 Units = [Angstroms / fs]
C  0.00566145 0.00126688 -0.00896081
C  -0.00014038 0.00127627 0.00468986
C  0.00725592 -0.00155167 -0.00220000
C  0.00159995 0.00240118 -0.00214745
C  -0.00229652 0.00568543 -0.00261715
C  0.00447994 -0.00128639 0.00318048
H  0.01403207 -0.00253302 0.00227036
H  -0.01446732 -0.01606646 -0.01858105
H  -0.00258823 -0.00021539 -0.01129491
H  -0.02370141 -0.01252920 0.00214039
H  0.01556662 -0.01279522 -0.01651578
H  -0.01232463 0.02147938 -0.00421622
12
MD Step 491 Units = [Angstroms / fs]
C  0.00545432 0.00119071 -0.00919259
C  0.00030367 0.00089238 0.00459164
C  0.00735118 -0.00183355 -0.00230626
C  0.00239321 0.00201523 -0.00184565
C  -0.00258094 0.00669779 -0.00258338
C  0.00344980 -0.00109845 0.00313384
H  0.01193268 -0.00702839 0.00331052
H  -0.01538590 -0.01103607 -0.01676604
H  -0.00006824 0.00348197 -0.01205376
H  -0.02437763 -0.01078200 0.00192997
H  0.01647052 -0.01806921 -0.01793047
H  -0.00980095 0.01991096 -0.00293199
12
MD Step 492 Units = [Angstroms / fs]
C  0.00516634 0.00111010 -0.00938452
C  0.00082282 0.00049137 0.00444867
C  0.00733758 -0.00206706 -0.00241400
C  0.00307516 0.00144432 -0.00152522
C  -0.00273095 0.00748130 -0.00256359
C  0.00234445 -0.00084452 0.00305746
H  0.00982557 -0.01128490 0.00426609
H  -0.01618709 -0.00565211 -0.01474597
H  0.00312276 0.00705423 -0.01273197
H  -0.02369883 -0.00726432 0.00153609
H  0.01618702 -0.02140076 -0.01910263
H  -0.00623858 0.01798752 -0.00153281
12
MD Step 493 Units = [Angstroms / fs]
C  0.00478890 0.00100661 -0.00953867
C  0.00139373 0.00010024 0.00426506
C  0.00723603 -0.00224992 -0.00252146
C  0.00364106 0.00070767 -0.00118864
C  -0.00272771 0.00799276 -0.00255908
C  0.00120440 -0.00053036 0.00295321
H  0.00791566 -0.01494179 0.00517141
H  -0.01669688 -0.00027615 -0.01256570
H  0.00674193 0.01047466 -0.01334452
H  -0.02177681 -0.00216781 0.00098141
H  0.01453466 -0.02237730 -0.02002241
H  -0.00200004 0.01574092 -0.00004809
12
MD Step 494 Units = [Angstroms / fs]
C  0.00431864 0.00086629 -0.00965605
C  0.00199172 -0.00025417 0.00404563
C  0.00707339 -0.00238097 -0.00262673
C  0.00409851 -0.00015599 -0.00083984
C  -0.00256010 0.00820525 -0.00256939
C  0.00007129 -0.00016443 0.00282347
H  0.00636908 -0.01769923 0.00604749
H  -0.01675112 0.00473030 -0.01027896
H  0.01048649 0.01372415 -0.01390757
H  -0.01886375 0.00409372 0.00030490
H  0.01142692 -0.02075679 -0.02070215
H  0.00252078 0.01321601 0.00148846
12
MD Step 495 Units = [Angstroms / fs]
C  0.00375855 0.00068184 -0.00973639
C  0.00259163 -0.00054633 0.00379573
C  0.00687970 -0.00245982 -0.00272798
C  0.00446516 -0.00109060 -0.00048397
C  -0.00222851 0.00811560 -0.00259216
C  -0.00101375 0.00024274 0.00267095
H  0.00529636 -0.01934961 0.00689970
H  -0.01620295 0.00902146 -0.00794509
H  0.01402588 0.01678597 -0.01443511
H  -0.01532539 0.01091175 -0.00044088
H  0.00691816 -0.01655781 -0.02117737
H  0.00691887 0.01046850 0.00304104
12
MD Step 496 Units = [Angstroms / fs]
C  0.00311828 0.00045333 -0.00977836
C  0.00316884 -0.00075340 0.00352086
C  0.00668495 -0.00248654 -0.00282379
C  0.00476405 -0.00202919 -0.00012698
C  -0.00174810 0.00775014 -0.00262356
C  -0.00201139 0.00067934 0.00249853
H  0.00474580 -0.01979264 0.00771882
H  -0.01493148 0.01228638 -0.00562494
H  0.01703979 0.01964050 -0.01493611
H  -0.01158532 0.01755976 -0.00119571
H  0.00124074 -0.01013085 -0.02150171
H  0.01079513 0.00756251 0.00457378
12
MD Step 497 Units = [Angstroms / fs]
C  0.00241355 0.00018786 -0.00977981
C  0.00370058 -0.00085707 0.00322625
C  0.00651584 -0.00246160 -0.00291325
C  0.00501790 -0.00290319 0.00022501
C  -0.00114982 0.00716545 -0.00265915
C  -0.00288534 0.00113307 0.00230910
H  0.00470620 -0.01903455 0.00848475
H  -0.01285260 0.01427351 -0.00337542
H  0.01925513 0.02226161 -0.01541279
H  -0.00805420 0.02330438 -0.00189942
H  -0.00518719 -0.00217033 -0.02173491
H  0.01377410 0.00456762 0.00605290
12
MD Step 498 Units = [Angstroms / fs]
C  0.00166499 -0.00010173 -0.00973829
C  0.00416748 -0.00084579 0.00291636
C  0.00639316 -0.00238588 -0.00299609
C  0.00524397 -0.00365223 0.00056628
C  -0.00047786 0.00644171 -0.00269522
C  -0.00360400 0.00159194 0.00210534
H  0.00511604 -0.01717558 0.00917120
H  -0.00993166 0.01482047 -0.00124287
H  0.02047535 0.02461558 -0.01586031
H  -0.00506465 0.02752043 -0.00249962
H  -0.01179926 0.00636204 -0.02192627
H  0.01552609 0.00155516 0.00744910
12
MD Step 499 Units = [Angstroms / fs]
C  0.00089672 -0.00039844 -0.00965143
C  0.00455519 -0.00071729 0.00259432
C  0.00633021 -0.00226087 -0.00307259
C  0.00545120 -0.00423158 0.00089204
C  0.00021664 0.00566900 -0.00272991
C  -0.00414255 0.00204497 0.00188948
H  0.00587570 -0.01439108 0.00975038
H  -0.00619646 0.01388554 0.00074406
H  0.02059769 0.02666288 -0.01626784
H  -0.00283021 0.02977708 -0.00295748
H  -0.01796370 0.01439778 -0.02210016
H  0.01579604 -0.00140637 0.00874022
12
MD Step 500 Units = [Angstroms / fs]
C  0.00013480 -0.00068276 -0.00951733
C  0.00485580 -0.00048056 0.00226139
C  0.00633214 -0.00208892 -0.00314344
C  0.00563988 -0.00461577 0.00119858
C  0.00088387 0.00493079 -0.00276369
C  -0.00448575 0.00248276 0.00166306
H  0.00685995 -0.01091100 0.01019690
H  -0.00174717 0.01157305 0.00258043
H  0.01961723 0.02836187 -0.01662059
H  -0.00143531 0.02987568 -0.00325041
H  -0.02308937 0.02095869 -0.02224979
H  0.01443852 -0.00425651 0.00991395
12
MD Step 501 Units = [Angstroms / fs]
C  -0.00059421 -0.00093393 -0.00933477
C  0.00506859 -0.00015659 0.00191682
C  0.00639629 -0.00187342 -0.00320962
C  0.00580339 -0.00479819 0.00148339
C  0.00148293 0.00428990 -0.00279901
C  -0.00463081 0.00289780 0.00142682
H  0.00792913 -0.00700076 0.01049045
H  0.00324093 0.00814280 0.00428748
H  0.01761993 0.02967353 -0.01690222
H  -0.00085098 0.02784024 -0.00337171
H  -0.02672068 0.02532313 -0.02234192
H  0.01145385 -0.00694768 0.01096974
12
MD Step 502 Units = [Angstroms / fs]
C  -0.00126451 -0.00113108 -0.00910340
C  0.00519992 0.00022286 0.00155805
C  0.00651321 -0.00161888 -0.00327217
C  0.00593087 -0.00478813 0.00174498
C  0.00198643 0.00378151 -0.00283927
C  -0.00458957 0.00328459 0.00118059
H  0.00893858 -0.00294441 0.01061764
H  0.00852570 0.00399432 0.00590990
H  0.01476812 0.03056575 -0.01709722
H  -0.00096438 0.02387612 -0.00332829
H  -0.02859250 0.02711106 -0.02232932
H  0.00701572 -0.00944796 0.01191912
12
MD Step 503 Units = [Angstroms / fs]
C  -0.00185226 -0.00125406 -0.00882374
C  0.00526197 0.00061879 0.00118144
C  0.00666793 -0.00133091 -0.00333210
C  0.00600980 -0.00460671 0.00198275
C  0.00238118 0.00341360 -0.00288772
C  -0.00438915 0.00363934 0.00092356
H  0.00974684 0.00097062 0.01057292
H  0.01381858 -0.00037708 0.00750692
H  0.01128253 0.03101689 -0.01719274
H  -0.00161020 0.01831757 -0.00313745
H  -0.02863634 0.02627854 -0.02216494
H  0.00147798 -0.01174047 0.01278330
12
MD Step 504 Units = [Angstroms / fs]
C  -0.00233659 -0.00128435 -0.00849728
C  0.00527059 0.00099027 0.00078334
C  0.00684138 -0.00101607 -0.00339018
C  0.00602785 -0.00428315 0.00219683
C  0.00266614 0.00317277 -0.00294667
C  -0.00406995 0.00395932 0.00065465
H  0.01022327 0.00446845 0.01035883
H  0.01881516 -0.00444638 0.00913921
H  0.00742360 0.03101792 -0.01718005
H  -0.00259629 0.01157951 -0.00282390
H  -0.02694901 0.02304919 -0.02181252
H  -0.00464985 -0.01381859 0.01358807
12
MD Step 505 Units = [Angstroms / fs]
C  -0.00270056 -0.00120609 -0.00812633
C  0.00524262 0.00130034 0.00036121
C  0.00701185 -0.00068169 -0.00344693
C  0.00597401 -0.00385186 0.00238792
C  0.00284898 0.00303187 -0.00301710
C  -0.00368091 0.00424204 0.00037310
H  0.01025614 0.00730125 0.00998572
H  0.02322970 -0.00773224 0.01085501
H  0.00347374 0.03057342 -0.01705526
H  -0.00372113 0.00412159 -0.00241753
H  -0.02374476 0.01782323 -0.02125195
H  -0.01076077 -0.01567824 0.01435685
12
MD Step 506 Units = [Angstroms / fs]
C  -0.00293195 -0.00100741 -0.00771401
C  0.00519337 0.00152100 -0.00008548
C  0.00715635 -0.00033562 -0.00350252
C  0.00583900 -0.00335046 0.00255728
C  0.00294289 0.00295685 -0.00309863
C  -0.00327289 0.00448433 0.00007902
H  0.00976144 0.00926801 0.00947074
H  0.02682622 -0.00986000 0.01267948
H  -0.00027946 0.02970155 -0.01681969
H  -0.00478371 -0.00357498 -0.00195198
H  -0.01930903 0.01109604 -0.02048011
H  -0.01623273 -0.01731006 0.01510386
12
MD Step 507 Units = [Angstroms / fs]
C  -0.00302406 -0.00068205 -0.00726403
C  0.00513484 0.00163624 -0.00055489
C  0.00725202 0.00001393 -0.00355672
C  0.00561529 -0.00281855 0.00270662
C  0.00296431 0.00291152 -0.00318972
C  -0.00289149 0.00468185 -0.00022623
H  0.00869236 0.01023532 0.00883605
H  0.02943987 -0.01060068 0.01461012
H  -0.00355951 0.02843304 -0.01647972
H  -0.00558874 -0.01102167 -0.00146375
H  -0.01396429 0.00340153 -0.01950932
H  -0.02051598 -0.01869437 0.01582970
12
MD Step 508 Units = [Angstroms / fs]
C  -0.00297622 -0.00023099 -0.00678055
C  0.00507466 0.00164270 -0.00104293
C  0.00727764 0.00035872 -0.00360897
C  0.00529710 -0.00229660 0.00283807
C  0.00293169 0.00286013 -0.00328785
C  -0.00257141 0.00482904 -0.00054003
H  0.00704807 0.01015762 0.00810633
H  0.03098581 -0.00988142 0.01661848
H  -0.00611801 0.02680924 -0.01604621
H  -0.00595017 -0.01773390 -0.00099159
H  -0.00805016 -0.00471866 -0.01836529
H  -0.02320383 -0.01980110 0.01652070
12
MD Step 509 Units = [Angstroms / fs]
C  -0.00279398 0.00033619 -0.00626788
C  0.00501610 0.00154834 -0.00154379
C  0.00721523 0.00069073 -0.00365844
C  0.00488052 -0.00182458 0.00295409
C  0.00286515 0.00276834 -0.00338971
C  -0.00233330 0.00491949 -0.00085871
H  0.00488003 0.00909256 0.00730563
H  0.03145670 -0.00777193 0.01865639
H  -0.00775273 0.02487929 -0.01553339
H  -0.00569612 -0.02324624 -0.00057537
H  -0.00191501 -0.01272681 -0.01708544
H  -0.02407175 -0.02059407 0.01715184
12
MD Step 510 Units = [Angstroms / fs]
C  -0.00248891 0.00100082 -0.00573023
C  0.00495849 0.00137000 -0.00205061
C  0.00705185 0.00100259 -0.00370411
C  0.00436405 -0.00143972 0.00305726
C  0.00278651 0.00260325 -0.00349124
C  -0.00218348 0.00494665 -0.00117796
H  0.00229322 0.00720592 0.00645423
H  0.03091239 -0.00445643 0.02066437
H  -0.00832646 0.02269619 -0.01495731
H  -0.00467783 -0.02713760 -0.00025402
H  0.00408588 -0.02009079 -0.01571799
H  -0.02308197 -0.02103780 0.01769202
12
MD Step 511 Units = [Angstroms / fs]
C  -0.00207776 0.00173587 -0.00517156
C  0.00489806 0.00113060 -0.00255612
C  0.00678119 0.00128799 -0.00374503
C  0.00374968 -0.00117315 0.00314996
C  0.00271926 0.00233342 -0.00358774
C  -0.00211582 0.00490464 -0.00149336
H  -0.00055976 0.00476111 0.00556621
H  0.02946620 -0.00020127 0.02257979
H  -0.00778491 0.02031214 -0.01433377
H  -0.00278467 -0.02907047 -0.00006175
H  0.00959144 -0.02628524 -0.01432122
H  -0.02036110 -0.02110416 0.01810983
12
MD Step 512 Units = [Angstroms / fs]
C  -0.00158102 0.00250802 -0.00459547
C  0.00482869 0.00085661 -0.00305324
C  0.00640493 0.00154220 -0.00378045
C  0.00304440 -0.00104541 0.00323395
C  0.00268809 0.00192934 -0.00367397
C  -0.00211480 0.00478896 -0.00180077
H  -0.00349227 0.00209170 0.00464853
H  0.02727125 0.00467490 0.02434362
H  -0.00617034 0.01777376 -0.01367601
H  0.00003471 -0.02884347 -0.00002254
H  0.01424160 -0.03080141 -0.01296204
H  -0.01616338 -0.02077733 0.01837841
12
MD Step 513 Units = [Angstroms / fs]
C  -0.00102107 0.00328102 -0.00400524
C  0.00474262 0.00057609 -0.00353542
C  0.00593338 0.00176246 -0.00381009
C  0.00226210 -0.00106161 0.00330969
C  0.00271726 0.00136540 -0.00374441
C  -0.00215861 0.00459710 -0.00209664
H  -0.00630356 -0.00043989 0.00370186
H  0.02450865 0.00982510 0.02590537
H  -0.00362683 0.01511802 -0.01299253
H  0.00374779 -0.02644839 -0.00014327
H  0.01769590 -0.03317431 -0.01171243
H  -0.01083172 -0.02005631 0.01847885
12
MD Step 514 Units = [Angstroms / fs]
C  -0.00042010 0.00401949 -0.00340408
C  0.00463107 0.00031719 -0.00399696
C  0.00538502 0.00194821 -0.00383423
C  0.00142518 -0.00120756 0.00337589
C  0.00282759 0.00062359 -0.00379381
C  -0.00222193 0.00432899 -0.00237820
H  -0.00880136 -0.00248983 0.00272327
H  0.02137801 0.01489239 0.02722653
H  -0.00039331 0.01237011 -0.01228560
H  0.00821664 -0.02211424 -0.00040730
H  0.01966902 -0.03303329 -0.01064231
H  -0.00476390 -0.01895545 0.01840210
12
MD Step 515 Units = [Angstroms / fs]
C  0.00020169 0.00469245 -0.00279531
C  0.00448468 0.00010709 -0.00443322
C  0.00478499 0.00210095 -0.00385383
C  0.00056505 -0.00144890 0.00342915
C  0.00303200 -0.00030090 -0.00381815
C  -0.00227776 0.00398734 -0.00264358
H  -0.01082285 -0.00377644 0.00170955
H  0.01808931 0.01952467 0.02828285
H  0.00321729 0.00954406 -0.01155088
H  0.01318911 -0.01631565 -0.00077098
H  0.01998310 -0.03017561 -0.00980794
H  0.00161303 -0.01750376 0.01814984
12
MD Step 516 Units = [Angstroms / fs]
C  0.00082743 0.00527592 -0.00218266
C  0.00429416 -0.00002910 -0.00484076
C  0.00416243 0.00222382 -0.00387041
C  -0.00027904 -0.00173454 0.00346411
C  0.00333020 -0.00139316 -0.00381573
C  -0.00229884 0.00357783 -0.00289192
H  -0.01225018 -0.00411127 0.00066051
H  0.01485443 0.02338915 0.02906578
H  0.00685135 0.00664631 -0.01077846
H  0.01831202 -0.00972843 -0.00116586
H  0.01862819 -0.02465018 -0.00923693
H  0.00786155 -0.01574343 0.01773455
12
MD Step 517 Units = [Angstroms / fs]
C  0.00144424 0.00575418 -0.00157029
C  0.00405104 -0.00006954 -0.00521743
C  0.00354724 0.00232081 -0.00388587
C  -0.00106337 -0.00200448 0.00347418
C  0.00370446 -0.00261352 -0.00378839
C  -0.00225859 0.00310911 -0.00312332
H  -0.01301831 -0.00341347 -0.00041886
H  0.01187661 0.02618926 0.02958299
H  0.01015508 0.00368128 -0.00995524
H  0.02316970 -0.00313219 -0.00150763
H  0.01580990 -0.01682355 -0.00891381
H  0.01354886 -0.01372813 0.01717924
12
MD Step 518 Units = [Angstroms / fs]
C  0.00204325 0.00611971 -0.00096291
C  0.00374881 0.00000275 -0.00556233
C  0.00296678 0.00239591 -0.00390218
C  -0.00174459 -0.00220019 0.00345270
C  0.00411865 -0.00389684 -0.00374205
C  -0.00213216 0.00259257 -0.00333886
H  -0.01311556 -0.00170796 -0.00151757
H  0.00933619 0.02768591 0.02985749
H  0.01281490 0.00065755 -0.00906802
H  0.02734174 0.00271684 -0.00171015
H  0.01195751 -0.00739118 -0.00877270
H  0.01826297 -0.01152066 0.01651651
12
MD Step 519 Units = [Angstroms / fs]
C  0.00261913 0.00637232 -0.00036555
C  0.00338431 0.00019796 -0.00587565
C  0.00244320 0.00245232 -0.00392113
C  -0.00228489 -0.00227436 0.00339414
C  0.00452227 -0.00515840 -0.00368624
C  -0.00189792 0.00204168 -0.00354045
H  -0.01257838 0.00088812 -0.00261921
H  0.00737236 0.02772289 0.02992449
H  0.01459030 -0.00240713 -0.00810662
H  0.03046465 0.00720560 -0.00170042
H  0.00767255 0.00269322 -0.00870312
H  0.02163386 -0.00918964 0.01578662
12
MD Step 520 Units = [Angstroms / fs]
C  0.00316940 0.00651776 0.00021654
C  0.00295944 0.00051740 -0.00615827
C  0.00199168 0.00249193 -0.00394404
C  -0.00265609 -0.00219732 0.00329505
C  0.00485930 -0.00630624 -0.00363234
C  -0.00153958 0.00147116 -0.00373053
H  -0.01148310 0.00418529 -0.00370330
H  0.00606253 0.02625323 0.02982558
H  0.01533424 -0.00548331 -0.00706632
H  0.03228018 0.00994263 -0.00142998
H  0.00362227 0.01236659 -0.00857041
H  0.02336247 -0.00680488 0.01503409
12
MD Step 521 Units = [Angstroms / fs]
C  0.00369361 0.00656624 0.00077818
C  0.00248261 0.00095188 -0.00641105
C  0.00161977 0.00251509 -0.00397163
C  -0.00284172 -0.00195892 0.00315449
C  0.00507908 -0.00725623 -0.00359127
C  -0.00104906 0.00089574 -0.00391158
H  -0.00993650 0.00794301 -0.00474709
H  0.00540351 0.02336040 0.02959982
H  0.01499977 -0.00852992 -0.00594922
H  0.03265912 0.01078053 -0.00087989
H  0.00041033 0.02064169 -0.00824483
H  0.02325744 -0.00443111 0.01430221
12
MD Step 522 Units = [Angstroms / fs]
C  0.00419261 0.00653112 0.00131447
C  0.00196957 0.00148100 -0.00663408
C  0.00132768 0.00252081 -0.00400392
C  -0.00283718 -0.00156645 0.00297394
C  0.00514553 -0.00794514 -0.00357126
C  -0.00042954 0.00032906 -0.00408556
H  -0.00806697 0.01188941 -0.00572746
H  0.00530090 0.01926586 0.02927330
H  0.01363472 -0.01149675 -0.00476439
H  0.03159950 0.00979041 -0.00005922
H  -0.00152981 0.02676672 -0.00762854
H  0.02127494 -0.00212079 0.01362545
12
MD Step 523 Units = [Angstroms / fs]
C  0.00466794 0.00642782 0.00182097
C  0.00144306 0.00207425 -0.00682592
C  0.00110924 0.00250704 -0.00404026
C  -0.00264835 -0.00104039 0.00275678
C  0.00504176 -0.00833750 -0.00357658
C  0.00030187 -0.00021746 -0.00425309
H  -0.00601639 0.01573862 -0.00662257
H  0.00557291 0.01431599 0.02884944
H  0.01136833 -0.01432820 -0.00352710
H  0.02920677 0.00720924 0.00100063
H  -0.00198628 0.03031196 -0.00667121
H  0.01755175 0.00009237 0.01302077
12
MD Step 524 Units = [Angstroms / fs]
C  0.00512125 0.00627276 0.00229388
C  0.00093088 0.00269387 -0.00698319
C  0.00095316 0.00247122 -0.00407942
C  -0.00228973 -0.00040985 0.00250777
C  0.00476977 -0.00842567 -0.00360746
C  0.00111326 -0.00073506 -0.00441285
H  -0.00393263 0.01920624 -0.00741333
H  0.00597214 0.00894560 0.02830366
H  0.00839383 -0.01696741 -0.00225748
H  0.02566650 0.00338238 0.00225304
H  -0.00096038 0.03117222 -0.00537143
H  0.01241829 0.00219686 0.01247981
12
MD Step 525 Units = [Angstroms / fs]
C  0.00555389 0.00608239 0.00273019
C  0.00046271 0.00329929 -0.00710074
C  0.00084444 0.00241082 -0.00411969
C  -0.00178258 0.00029127 0.00223246
C  0.00434671 -0.00822480 -0.00366089
C  0.00195952 -0.00121768 -0.00456130
H  -0.00196193 0.02202433 -0.00808458
H  0.00622280 0.00362306 0.02758487
H  0.00495011 -0.01936021 -0.00097877
H  0.02121849 -0.00128449 0.00364279
H  0.00138173 0.02950850 -0.00376728
H  0.00637936 0.00420153 0.01196495
12
MD Step 526 Units = [Angstroms / fs]
C  0.00596642 0.00587196 0.00312770
C  0.00006630 0.00385201 -0.00717235
C  0.00076578 0.00232387 -0.00415910
C  -0.00115346 0.00102677 0.00193680
C  0.00379992 -0.00776595 -0.00373172
C  0.00278700 -0.00166120 -0.00469284
H  -0.00024010 0.02395735 -0.00862600
H  0.00606527 -0.00121123 0.02662438
H  0.00130408 -0.02145834 0.00028436
H  0.01613682 -0.00635826 0.00511083
H  0.00476995 0.02566543 -0.00192261
H  0.00005837 0.00612805 0.01141187
12
MD Step 527 Units = [Angstroms / fs]
C  0.00635805 0.00565426 0.00348507
C  -0.00023608 0.00431996 -0.00719188
C  0.00069887 0.00220941 -0.00419552
C  -0.00043306 0.00175962 0.00162683
C  0.00316250 -0.00708974 -0.00381376
C  0.00354043 -0.00206240 -0.00480068
H  0.00111784 0.02481979 -0.00903256
H  0.00529660 -0.00519887 0.02534979
H  -0.00226602 -0.02322204 0.00150753
H  0.01071695 -0.01139765 0.00659764
H  0.00888297 0.02009502 0.00008581
H  -0.00588689 0.00799922 0.01073904
12
MD Step 528 Units = [Angstroms / fs]
C  0.00672598 0.00543806 0.00380174
C  -0.00043000 0.00468027 -0.00715445
C  0.00062580 0.00206784 -0.00422692
C  0.00034467 0.00245264 0.00130854
C  0.00247005 -0.00624191 -0.00390044
C  0.00417049 -0.00241787 -0.00487799
H  0.00202951 0.02449497 -0.00930443
H  0.00379759 -0.00809877 0.02369985
H  -0.00548696 -0.02462190 0.00266829
H  0.00526761 -0.01596359 0.00804528
H  0.01338399 0.01330202 0.00217747
H  -0.01085712 0.00982731 0.00986241
12
MD Step 529 Units = [Angstroms / fs]
C  0.00706477 0.00522681 0.00407786
C  -0.00050984 0.00492024 -0.00705739
C  0.00053040 0.00190120 -0.00425148
C  0.00114358 0.00306907 0.00098764
C  0.00175871 -0.00527072 -0.00398531
C  0.00464015 -0.00272334 -0.00491926
H  0.00245731 0.02295272 -0.00944609
H  0.00154224 -0.00979944 0.02163628
H  -0.00810770 -0.02564012 0.00374760
H  0.00010424 -0.01962719 0.00939926
H  0.01793965 0.00581320 0.00427355
H  -0.01438991 0.01160615 0.00871096
12
MD Step 530 Units = [Angstroms / fs]
C  0.00736572 0.00501758 0.00431405
C  -0.00047835 0.00503672 -0.00690072
C  0.00039986 0.00171327 -0.00426781
C  0.00192666 0.00357349 0.00066940
C  0.00106407 -0.00422604 -0.00406217
C  0.00492834 -0.00297354 -0.00492122
H  0.00241845 0.02026200 -0.00946463
H  -0.00140865 -0.01031149 0.01915029
H  -0.00991779 -0.02627096 0.00473118
H  -0.00446054 -0.02198175 0.01061087
H  0.02222701 -0.00183501 0.00629953
H  -0.01620636 0.01330934 0.00723885
12
MD Step 531 Units = [Angstroms / fs]
C  0.00761666 0.00480095 0.00451117
C  -0.00034532 0.00503450 -0.00668719
C  0.00022623 0.00150952 -0.00427505
C  0.00265809 0.00393359 0.00035838
C  0.00042059 -0.00315903 -0.00412524
C  0.00503062 -0.00316271 -0.00488333
H  0.00198940 0.01659375 -0.00936735
H  -0.00492386 -0.00974738 0.01626359
H  -0.01076684 -0.02652013 0.00561053
H  -0.00813363 -0.02266479 0.01164051
H  0.02593494 -0.00909887 0.00818647
H  -0.01622115 0.01489409 0.00543155
12
MD Step 532 Units = [Angstroms / fs]
C  0.00780237 0.00456182 0.00467010
C  -0.00012586 0.00492442 -0.00642204
C  0.00000794 0.00129691 -0.00427294
C  0.00330613 0.00412328 0.00005801
C  -0.00013898 -0.00212205 -0.00416924
C  0.00495734 -0.00328534 -0.00480778
H  0.00130207 0.01221009 -0.00915924
H  -0.00882203 -0.00829650 0.01302554
H  -0.01058314 -0.02640310 0.00638335
H  -0.01066871 -0.02139424 0.01246222
H  0.02876567 -0.01542913 0.00987237
H  -0.01452294 0.01630845 0.00330572
12
MD Step 533 Units = [Angstroms / fs]
C  0.00790566 0.00428151 0.00479154
C  0.00016125 0.00472159 -0.00611249
C  -0.00024903 0.00108353 -0.00426180
C  0.00384669 0.00412694 -0.00022981
C  -0.00058437 -0.00116757 -0.00418960
C  0.00473044 -0.00333704 -0.00469904
H  0.00052998 0.00743885 -0.00884100
H  -0.01289090 -0.00620142 0.00950798
H  -0.00938807 -0.02594211 0.00705322
H  -0.01190365 -0.01801872 0.01306865
H  0.03044160 -0.02028178 0.01130471
H  -0.01133818 0.01749919 0.00090469
12
MD Step 534 Units = [Angstroms / fs]
C  0.00790921 0.00394064 0.00487590
C  0.00049499 0.00444401 -0.00576732
C  -0.00053086 0.00087804 -0.00424242
C  0.00426704 0.00394435 -0.00050507
C  -0.00088921 -0.00034561 -0.00418285
C  0.00438004 -0.00331516 -0.00456327
H  -0.00013411 0.00263630 -0.00840831
H  -0.01690341 -0.00373796 0.00579941
H  -0.00730207 -0.02516229 0.00762832
H  -0.01180250 -0.01257411 0.01347490
H  0.03072191 -0.02314760 0.01244469
H  -0.00699113 0.01841843 -0.00170832
12
MD Step 535 Units = [Angstroms / fs]
C  0.00779771 0.00352229 0.00492340
C  0.00085333 0.00411154 -0.00539632
C  -0.00081644 0.00068901 -0.00421584
C  0.00456872 0.00359479 -0.00076965
C  -0.00103325 0.00030101 -0.00414708
C  0.00394129 -0.00321918 -0.00440775
H  -0.00050497 -0.00185492 -0.00785275
H  -0.02063040 -0.00119934 0.00199925
H  -0.00453819 -0.02408770 0.00811925
H  -0.01048897 -0.00532996 0.01371868
H  0.02943116 -0.02360767 0.01327311
H  -0.00186850 0.01902809 -0.00445701
12
MD Step 536 Units = [Angstroms / fs]
C  0.00755995 0.00301487 0.00493421
C  0.00121417 0.00374512 -0.00500984
C  -0.00107927 0.00052421 -0.00418309
C  0.00476792 0.00311857 -0.00102696
C  -0.00100538 0.00074365 -0.00408247
C  0.00345210 -0.00305083 -0.00424035
H  -0.00043040 -0.00574440 -0.00716410
H  -0.02385125 0.00111740 -0.00178789
H  -0.00138153 -0.02273831 0.00853645
H  -0.00825434 0.00319712 0.01385492
H  0.02649831 -0.02141537 0.01379629
H  0.00360803 0.01930259 -0.00725804
12
MD Step 537 Units = [Angstroms / fs]
C  0.00719038 0.00241389 0.00490873
C  0.00155634 0.00336591 -0.00461829
C  -0.00129029 0.00038997 -0.00414492
C  0.00489268 0.00257410 -0.00128101
C  -0.00080674 0.00097592 -0.00399157
C  0.00295139 -0.00281396 -0.00406906
H  0.00018973 -0.00882183 -0.00633337
H  -0.02636425 0.00292533 -0.00545837
H  0.00184365 -0.02112874 0.00888755
H  -0.00552672 0.01228234 0.01394454
H  0.02199795 -0.01659091 0.01404923
H  0.00900219 0.01923009 -0.01002603
12
MD Step 538 Units = [Angstroms / fs]
C  0.00668998 0.00172268 0.00484782
C  0.00186060 0.00299422 -0.00423151
C  -0.00142125 0.00029070 -0.00410160
C  0.00497684 0.00203038 -0.00153522
C  -0.00045298 0.00102004 -0.00387908
C  0.00247773 -0.00251432 -0.00390164
H  0.00139399 -0.01097057 -0.00535571
H  -0.02799812 0.00396465 -0.00891659
H  0.00481379 -0.01926939 0.00917565
H  -0.00280165 0.02108687 0.01404023
H  0.01617840 -0.00949706 0.01409252
H  0.01388002 0.01881290 -0.01267791
12
MD Step 539 Units = [Angstroms / fs]
C  0.00606623 0.00095190 0.00475295
C  0.00211078 0.00264798 -0.00385815
C  -0.00144814 0.00022861 -0.00405285
C  0.00505243 0.00155643 -0.00179138
C  0.00002588 0.00092821 -0.00375096
C  0.00206803 -0.00215919 -0.00374526
H  0.00315937 -0.01216753 -0.00423250
H  -0.02862536 0.00402445 -0.01208331
H  0.00724517 -0.01716930 0.00939865
H  -0.00055204 0.02878688 0.01417419
H  0.00945868 -0.00085377 0.01400126
H  0.01782757 0.01806731 -0.01513732
12
MD Step 540 Units = [Angstroms / fs]
C  0.00533258 0.00011832 0.00462634
C  0.00229510 0.00234074 -0.00350486
C  -0.00135390 0.00020371 -0.00399785
C  0.00514310 0.00121069 -0.00204914
C  0.00058888 0.00077616 -0.00361304
C  0.00175574 -0.00175710 -0.00360602
H  0.00540858 -0.01247277 -0.00297228
H  -0.02817677 0.00296930 -0.01490464
H  0.00892504 -0.01484000 0.00954994
H  0.00085421 0.03470018 0.01435222
H  0.00238337 0.00833968 0.01384771
H  0.02047395 0.01702269 -0.01733961
12
MD Step 541 Units = [Angstroms / fs]
C  0.00450743 -0.00075668 0.00447091
C  0.00240730 0.00207947 -0.00317562
C  -0.00113013 0.00021405 -0.00393541
C  0.00526041 0.00103347 -0.00230611
C  0.00119033 0.00064939 -0.00346960
C  0.00156845 -0.00131742 -0.00348856
H  0.00802152 -0.01201349 -0.00159057
H  -0.02665454 0.00076743 -0.01736027
H  0.00973006 -0.01229894 0.00962007
H  0.00120415 0.03837401 0.01455564
H  -0.00445902 0.01697036 0.01368400
H  0.02152221 0.01571944 -0.01923754
12
MD Step 542 Units = [Angstroms / fs]
C  0.00361298 -0.00164875 0.00429017
C  0.00244747 0.00186260 -0.00287129
C  -0.00077769 0.00025610 -0.00386415
C  0.00540378 0.00104397 -0.00255843
C  0.00178713 0.00062614 -0.00332254
C  0.00152481 -0.00085000 -0.00339553
H  0.01084803 -0.01096645 -0.00010890
H  -0.02414021 -0.00248592 -0.01946839
H  0.00963100 -0.00957169 0.00959883
H  0.00044854 0.03961610 0.01474915
H  -0.01053080 0.02401654 0.01353179
H  0.02078793 0.01420540 -0.02080713
12
MD Step 543 Units = [Angstroms / fs]
C  0.00267398 -0.00253188 0.00408813
C  0.00242206 0.00167912 -0.00258966
C  -0.00030628 0.00032524 -0.00378272
C  0.00556315 0.00124143 -0.00280166
C  0.00234466 0.00076288 -0.00317141
C  0.00163127 -0.00036463 -0.00332728
H  0.01372018 -0.00954128 0.00144667
H  -0.02079334 -0.00655861 -0.02128461
H  0.00868613 -0.00669253 0.00947739
H  -0.00132264 0.03847404 0.01489081
H  -0.01542269 0.02872148 0.01338265
H  0.01824020 0.01253068 -0.02205226
12
MD Step 544 Units = [Angstroms / fs]
C  0.00171659 -0.00337960 0.00386909
C  0.00234299 0.00150930 -0.00232609
C  0.00026665 0.00041625 -0.00369004
C  0.00572282 0.00160893 -0.00303139
C  0.00283980 0.00108689 -0.00301411
C  0.00187935 0.00012952 -0.00328175
H  0.01646326 -0.00796544 0.00304731
H  -0.01683807 -0.01109352 -0.02289317
H  0.00702699 -0.00370362 0.00924989
H  -0.00392105 0.03518382 0.01494080
H  -0.01889337 0.03068330 0.01320726
H  0.01403461 0.01074156 -0.02300587
12
MD Step 545 Units = [Angstroms / fs]
C  0.00076717 -0.00416600 0.00363740
C  0.00222587 0.00132742 -0.00207478
C  0.00091740 0.00052376 -0.00358538
C  0.00586494 0.00211791 -0.00324384
C  0.00326076 0.00159669 -0.00284798
C  0.00224471 0.00062429 -0.00325478
H  0.01890591 -0.00647034 0.00466323
H  -0.01253832 -0.01564547 -0.02439125
H  0.00484086 -0.00065316 0.00891459
H  -0.00710116 0.03011062 0.01486726
H  -0.02086786 0.02985073 0.01296812
H  0.00852426 0.00887508 -0.02372597
12
MD Step 546 Units = [Angstroms / fs]
C  -0.00014888 -0.00486665 0.00339729
C  0.00208756 0.00110615 -0.00183025
C  0.00161765 0.00064267 -0.00346853
C  0.00597214 0.00273211 -0.00343606
C  0.00360482 0.00226793 -0.00267068
C  0.00268892 0.00111277 -0.00324099
H  0.02088984 -0.00527753 0.00626559
H  -0.00816600 -0.01973851 -0.02586973
H  0.00235246 0.00240694 0.00847438
H  -0.01059249 0.02369793 0.01464930
H  -0.02140752 0.02645302 0.01263040
H  0.00223663 0.00695629 -0.02428571
12
MD Step 547 Units = [Angstroms / fs]
C  -0.00100835 -0.00545974 0.00315262
C  0.00194388 0.00082150 -0.00158879
C  0.00233614 0.00076834 -0.00333979
C  0.00602885 0.00341045 -0.00360607
C  0.00387534 0.00306134 -0.00248069
C  0.00316431 0.00158913 -0.00323481
H  0.02227974 -0.00458339 0.00782844
H  -0.00396914 -0.02293144 -0.02739569
H  -0.00019328 0.00542353 0.00793675
H  -0.01412014 0.01643190 0.01427800
H  -0.02066939 0.02090602 0.01216857
H  -0.00418691 0.00499941 -0.02475935
12
MD Step 548 Units = [Angstroms / fs]
C  -0.00179138 -0.00592741 0.00290672
C  0.00180770 0.00045724 -0.00134933
C  0.00304036 0.00089672 -0.00320001
C  0.00602177 0.00410892 -0.00375289
C  0.00407929 0.00392997 -0.00227758
C  0.00362102 0.00204803 -0.00323173
H  0.02297374 -0.00454196 0.00933057
H  -0.00014711 -0.02487584 -0.02900141
H  -0.00254772 0.00834457 0.00731338
H  -0.01741576 0.00882036 0.01375644
H  -0.01886907 0.01372755 0.01156899
H  -0.01007951 0.00301295 -0.02520771
12
MD Step 549 Units = [Angstroms / fs]
C  -0.00248260 -0.00625716 0.00266218
C  0.00168800 0.00000760 -0.00111360
C  0.00369824 0.00102431 -0.00305048
C  0.00593986 0.00478171 -0.00387653
C  0.00422558 0.00482423 -0.00206196
C  0.00401458 0.00248396 -0.00322908
H  0.02291341 -0.00524622 0.01075702
H  0.00316318 -0.02535417 -0.03068190
H  -0.00447460 0.01112149 0.00661929
H  -0.02022270 0.00138137 0.01309942
H  -0.01625416 0.00547811 0.01082970
H  -0.01484381 0.00100658 -0.02566758
12
MD Step 550 Units = [Angstroms / fs]
C  -0.00307193 -0.00644346 0.00242083
C  0.00158972 -0.00052211 -0.00088575
C  0.00427994 0.00114804 -0.00289284
C  0.00577409 0.00538230 -0.00397798
C  0.00432447 0.00569492 -0.00183546
C  0.00431203 0.00289056 -0.00322637
H  0.02209202 -0.00671030 0.01209996
H  0.00588957 -0.02429268 -0.03240022
H  -0.00576681 0.01371125 0.00587158
H  -0.02229982 -0.00536557 0.01233311
H  -0.01308948 -0.00327213 0.00995927
H  -0.01802959 -0.00100286 -0.02614780
12
MD Step 551 Units = [Angstroms / fs]
C  -0.00355508 -0.00648886 0.00218378
C  0.00151426 -0.00111657 -0.00067150
C  0.00475980 0.00126508 -0.00272897
C  0.00551754 0.00586500 -0.00405914
C  0.00438758 0.00649450 -0.00160055
C  0.00449522 0.00326041 -0.00322496
H  0.02055866 -0.00885655 0.01335842
H  0.00801823 -0.02175236 -0.03409758
H  -0.00626418 0.01607826 0.00508781
H  -0.02342760 -0.01091348 0.01149427
H  -0.00965117 -0.01195676 0.00897554
H  -0.01937747 -0.00298833 -0.02663235
12
MD Step 552 Units = [Angstroms / fs]
C  -0.00393329 -0.00640445 0.00195155
C  0.00146021 -0.00175276 -0.00047725
C  0.00511819 0.00137269 -0.00256070
C  0.00516585 0.00618743 -0.00412273
C  0.00442833 0.00717755 -0.00136049
C  0.00456114 0.00358509 -0.00322748
H  0.01841608 -0.01151246 0.01453665
H  0.00958264 -0.01790550 -0.03570472
H  -0.00587136 0.01819568 0.00428400
H  -0.02341989 -0.01479440 0.01062838
H  -0.00622602 -0.02001667 0.00790456
H  -0.01882509 -0.00491333 -0.02708802
12
MD Step 553 Units = [Angstroms / fs]
C  -0.00421251 -0.00620920 0.00172435
C  0.00142414 -0.00240257 -0.00030926
C  0.00534330 0.00146818 -0.00238970
C  0.00471845 0.00631452 -0.00417192
C  0.00446228 0.00770115 -0.00111920
C  0.00451974 0.00385562 -0.00323702
H  0.01581103 -0.01442152 0.01564125
H  0.01065156 -0.01300707 -0.03715207
H  -0.00457391 0.02004589 0.00347253
H  -0.02214268 -0.01662383 0.00978562
H  -0.00311114 -0.02690344 0.00677973
H  -0.01648396 -0.00673522 -0.02747379
12
MD Step 554 Units = [Angstroms / fs]
C  -0.00440194 -0.00592805 0.00150245
C  0.00140122 -0.00303526 -0.00017300
C  0.00543233 0.00154901 -0.00221723
C  0.00418014 0.00622384 -0.00420981
C  0.00450711 0.00802589 -0.00088111
C  0.00439067 0.00406315 -0.00325651
H  0.01291768 -0.01726925 0.01667741
H  0.01131846 -0.00736704 -0.03837751
H  -0.00244891 0.02161973 0.00266027
H  -0.01953898 -0.01616310 0.00901371
H  -0.00060875 -0.03209201 0.00564058
H  -0.01260079 -0.00840970 -0.02774912
12
MD Step 555 Units = [Angstroms / fs]
C  -0.00451223 -0.00558903 0.00128647
C  0.00138561 -0.00361949 -0.00007279
C  0.00539186 0.00161303 -0.00204404
C  0.00356305 0.00591165 -0.00423860
C  0.00458153 0.00811826 -0.00065096
C  0.00419983 0.00419966 -0.00328819
H  0.00991696 -0.01972120 0.01764556
H  0.01169315 -0.00132719 -0.03933154
H  0.00033391 0.02291445 0.00184745
H  -0.01565534 -0.01338980 0.00834767
H  0.00098923 -0.03511079 0.00453018
H  -0.00751631 -0.00989508 -0.02788011
12
MD Step 556 Units = [Angstroms / fs]
C  -0.00455365 -0.00521982 0.00107754
C  0.00137079 -0.00412481 -0.00001150
C  0.00523711 0.00165879 -0.00187030
C  0.00288790 0.00539768 -0.00425867
C  0.00470289 0.00795466 -0.00043331
C  0.00397649 0.00425870 -0.00333338
H  0.00697586 -0.02146595 0.01853909
H  0.01189541 0.00475749 -0.03998049
H  0.00352366 0.02393065 0.00102766
H  -0.01066104 -0.00855524 0.00779832
H  0.00143192 -0.03559423 0.00349064
H  -0.00162959 -0.01115542 -0.02784315
12
MD Step 557 Units = [Angstroms / fs]
C  -0.00453469 -0.00484466 0.00087745
C  0.00134974 -0.00452292 0.00000958
C  0.00498995 0.00168589 -0.00169571
C  0.00218402 0.00472648 -0.00426781
C  0.00488327 0.00752707 -0.00023198
C  0.00375115 0.00423604 -0.00339235
H  0.00423068 -0.02225413 0.01934405
H  0.01204979 0.01053467 -0.04030817
H  0.00681313 0.02466886 0.00018927
H  -0.00484968 -0.00220000 0.00734306
H  0.00055635 -0.03335553 0.00255617
H  0.00462910 -0.01216267 -0.02762676
12
MD Step 558 Units = [Angstroms / fs]
C  -0.00446119 -0.00448213 0.00068839
C  0.00131528 -0.00478875 -0.00000924
C  0.00467604 0.00169514 -0.00151972
C  0.00148743 0.00396333 -0.00426112
C  0.00512451 0.00684895 -0.00004934
C  0.00355420 0.00413017 -0.00346431
H  0.00177698 -0.02192597 0.02004073
H  0.01227995 0.01567036 -0.04031642
H  0.00987400 0.02512690 -0.00068186
H  0.00138460 0.00489546 0.00692394
H  -0.00165591 -0.02846441 0.00174474
H  0.01081808 -0.01289789 -0.02723214
12
MD Step 559 Units = [Angstroms / fs]
C  -0.00433613 -0.00414394 0.00051281
C  0.00126053 -0.00490175 -0.00006609
C  0.00432144 0.00168855 -0.00134176
C  0.00083698 0.00318462 -0.00423161
C  0.00541365 0.00595929 0.00011433
C  0.00341485 0.00394263 -0.00354746
H  -0.00033334 -0.02042369 0.02060666
H  0.01270149 0.01986693 -0.04002445
H  0.01239659 0.02529872 -0.00159907
H  0.00759573 0.01182622 0.00645589
H  -0.00502982 -0.02130164 0.00105081
H  0.01650041 -0.01335184 -0.02667300
12
MD Step 560 Units = [Angstroms / fs]
C  -0.00415989 -0.00383502 0.00035308
C  0.00117977 -0.00484736 -0.00015768
C  0.00394951 0.00166901 -0.00116155
C  0.00026950 0.00246505 -0.00417167
C  0.00572101 0.00492199 0.00026102
C  0.00336008 0.00367815 -0.00363908
H  -0.00208904 -0.01778947 0.02102005
H  0.01341206 0.02288473 -0.03946652
H  0.01412627 0.02517510 -0.00257166
H  0.01334808 0.01771614 0.00584390
H  -0.00918042 -0.01255647 0.00044277
H  0.02126056 -0.01352535 -0.02597469
12
MD Step 561 Units = [Angstroms / fs]
C  -0.00393088 -0.00355422 0.00021119
C  0.00106940 -0.00461878 -0.00027975
C  0.00357849 0.00163989 -0.00097930
C  -0.00018467 0.00186565 -0.00407473
C  0.00600266 0.00381881 0.00039455
C  0.00341321 0.00334442 -0.00373569
H  -0.00351295 -0.01415267 0.02126306
H  0.01447864 0.02456666 -0.03868737
H  0.01489022 0.02474604 -0.00360251
H  0.01827551 0.02186173 0.00500356
H  -0.01354978 -0.00314599 -0.00013188
H  0.02472596 -0.01342904 -0.02517243
12
MD Step 562 Units = [Angstroms / fs]
C  -0.00364630 -0.00329553 0.00008857
C  0.00092925 -0.00421870 -0.00042756
C  0.00322012 0.00160453 -0.00079583
C  -0.00050465 0.00142594 -0.00393662
C  0.00620769 0.00273701 0.00051950
C  0.00359174 0.00295160 -0.00383334
H  -0.00465396 -0.00971146 0.02132424
H  0.01592308 0.02486208 -0.03773519
H  0.01461099 0.02400384 -0.00468710
H  0.02212140 0.02382420 0.00387780
H  -0.01749831 0.00593299 -0.00073409
H  0.02659595 -0.01308240 -0.02430823
12
MD Step 563 Units = [Angstroms / fs]
C  -0.00330279 -0.00304936 -0.00001413
C  0.00076369 -0.00366045 -0.00059667
C  0.00287940 0.00156583 -0.00061258
C  -0.00068008 0.00116201 -0.00375619
C  0.00628811 0.00175515 0.00063995
C  0.00390469 0.00251152 -0.00392799
H  -0.00557927 -0.00471296 0.02120013
H  0.01770901 0.02384380 -0.03665248
H  0.01330674 0.02294617 -0.00581376
H  0.02475272 0.02345256 0.00244508
H  -0.02042513 0.01377587 -0.00141770
H  0.02667775 -0.01251166 -0.02342599
12
MD Step 564 Units = [Angstroms / fs]
C  -0.00289714 -0.00280369 -0.00009711
C  0.00058238 -0.00296812 -0.00078371
C  0.00255509 0.00152594 -0.00043151
C  -0.00071040 0.00106915 -0.00353526
C  0.00620803 0.00093179 0.00075833
C  0.00434957 0.00203676 -0.00401606
H  -0.00636760 0.00056546 0.02089595
H  0.01973418 0.02171093 -0.03546652
H  0.01108138 0.02157837 -0.00696503
H  0.02615121 0.02084894 0.00071847
H  -0.02187622 0.01970950 -0.00221680
H  0.02492461 -0.01174629 -0.02256471
12
MD Step 565 Units = [Angstroms / fs]
C  -0.00242676 -0.00254517 -0.00016139
C  0.00040007 -0.00217500 -0.00098699
C  0.00224080 0.00148610 -0.00025501
C  -0.00060329 0.00112723 -0.00327800
C  0.00594926 0.00030012 0.00087506
C  0.00490998 0.00153965 -0.00409509
H  -0.00710350 0.00583302 0.02042562
H  0.02183301 0.01877177 -0.03418197
H  0.00810842 0.01991463 -0.00811959
H  0.02639093 0.01630339 -0.00126134
H  -0.02160630 0.02336033 -0.00314033
H  0.02146657 -0.01081443 -0.02175057
12
MD Step 566 Units = [Angstroms / fs]
C  -0.00189006 -0.00226011 -0.00020887
C  0.00023543 -0.00132047 -0.00120673
C  0.00192638 0.00144667 -0.00008569
C  -0.00037295 0.00130626 -0.00299012
C  0.00551216 -0.00013109 0.00098866
C  0.00555487 0.00103150 -0.00416430
H  -0.00787217 0.01080119 0.01981102
H  0.02379195 0.01540627 -0.03277837
H  0.00461261 0.01797813 -0.00925438
H  0.02561235 0.01022496 -0.00343531
H  -0.01958422 0.02464722 -0.00417415
H  0.01662110 -0.00973843 -0.02098970
12
MD Step 567 Units = [Angstroms / fs]
C  -0.00128685 -0.00193562 -0.00024210
C  0.00010877 -0.00044571 -0.00144469
C  0.00159921 0.00140722 0.00007375
C  -0.00003861 0.00157092 -0.00267823
C  0.00491300 -0.00037243 0.00109632
C  0.00624024 0.00052208 -0.00422491
H  -0.00875423 0.01519926 0.01908058
H  0.02537634 0.01201426 -0.03121417
H  0.00085164 0.01580036 -0.01034663
H  0.02399991 0.00308624 -0.00573439
H  -0.01595590 0.02372340 -0.00528789
H  0.01087249 -0.00853208 -0.02026396
12
MD Step 568 Units = [Angstroms / fs]
C  -0.00061866 -0.00156087 -0.00026416
C  0.00003922 0.00041077 -0.00170345
C  0.00124564 0.00136667 0.00022070
C  0.00037651 0.00188359 -0.00234927
C  0.00417959 -0.00044743 0.00119463
C  0.00691373 0.00001961 -0.00428003
H  -0.00981947 0.01879133 0.01826708
H  0.02636368 0.00896069 -0.02943645
H  -0.00290095 0.01341987 -0.01137564
H  0.02176632 -0.00461319 -0.00808585
H  -0.01098916 0.02090088 -0.00644296
H  0.00481686 -0.00720094 -0.01953211
12
MD Step 569 Units = [Angstroms / fs]
C  0.00011092 -0.00112867 -0.00027830
C  0.00004204 0.00121678 -0.00198532
C  0.00085223 0.00132356 0.00035279
C  0.00084590 0.00220594 -0.00201016
C  0.00334702 -0.00038691 0.00128007
C  0.00752121 -0.00046885 -0.00433410
H  -0.01111941 0.02139477 0.01740439
H  0.02657535 0.00653064 -0.02739391
H  -0.00637198 0.01088058 -0.01232427
H  0.01914335 -0.01236673 -0.01041741
H  -0.00502167 0.01658305 -0.00759914
H  -0.00091868 -0.00574616 -0.01873677
12
MD Step 570 Units = [Angstroms / fs]
C  0.00089574 -0.00063702 -0.00028762
C  0.00012655 0.00194854 -0.00229143
C  0.00040711 0.00127632 0.00046801
C  0.00134035 0.00249974 -0.00166763
C  0.00245428 -0.00022508 0.00134940
C  0.00801394 -0.00093681 -0.00439189
H  -0.01267851 0.02289934 0.01652328
H  0.02589974 0.00490247 -0.02504903
H  -0.00930484 0.00822967 -0.01318011
H  0.01637709 -0.01967060 -0.01265996
H  0.00157709 0.01121751 -0.00871901
H  -0.00576394 -0.00417059 -0.01781578
12
MD Step 571 Units = [Angstroms / fs]
C  0.00172665 -0.00009055 -0.00029456
C  0.00029516 0.00259123 -0.00262097
C  -0.00009857 0.00122353 0.00056486
C  0.00182865 0.00272739 -0.00132798
C  0.00154208 0.00000258 0.00139988
C  0.00835453 -0.00137767 -0.00445757
H  -0.01448514 0.02328377 0.01564661
H  0.02430289 0.00414151 -0.02238670
H  -0.01147665 0.00551516 -0.01393626
H  0.01372455 -0.02603107 -0.01475001
H  0.00842796 0.00526986 -0.00977037
H  -0.00927887 -0.00248473 -0.01671457
12
MD Step 572 Units = [Angstroms / fs]
C  0.00259112 0.00049866 -0.00030056
C  0.00054342 0.00313812 -0.00297102
C  -0.00066914 0.00116432 0.00064238
C  0.00227869 0.00285296 -0.00099690
C  0.00065147 0.00026005 0.00142938
C  0.00852024 -0.00178441 -0.00453378
H  -0.01648418 0.02262561 0.01478474
H  0.02182702 0.00421016 -0.01941784
H  -0.01271676 0.00278316 -0.01459156
H  0.01144762 -0.03097684 -0.01663266
H  0.01515229 -0.00078679 -0.01072747
H  -0.01119655 -0.00071060 -0.01539616
12
MD Step 573 Units = [Angstroms / fs]
C  0.00347311 0.00111122 -0.00030572
C  0.00086091 0.00358899 -0.00333656
C  -0.00130288 0.00109870 0.00070017
C  0.00265919 0.00284405 -0.00067909
C  -0.00017708 0.00051088 0.00143644
C  0.00850364 -0.00214949 -0.00462130
H  -0.01857384 0.02109938 0.01393227
H  0.01858031 0.00498783 -0.01617852
H  -0.01292553 0.00007507 -0.01515021
H  0.00980033 -0.03408351 -0.01826572
H  0.02137598 -0.00647430 -0.01157181
H  -0.01143209 0.00111776 -0.01384648
12
MD Step 574 Units = [Angstroms / fs]
C  0.00435335 0.00172189 -0.00030878
C  0.00123245 0.00394839 -0.00371092
C  -0.00199069 0.00102791 0.00073836
C  0.00294227 0.00267515 -0.00037792
C  -0.00090458 0.00071825 0.00142037
C  0.00831087 -0.00246512 -0.00471895
H  -0.02060920 0.01896003 0.01306738
H  0.01472234 0.00629370 -0.01272602
H  -0.01209097 -0.00257484 -0.01562042
H  0.00900548 -0.03501422 -0.01962485
H  0.02673386 -0.01131229 -0.01229310
H  -0.01006401 0.00295664 -0.01207499
12
MD Step 575 Units = [Angstroms / fs]
C  0.00521031 0.00230217 -0.00030733
C  0.00163960 0.00422410 -0.00408616
C  -0.00271527 0.00095459 0.00075740
C  0.00310697 0.00233221 -0.00009492
C  -0.00149487 0.00084581 0.00138134
C  0.00795876 -0.00272371 -0.00482385
H  -0.02241388 0.01651216 0.01215459
H  0.01044894 0.00790793 -0.00913351
H  -0.01029927 -0.00514083 -0.01601227
H  0.00921957 -0.03357601 -0.02070851
H  0.03088057 -0.01482938 -0.01289036
H  -0.00730043 0.00475668 -0.01011164
12
MD Step 576 Units = [Angstroms / fs]
C  0.00602162 0.00282372 -0.00029833
C  0.00206189 0.00442592 -0.00445365
C  -0.00345123 0.00088284 0.00075790
C  0.00314312 0.00181785 0.00017034
C  -0.00191674 0.00085981 0.00132042
C  0.00747171 -0.00291835 -0.00493184
H  -0.02379902 0.01406984 0.01115077
H  0.00597843 0.00958906 -0.00548432
H  -0.00773494 -0.00760541 -0.01633489
H  0.01048988 -0.02978184 -0.02154038
H  0.03351298 -0.01659125 -0.01337312
H  -0.00344167 0.00646716 -0.00800214
12
MD Step 577 Units = [Angstroms / fs]
C  0.00676582 0.00326181 -0.00027878
C  0.00247804 0.00456480 -0.00480447
C  -0.00416633 0.00081794 0.00074029
C  0.00305475 0.00115544 0.00042013
C  -0.00214704 0.00073315 0.00123968
C  0.00687897 -0.00304321 -0.00503787
H  -0.02458627 0.01191522 0.01001316
H  0.00153953 0.01108818 -0.00186654
H  -0.00466718 -0.00995723 -0.01659360
H  0.01271488 -0.02389895 -0.02216648
H  0.03440653 -0.01625103 -0.01376155
H  0.00115281 0.00803982 -0.00580283
12
MD Step 578 Units = [Angstroms / fs]
C  0.00742413 0.00359821 -0.00024641
C  0.00286709 0.00465214 -0.00512988
C  -0.00482388 0.00076576 0.00070470
C  0.00286158 0.00039007 0.00065775
C  -0.00217458 0.00045129 0.00114190
C  0.00621258 -0.00309385 -0.00513643
H  -0.02463027 0.01026441 0.00870750
H  -0.00263976 0.01216139 0.00163234
H  -0.00142216 -0.01218734 -0.01678765
H  0.01562558 -0.01645787 -0.02264531
H  0.03346249 -0.01362132 -0.01408448
H  0.00609032 0.00943167 -0.00357620
12
MD Step 579 Units = [Angstroms / fs]
C  0.00798184 0.00382281 -0.00020023
C  0.00320943 0.00469909 -0.00542181
C  -0.00538610 0.00073200 0.00065074
C  0.00259712 -0.00041534 0.00088631
C  -0.00200388 0.00001879 0.00103018
C  0.00550594 -0.00306747 -0.00522181
H  -0.02383608 0.00924675 0.00721440
H  -0.00634389 0.01258277 0.00493091
H  0.00165536 -0.01428492 -0.01690932
H  0.01880403 -0.00820312 -0.02303234
H  0.03075456 -0.00875450 -0.01437392
H  0.01096423 0.01060704 -0.00138711
12
MD Step 580 Units = [Angstroms / fs]
C  0.00842906 0.00393412 -0.00014081
C  0.00348807 0.00471556 -0.00567335
C  -0.00581774 0.00072132 0.00057757
C  0.00230327 -0.00118869 0.00110741
C  -0.00165720 -0.00053556 0.00090720
C  0.00479270 -0.00296300 -0.00528843
H  -0.02216871 0.00889925 0.00553275
H  -0.00938343 0.01215998 0.00795975
H  0.00424424 -0.01623360 -0.01694472
H  0.02174400 0.00001383 -0.02336374
H  0.02655571 -0.00200369 -0.01465597
H  0.01536989 0.01153899 0.00070057
12
MD Step 581 Units = [Angstroms / fs]
C  0.00876097 0.00393848 -0.00007037
C  0.00368996 0.00470903 -0.00587922
C  -0.00608943 0.00073656 0.00048401
C  0.00202256 -0.00185997 0.00132026
C  -0.00117343 -0.00115818 0.00077434
C  0.00410566 -0.00278125 -0.00533109
H  -0.01965453 0.00917366 0.00368007
H  -0.01161114 0.01075338 0.01066766
H  0.00608484 -0.01800965 -0.01687619
H  0.02394034 0.00737269 -0.02364601
H  0.02132495 0.00597087 -0.01494042
H  0.01892102 0.01221037 0.00262730
12
MD Step 582 Units = [Angstroms / fs]
C  0.00897747 0.00384879 0.00000746
C  0.00380747 0.00468306 -0.00603629
C  -0.00618022 0.00077822 0.00036883
C  0.00179045 -0.00237185 0.00152170
C  -0.00060284 -0.00177670 0.00063106
C  0.00347531 -0.00252493 -0.00534531
H  -0.01637598 0.00995192 0.00169028
H  -0.01293937 0.00829795 0.01302747
H  0.00700584 -0.01958242 -0.01668556
H  0.02497916 0.01321188 -0.02385538
H  0.01564511 0.01427489 -0.01521306
H  0.02127054 0.01261445 0.00434163
12
MD Step 583 Units = [Angstroms / fs]
C  0.00908256 0.00368282 0.00008785
C  0.00383966 0.00463571 -0.00614385
C  -0.00607886 0.00084434 0.00023099
C  0.00163012 -0.00268644 0.00170686
C  0.00000108 -0.00231196 0.00047492
C  0.00292770 -0.00219873 -0.00532761
H  -0.01246228 0.01106469 -0.00038998
H  -0.01335595 0.00482468 0.01503997
H  0.00693671 -0.02091676 -0.01635757
H  0.02460051 0.01710897 -0.02394672
H  0.01012403 0.02192582 -0.01543512
H  0.02213804 0.01275500 0.00580449
12
MD Step 584 Units = [Angstroms / fs]
C  0.00908365 0.00346167 0.00016516
C  0.00379307 0.00455850 -0.00620370
C  -0.00578414 0.00093061 0.00006988
C  0.00155092 -0.00278726 0.00187027
C  0.00059025 -0.00269257 0.00030220
C  0.00248182 -0.00180911 -0.00527589
H  -0.00807842 0.01230985 -0.00250562
H  -0.01293371 0.00047576 0.01673416
H  0.00590632 -0.02197668 -0.01588271
H  0.02271953 0.01890043 -0.02386717
H  0.00528987 0.02802927 -0.01555122
H  0.02134399 0.01264533 0.00699384
12
MD Step 585 Units = [Angstroms / fs]
C  0.00899076 0.00320828 0.00023333
C  0.00368155 0.00443625 -0.00621971
C  -0.00530419 0.00103091 -0.00011445
C  0.00154995 -0.00267714 0.00200697
C  0.00112823 -0.00286721 0.00010903
C  0.00214662 -0.00136406 -0.00518974
H  -0.00341402 0.01346882 -0.00459730
H  -0.01182875 -0.00449350 0.01816257
H  0.00403120 -0.02272914 -0.01525901
H  0.01941008 0.01865098 -0.02356903
H  0.00151491 0.03192705 -0.01550293
H  0.01884620 0.01230613 0.00790848
12
MD Step 586 Units = [Angstroms / fs]
C  0.00881579 0.00294626 0.00028616
C  0.00352488 0.00424846 -0.00619708
C  -0.00465538 0.00113793 -0.00032122
C  0.00161545 -0.00237392 0.00211315
C  0.00159266 -0.00281090 -0.00010752
C  0.00191850 -0.00087257 -0.00507052
H  0.00132744 0.01432078 -0.00660543
H  -0.01026431 -0.00973154 0.01939135
H  0.00149795 -0.02314744 -0.01449282
H  0.01486655 0.01659682 -0.02301858
H  -0.00101366 0.03327363 -0.01524244
H  0.01476974 0.01176199 0.00856979
12
MD Step 587 Units = [Angstroms / fs]
C  0.00857180 0.00269880 0.00031773
C  0.00334632 0.00397210 -0.00614119
C  -0.00386086 0.00124385 -0.00054886
C  0.00173049 -0.00190605 0.00218655
C  0.00197407 -0.00252471 -0.00034870
C  0.00178025 -0.00034406 -0.00492125
H  0.00593943 0.01465568 -0.00847386
H  -0.00850114 -0.01482724 0.02048705
H  -0.00145630 -0.02321358 -0.01359861
H  0.00936131 0.01308576 -0.02220014
H  -0.00227875 0.03203305 -0.01474152
H  0.00941855 0.01103729 0.00902004
12
MD Step 588 Units = [Angstroms / fs]
C  0.00827211 0.00248748 0.00032268
C  0.00316948 0.00358562 -0.00605661
C  -0.00294909 0.00134102 -0.00079503
C  0.00187584 -0.00130886 0.00222646
C  0.00227267 -0.00203086 -0.00061390
C  0.00170225 0.00021211 -0.00474610
H  0.01022401 0.01428734 -0.01015352
H  -0.00680001 -0.01936096 0.02150348
H  -0.00456283 -0.02291983 -0.01259816
H  0.00320927 0.00852903 -0.02111660
H  -0.00239234 0.02842000 -0.01399439
H  0.00325798 0.01015267 0.00931627
12
MD Step 589 Units = [Angstroms / fs]
C  0.00792935 0.00233112 0.00029658
C  0.00301530 0.00307309 -0.00594627
C  -0.00195229 0.00142251 -0.00105674
C  0.00203191 -0.00062218 0.00223364
C  0.00249471 -0.00136597 -0.00090087
C  0.00164632 0.00078696 -0.00454961
H  0.01400510 0.01306798 -0.01160595
H  -0.00538523 -0.02295919 0.02247218
H  -0.00753893 -0.02226927 -0.01151920
H  -0.00325600 0.00336936 -0.01978819
H  -0.00154878 0.02282007 -0.01301559
H  -0.00313561 0.00912335 0.00952091
12
MD Step 590 Units = [Angstroms / fs]
C  0.00755429 0.00224436 0.00023629
C  0.00289972 0.00242759 -0.00581115
C  -0.00090490 0.00148255 -0.00133042
C  0.00217964 0.00011115 0.00221020
C  0.00264964 -0.00057496 -0.00120600
C  0.00157172 0.00137184 -0.00433593
H  0.01714338 0.01090435 -0.01280673
H  -0.00441738 -0.02534028 0.02339890
H  -0.01010442 -0.02127576 -0.01039374
H  -0.00969577 -0.00193662 -0.01825091
H  0.00001389 0.01571713 -0.01183571
H  -0.00915089 0.00796005 0.00969107
12
MD Step 591 Units = [Angstroms / fs]
C  0.00715462 0.00223623 0.00014014
C  0.00283262 0.00165304 -0.00565056
C  0.00015805 0.00151673 -0.00161213
C  0.00230093 0.00084614 0.00215945
C  0.00274835 0.00029344 -0.00152477
C  0.00144165 0.00195815 -0.00410804
H  0.01955162 0.00777465 -0.01374826
H  -0.00398014 -0.02634236 0.02426621
H  -0.01199832 -0.01996307 -0.00925590
H  -0.01577336 -0.00692744 -0.01655505
H  0.00203940 0.00764178 -0.01049697
H  -0.01422624 0.00667216 0.00986957
12
MD Step 592 Units = [Angstroms / fs]
C  0.00673398 0.00230878 0.00000815
C  0.00281776 0.00076427 -0.00546260
C  0.00120291 0.00152212 -0.00189778
C  0.00237880 0.00153654 0.00208581
C  0.00280243 0.00118931 -0.00185195
C  0.00122896 0.00253689 -0.00386749
H  0.02120788 0.00374343 -0.01444123
H  -0.00408119 -0.02593054 0.02504034
H  -0.01299660 -0.01836335 -0.00813937
H  -0.02115997 -0.01114410 -0.01476373
H  0.00426629 -0.00085810 -0.00904995
H  -0.01792231 0.00527187 0.01008002
12
MD Step 593 Units = [Angstroms / fs]
C  0.00629135 0.00245623 -0.00015804
C  0.00285359 -0.00021428 -0.00524487
C  0.00219938 0.00149714 -0.00218343
C  0.00239791 0.00213628 0.00199464
C  0.00282418 0.00206292 -0.00218175
C  0.00091942 0.00309841 -0.00361440
H  0.02216254 -0.00102970 -0.01491391
H  -0.00466324 -0.02418675 0.02567988
H  -0.01293151 -0.01651471 -0.00707431
H  -0.02554449 -0.01414305 -0.01295065
H  0.00643264 -0.00923042 -0.00755145
H  -0.01996680 0.00377740 0.01032662
12
MD Step 594 Units = [Angstroms / fs]
C  0.00582138 0.00266493 -0.00035542
C  0.00293442 -0.00125086 -0.00499513
C  0.00312277 0.00144143 -0.00246559
C  0.00234573 0.00260201 0.00189186
C  0.00282685 0.00286533 -0.00250799
C  0.00051240 0.00363222 -0.00334781
H  0.02253537 -0.00629230 -0.01520880
H  -0.00562008 -0.02128887 0.02614379
H  -0.01171133 -0.01445801 -0.00608407
H  -0.02865145 -0.01552153 -0.01119551
H  0.00827701 -0.01692427 -0.00606319
H  -0.02026650 0.00221445 0.01059774
12
MD Step 595 Units = [Angstroms / fs]
C  0.00531566 0.00291447 -0.00058010
C  0.00305161 -0.00230884 -0.00471177
C  0.00395598 0.00135546 -0.00274151
C  0.00221447 0.00289702 0.00178333
C  0.00282483 0.00354926 -0.00282415
C  0.00001929 0.00412723 -0.00306624
H  0.02250049 -0.01171560 -0.01537671
H  -0.00681303 -0.01748603 0.02639767
H  -0.00933808 -0.01223300 -0.00518190
H  -0.03026962 -0.01495990 -0.00957602
H  0.00954038 -0.02339728 -0.00465033
H  -0.01889196 0.00061549 0.01087147
12
MD Step 596 Units = [Angstroms / fs]
C  0.00476487 0.00317986 -0.00082792
C  0.00319450 -0.00334911 -0.00439413
C  0.00469097 0.00124030 -0.00300949
C  0.00200377 0.00299655 0.00167387
C  0.00283338 0.00407067 -0.00312368
C  -0.00053923 0.00457220 -0.00276819
H  0.02226035 -0.01692546 -0.01546919
H  -0.00808522 -0.01307522 0.02641783
H  -0.00591891 -0.00987466 -0.00436862
H  -0.03028921 -0.01228039 -0.00815559
H  0.00997395 -0.02813391 -0.00337858
H  -0.01604607 -0.00098244 0.01112137
12
MD Step 597 Units = [Angstroms / fs]
C  0.00416144 0.00343472 -0.00109503
C  0.00335116 -0.00433199 -0.00404269
C  0.00532930 0.00109731 -0.00326892
C  0.00172330 0.00289362 0.00156601
C  0.00286748 0.00439190 -0.00340038
C  -0.00113637 0.00495629 -0.00245251
H  0.02201369 -0.02154368 -0.01553111
H  -0.00927277 -0.00838101 0.02619353
H  -0.00166654 -0.00741045 -0.00363169
H  -0.02873993 -0.00751252 -0.00696803
H  0.00935682 -0.03068282 -0.00230911
H  -0.01202775 -0.00254051 0.01132109
12
MD Step 598 Units = [Angstroms / fs]
C  0.00350200 0.00365447 -0.00137839
C  0.00350894 -0.00521889 -0.00365912
C  0.00588133 0.00092799 -0.00352023
C  0.00139443 0.00260362 0.00145881
C  0.00293963 0.00448655 -0.00364918
C  -0.00174193 0.00526981 -0.00211878
H  0.02192491 -0.02523174 -0.01559487
H  -0.01021365 -0.00373852 0.02572782
H  0.00311479 -0.00485950 -0.00294665
H  -0.02581547 -0.00094434 -0.00600328
H  0.00752662 -0.03071684 -0.00149024
H  -0.00719888 -0.00402086 0.01144769
12
MD Step 599 Units = [Angstroms / fs]
C  0.00278910 0.00381930 -0.00167592
C  0.00365496 -0.00597372 -0.00324629
C  0.00636416 0.00073402 -0.00376461
C  0.00104940 0.00216554 0.00134727
C  0.00305646 0.00434566 -0.00386695
C  -0.00232441 0.00550486 -0.00176737
H  0.02210147 -0.02772823 -0.01567769
H  -0.01075537 0.00052247 0.02503730
H  0.00805843 -0.00223432 -0.00228076
H  -0.02186868 0.00686725 -0.00520020
H  0.00442146 -0.02811026 -0.00094690
H  -0.00195769 -0.00538880 0.01148350
12
MD Step 600 Units = [Angstroms / fs]
C  0.00203188 0.00391594 -0.00198652
C  0.00377676 -0.00656427 -0.00280818
C  0.00679850 0.00051743 -0.00400351
C  0.00072754 0.00163784 0.00122281
C  0.00321506 0.00398369 -0.00405344
C  -0.00285250 0.00565592 -0.00139956
H  0.02258368 -0.02887326 -0.01578189
H  -0.01076310 0.00409458 0.02415096
H  0.01277573 0.00045530 -0.00159853
H  -0.01736856 0.01514807 -0.00445239
H  0.00012456 -0.02301429 -0.00067023
H  0.00328178 -0.00661461 0.01141715
12
MD Step 601 Units = [Angstroms / fs]
C  0.00124555 0.00393836 -0.00230977
C  0.00386307 -0.00696388 -0.00234972
C  0.00720503 0.00028073 -0.00423817
C  0.00046903 0.00108932 0.00107485
C  0.00340004 0.00344169 -0.00421172
C  -0.00329625 0.00572030 -0.00101747
H  0.02334651 -0.02861712 -0.01589769
H  -0.01012931 0.00671316 0.02310774
H  0.01690079 0.00319719 -0.00086777
H  -0.01282489 0.02301920 -0.00362819
H  -0.00510484 -0.01589913 -0.00061176
H  0.00810689 -0.00767477 0.01124392
12
MD Step 602 Units = [Angstroms / fs]
C  0.00045013 0.00388744 -0.00264563
C  0.00390497 -0.00715329 -0.00187648
C  0.00760116 0.00002721 -0.00446912
C  0.00030797 0.00058696 0.00089321
C  0.00358336 0.00278491 -0.00434791
C  -0.00362815 0.00569831 -0.00062398
H  0.02431065 -0.02701494 -0.01600724
H  -0.00878526 0.00818065 0.02195267
H  0.02013074 0.00597212 -0.00006494
H  -0.00870220 0.02964253 -0.00259955
H  -0.01083445 -0.00752970 -0.00068696
H  0.01212419 -0.00855294 0.01096565
12
MD Step 603 Units = [Angstroms / fs]
C  -0.00033129 0.00376992 -0.00299409
C  0.00389706 -0.00712274 -0.00139424
C  0.00799851 -0.00023899 -0.00469588
C  0.00026703 0.00018478 0.00067039
C  0.00372775 0.00209392 -0.00446999
C  -0.00382463 0.00559321 -0.00022264
H  0.02535803 -0.02421167 -0.01608884
H  -0.00671358 0.00839313 0.02073135
H  0.02225468 0.00875081 0.00082140
H  -0.00534976 0.03435418 -0.00126971
H  -0.01650797 0.00113861 -0.00078959
H  0.01498137 -0.00924052 0.01059042
12
MD Step 604 Units = [Angstroms / fs]
C  -0.00107438 0.00359714 -0.00335485
C  0.00383871 -0.00687377 -0.00090844
C  0.00840166 -0.00051286 -0.00491685
C  0.00035515 -0.00008327 0.00040292
C  0.00379361 0.00145088 -0.00458595
C  -0.00386801 0.00541085 0.00018249
H  0.02634803 -0.02042255 -0.01612048
H  -0.00395961 0.00736454 0.01948309
H  0.02316752 0.01149348 0.00178948
H  -0.00296646 0.03674750 0.00040950
H  -0.02153403 0.00912324 -0.00081366
H  0.01639569 -0.00973657 0.01013171
12
MD Step 605 Units = [Angstroms / fs]
C  -0.00175518 0.00338379 -0.00372715
C  0.00373487 -0.00642035 -0.00042363
C  0.00880794 -0.00078868 -0.00512941
C  0.00056814 -0.00020509 0.00009163
C  0.00374703 0.00092538 -0.00470200
C  -0.00374910 0.00515907 0.00058707
H  0.02713173 -0.01591309 -0.01608252
H  -0.00063794 0.00524108 0.01823392
H  0.02286953 0.01415166 0.00282538
H  -0.00160290 0.03669115 0.00243463
H  -0.02538898 0.01558536 -0.00067526
H  0.01618834 -0.01004675 0.00960698
12
MD Step 606 Units = [Angstroms / fs]
C  -0.00235144 0.00314686 -0.00410967
C  0.00359618 -0.00578852 0.00005698
C  0.00920822 -0.00106017 -0.00533011
C  0.00089147 -0.00018776 -0.00025905
C  0.00356648 0.00056427 -0.00482140
C  -0.00346984 0.00484689 0.00098669
H  0.02756323 -0.01098083 -0.01595936
H  0.00306964 0.00229814 0.01699119
H  0.02145492 0.01667165 0.00390557
H  -0.00118943 0.03429414 0.00475897
H  -0.02769970 0.01995302 -0.00032664
H  0.01431997 -0.01018101 0.00903570
12
MD Step 607 Units = [Angstroms / fs]
C  -0.00284371 0.00290480 -0.00450046
C  0.00343812 -0.00501418 0.00053174
C  0.00958818 -0.00132078 -0.00551500
C  0.00130359 -0.00005266 -0.00064229
C  0.00324593 0.00038814 -0.00494423
C  -0.00304540 0.00448372 0.00137711
H  0.02750839 -0.00593920 -0.01574038
H  0.00692747 -0.00108530 0.01574184
H  0.01909434 0.01899865 0.00500015
H  -0.00157406 0.02984402 0.00730671
H  -0.02828330 0.02196634 0.00024099
H  0.01091869 -0.01014995 0.00843677
12
MD Step 608 Units = [Angstroms / fs]
C  -0.00321606 0.00267661 -0.00489701
C  0.00327919 -0.00413928 0.00100026
C  0.00992981 -0.00156393 -0.00567991
C  0.00177890 0.00016967 -0.00105000
C  0.00279438 0.00039381 -0.00506794
C  -0.00250480 0.00407854 0.00175454
H  0.02685160 -0.00110254 -0.01542028
H  0.01067007 -0.00447342 0.01445548
H  0.01601509 0.02108068 0.00607616
H  -0.00255754 0.02374267 0.00998710
H  -0.02714123 0.02165035 0.00100397
H  0.00628850 -0.00996080 0.00782599
12
MD Step 609 Units = [Angstroms / fs]
C  -0.00345668 0.00248090 -0.00529628
C  0.00313840 -0.00320684 0.00146290
C  0.01021298 -0.00178329 -0.00582079
C  0.00228990 0.00044375 -0.00147372
C  0.00223271 0.00056031 -0.00518831
C  -0.00188909 0.00363939 0.00211579
H  0.02550180 0.00322932 -0.01499914
H  0.01403321 -0.00743290 0.01309199
H  0.01248198 0.02287200 0.00710058
H  -0.00391903 0.01645527 0.01270564
H  -0.02442248 0.01924547 0.00191741
H  0.00088869 -0.00961418 0.00721426
12
MD Step 610 Units = [Angstroms / fs]
C  -0.00355824 0.00233463 -0.00569478
C  0.00303270 -0.00225617 0.00191997
C  0.01041680 -0.00197303 -0.00593390
C  0.00280850 0.00073187 -0.00190524
C  0.00158973 0.00085546 -0.00530036
C  -0.00124705 0.00317314 0.00245827
H  0.02339829 0.00678877 -0.01448213
H  0.01678532 -0.00959128 0.01161159
H  0.00877947 0.02433566 0.00804280
H  -0.00543169 0.00847702 0.01537149
H  -0.02037621 0.01512924 0.00292624
H  -0.00471858 -0.00910324 0.00660700
12
MD Step 611 Units = [Angstroms / fs]
C  -0.00351814 0.00225146 -0.00608873
C  0.00297478 -0.00131919 0.00237100
C  0.01052112 -0.00212805 -0.00601609
C  0.00330677 0.00099564 -0.00233692
C  0.00089852 0.00124143 -0.00539906
C  -0.00062897 0.00268568 0.00277995
H  0.02051660 0.00936105 -0.01387899
H  0.01875269 -0.01068154 0.00998451
H  0.00519507 0.02544534 0.00887669
H  -0.00687047 0.00031508 0.01790191
H  -0.01530955 0.00975165 0.00397362
H  -0.00994425 -0.00841599 0.00600516
12
MD Step 612 Units = [Angstroms / fs]
C  -0.00333868 0.00223982 -0.00647411
C  0.00297173 -0.00041849 0.00281428
C  0.01050783 -0.00224423 -0.00606492
C  0.00375743 0.00119687 -0.00276187
C  0.00019381 0.00167820 -0.00547979
C  -0.00008005 0.00218241 0.00307915
H  0.01687425 0.01080728 -0.01320328
H  0.01983390 -0.01056483 0.00819773
H  0.00200264 0.02618634 0.00958219
H  -0.00801580 -0.00752073 0.02022516
H  -0.00955798 0.00359279 0.00500604
H  -0.01425447 -0.00754027 0.00540741
12
MD Step 613 Units = [Angstroms / fs]
C  -0.00302703 0.00230098 -0.00684684
C  0.00302465 0.00043273 0.00324664
C  0.01036237 -0.00231852 -0.00607884
C  0.00413438 0.00129824 -0.00317415
C  -0.00048960 0.00212544 -0.00553850
C  0.00036514 0.00166880 0.00335429
H  0.01253531 0.01108674 -0.01247137
H  0.02000263 -0.00923117 0.00625771
H  -0.00055504 0.02655583 0.01014651
H  -0.00865672 -0.01452589 0.02228317
H  -0.00346866 -0.00285908 0.00597584
H  -0.01723897 -0.00646981 0.00481257
12
MD Step 614 Units = [Angstroms / fs]
C  -0.00259507 0.00242757 -0.00720290
C  0.00312897 0.00122949 0.00366363
C  0.01007528 -0.00234901 -0.00605723
C  0.00441351 0.00126459 -0.00356904
C  -0.00111768 0.00254320 -0.00557190
C  0.00068573 0.00115097 0.00360377
H  0.00761251 0.01027334 -0.01170120
H  0.01930113 -0.00678352 0.00418938
H  -0.00228512 0.02656192 0.01056473
H  -0.00859696 -0.02021599 0.02403480
H  0.00260691 -0.00911567 0.00684227
H  -0.01865147 -0.00520911 0.00422165
12
MD Step 615 Units = [Angstroms / fs]
C  -0.00205894 0.00260304 -0.00753845
C  0.00327541 0.00197309 0.00405982
C  0.00964369 -0.00233473 -0.00600045
C  0.00457400 0.00106522 -0.00394333
C  -0.00165756 0.00289206 -0.00557741
C  0.00087513 0.00063585 0.00382584
H  0.00226519 0.00855993 -0.01091107
H  0.01782816 -0.00341312 0.00203255
H  -0.00306380 0.02622164 0.01083983
H  -0.00766697 -0.02415527 0.02545974
H  0.00831617 -0.01469123 0.00757207
H  -0.01841843 -0.00377586 0.00363877
12
MD Step 616 Units = [Angstroms / fs]
C  -0.00143838 0.00280267 -0.00784995
C  0.00345099 0.00266920 0.00442924
C  0.00907273 -0.00227537 -0.00590977
C  0.00460018 0.00067771 -0.00429562
C  -0.00207801 0.00313355 -0.00555331
C  0.00093943 0.00013128 0.00401865
H  -0.00330786 0.00624499 -0.01011852
H  0.01572517 0.00062653 -0.00016269
H  -0.00285324 0.02555766 0.01098173
H  -0.00574356 -0.02600328 0.02656221
H  0.01331056 -0.01910788 0.00814039
H  -0.01662208 -0.00220061 0.00307114
12
MD Step 617 Units = [Angstroms / fs]
C  -0.00075559 0.00299614 -0.00813422
C  0.00364021 0.00332615 0.00476573
C  0.00837626 -0.00217082 -0.00578719
C  0.00448389 0.00009307 -0.00462655
C  -0.00235042 0.00323149 -0.00549875
C  0.00089467 -0.00035431 0.00418034
H  -0.00888106 0.00370041 -0.00933958
H  0.01316329 0.00504302 -0.00234059
H  -0.00171251 0.02459409 0.01100543
H  -0.00277654 -0.02557764 0.02737207
H  0.01725817 -0.02191206 0.00853227
H  -0.01346890 -0.00052418 0.00252825
12
MD Step 618 Units = [Angstroms / fs]
C  -0.00003403 0.00315135 -0.00838846
C  0.00382605 0.00395362 0.00506334
C  0.00757683 -0.00202068 -0.00563521
C  0.00422691 -0.00067877 -0.00493843
C  -0.00245074 0.00315464 -0.00541396
C  0.00076389 -0.00081212 0.00430908
H  -0.01421910 0.00132414 -0.00858843
H  0.01033217 0.00952391 -0.00444393
H  0.00020179 0.02335231 0.01092830
H  0.00118233 -0.02292077 0.02794083
H  0.01986892 -0.02270886 0.00874463
H  -0.00925437 0.00120581 0.00202087
12
MD Step 619 Units = [Angstroms / fs]
C  0.00070303 0.00323876 -0.00861028
C  0.00399090 0.00456172 0.00531656
C  0.00670448 -0.00182399 -0.00545656
C  0.00384272 -0.00160509 -0.00523450
C  -0.00236257 0.00288129 -0.00530029
C  0.00057454 -0.00123341 0.00440327
H  -0.01909604 -0.00051287 -0.00787736
H  0.00743051 0.01375220 -0.00641755
H  0.00264825 0.02184774 0.01076699
H  0.00595736 -0.01834717 0.02833021
H  0.02093418 -0.02121807 0.00878798
H  -0.00433111 0.00293861 0.00155995
12
MD Step 620 Units = [Angstroms / fs]
C  0.00143380 0.00323527 -0.00879764
C  0.00411752 0.00516008 0.00552065
C  0.00579440 -0.00157910 -0.00525384
C  0.00335657 -0.00263024 -0.00551745
C  -0.00208118 0.00240507 -0.00516022
C  0.00035646 -0.00160973 0.00446157
H  -0.02331350 -0.00151417 -0.00721689
H  0.00465704 0.01742049 -0.00821152
H  0.00532693 0.02008888 0.01053464
H  0.01124608 -0.01244335 0.02859448
H  0.02037676 -0.01734687 0.00868664
H  0.00091639 0.00462352 0.00115575
12
MD Step 621 Units = [Angstroms / fs]
C  0.00213904 0.00312686 -0.00894886
C  0.00418994 0.00575697 0.00567185
C  0.00488380 -0.00128405 -0.00502941
C  0.00280325 -0.00368110 -0.00578797
C  -0.00161740 0.00174084 -0.00499711
C  0.00014042 -0.00193321 0.00448302
H  -0.02671525 -0.00149042 -0.00661596
H  0.00220057 0.02024638 -0.00978417
H  0.00791584 0.01807900 0.01023914
H  0.01664442 -0.00600193 0.02876145
H  0.01829802 -0.01126210 0.00847579
H  0.00609141 0.00621254 0.00081722
12
MD Step 622 Units = [Angstroms / fs]
C  0.00280274 0.00290966 -0.00906264
C  0.00419458 0.00635813 0.00576762
C  0.00400843 -0.00093720 -0.00478523
C  0.00222255 -0.00467739 -0.00604376
C  -0.00099959 0.00092812 -0.00481465
C  -0.00004299 -0.00219686 0.00446706
H  -0.02919624 -0.00037270 -0.00608184
H  0.00022790 0.02199120 -0.01110500
H  0.01011082 0.01582014 0.00988265
H  0.02169997 0.00010402 0.02881997
H  0.01500129 -0.00343222 0.00819501
H  0.01080156 0.00766256 0.00055142
12
MD Step 623 Units = [Angstroms / fs]
C  0.00341246 0.00258951 -0.00913801
C  0.00412150 0.00696524 0.00580687
C  0.00319950 -0.00053809 -0.00452291
C  0.00165352 -0.00554417 -0.00627950
C  -0.00027220 0.00002938 -0.00461617
C  -0.00016462 -0.00239484 0.00441361
H  -0.03070589 0.00179213 -0.00562003
H  -0.00113097 0.02248257 -0.01215724
H  0.01166140 0.01331841 0.00946272
H  0.02598082 0.00507221 0.02872006
H  0.01097098 0.00539239 0.00787918
H  0.01467604 0.00893735 0.00036315
12
MD Step 624 Units = [Angstroms / fs]
C  0.00395930 0.00218044 -0.00917442
C  0.00396576 0.00757427 0.00579001
C  0.00248135 -0.00008824 -0.00424384
C  0.00112915 -0.00622268 -0.00648790
C  0.00051002 -0.00087778 -0.00440402
C  -0.00019833 -0.00252286 0.00432306
H  -0.03124633 0.00485866 -0.00523410
H  -0.00179910 0.02163928 -0.01293950
H  0.01239633 0.01058885 0.00897427
H  0.02913980 0.00830037 0.02838600
H  0.00680074 0.01427565 0.00755006
H  0.01738705 0.01000933 0.00025468
12
MD Step 625 Units = [Angstroms / fs]
C  0.00443769 0.00170277 -0.00917168
C  0.00372864 0.00817387 0.00571901
C  0.00187028 0.00040827 -0.00394936
C  0.00067306 -0.00667629 -0.00666140
C  0.00129069 -0.00171343 -0.00417923
C  -0.00012311 -0.00257846 0.00419628
H  -0.03086720 0.00860642 -0.00492548
H  -0.00176768 0.01949382 -0.01346571
H  0.01223582 0.00765873 0.00841197
H  0.03095630 0.00945739 0.02773675
H  0.00308690 0.02225064 0.00721222
H  0.01867703 0.01086118 0.00022560
12
MD Step 626 Units = [Angstroms / fs]
C  0.00484510 0.00118097 -0.00913001
C  0.00341831 0.00874455 0.00559709
C  0.00137429 0.00094450 -0.00364093
C  0.00029852 -0.00689113 -0.00679365
C  0.00202056 -0.00240889 -0.00394175
C  0.00007430 -0.00256126 0.00403456
H  -0.02965880 0.01276410 -0.00469337
H  -0.00110533 0.01620580 -0.01376275
H  0.01119113 0.00456857 0.00777243
H  0.03134795 0.00848727 0.02670537
H  0.00032178 0.02848578 0.00685482
H  0.01839128 0.01148669 0.00027290
12
MD Step 627 Units = [Angstroms / fs]
C  0.00518172 0.00064194 -0.00905004
C  0.00304970 0.00925905 0.00542837
C  0.00099370 0.00151074 -0.00332021
C  0.00000968 -0.00687255 -0.00688059
C  0.00266361 -0.00291688 -0.00369099
C  0.00039666 -0.00247302 0.00383955
H  -0.02774472 0.01703153 -0.00453475
H  0.00004313 0.01205880 -0.01386560
H  0.00935461 0.00137105 0.00705572
H  0.03035677 0.00556309 0.02525195
H  -0.00117858 0.03240864 0.00645825
H  0.01651095 0.01189047 0.00039139
12
MD Step 628 Units = [Angstroms / fs]
C  0.00545019 0.00011334 -0.00893280
C  0.00264320 0.00968445 0.00521722
C  0.00072217 0.00209484 -0.00298919
C  -0.00019627 -0.00663983 -0.00692076
C  0.00319898 -0.00321551 -0.00342649
C  0.00083412 -0.00231738 0.00361320
H  -0.02527459 0.02109824 -0.00444439
H  0.00147144 0.00743601 -0.01381082
H  0.00688431 -0.00187173 0.00626616
H  0.02812105 0.00101909 0.02336819
H  -0.00129549 0.03375614 0.00600212
H  0.01317794 0.01208611 0.00057432
12
MD Step 629 Units = [Angstroms / fs]
C  0.00565525 -0.00037762 -0.00877971
C  0.00222230 0.00998578 0.00496779
C  0.00054791 0.00268280 -0.00265012
C  -0.00032678 -0.00622111 -0.00691522
C  0.00361932 -0.00330648 -0.00314834
C  0.00136355 -0.00209946 0.00335757
H  -0.02241687 0.02465959 -0.00441511
H  0.00293939 0.00277571 -0.01363006
H  0.00398651 -0.00509174 0.00541243
H  0.02484491 -0.00471458 0.02107595
H  -0.00008404 0.03255353 0.00547146
H  0.00870072 0.01209262 0.00081422
12
MD Step 630 Units = [Angstroms / fs]
C  0.00580337 -0.00080551 -0.00859256
C  0.00181069 0.01013065 0.00468349
C  0.00045502 0.00325937 -0.00230553
C  -0.00039212 -0.00564964 -0.00686712
C  0.00392729 -0.00320960 -0.00285747
C  0.00195020 -0.00182528 0.00307485
H  -0.01935086 0.02743169 -0.00443800
H  0.00420783 -0.00148551 -0.01334532
H  0.00089838 -0.00821889 0.00450718
H  0.02077331 -0.01116105 0.01842279
H  0.00227446 0.02904973 0.00485985
H  0.00353239 0.01193006 0.00110367
12
MD Step 631 Units = [Angstroms / fs]
C  0.00590213 -0.00114784 -0.00837346
C  0.00142934 0.01009369 0.00436692
C  0.00042471 0.00380880 -0.00195813
C  -0.00040428 -0.00496152 -0.00678137
C  0.00413180 -0.00295647 -0.00255555
C  0.00255173 -0.00150131 0.00276721
H  -0.01625713 0.02916691 -0.00450304
H  0.00507287 -0.00496907 -0.01296728
H  -0.00212852 -0.01118477 0.00356620
H  0.01617527 -0.01782739 0.01547712
H  0.00552270 0.02364108 0.00416966
H  -0.00178094 0.01161542 0.00143561
12
MD Step 632 Units = [Angstroms / fs]
C  0.00595940 -0.00138649 -0.00812475
C  0.00109433 0.00985990 0.00401990
C  0.00043660 0.00431555 -0.00161072
C  -0.00037645 -0.00419456 -0.00666433
C  0.00424517 -0.00258506 -0.00224486
C  0.00312394 -0.00113415 0.00243690
H  -0.01330536 0.02967076 -0.00459977
H  0.00539165 -0.00739807 -0.01249671
H  -0.00484428 -0.01392620 0.00260731
H  0.01133479 -0.02422033 0.01232425
H  0.00936721 0.01680683 0.00341077
H  -0.00667311 0.01116026 0.00180327
12
MD Step 633 Units = [Angstroms / fs]
C  0.00598220 -0.00150909 -0.00784893
C  0.00081582 0.00942630 0.00364377
C  0.00047013 0.00476501 -0.00126605
C  -0.00032280 -0.00338785 -0.00652354
C  0.00428146 -0.00213606 -0.00192817
C  0.00362700 -0.00073059 0.00208624
H  -0.01063946 0.02882004 -0.00471840
H  0.00509503 -0.00862044 -0.01192814
H  -0.00701709 -0.01638842 0.00164906
H  0.00654627 -0.02985406 0.00906340
H  0.01350326 0.00906560 0.00259882
H  -0.01063578 0.01057069 0.00219967
12
MD Step 634 Units = [Angstroms / fs]
C  0.00597532 -0.00151046 -0.00754851
C  0.00059797 0.00880171 0.00323974
C  0.00050613 0.00514417 -0.00092669
C  -0.00025834 -0.00258126 -0.00636761
C  0.00425582 -0.00165093 -0.00160855
C  0.00403048 -0.00029785 0.00171773
H  -0.00836089 0.02658022 -0.00485105
H  0.00418724 -0.00861116 -0.01125412
H  -0.00845087 -0.01852779 0.00070923
H  0.00211057 -0.03425747 0.00580470
H  0.01762726 0.00095232 0.00175373
H  -0.01328257 0.00984950 0.00261710
12
MD Step 635 Units = [Angstroms / fs]
C  0.00593999 -0.00139366 -0.00722588
C  0.00043978 0.00800529 0.00280920
C  0.00052849 0.00544223 -0.00059488
C  -0.00019835 -0.00181440 -0.00620582
C  0.00418443 -0.00117105 -0.00128928
C  0.00431628 0.00015608 0.00133408
H  -0.00651287 0.02301879 -0.00499305
H  0.00273587 -0.00745810 -0.01046898
H  -0.00900381 -0.02031376 -0.00019685
H  -0.00167299 -0.03698812 0.00266475
H  0.02144099 -0.00699113 0.00089854
H  -0.01438664 0.00899943 0.00304672
12
MD Step 636 Units = [Angstroms / fs]
C  0.00587294 -0.00117040 -0.00688322
C  0.00033622 0.00706423 0.00235390
C  0.00052597 0.00565113 -0.00027236
C  -0.00015720 -0.00112444 -0.00604760
C  0.00408461 -0.00073740 -0.00097382
C  0.00447910 0.00062213 0.00093819
H  -0.00506954 0.01830994 -0.00514388
H  0.00085708 -0.00533920 -0.00957141
H  -0.00860651 -0.02172951 -0.00105774
H  -0.00452330 -0.03765888 -0.00024120
H  0.02465328 -0.01421973 0.00005855
H  -0.01388839 0.00802606 0.00347875
12
MD Step 637 Units = [Angstroms / fs]
C  0.00576617 -0.00086048 -0.00652243
C  0.00027940 0.00601138 0.00187610
C  0.00049363 0.00576584 0.00003975
C  -0.00014615 -0.00054256 -0.00590151
C  0.00397473 -0.00038990 -0.00066563
C  0.00452500 0.00109006 0.00053320
H  -0.00393442 0.01272680 -0.00530749
H  -0.00129979 -0.00249740 -0.00856558
H  -0.00727668 -0.02277107 -0.00186710
H  -0.00620613 -0.03598085 -0.00281187
H  0.02698408 -0.02019300 -0.00073974
H  -0.01187906 0.00693976 0.00390289
12
MD Step 638 Units = [Angstroms / fs]
C  0.00560783 -0.00049008 -0.00614519
C  0.00025961 0.00488303 0.00137857
C  0.00043372 0.00578443 0.00034098
C  -0.00017023 -0.00008908 -0.00577386
C  0.00387350 -0.00016586 -0.00036812
C  0.00446884 0.00154862 0.00012233
H  -0.00295135 0.00661918 -0.00549164
H  -0.00356580 0.00078211 -0.00746133
H  -0.00512628 -0.02344462 -0.00262411
H  -0.00657474 -0.03182039 -0.00497727
H  0.02817564 -0.02439555 -0.00147017
H  -0.00857065 0.00575614 0.00430911
12
MD Step 639 Units = [Angstroms / fs]
C  0.00538413 -0.00008919 -0.00575303
C  0.00026605 0.00371712 0.00086459
C  0.00035566 0.00570797 0.00063152
C  -0.00022479 0.00023178 -0.00566715
C  0.00379834 -0.00009670 -0.00008437
C  0.00433153 0.00198596 -0.00029111
H  -0.00192761 0.00037896 -0.00570622
H  -0.00576343 0.00419113 -0.00627359
H  -0.00235733 -0.02376240 -0.00333299
H  -0.00561576 -0.02525960 -0.00671804
H  0.02801423 -0.02637848 -0.00210951
H  -0.00426222 0.00449558 0.00468845
12
MD Step 640 Units = [Angstroms / fs]
C  0.00508198 0.00031161 -0.00534757
C  0.00028738 0.00255170 0.00033780
C  0.00027471 0.00554011 0.00091201
C  -0.00029282 0.00043578 -0.00557877
C  0.00376287 -0.00020274 0.00018316
C  0.00413755 0.00239020 -0.00070385
H  -0.00066534 -0.00560154 -0.00596094
H  -0.00771561 0.00741474 -0.00502134
H  0.00075619 -0.02373820 -0.00400143
H  -0.00348583 -0.01663991 -0.00808043
H  0.02636332 -0.02582489 -0.00264099
H  0.00069065 0.00318199 0.00503372
12
MD Step 641 Units = [Angstroms / fs]
C  0.00469182 0.00068420 -0.00493062
C  0.00031226 0.00142358 -0.00019783
C  0.00020978 0.00528662 0.00118335
C  -0.00034464 0.00055935 -0.00550076
C  0.00377357 -0.00048667 0.00043293
C  0.00391304 0.00275015 -0.00111271
H  0.00100590 -0.01097019 -0.00626290
H  -0.00925415 0.01014671 -0.00372632
H  0.00389887 -0.02338364 -0.00463825
H  -0.00051992 -0.00656402 -0.00917883
H  0.02320387 -0.02263286 -0.00305831
H  0.00590069 0.00184147 0.00534012
12
MD Step 642 Units = [Angstroms / fs]
C  0.00420985 0.00100532 -0.00450441
C  0.00032986 0.00036684 -0.00073816
C  0.00018032 0.00495485 0.00144638
C  -0.00034116 0.00065531 -0.00542099
C  0.00382678 -0.00092726 0.00066462
C  0.00368440 0.00305591 -0.00151471
H  0.00320257 -0.01544748 -0.00661473
H  -0.01022895 0.01210666 -0.00241150
H  0.00675250 -0.02270655 -0.00525086
H  0.00280317 0.00416076 -0.01017998
H  0.01867074 -0.01699457 -0.00336864
H  0.01096854 0.00050087 0.00560572
12
MD Step 643 Units = [Angstroms / fs]
C  0.00363939 0.00125804 -0.00407159
C  0.00033062 -0.00058880 -0.00127906
C  0.00020335 0.00455322 0.00170159
C  -0.00024045 0.00078416 -0.00532577
C  0.00390720 -0.00147635 0.00087910
C  0.00347716 0.00329948 -0.00190715
H  0.00597180 -0.01884594 -0.00701360
H  -0.01051915 0.01306050 -0.00109929
H  0.00903519 -0.02171169 -0.00584301
H  0.00593753 0.01463431 -0.01127016
H  0.01306837 -0.00943692 -0.00359293
H  0.01550014 -0.00081349 0.00583176
12
MD Step 644 Units = [Angstroms / fs]
C  0.00299105 0.00143215 -0.00363525
C  0.00030724 -0.00141999 -0.00181658
C  0.00029080 0.00409085 0.00194894
C  -0.00000600 0.00100303 -0.00520300
C  0.00398923 -0.00206172 0.00107810
C  0.00331481 0.00347509 -0.00228764
H  0.00928827 -0.02107590 -0.00745142
H  -0.01004630 0.01284474 0.00019031
H  0.01053364 -0.02040367 -0.00641361
H  0.00836836 0.02400240 -0.01261517
H  0.00685026 -0.00078958 -0.00376205
H  0.01912531 -0.00207708 0.00602267
12
MD Step 645 Units = [Angstroms / fs]
C  0.00228198 0.00152384 -0.00319882
C  0.00025580 -0.00211183 -0.00234708
C  0.00044789 0.00357724 0.00218774
C  0.00038613 0.00135576 -0.00504483
C  0.00404161 -0.00259708 0.00126361
C  0.00321725 0.00357939 -0.00265417
H  0.01306156 -0.02213996 -0.00791573
H  -0.00878844 0.01139246 0.00144139
H  0.01112328 -0.01879075 -0.00695660
H  0.00970045 0.03158077 -0.01432695
H  0.00055804 0.00793184 -0.00390938
H  0.02152068 -0.00326844 0.00618581
12
MD Step 646 Units = [Angstroms / fs]
C  0.00153441 0.00153481 -0.00276592
C  0.00017691 -0.00265973 -0.00286736
C  0.00067250 0.00302219 0.00241668
C  0.00094337 0.00186677 -0.00484891
C  0.00403416 -0.00299678 0.00143715
C  0.00319888 0.00361145 -0.00300511
H  0.01714975 -0.02212017 -0.00839117
H  -0.00679224 0.00875570 0.00264315
H  0.01077459 -0.01688841 -0.00746180
H  0.00971032 0.03693065 -0.01644740
H  -0.00526635 0.01570190 -0.00406225
H  0.02243861 -0.00437016 0.00633045
12
MD Step 647 Units = [Angstroms / fs]
C  0.00077392 0.00147134 -0.00234022
C  0.00007636 -0.00307037 -0.00337466
C  0.00095553 0.00243578 0.00263394
C  0.00165656 0.00253979 -0.00461807
C  0.00394446 -0.00319078 0.00159927
C  0.00326623 0.00357254 -0.00333907
H  0.02137556 -0.02116218 -0.00886110
H  -0.00417901 0.00511713 0.00378976
H  0.00954752 -0.01472169 -0.00791656
H  0.00835360 0.03987428 -0.01895118
H  -0.01016804 0.02166430 -0.00423573
H  0.02174062 -0.00536949 0.00646610
12
MD Step 648 Units = [Angstroms / fs]
C  0.00002759 0.00134334 -0.00192532
C  -0.00003485 -0.00336124 -0.00386653
C  0.00128185 0.00182836 0.00283735
C  0.00250284 0.00336045 -0.00435893
C  0.00376224 -0.00313496 0.00174945
C  0.00341563 0.00346586 -0.00365476
H  0.02554202 -0.01945907 -0.00930911
H  -0.00114065 0.00078322 0.00487870
H  0.00757775 -0.01232593 -0.00830748
H  0.00573731 0.04046262 -0.02176197
H  -0.01383923 0.02525602 -0.00443082
H  0.01942992 -0.00625818 0.00659979
12
MD Step 649 Units = [Angstroms / fs]
C  -0.00067768 0.00116355 -0.00152458
C  -0.00014156 -0.00355830 -0.00434060
C  0.00163168 0.00121063 0.00302458
C  0.00344982 0.00430073 -0.00408027
C  0.00349049 -0.00281444 0.00188630
C  0.00363172 0.00329622 -0.00395079
H  0.02944633 -0.01723641 -0.00972024
H  0.00207706 -0.00384487 0.00590794
H  0.00505879 -0.00974605 -0.00862210
H  0.00207561 0.03891877 -0.02477348
H  -0.01613862 0.02624752 -0.00463697
H  0.01567375 -0.00703117 0.00673290
12
MD Step 650 Units = [Angstroms / fs]
C  -0.00131664 0.00094681 -0.00114107
C  -0.00022638 -0.00369206 -0.00479430
C  0.00198211 0.00059357 0.00319335
C  0.00445978 0.00532374 -0.00379145
C  0.00314354 -0.00224058 0.00200805
C  0.00388754 0.00306956 -0.00422538
H  0.03289188 -0.01473851 -0.01008202
H  0.00520227 -0.00832044 0.00687254
H  0.00222329 -0.00703470 -0.00885034
H  -0.00235411 0.03557973 -0.02786835
H  -0.01707511 0.02470813 -0.00483694
H  0.01080491 -0.00768446 0.00685803
12
MD Step 651 Units = [Angstroms / fs]
C  -0.00186702 0.00070933 -0.00077743
C  -0.00027219 -0.00379283 -0.00522466
C  0.00230865 -0.00001157 0.00334154
C  0.00549282 0.00638745 -0.00350138
C  0.00274354 -0.00144459 0.00211295
C  0.00414690 0.00279260 -0.00447623
H  0.03569870 -0.01221508 -0.01038525
H  0.00797111 -0.01221096 0.00776214
H  -0.00067515 -0.00424978 -0.00898539
H  -0.00724519 0.03084983 -0.03093193
H  -0.01677145 0.02092979 -0.00501178
H  0.00529438 -0.00821256 0.00695712
12
MD Step 652 Units = [Angstroms / fs]
C  -0.00231058 0.00046774 -0.00043586
C  -0.00026456 -0.00388618 -0.00562826
C  0.00258682 -0.00059346 0.00346735
C  0.00650907 0.00744723 -0.00321795
C  0.00231676 -0.00047050 0.00219960
C  0.00436898 0.00247252 -0.00470053
H  0.03771326 -0.00990688 -0.01062441
H  0.01016036 -0.01515460 0.00856008
H  -0.00337920 -0.00145161 -0.00902439
H  -0.01228329 0.02517035 -0.03386068
H  -0.01542441 0.01534419 -0.00514451
H  -0.00030489 -0.00860664 0.00700178
12
MD Step 653 Units = [Angstroms / fs]
C  -0.00263395 0.00023796 -0.00011808
C  -0.00019370 -0.00398970 -0.00600129
C  0.00279370 -0.00114096 0.00356934
C  0.00747004 0.00845742 -0.00294774
C  0.00189049 0.00063046 0.00226712
C  0.00451439 0.00211674 -0.00489515
H  0.03881775 -0.00802953 -0.01079789
H  0.01161172 -0.01690146 0.00924468
H  -0.00564471 0.00130008 -0.00896856
H  -0.01715813 0.01900286 -0.03656697
H  -0.01327234 0.00845579 -0.00522218
H  -0.00543295 -0.00885435 0.00695637
12
MD Step 654 Units = [Angstroms / fs]
C  -0.00282929 0.00003373 0.00017466
C  -0.00005531 -0.00411161 -0.00633983
C  0.00290959 -0.00164339 0.00364652
C  0.00833943 0.00937215 -0.00269584
C  0.00149107 0.00180370 0.00231519
C  0.00455115 0.00173295 -0.00505702
H  0.03893864 -0.00675520 -0.01090764
H  0.01224377 -0.01733258 0.00979207
H  -0.00725836 0.00394922 -0.00882292
H  -0.02156967 0.01282093 -0.03898195
H  -0.01057412 0.00079864 -0.00523669
H  -0.00959939 -0.00894142 0.00678318
12
MD Step 655 Units = [Angstroms / fs]
C  -0.00289459 -0.00013505 0.00044150
C  0.00014930 -0.00425103 -0.00664016
C  0.00291969 -0.00209095 0.00369829
C  0.00908389 0.01014620 -0.00246579
C  0.00114287 0.00299332 0.00234405
C  0.00445921 0.00132912 -0.00518358
H  0.03805347 -0.00619344 -0.01095837
H  0.01205165 -0.01645746 0.01017969
H  -0.00805602 0.00644631 -0.00859560
H  -0.02523353 0.00710329 -0.04105824
H  -0.00759830 -0.00708586 -0.00518498
H  -0.01244315 -0.00885470 0.00644848
12
MD Step 656 Units = [Angstroms / fs]
C  -0.00283371 -0.00026381 0.00068189
C  0.00041390 -0.00439958 -0.00689905
C  0.00281582 -0.00247506 0.00372438
C  0.00967394 0.01073628 -0.00225934
C  0.00086806 0.00414320 0.00235450
C  0.00423259 0.00091354 -0.00527310
H  0.03619437 -0.00637409 -0.01095616
H  0.01109770 -0.01439615 0.01038964
H  -0.00794117 0.00875086 -0.00829652
H  -0.02788979 0.00232096 -0.04277299
H  -0.00461922 -0.01465790 -0.00506896
H  -0.01376448 -0.00858548 0.00592779
12
MD Step 657 Units = [Angstroms / fs]
C  -0.00265590 -0.00035439 0.00089539
C  0.00072834 -0.00454345 -0.00711399
C  0.00259776 -0.00278864 0.00372474
C  0.01008534 0.01110338 -0.00207626
C  0.00068677 0.00519774 0.00234780
C  0.00387899 0.00049480 -0.00532494
H  0.03344672 -0.00723639 -0.01090666
H  0.00949737 -0.01135392 0.01041099
H  -0.00690107 0.01083295 -0.00793567
H  -0.02931838 -0.00108856 -0.04413083
H  -0.00191550 -0.02138388 -0.00489542
H  -0.01352748 -0.00813208 0.00520917
12
MD Step 658 Units = [Angstroms / fs]
C  -0.00237492 -0.00041533 0.00108155
C  0.00107957 -0.00466558 -0.00728333
C  0.00227415 -0.00302633 0.00369937
C  0.01030095 0.01121663 -0.00191421
C  0.00061720 0.00610319 0.00232568
C  0.00341769 0.00008156 -0.00533954
H  0.02994203 -0.00862897 -0.01081300
H  0.00740431 -0.00759508 0.01024125
H  -0.00501673 0.01267340 -0.00752110
H  -0.02936200 -0.00276519 -0.04516530
H  0.00023374 -0.02674605 -0.00467596
H  -0.01184033 -0.00750096 0.00429430
12
MD Step 659 Units = [Angstroms / fs]
C  -0.00200778 -0.00046092 0.00123974
C  0.00145263 -0.00474736 -0.00740640
C  0.00186246 -0.00318443 0.00364818
C  0.01031287 0.01105845 -0.00176895
C  0.00067537 0.00680994 0.00229023
C  0.00287640 -0.00031767 -0.00531836
H  0.02584555 -0.01032336 -0.01067427
H  0.00499695 -0.00342007 0.00988679
H  -0.00246289 0.01426235 -0.00705711
H  -0.02795428 -0.00248760 -0.04593560
H  0.00155994 -0.03026551 -0.00442669
H  -0.00892376 -0.00670660 0.00319762
12
MD Step 660 Units = [Angstroms / fs]
C  -0.00157324 -0.00050923 0.00136912
C  0.00183139 -0.00477008 -0.00748347
C  0.00138775 -0.00326075 0.00357084
C  0.01012431 0.01063032 -0.00163513
C  0.00087393 0.00727648 0.00224380
C  0.00228814 -0.00069482 -0.00526369
H  0.02134021 -0.01204105 -0.01048462
H  0.00246734 0.00085315 0.00936274
H  0.00050528 0.01559637 -0.00654298
H  -0.02514613 -0.00024178 -0.04651599
H  0.00182788 -0.03154505 -0.00416724
H  -0.00507736 -0.00577023 0.00194434
12
MD Step 661 Units = [Angstroms / fs]
C  -0.00109034 -0.00057935 0.00146865
C  0.00219936 -0.00471589 -0.00751580
C  0.00088036 -0.00325442 0.00346680
C  0.00975039 0.00995724 -0.00150779
C  0.00121975 0.00747498 0.00218871
C  0.00168859 -0.00104248 -0.00517847
H  0.01660979 -0.01348974 -0.01023373
H  0.00001171 0.00490455 0.00869232
H  0.00357896 0.01667487 -0.00597293
H  -0.02111971 0.00372491 -0.04697656
H  0.00087249 -0.03033282 -0.00391846
H  -0.00064982 -0.00471817 0.00056797
12
MD Step 662 Units = [Angstroms / fs]
C  -0.00057721 -0.00068831 0.00153724
C  0.00254032 -0.00456878 -0.00750551
C  0.00037272 -0.00316566 0.00333534
C  0.00921704 0.00908856 -0.00138422
C  0.00171045 0.00739766 0.00212696
C  0.00111402 -0.00135403 -0.00506615
H  0.01182426 -0.01440181 -0.00990835
H  -0.00217852 0.00842643 0.00790564
H  0.00643244 0.01749686 -0.00533733
H  -0.01617941 0.00889257 -0.04735904
H  -0.00135389 -0.02659750 -0.00369877
H  0.00398497 -0.00358010 -0.00089208
12
MD Step 663 Units = [Angstroms / fs]
C  -0.00005020 -0.00084858 0.00157392
C  0.00283927 -0.00431549 -0.00745547
C  -0.00010420 -0.00299572 0.00317579
C  0.00855779 0.00809343 -0.00126567
C  0.00233074 0.00706204 0.00205971
C  0.00059985 -0.00162367 -0.00493052
H  0.00712911 -0.01456743 -0.00949464
H  -0.00392675 0.01113943 0.00703783
H  0.00876341 0.01805897 -0.00462500
H  -0.01071545 0.01452181 -0.04765545
H  -0.00473530 -0.02059237 -0.00351925
H  0.00844688 -0.00238725 -0.00239292
12
MD Step 664 Units = [Angstroms / fs]
C  0.00047649 -0.00106630 0.00157806
C  0.00308342 -0.00394674 -0.00736910
C  -0.00052405 -0.00274696 0.00298772
C  0.00780902 0.00705097 -0.00115797
C  0.00305019 0.00651262 0.00198699
C  0.00017945 -0.00184645 -0.00477559
H  0.00263976 -0.01385641 -0.00898074
H  -0.00508325 0.01281175 0.00612624
H  0.01032878 0.01835544 -0.00382608
H  -0.00514651 0.01976937 -0.04779986
H  -0.00896704 -0.01287634 -0.00337904
H  0.01236656 -0.00117087 -0.00389045
12
MD Step 665 Units = [Angstroms / fs]
C  0.00099094 -0.00134066 0.00154956
C  0.00326347 -0.00345883 -0.00724999
C  -0.00086734 -0.00242307 0.00277126
C  0.00700515 0.00603765 -0.00107068
C  0.00382405 0.00581650 0.00190746
C  -0.00011713 -0.00201826 -0.00460537
H  -0.00155981 -0.01222686 -0.00835898
H  -0.00553954 0.01328215 0.00520647
H  0.01096994 0.01837974 -0.00293473
H  0.00014252 0.02383623 -0.04767873
H  -0.01357167 -0.00426483 -0.00326299
H  0.01540362 0.00003944 -0.00534204
12
MD Step 666 Units = [Angstroms / fs]
C  0.00148335 -0.00166420 0.00148896
C  0.00337494 -0.00285526 -0.00710153
C  -0.00112269 -0.00202922 0.00252722
C  0.00617494 0.00511581 -0.00101497
C  0.00459816 0.00505307 0.00181869
C  -0.00026474 -0.00213604 -0.00442369
H  -0.00541521 -0.00972192 -0.00762726
H  -0.00524364 0.01248429 0.00430737
H  0.01062421 0.01812732 -0.00195105
H  0.00484961 0.02610159 -0.04715700
H  -0.01796448 0.00429236 -0.00314356
H  0.01726895 0.00121736 -0.00670961
12
MD Step 667 Units = [Angstroms / fs]
C  0.00194580 -0.00202381 0.00139753
C  0.00341926 -0.00214830 -0.00692641
C  -0.00128686 -0.00157222 0.00225727
C  0.00533995 0.00432667 -0.00100111
C  0.00531687 0.00430016 0.00171772
C  -0.00024517 -0.00219792 -0.00423384
H  -0.00889814 -0.00645795 -0.00678974
H  -0.00421335 0.01046784 0.00344574
H  0.00932321 0.01759842 -0.00088184
H  0.00878025 0.02620368 -0.04610988
H  -0.02155474 0.01187524 -0.00298679
H  0.01775204 0.00234153 -0.00796319
12
MD Step 668 Units = [Angstroms / fs]
C  0.00237213 -0.00240207 0.00127720
C  0.00340433 -0.00135966 -0.00672627
C  -0.00136401 -0.00106046 0.00196383
C  0.00451490 0.00368871 -0.00103638
C  0.00593143 0.00362124 0.00160182
C  -0.00004962 -0.00220350 -0.00403829
H  -0.01200240 -0.00260841 -0.00585659
H  -0.00254305 0.00740916 0.00262184
H  0.00718145 0.01680026 0.00025961
H  0.01184719 0.02405414 -0.04444871
H  -0.02385067 0.01774698 -0.00276047
H  0.01675169 0.00339705 -0.00908467
12
MD Step 669 Units = [Angstroms / fs]
C  0.00275773 -0.00277875 0.00113053
C  0.00334416 -0.00051993 -0.00650143
C  -0.00136446 -0.00050373 0.00165008
C  0.00370914 0.00320062 -0.00112404
C  0.00640622 0.00305746 0.00146917
C  0.00031900 -0.00215401 -0.00383840
H  -0.01473991 0.00161362 -0.00484333
H  -0.00039990 0.00360467 0.00181741
H  0.00437958 0.01574836 0.00145456
H  0.01405307 0.01979965 -0.04213480
H  -0.02453401 0.02144916 -0.00244142
H  0.01430440 0.00437623 -0.01007071
12
MD Step 670 Units = [Angstroms / fs]
C  0.00309953 -0.00313218 0.00096060
C  0.00325735 0.00033371 -0.00625108
C  -0.00130328 0.00008709 0.00131974
C  0.00292844 0.00284641 -0.00126327
C  0.00672110 0.00262610 0.00131919
C  0.00084458 -0.00205224 -0.00363432
H  -0.01713724 0.00597213 -0.00376970
H  0.00199303 -0.00055691 0.00099758
H  0.00114574 0.01446665 0.00268033
H  0.01546638 0.01375773 -0.03918088
H  -0.02348614 0.02282133 -0.00201934
H  0.01060194 0.00527833 -0.01093401
12
MD Step 671 Units = [Angstroms / fs]
C  0.00339590 -0.00344062 0.00077088
C  0.00316472 0.00116120 -0.00597367
C  -0.00119882 0.00070036 0.00097694
C  0.00217645 0.00260067 -0.00144971
C  0.00687032 0.00232405 0.00115260
C  0.00149795 -0.00190239 -0.00342506
H  -0.01923219 0.01022380 -0.00265843
H  0.00438494 -0.00464113 0.00011676
H  -0.00226239 0.01298692 0.00391204
H  0.01619895 0.00635170 -0.03564476
H  -0.02076966 0.02195925 -0.00149701
H  0.00598842 0.00610777 -0.01170145
12
MD Step 672 Units = [Angstroms / fs]
C  0.00364668 -0.00368347 0.00056506
C  0.00308633 0.00192413 -0.00566762
C  -0.00107131 0.00132401 0.00062598
C  0.00145549 0.00243278 -0.00167627
C  0.00685942 0.00213380 0.00097112
C  0.00223925 -0.00170958 -0.00320890
H  -0.02107015 0.01413278 -0.00153365
H  0.00653155 -0.00822439 -0.00087236
H  -0.00557438 0.01134747 0.00512430
H  0.01638913 -0.00194022 -0.03162013
H  -0.01658442 0.01914301 -0.00088771
H  0.00093043 0.00687113 -0.01240914
12
MD Step 673 Units = [Angstroms / fs]
C  0.00385297 -0.00384258 0.00034689
C  0.00303874 0.00259006 -0.00533210
C  -0.00094155 0.00194586 0.00027120
C  0.00076689 0.00230960 -0.00193377
C  0.00670166 0.00202946 0.00077721
C  0.00302230 -0.00147943 -0.00298402
H  -0.02269980 0.01748528 -0.00041929
H  0.00822741 -0.01094804 -0.00200923
H  -0.00852293 0.00959143 0.00629294
H  0.01619163 -0.01061776 -0.02722802
H  -0.01121858 0.01476469 -0.00021177
H  -0.00403852 0.00757350 -0.01309491
12
MD Step 674 Units = [Angstroms / fs]
C  0.00401694 -0.00390341 0.00012002
C  0.00303303 0.00313559 -0.00496758
C  -0.00082947 0.00255387 -0.00008318
C  0.00011088 0.00219709 -0.00221145
C  0.00641520 0.00198135 0.00057368
C  0.00380041 -0.00121759 -0.00274913
H  -0.02416755 0.02010431 0.00066268
H  0.00932935 -0.01255823 -0.00331775
H  -0.01086001 0.00776455 0.00739657
H  0.01577263 -0.01917662 -0.02261043
H  -0.00500861 0.00927261 0.00050671
H  -0.00838933 0.00821553 -0.01379015
12
MD Step 675 Units = [Angstroms / fs]
C  0.00414132 -0.00385628 -0.00011223
C  0.00307388 0.00354783 -0.00457618
C  -0.00075266 0.00313636 -0.00043330
C  -0.00051365 0.00206118 -0.00249731
C  0.00602136 0.00195885 0.00036352
C  0.00453203 -0.00092954 -0.00250404
H  -0.02551073 0.02186416 0.00169402
H  0.00976740 -0.01292534 -0.00480212
H  -0.01237425 0.00591277 0.00841805
H  0.01530802 -0.02711806 -0.01792549
H  0.00168676 0.00313712 0.00124213
H  -0.01166796 0.00879188 -0.01451339
12
MD Step 676 Units = [Angstroms / fs]
C  0.00422884 -0.00369737 -0.00034696
C  0.00315969 0.00382423 -0.00416163
C  -0.00072467 0.00368226 -0.00077568
C  -0.00110929 0.00186852 -0.00277844
C  0.00554380 0.00193170 0.00014969
C  0.00518513 -0.00062054 -0.00224990
H  -0.02674985 0.02270312 0.00266182
H  0.00954348 -0.01204320 -0.00644670
H  -0.01290972 0.00407951 0.00934566
H  0.01498187 -0.03395793 -0.01334272
H  0.00849989 -0.00316567 0.00196889
H  -0.01354961 0.00929168 -0.01526715
12
MD Step 677 Units = [Angstroms / fs]
C  0.00428157 -0.00342938 -0.00058183
C  0.00328349 0.00397123 -0.00372902
C  -0.00075331 0.00418128 -0.00110741
C  -0.00167995 0.00158786 -0.00304153
C  0.00500824 0.00187036 -0.00006495
C  0.00573942 -0.00029572 -0.00198917
H  -0.02788108 0.02263203 0.00355950
H  0.00872145 -0.01001356 -0.00821892
H  -0.01238502 0.00230308 0.01017381
H  0.01498209 -0.03924225 -0.00903578
H  0.01505968 -0.00915899 0.00266220
H  -0.01386643 0.00970055 -0.01603856
12
MD Step 678 Units = [Angstroms / fs]
C  0.00430028 -0.00306168 -0.00081505
C  0.00343423 0.00400231 -0.00328441
C  -0.00083916 0.00462425 -0.00142613
C  -0.00223014 0.00119233 -0.00327377
C  0.00444234 0.00174608 -0.00027777
C  0.00618634 0.00003971 -0.00172539
H  -0.02887067 0.02173589 0.00438703
H  0.00741291 -0.00702302 -0.01007393
H  -0.01080991 0.00061445 0.01090288
H  0.01548954 -0.04257553 -0.00517042
H  0.02099487 -0.01436742 0.00329876
H  -0.01260832 0.01000332 -0.01680291
12
MD Step 679 Units = [Angstroms / fs]
C  0.00428415 -0.00260957 -0.00104531
C  0.00359807 0.00393602 -0.00283443
C  -0.00097459 0.00500323 -0.00173007
C  -0.00276342 0.00066303 -0.00346430
C  0.00387512 0.00153129 -0.00048642
C  0.00652754 0.00038030 -0.00146273
H  -0.02965338 0.02016643 0.00515001
H  0.00576255 -0.00331878 -0.01195964
H  -0.00829517 -0.00096382 0.01153818
H  0.01665779 -0.04366418 -0.00188583
H  0.02594145 -0.01832401 0.00385766
H  -0.00990340 0.01018667 -0.01752860
12
MD Step 680 Units = [Angstroms / fs]
C  0.00423084 -0.00209295 -0.00127163
C  0.00375962 0.00379427 -0.00238585
C  -0.00114365 0.00531174 -0.00201792
C  -0.00327996 -0.00000649 -0.00360615
C  0.00333552 0.00120105 -0.00068898
C  0.00677242 0.00072038 -0.00120560
H  -0.03013654 0.01812513 0.00585776
H  0.00393526 0.00081308 -0.01382137
H  -0.00505116 -0.00241737 0.01208769
H  0.01858227 -0.04237161 0.00072957
H  0.02956000 -0.02059024 0.00432187
H  -0.00598809 0.01024105 -0.01818221
12
MD Step 681 Units = [Angstroms / fs]
C  0.00413713 -0.00153430 -0.00149311
C  0.00390287 0.00360089 -0.00194532
C  -0.00132331 0.00554479 -0.00228872
C  -0.00377362 -0.00080578 -0.00369821
C  0.00284978 0.00073591 -0.00088410
C  0.00693561 0.00105414 -0.00095830
H  -0.03021023 0.01583879 0.00652069
H  0.00210555 0.00506572 -0.01560575
H  -0.00137195 -0.00373812 0.01255922
H  0.02126268 -0.03877223 0.00266328
H  0.03156721 -0.02079554 0.00468030
H  -0.00117530 0.01016169 -0.01873266
12
MD Step 682 Units = [Angstroms / fs]
C  0.00399994 -0.00095644 -0.00170874
C  0.00401204 0.00338045 -0.00151904
C  -0.00148578 0.00569885 -0.00254160
C  -0.00422919 -0.00170480 -0.00374666
C  0.00243754 0.00012671 -0.00107123
C  0.00703487 0.00137586 -0.00072476
H  -0.02976216 0.01353170 0.00714752
H  0.00044874 0.00912690 -0.01726398
H  0.00239516 -0.00492144 0.01295736
H  0.02456874 -0.03318379 0.00399569
H  0.03178187 -0.01869842 0.00493031
H  0.00417366 0.00994894 -0.01915426
12
MD Step 683 Units = [Angstroms / fs]
C  0.00381756 -0.00038045 -0.00191719
C  0.00407223 0.00315713 -0.00111257
C  -0.00160180 0.00577170 -0.00277572
C  -0.00462139 -0.00265478 -0.00376487
C  0.00210733 -0.00061963 -0.00125070
C  0.00708939 0.00168016 -0.00050833
H  -0.02869462 0.01139960 0.00774309
H  -0.00086751 0.01269389 -0.01875460
H  0.00589038 -0.00596289 0.01328131
H  0.02822500 -0.02615603 0.00489859
H  0.03017802 -0.01426174 0.00507973
H  0.00967176 0.00960802 -0.01942869
12
MD Step 684 Units = [Angstroms / fs]
C  0.00359083 0.00017591 -0.00211672
C  0.00407028 0.00295341 -0.00073061
C  -0.00164418 0.00576219 -0.00299010
C  -0.00491648 -0.00359366 -0.00377131
C  0.00185287 -0.00147466 -0.00142375
C  0.00711852 0.00196227 -0.00031166
H  -0.02694000 0.00958991 0.00830709
H  -0.00169257 0.01548997 -0.02004601
H  0.00878514 -0.00685588 0.01352400
H  0.03182919 -0.01840451 0.00560933
H  0.02692812 -0.00772145 0.00514711
H  0.01492467 0.00914860 -0.01954614
12
MD Step 685 Units = [Angstroms / fs]
C  0.00332396 0.00069905 -0.00230519
C  0.00399554 0.00278852 -0.00037679
C  -0.00159096 0.00567016 -0.00318370
C  -0.00507711 -0.00445515 -0.00378578
C  0.00165205 -0.00238609 -0.00159225
C  0.00714070 0.00221814 -0.00013661
H  -0.02447188 0.00819078 0.00883407
H  -0.00190417 0.01728459 -0.02111858
H  0.01082014 -0.00759075 0.01367295
H  0.03490803 -0.01069998 0.00638463
H  0.02241382 0.00038290 0.00515907
H  0.01954760 0.00858401 -0.01950578
12
MD Step 686 Units = [Angstroms / fs]
C  0.00302488 0.00117980 -0.00248017
C  0.00384106 0.00267644 -0.00005356
C  -0.00142760 0.00549631 -0.00335544
C  -0.00506911 -0.00517902 -0.00382524
C  0.00147019 -0.00328102 -0.00175821
C  0.00717229 0.00244449 0.00001581
H  -0.02131031 0.00722905 0.00931439
H  -0.00142194 0.01791691 -0.02196601
H  0.01183105 -0.00815559 0.01371250
H  0.03699801 -0.00374404 0.00744818
H  0.01718627 0.00924590 0.00514458
H  0.02318379 0.00793041 -0.01931567
12
MD Step 687 Units = [Angstroms / fs]
C  0.00270504 0.00161302 -0.00263909
C  0.00360463 0.00262393 0.00023783
C  -0.00114802 0.00524216 -0.00350440
C  -0.00486822 -0.00571940 -0.00390045
C  0.00126739 -0.00407536 -0.00192322
C  0.00722602 0.00263872 0.00014539
H  -0.01752106 0.00667543 0.00973578
H  -0.00022177 0.01732068 -0.02259538
H  0.01175917 -0.00853819 0.01362672
H  0.03772609 0.00193121 0.00894974
H  0.01187680 0.01790989 0.00512780
H  0.02552734 0.00720555 -0.01899187
12
MD Step 688 Units = [Angstroms / fs]
C  0.00237878 0.00199709 -0.00277944
C  0.00328991 0.00262872 0.00049724
C  -0.00075456 0.00491022 -0.00362995
C  -0.00446470 -0.00604919 -0.00401460
C  0.00100794 -0.00468739 -0.00208795
C  0.00730914 0.00279883 0.00025262
H  -0.01321040 0.00645426 0.01008523
H  0.00165176 0.01554512 -0.02302509
H  0.01064794 -0.00872855 0.01340239
H  0.03686548 0.00601449 0.01094720
H  0.00708276 0.02542856 0.00512219
H  0.02635120 0.00642720 -0.01855648
12
MD Step 689 Units = [Angstroms / fs]
C  0.00206244 0.00233319 -0.00289892
C  0.00290694 0.00267874 0.00072527
C  -0.00025715 0.00450400 -0.00373189
C  -0.00386460 -0.00616016 -0.00416383
C  0.00066860 -0.00505102 -0.00225208
C  0.00742128 0.00292338 0.00033847
H  -0.00851671 0.00645522 0.01035065
H  0.00407915 0.01276451 -0.02328057
H  0.00862952 -0.00872109 0.01303130
H  0.03435418 0.00841423 0.01341258
H  0.00326664 0.03102794 0.00512819
H  0.02553846 0.00561129 -0.01803433
12
MD Step 690 Units = [Angstroms / fs]
C  0.00177324 0.00262464 -0.00299562
C  0.00247201 0.00275268 0.00092278
C  0.00032786 0.00402821 -0.00381055
C  -0.00308826 -0.00606008 -0.00433907
C  0.00024295 -0.00512476 -0.00241447
C  0.00755254 0.00301149 0.00040399
H  -0.00360081 0.00654548 0.01052228
H  0.00686994 0.00926978 -0.02338798
H  0.00590601 -0.00851629 0.01251188
H  0.03028026 0.00922069 0.01625349
H  0.00069939 0.03421395 0.00513517
H  0.02311129 0.00476996 -0.01744838
12
MD Step 691 Units = [Angstroms / fs]
C  0.00152812 0.00287638 -0.00306816
C  0.00200640 0.00282250 0.00109035
C  0.00097917 0.00348888 -0.00386686
C  -0.00216700 -0.00576865 -0.00452818
C  -0.00025878 -0.00489430 -0.00257365
C  0.00768252 0.00306308 0.00044996
H  0.00136436 0.00658116 0.01059371
H  0.00977934 0.00543848 -0.02336752
H  0.00272931 -0.00812139 0.01184978
H  0.02484779 0.00865335 0.01933960
H  -0.00054349 0.03480316 0.00512608
H  0.01924885 0.00391012 -0.01681442
12
MD Step 692 Units = [Angstroms / fs]
C  0.00134258 0.00309442 -0.00311572
C  0.00153431 0.00285732 0.00122791
C  0.00167185 0.00289339 -0.00390238
C  -0.00113936 -0.00531368 -0.00471781
C  -0.00081334 -0.00436972 -0.00272824
C  0.00778091 0.00307896 0.00047646
H  0.00620403 0.00641833 0.01056247
H  0.01253626 0.00168642 -0.02322819
H  -0.00061810 -0.00755048 0.01105797
H  0.01833861 0.00701150 0.02252580
H  -0.00054666 0.03288741 0.00508255
H  0.01428456 0.00303301 -0.01613628
12
MD Step 693 Units = [Angstroms / fs]
C  0.00122961 0.00328526 -0.00313811
C  0.00108017 0.00282815 0.00133447
C  0.00237870 0.00225050 -0.00391930
C  -0.00004776 -0.00472818 -0.00489482
C  -0.00138954 -0.00357987 -0.00287731
C  0.00781026 0.00306097 0.00048261
H  0.01075209 0.00592387 0.01043020
H  0.01487749 -0.00158942 -0.02296567
H  -0.00384096 -0.00682385 0.01015603
H  0.01108016 0.00463724 0.02566877
H  0.00049664 0.02876308 0.00498892
H  0.00867687 0.00213521 -0.01540325
12
MD Step 694 Units = [Angstroms / fs]
C  0.00119861 0.00345525 -0.00313573
C  0.00066609 0.00271217 0.00140834
C  0.00307166 0.00157034 -0.00392039
C  0.00106406 -0.00404858 -0.00504694
C  -0.00195314 -0.00256636 -0.00302051
C  0.00773063 0.00301199 0.00046671
H  0.01486179 0.00498664 0.01020236
H  0.01658072 -0.00406368 -0.02256412
H  -0.00664819 -0.00596706 0.00916913
H  0.00342301 0.00189256 0.02863699
H  0.00233305 0.02285635 0.00483444
H  0.00295448 0.00121105 -0.01459092
12
MD Step 695 Units = [Angstroms / fs]
C  0.00125460 0.00360979 -0.00310950
C  0.00030980 0.00249576 0.00144748
C  0.00372335 0.00086423 -0.00390888
C  0.00215292 -0.00331360 -0.00516332
C  -0.00247057 -0.00137891 -0.00315808
C  0.00750535 0.00293584 0.00042648
H  0.01841628 0.00352919 0.00988757
H  0.01748922 -0.00551968 -0.02200098
H  -0.00877041 -0.00500947 0.00812628
H  -0.00427289 -0.00085291 0.03131617
H  0.00468420 0.01566403 0.00461410
H  -0.00235362 0.00025568 -0.01366578
12
MD Step 696 Units = [Angstroms / fs]
C  0.00139744 0.00375241 -0.00306074
C  0.00002369 0.00217574 0.00144996
C  0.00430884 0.00014452 -0.00388835
C  0.00317763 -0.00256351 -0.00523470
C  -0.00291121 -0.00007235 -0.00329076
C  0.00710657 0.00283703 0.00035965
H  0.02133841 0.00151936 0.00949642
H  0.01752418 -0.00586506 -0.02125310
H  -0.00997921 -0.00398254 0.00705813
H  -0.01164740 -0.00322892 0.03361264
H  0.00726707 0.00771626 0.00432852
H  -0.00678748 -0.00073198 -0.01259243
12
MD Step 697 Units = [Angstroms / fs]
C  0.00162153 0.00388400 -0.00299099
C  -0.00018540 0.00175893 0.00141443
C  0.00480762 -0.00057571 -0.00386240
C  0.00410025 -0.00183928 -0.00525378
C  -0.00324858 0.00129491 -0.00341968
C  0.00651922 0.00272058 0.00026453
H  0.02359804 -0.00101982 0.00903994
H  0.01668483 -0.00512745 -0.02030256
H  -0.01010833 -0.00291792 0.00599397
H  -0.01834965 -0.00487229 0.03545640
H  0.00980271 -0.00044180 0.00398371
H  -0.01000936 -0.00174740 -0.01134130
12
MD Step 698 Units = [Angstroms / fs]
C  0.00191583 0.00400212 -0.00290187
C  -0.00031556 0.00126050 0.00134047
C  0.00520573 -0.00128290 -0.00383443
C  0.00488769 -0.00118102 -0.00521549
C  -0.00346062 0.00266172 -0.00354623
C  0.00574280 0.00259180 0.00014046
H  0.02521526 -0.00400400 0.00852788
H  0.01503944 -0.00343614 -0.01914069
H  -0.00907525 -0.00184535 0.00495830
H  -0.02405285 -0.00544152 0.03680493
H  0.01201851 -0.00825686 0.00359078
H  -0.01183117 -0.00278010 -0.00989482
12
MD Step 699 Units = [Angstroms / fs]
C  0.00226443 0.00410087 -0.00279486
C  -0.00036900 0.00070184 0.00122870
C  0.00549756 -0.00196339 -0.00380726
C  0.00551375 -0.00062544 -0.00511745
C  -0.00352953 0.00396494 -0.00367205
C  0.00479083 0.00245598 -0.00001197
H  0.02625757 -0.00728798 0.00796719
H  0.01271141 -0.00099733 -0.01777021
H  -0.00689999 -0.00079094 0.00396724
H  -0.02847799 -0.00464342 0.03764745
H  0.01364904 -0.01517198 0.00316580
H  -0.01221591 -0.00381460 -0.00825074
12
MD Step 700 Units = [Angstroms / fs]
C  0.00264777 0.00417137 -0.00267124
C  -0.00035107 0.00010839 0.00108084
C  0.00568708 -0.00260365 -0.00378283
C  0.00596168 -0.00020200 -0.00496028
C  -0.00344168 0.00514105 -0.00379893
C  0.00368868 0.00231826 -0.00019092
H  0.02683037 -0.01067457 0.00736099
H  0.00986446 0.00193072 -0.01620553
H  -0.00371584 0.00022408 0.00302550
H  -0.03142697 -0.00227423 0.03800798
H  0.01444048 -0.02063829 0.00272945
H  -0.01125945 -0.00483210 -0.00642243
12
MD Step 701 Units = [Angstroms / fs]
C  0.00304420 0.00420289 -0.00253199
C  -0.00026952 -0.00049231 0.00089964
C  0.00578790 -0.00319063 -0.00376199
C  0.00622696 0.00007180 -0.00474764
C  -0.00318782 0.00612925 -0.00392880
C  0.00247060 0.00218329 -0.00039349
H  0.02706161 -0.01393228 0.00670850
H  0.00668913 0.00505954 -0.01447190
H  0.00023325 0.00118347 0.00212491
H  -0.03282036 0.00172785 0.03794437
H  0.01416316 -0.02414362 0.00230623
H  -0.00916214 -0.00581243 -0.00443701
12
MD Step 702 Units = [Angstroms / fs]
C  0.00343193 0.00418456 -0.00237795
C  -0.00013388 -0.00107211 0.00068875
C  0.00582188 -0.00371202 -0.00374446
C  0.00631916 0.00019532 -0.00448566
C  -0.00276409 0.00687662 -0.00406352
C  0.00117657 0.00205508 -0.00061593
H  0.02708307 -0.01681986 0.00600589
H  0.00339122 0.00808822 -0.01260379
H  0.00461208 0.00207512 0.00124515
H  -0.03272859 0.00723057 0.03754035
H  0.01263587 -0.02526525 0.00192225
H  -0.00619859 -0.00673578 -0.00233218
12
MD Step 703 Units = [Angstroms / fs]
C  0.00379082 0.00410725 -0.00220984
C  0.00004506 -0.00160358 0.00045258
C  0.00581636 -0.00415653 -0.00372898
C  0.00626201 0.00018777 -0.00418172
C  -0.00217415 0.00734524 -0.00420466
C  -0.00015031 0.00193684 -0.00085394
H  0.02701193 -0.01911373 0.00524806
H  0.00018161 0.01071858 -0.01064275
H  0.00903014 0.00288931 0.00035703
H  -0.03138106 0.01387582 0.03688951
H  0.00976244 -0.02374726 0.00160136
H  -0.00269072 -0.00758395 -0.00015272
12
MD Step 704 Units = [Angstroms / fs]
C  0.00410387 0.00396536 -0.00202852
C  0.00025583 -0.00206114 0.00019604
C  0.00580037 -0.00451430 -0.00371371
C  0.00609049 0.00008783 -0.00384278
C  -0.00143191 0.00752024 -0.00435302
C  -0.00146593 0.00183096 -0.00110286
H  0.02693611 -0.02063338 0.00443082
H  -0.00273396 0.01266976 -0.00863482
H  0.01308850 0.00361678 -0.00057216
H  -0.02914086 0.02109065 0.03607414
H  0.00557544 -0.01959023 0.00135929
H  0.00101412 -0.00834128 0.00205276
12
MD Step 705 Units = [Angstroms / fs]
C  0.00435813 0.00375803 -0.00183513
C  0.00048700 -0.00242232 -0.00007565
C  0.00580068 -0.00477731 -0.00369668
C  0.00584520 -0.00005156 -0.00347380
C  -0.00056415 0.00741629 -0.00450811
C  -0.00272680 0.00173909 -0.00135792
H  0.02690580 -0.02126029 0.00355289
H  -0.00516673 0.01369449 -0.00662724
H  0.01642862 0.00424729 -0.00157256
H  -0.02644413 0.02815288 0.03514559
H  0.00027368 -0.01312392 0.00119691
H  0.00456111 -0.00899523 0.00423492
12
MD Step 706 Units = [Angstroms / fs]
C  0.00454508 0.00348974 -0.00163118
C  0.00072828 -0.00266914 -0.00035738
C  0.00583835 -0.00493983 -0.00367618
C  0.00556539 -0.00017227 -0.00307692
C  0.00038860 0.00707906 -0.00466776
C  -0.00389138 0.00166229 -0.00161440
H  0.02693160 -0.02094792 0.00261736
H  -0.00695924 0.01359861 -0.00466441
H  0.01877325 0.00476929 -0.00266616
H  -0.02371934 0.03430232 0.03411425
H  -0.00576552 -0.00502355 0.00109505
H  0.00760440 -0.00953685 0.00634655
12
MD Step 707 Units = [Angstroms / fs]
C  0.00466043 0.00317013 -0.00141868
C  0.00097179 -0.00278983 -0.00064450
C  0.00592650 -0.00499883 -0.00365123
C  0.00528277 -0.00022149 -0.00265175
C  0.00137432 0.00657947 -0.00482799
C  -0.00492150 0.00160124 -0.00186793
H  0.02698835 -0.01972254 0.00163238
H  -0.00800224 0.01226345 -0.00278316
H  0.01995238 0.00517065 -0.00386313
H  -0.02131232 0.03886706 0.03295315
H  -0.01201600 0.00376088 0.00101375
H  0.00982524 -0.00996098 0.00834551
12
MD Step 708 Units = [Angstroms / fs]
C  0.00470366 0.00281337 -0.00120009
C  0.00121351 -0.00278048 -0.00093329
C  0.00606945 -0.00495422 -0.00362166
C  0.00501804 -0.00016053 -0.00219650
C  0.00233519 0.00600067 -0.00498356
C  -0.00578405 0.00155632 -0.00211464
H  0.02702249 -0.01767649 0.00061093
H  -0.00825201 0.00966891 -0.00100788
H  0.01991167 0.00544026 -0.00516053
H  -0.01943972 0.04136612 0.03161299
H  -0.01787702 0.01215983 0.00089800
H  0.01095401 -0.01026622 0.01019776
12
MD Step 709 Units = [Angstroms / fs]
C  0.00467737 0.00243707 -0.00097827
C  0.00145451 -0.00264643 -0.00122126
C  0.00626307 -0.00480887 -0.00358820
C  0.00478064 0.00003055 -0.00170951
C  0.00321549 0.00542166 -0.00512879
C  -0.00645318 0.00152759 -0.00235151
H  0.02696108 -0.01495662 -0.00042990
H  -0.00774436 0.00591177 0.00065335
H  0.01870593 0.00556991 -0.00654310
H  -0.01817967 0.04156178 0.03004156
H  -0.02277355 0.01917977 0.00068880
H  0.01079709 -0.01045441 0.01188037
12
MD Step 710 Units = [Angstroms / fs]
C  0.00458663 0.00206112 -0.00075636
C  0.00170141 -0.00240284 -0.00150739
C  0.00649594 -0.00456845 -0.00355235
C  0.00457091 0.00035269 -0.00119051
C  0.00396909 0.00490313 -0.00525869
C  -0.00691275 0.00151465 -0.00257655
H  0.02672074 -0.01175025 -0.00147013
H  -0.00659999 0.00121275 0.00221032
H  0.01648237 0.00555589 -0.00798573
H  -0.01749269 0.03945725 0.02820013
H  -0.02625081 0.02407268 0.00033570
H  0.00926659 -0.01052937 0.01338375
12
MD Step 711 Units = [Angstroms / fs]
C  0.00443838 0.00170652 -0.00053769
C  0.00196583 -0.00207384 -0.00179194
C  0.00675100 -0.00424103 -0.00351619
C  0.00438335 0.00079097 -0.00064120
C  0.00456431 0.00447980 -0.00536965
C  -0.00715865 0.00151642 -0.00278891
H  0.02621574 -0.00827057 -0.00248823
H  -0.00501670 -0.00409410 0.00368865
H  0.01345932 0.00540010 -0.00945646
H  -0.01725748 0.03525525 0.02607278
H  -0.02803331 0.02642727 -0.00019367
H  0.00640749 -0.01049486 0.01471239
12
MD Step 712 Units = [Angstroms / fs]
C  0.00424093 0.00139418 -0.00032560
C  0.00226254 -0.00169016 -0.00207605
C  0.00700721 -0.00383651 -0.00348219
C  0.00420958 0.00131907 -0.00006539
C  0.00498511 0.00416034 -0.00545986
C  -0.00720034 0.00153087 -0.00298877
H  0.02536495 -0.00474221 -0.00346257
H  -0.00324662 -0.00959232 0.00512394
H  0.00990446 0.00511052 -0.01091975
H  -0.01730696 0.02930067 0.02366868
H  -0.02803709 0.02616986 -0.00090990
H  0.00241372 -0.01035195 0.01588308
12
MD Step 713 Units = [Angstroms / fs]
C  0.00400348 0.00114389 -0.00012332
C  0.00260660 -0.00128545 -0.00236100
C  0.00724122 -0.00336608 -0.00345292
C  0.00404041 0.00190355 0.00053131
C  0.00522926 0.00393267 -0.00552910
C  -0.00706066 0.00155476 -0.00317699
H  0.02409788 -0.00138708 -0.00437272
H  -0.00156143 -0.01483105 0.00655313
H  0.00611491 0.00470102 -0.01233937
H  -0.01745609 0.02202640 0.02101978
H  -0.02634373 0.02349963 -0.00180358
H  -0.00237583 -0.01009652 0.01692024
12
MD Step 714 Units = [Angstroms / fs]
C  0.00373575 0.00097314 0.00006619
C  0.00301013 -0.00089199 -0.00264756
C  0.00742883 -0.00284164 -0.00343084
C  0.00386689 0.00250720 0.00114190
C  0.00530515 0.00377141 -0.00557842
C  -0.00677360 0.00158367 -0.00335459
H  0.02236016 0.00158979 -0.00520073
H  -0.00021308 -0.01938070 0.00800539
H  0.00239918 0.00419083 -0.01368101
H  -0.01751929 0.01391273 0.01817659
H  -0.02315536 0.01879860 -0.00285025
H  -0.00750713 -0.00971801 0.01784902
12
MD Step 715 Units = [Angstroms / fs]
C  0.00344752 0.00089603 0.00024035
C  0.00347956 -0.00053673 -0.00293532
C  0.00754647 -0.00227534 -0.00341814
C  0.00368061 0.00309112 0.00175835
C  0.00522853 0.00364465 -0.00560961
C  -0.00637995 0.00161205 -0.00352214
H  0.02011854 0.00401495 -0.00593226
H  0.00060073 -0.02288433 0.00949508
H  -0.00093981 0.00360351 -0.01491448
H  -0.01731915 0.00546186 0.01520390
H  -0.01874934 0.01254902 -0.00401617
H  -0.01246534 -0.00920008 0.01868779
12
MD Step 716 Units = [Angstroms / fs]
C  0.00314820 0.00092206 0.00039709
C  0.00401383 -0.00023862 -0.00322254
C  0.00757270 -0.00167917 -0.00341647
C  0.00347363 0.00361596 0.00237193
C  0.00502002 0.00351874 -0.00562489
C  -0.00592182 0.00163365 -0.00367929
H  0.01736567 0.00576124 -0.00655742
H  0.00075892 -0.02509404 0.01101853
H  -0.00362255 0.00296563 -0.01601572
H  -0.01668978 -0.00281622 0.01217720
H  -0.01344355 0.00527461 -0.00526292
H  -0.01674348 -0.00852358 0.01944234
12
MD Step 717 Units = [Angstroms / fs]
C  0.00284639 0.00105501 0.00053489
C  0.00460407 -0.00000747 -0.00350610
C  0.00748992 -0.00106468 -0.00342684
C  0.00323831 0.00404268 0.00297338
C  0.00470370 0.00336089 -0.00562665
C  -0.00543708 0.00164200 -0.00382457
H  0.01412414 0.00676168 -0.00707134
H  0.00022417 -0.02588718 0.01255498
H  -0.00541262 0.00230510 -0.01696849
H  -0.01547836 -0.01041309 0.00917946
H  -0.00757540 -0.00249224 -0.00655053
H  -0.01991000 -0.00767109 0.02010359
12
MD Step 718 Units = [Angstroms / fs]
C  0.00254942 0.00129211 0.00065279
C  0.00523435 0.00015568 -0.00378193
C  0.00728623 -0.00044275 -0.00344947
C  0.00296730 0.00433364 0.00355324
C  0.00430653 0.00314021 -0.00561728
C  -0.00495520 0.00163102 -0.00395552
H  0.01044904 0.00702027 -0.00747414
H  -0.00096333 -0.02526357 0.01407065
H  -0.00613865 0.00164918 -0.01776568
H  -0.01354771 -0.01683404 0.00629738
H  -0.00149219 -0.01022361 -0.00783921
H  -0.02165984 -0.00663168 0.02064944
12
MD Step 719 Units = [Angstroms / fs]
C  0.00226305 0.00162355 0.00075033
C  0.00588330 0.00025722 -0.00404537
C  0.00695732 0.00017656 -0.00348372
C  0.00265398 0.00445435 0.00410220
C  0.00385813 0.00282771 -0.00559918
C  -0.00449509 0.00159545 -0.00406909
H  0.00642846 0.00661681 -0.00777031
H  -0.00270073 -0.02332934 0.01552436
H  -0.00571675 0.00102241 -0.01840983
H  -0.01078246 -0.02162050 0.00361587
H  0.00445173 -0.01739838 -0.00909028
H  -0.02184018 -0.00540454 0.02104965
12
MD Step 720 Units = [Angstroms / fs]
C  0.00199124 0.00203283 0.00082744
C  0.00652606 0.00030919 -0.00429167
C  0.00650806 0.00078417 -0.00352816
C  0.00229336 0.00437668 0.00461179
C  0.00339066 0.00239627 -0.00557460
C  -0.00406500 0.00153127 -0.00416209
H  0.00218065 0.00570327 -0.00796752
H  -0.00484059 -0.02027432 0.01687319
H  -0.00416975 0.00044473 -0.01891256
H  -0.00710084 -0.02438861 0.00120995
H  0.00989681 -0.02350315 -0.01026696
H  -0.02045039 -0.00400061 0.02127214
12
MD Step 721 Units = [Angstroms / fs]
C  0.00173627 0.00249782 0.00088430
C  0.00713613 0.00032752 -0.00451637
C  0.00595340 0.00137206 -0.00358070
C  0.00188351 0.00408346 0.00507521
C  0.00293809 0.00182098 -0.00554564
C  -0.00366401 0.00143585 -0.00423172
H  -0.00215220 0.00448993 -0.00807486
H  -0.00720817 -0.01634876 0.01807721
H  -0.00163747 -0.00006979 -0.01929257
H  -0.00247261 -0.02488546 -0.00086616
H  0.01448539 -0.02804080 -0.01133583
H  -0.01762275 -0.00244221 0.02128893
12
MD Step 722 Units = [Angstroms / fs]
C  0.00149900 0.00299267 0.00092116
C  0.00768707 0.00033062 -0.00471556
C  0.00531799 0.00193327 -0.00363885
C  0.00142750 0.00357398 0.00548832
C  0.00253460 0.00108084 -0.00551399
C  -0.00328421 0.00130816 -0.00427584
H  -0.00641371 0.00322201 -0.00810111
H  -0.00961593 -0.01184286 0.01910302
H  0.00162734 -0.00051318 -0.01957232
H  0.00305811 -0.02305581 -0.00259097
H  0.01787982 -0.03055501 -0.01226925
H  -0.01359334 -0.00076111 0.02108057
12
MD Step 723 Units = [Angstroms / fs]
C  0.00127946 0.00349017 0.00093822
C  0.00815378 0.00033824 -0.00488612
C  0.00463436 0.00246183 -0.00370009
C  0.00093522 0.00286895 0.00585046
C  0.00221147 0.00016220 -0.00548068
C  -0.00291306 0.00114880 -0.00429326
H  -0.01044532 0.00215018 -0.00805318
H  -0.01187472 -0.00706983 0.01992625
H  0.00528113 -0.00088259 -0.01977376
H  0.00935029 -0.01910124 -0.00398504
H  0.01979671 -0.03067727 -0.01304902
H  -0.00867125 0.00100397 0.02063883
12
MD Step 724 Units = [Angstroms / fs]
C  0.00107744 0.00396428 0.00093555
C  0.00851364 0.00037059 -0.00502586
C  0.00393965 0.00295261 -0.00376220
C  0.00042472 0.00201265 0.00616464
C  0.00199262 -0.00093608 -0.00544576
C  -0.00253532 0.00096013 -0.00428376
H  -0.01409910 0.00149981 -0.00793526
H  -0.01380292 -0.00235132 0.02053302
H  0.00892843 -0.00117833 -0.01991423
H  0.01615204 -0.01350464 -0.00511240
H  0.02005706 -0.02819641 -0.01367082
H  -0.00321147 0.00281009 0.01996782
12
MD Step 725 Units = [Angstroms / fs]
C  0.00089316 0.00439224 0.00091309
C  0.00874732 0.00044742 -0.00513361
C  0.00327151 0.00340105 -0.00382354
C  -0.00007810 0.00107011 0.00643675
C  0.00188932 -0.00219634 -0.00540803
C  -0.00213461 0.00074628 -0.00424816
H  -0.01724932 0.00144467 -0.00774865
H  -0.01523447 0.00199667 0.02092080
H  0.01217143 -0.00140156 -0.02000351
H  0.02310552 -0.00699509 -0.00607055
H  0.01864429 -0.02313983 -0.01414759
H  0.00240719 0.00461251 0.01908397
12
MD Step 726 Units = [Angstroms / fs]
C  0.00072780 0.00475613 0.00087074
C  0.00883963 0.00058693 -0.00520927
C  0.00266389 0.00380296 -0.00388316
C  -0.00054171 0.00011879 0.00667392
C  0.00189581 -0.00357705 -0.00536504
C  -0.00169460 0.00051304 -0.00418828
H  -0.01980128 0.00208917 -0.00749240
H  -0.01602741 0.00568016 0.02109840
H  0.01466006 -0.00155227 -0.02004271
H  0.02977716 -0.00044612 -0.00696943
H  0.01575080 -0.01584022 -0.01450999
H  0.00780011 0.00636686 0.01801527
12
MD Step 727 Units = [Angstroms / fs]
C  0.00058375 0.00504349 0.00080841
C  0.00878022 0.00080429 -0.00525372
C  0.00214365 0.00415433 -0.00394073
C  -0.00093307 -0.00076348 0.00688244
C  0.00198797 -0.00501174 -0.00531346
C  -0.00119999 0.00026762 -0.00410684
H  -0.02169657 0.00346094 -0.00716432
H  -0.01607346 0.00844729 0.02108495
H  0.01613256 -0.00162826 -0.02002529
H  0.03571109 0.00527108 -0.00790564
H  0.01178729 -0.00695265 -0.01480163
H  0.01259350 0.00803122 0.01679973
12
MD Step 728 Units = [Angstroms / fs]
C  0.00046478 0.00524736 0.00072620
C  0.00856436 0.00110972 -0.00526870
C  0.00172849 0.00445132 -0.00399643
C  -0.00122261 -0.00151080 0.00706609
C  0.00212680 -0.00641415 -0.00524993
C  -0.00063781 0.00001818 -0.00400731
H  -0.02291438 0.00551306 -0.00676213
H  -0.01530866 0.01011259 0.02090745
H  0.01643961 -0.00162522 -0.01993965
H  0.04049319 0.00943515 -0.00894105
H  0.00733586 0.00260677 -0.01506935
H  0.01644270 0.00956813 0.01548300
12
MD Step 729 Units = [Angstroms / fs]
C  0.00037587 0.00536564 0.00062447
C  0.00819350 0.00150635 -0.00525645
C  0.00142632 0.00469028 -0.00405066
C  -0.00138862 -0.00207778 0.00722535
C  0.00226647 -0.00768979 -0.00517201
C  0.00000108 -0.00022682 -0.00389364
H  -0.02346989 0.00813348 -0.00628457
H  -0.01372363 0.01058327 0.02059650
H  0.01555029 -0.00153770 -0.01977243
H  0.04380740 0.01157758 -0.01009313
H  0.00304948 0.01180024 -0.01535114
H  0.01905477 0.01094668 0.01411472
12
MD Step 730 Units = [Angstroms / fs]
C  0.00032300 0.00540036 0.00050394
C  0.00767572 0.00198829 -0.00521927
C  0.00123581 0.00486802 -0.00410379
C  -0.00141987 -0.00244270 0.00735771
C  0.00236461 -0.00875079 -0.00507893
C  0.00072000 -0.00045934 -0.00376989
H  -0.02341023 0.01115863 -0.00573208
H  -0.01137115 0.00988225 0.02018038
H  0.01354304 -0.00136054 -0.01951169
H  0.04546953 0.01151785 -0.01133815
H  -0.00047233 0.01964838 -0.01566669
H  0.02021586 0.01214445 0.01274338
12
MD Step 731 Units = [Angstroms / fs]
C  0.00031276 0.00535674 0.00036577
C  0.00702556 0.00253947 -0.00515896
C  0.00114778 0.00498201 -0.00415603
C  -0.00131599 -0.00260544 0.00745867
C  0.00239105 -0.00952908 -0.00497176
C  0.00151426 -0.00067233 -0.00363968
H  -0.02280928 0.01438857 -0.00510724
H  -0.00836808 0.00816070 0.01967836
H  0.01058703 -0.00109028 -0.01914939
H  0.04543328 0.00933649 -0.01262344
H  -0.00278863 0.02539162 -0.01601411
H  0.01982144 0.01314887 0.01140972
12
MD Step 732 Units = [Angstroms / fs]
C  0.00035192 0.00524237 0.00021155
C  0.00626330 0.00313398 -0.00507634
C  0.00114678 0.00503061 -0.00420723
C  -0.00108617 -0.00258252 0.00752292
C  0.00233236 -0.00998398 -0.00485313
C  0.00236929 -0.00086016 -0.00350560
H  -0.02176178 0.01760205 -0.00441483
H  -0.00488880 0.00569276 0.01909467
H  0.00691984 -0.00072627 -0.01868300
H  0.04377402 0.00531178 -0.01388233
H  -0.00367044 0.02858360 -0.01637361
H  0.01790353 0.01395728 0.01013945
12
MD Step 733 Units = [Angstroms / fs]
C  0.00044697 0.00506645 0.00004328
C  0.00541358 0.00373823 -0.00497097
C  0.00121278 0.00501322 -0.00425685
C  -0.00074698 -0.00240145 0.00754541
C  0.00219149 -0.01010297 -0.00472640
C  0.00325965 -0.00101864 -0.00336873
H  -0.02037712 0.02057083 -0.00366165
H  -0.00114962 0.00284813 0.01841535
H  0.00282526 -0.00027134 -0.01811619
H  0.04066126 -0.00015157 -0.01504713
H  -0.00309650 0.02910170 -0.01671526
H  0.01464657 0.01457530 0.00893690
12
MD Step 734 Units = [Angstroms / fs]
C  0.00060351 0.00483908 -0.00013665
C  0.00450338 0.00431474 -0.00484123
C  0.00132264 0.00493043 -0.00430389
C  -0.00032005 -0.00209600 0.00752194
C  0.00198409 -0.00989731 -0.00459497
C  0.00414977 -0.00114476 -0.00322830
H  -0.01877286 0.02307333 -0.00285612
H  0.00261428 0.00004502 0.01760943
H  -0.00138661 0.00026787 -0.01745894
H  0.03633026 -0.00658218 -0.01605791
H  -0.00120905 0.02709434 -0.01700740
H  0.01038284 0.01501327 0.00778170
12
MD Step 735 Units = [Angstroms / fs]
C  0.00082567 0.00457052 -0.00032555
C  0.00355990 0.00482687 -0.00468475
C  0.00145154 0.00478394 -0.00434696
C  0.00016969 -0.00170303 0.00744951
C  0.00173354 -0.00939540 -0.00446168
C  0.00499669 -0.00123622 -0.00308186
H  -0.01706746 0.02490810 -0.00200774
H  0.00617505 -0.00230774 0.01663465
H  -0.00539726 0.00088098 -0.01672698
H  0.03105935 -0.01348233 -0.01686720
H  0.00174441 0.02290074 -0.01722296
H  0.00556187 0.01528160 0.00663039
12
MD Step 736 Units = [Angstroms / fs]
C  0.00111543 0.00427038 -0.00052057
C  0.00260864 0.00524340 -0.00449916
C  0.00157434 0.00457656 -0.00438426
C  0.00069531 -0.00126074 0.00732644
C  0.00146641 -0.00863651 -0.00432852
C  0.00575480 -0.00129104 -0.00292583
H  -0.01537222 0.02590758 -0.00112647
H  0.00933630 -0.00386622 0.01544642
H  -0.00889681 0.00155410 -0.01594095
H  0.02515528 -0.02035035 -0.01744216
H  0.00546284 0.01697399 -0.01734304
H  0.00069596 0.01538633 0.00542360
12
MD Step 737 Units = [Angstroms / fs]
C  0.00147184 0.00394679 -0.00071875
C  0.00167196 0.00554194 -0.00428280
C  0.00166713 0.00431211 -0.00441377
C  0.00122867 -0.00080789 0.00715236
C  0.00120931 -0.00766626 -0.00419651
C  0.00638148 -0.00130718 -0.00275637
H  -0.01378217 0.02595174 -0.00022206
H  0.01195057 -0.00439243 0.01400745
H  -0.01160214 0.00227037 -0.01512490
H  0.01894526 -0.02669090 -0.01776528
H  0.00962728 0.00982451 -0.01735823
H  -0.00370816 0.01532651 0.00409750
12
MD Step 738 Units = [Angstroms / fs]
C  0.00189029 0.00360552 -0.00091722
C  0.00076844 0.00571057 -0.00403534
C  0.00170899 0.00399529 -0.00443332
C  0.00174102 -0.00038332 0.00692823
C  0.00098704 -0.00653396 -0.00406576
C  0.00684259 -0.00128264 -0.00257042
H  -0.01236648 0.02498096 0.00069652
H  0.01392796 -0.00377429 0.01229560
H  -0.01327734 0.00301060 -0.01430436
H  0.01277224 -0.03202058 -0.01783479
H  0.01392018 0.00198711 -0.01726871
H  -0.00721590 0.01509417 0.00259639
12
MD Step 739 Units = [Angstroms / fs]
C  0.00236187 0.00324929 -0.00111324
C  -0.00008719 0.00574783 -0.00375813
C  0.00168405 0.00363167 -0.00444083
C  0.00220370 -0.00002525 0.00665637
C  0.00082185 -0.00529158 -0.00393552
C  0.00711639 -0.00121569 -0.00236648
H  -0.01115961 0.02300595 0.00162141
H  0.01523650 -0.00202464 0.01030830
H  -0.01375660 0.00375414 -0.01350375
H  0.00698878 -0.03587649 -0.01766511
H  0.01803259 -0.00599302 -0.01708405
H  -0.00951484 0.01467696 0.00088334
12
MD Step 740 Units = [Angstroms / fs]
C  0.00287291 0.00287740 -0.00130431
C  -0.00088367 0.00566133 -0.00345423
C  0.00158357 0.00322767 -0.00443454
C  0.00258945 0.00023025 0.00634049
C  0.00073327 -0.00399342 -0.00380426
C  0.00719538 -0.00110535 -0.00214505
H  -0.01015489 0.02011248 0.00254587
H  0.01589623 0.00073509 0.00806338
H  -0.01296765 0.00447980 -0.01274323
H  0.00194411 -0.03783474 -0.01728690
H  0.02166519 -0.01356371 -0.01682319
H  -0.01043981 0.01406210 -0.00105393
12
MD Step 741 Units = [Angstroms / fs]
C  0.00340505 0.00248585 -0.00148815
C  -0.00161262 0.00546580 -0.00312821
C  0.00140779 0.00279063 -0.00441332
C  0.00287457 0.00035212 0.00598563
C  0.00073825 -0.00269591 -0.00366972
C  0.00708587 -0.00095191 -0.00190862
H  -0.00930266 0.01645841 0.00346393
H  0.01597019 0.00429919 0.00559707
H  -0.01095144 0.00516674 -0.01203551
H  -0.00204098 -0.03754436 -0.01674572
H  0.02452865 -0.02016774 -0.01651460
H  -0.00997288 0.01324051 -0.00320216
12
MD Step 742 Units = [Angstroms / fs]
C  0.00393577 0.00206813 -0.00166268
C  -0.00226796 0.00518091 -0.00278588
C  0.00116690 0.00232892 -0.00437687
C  0.00304223 0.00031852 0.00559783
C  0.00085106 -0.00145649 -0.00352896
C  0.00680612 -0.00075724 -0.00166139
H  -0.00851472 0.01226164 0.00436957
H  0.01555474 0.00840335 0.00296031
H  -0.00787199 0.00579512 -0.01138316
H  -0.00471399 -0.03477831 -0.01609774
H  0.02634868 -0.02525318 -0.01619625
H  -0.00822485 0.01220991 -0.00552598
12
MD Step 743 Units = [Angstroms / fs]
C  0.00443961 0.00161653 -0.00182598
C  -0.00284551 0.00482939 -0.00243387
C  0.00088072 0.00185210 -0.00432586
C  0.00308655 0.00012212 0.00518349
C  0.00108258 -0.00033111 -0.00337847
C  0.00638351 -0.00052498 -0.00140874
H  -0.00767531 0.00777959 0.00525581
H  0.01477050 0.01274795 0.00021447
H  -0.00401058 0.00634643 -0.01077719
H  -0.00594230 -0.02949603 -0.01540123
H  0.02688022 -0.02830156 -0.01591453
H  -0.00540736 0.01097645 -0.00797353
12
MD Step 744 Units = [Angstroms / fs]
C  0.00488986 0.00112379 -0.00197617
C  -0.00334270 0.00443539 -0.00207932
C  0.00057685 0.00137097 -0.00426192
C  0.00301651 -0.00022491 0.00474829
C  0.00143875 0.00063065 -0.00321448
C  0.00585172 -0.00026045 -0.00115674
H  -0.00665752 0.00328276 0.00611383
H  0.01375467 0.01701770 -0.00257306
H  0.00025930 0.00680347 -0.01019778
H  -0.00576453 -0.02190210 -0.01470387
H  0.02593416 -0.02888168 -0.01572077
H  -0.00180339 0.00955500 -0.01048288
12
MD Step 745 Units = [Angstroms / fs]
C  0.00526063 0.00058482 -0.00211138
C  -0.00375839 0.00402313 -0.00172950
C  0.00028721 0.00089744 -0.00418743
C  0.00285797 -0.00068817 0.00429610
C  0.00191795 0.00139252 -0.00303346
C  0.00524814 0.00002963 -0.00091169
H  -0.00534222 -0.00097318 0.00693250
H  0.01265397 0.02089855 -0.00533304
H  0.00451449 0.00715021 -0.00961720
H  -0.00442087 -0.01247617 -0.01402844
H  0.02341630 -0.02673004 -0.01566407
H  0.00225901 0.00796859 -0.01298784
12
MD Step 746 Units = [Angstroms / fs]
C  0.00552877 -0.00000193 -0.00222975
C  -0.00409275 0.00361566 -0.00139149
C  0.00004381 0.00044413 -0.00410510
C  0.00265201 -0.00121263 0.00382800
C  0.00250794 0.00193976 -0.00283309
C  0.00461182 0.00033760 -0.00067976
H  -0.00363576 -0.00477210 0.00769851
H  0.01161732 0.02409371 -0.00799866
H  0.00833511 0.00737175 -0.00900456
H  -0.00234060 -0.00194992 -0.01336234
H  0.01937188 -0.02184515 -0.01577984
H  0.00642832 0.00624718 -0.01542289
12
MD Step 747 Units = [Angstroms / fs]
C  0.00567565 -0.00063366 -0.00232943
C  -0.00434698 0.00323364 -0.00107177
C  -0.00012545 0.00002373 -0.00401762
C  0.00244904 -0.00172937 0.00334223
C  0.00318321 0.00228592 -0.00261327
C  0.00398177 0.00065541 -0.00046673
H  -0.00148333 -0.00795513 0.00839714
H  0.01078707 0.02634093 -0.01050995
H  0.01135695 0.00745467 -0.00833122
H  -0.00007727 0.00877934 -0.01265667
H  0.01402095 -0.01456569 -0.01607564
H  0.01034777 0.00442619 -0.01772731
12
MD Step 748 Units = [Angstroms / fs]
C  0.00568830 -0.00130303 -0.00240870
C  -0.00452281 0.00289392 -0.00077585
C  -0.00020013 -0.00035196 -0.00392719
C  0.00229968 -0.00216632 0.00283504
C  0.00390461 0.00247476 -0.00237712
C  0.00339539 0.00097517 -0.00027770
H  0.00112390 -0.01042961 0.00901347
H  0.01028771 0.02743199 -0.01281840
H  0.01331274 0.00738773 -0.00757562
H  0.00179551 0.01878305 -0.01183740
H  0.00776497 -0.00559035 -0.01651883
H  0.01367259 0.00254474 -0.01984876
12
MD Step 749 Units = [Angstroms / fs]
C  0.00556012 -0.00199860 -0.00246601
C  -0.00462173 0.00260803 -0.00050790
C  -0.00016921 -0.00067290 -0.00383524
C  0.00224544 -0.00245992 0.00230228
C  0.00462227 0.00257451 -0.00213127
C  0.00288691 0.00128962 -0.00011691
H  0.00414809 -0.01216968 0.00953377
H  0.01021198 0.02723422 -0.01489145
H  0.01405543 0.00716296 -0.00672652
H  0.00279446 0.02724538 -0.01082531
H  0.00114945 0.00409346 -0.01703236
H  0.01608939 0.00064363 -0.02174657
12
MD Step 750 Units = [Angstroms / fs]
C  0.00529100 -0.00270558 -0.00250012
C  -0.00464403 0.00238074 -0.00027042
C  -0.00003149 -0.00093164 -0.00374232
C  0.00231222 -0.00256413 0.00174114
C  0.00528198 0.00266463 -0.00188510
C  0.00248545 0.00159250 0.00001255
H  0.00750930 -0.01321032 0.00994689
H  0.01060548 0.02571131 -0.01671598
H  0.01356239 0.00677663 -0.00578423
H  0.00260675 0.03357368 -0.00955712
H  -0.00521627 0.01337056 -0.01750325
H  0.01733971 -0.00123716 -0.02339473
12
MD Step 751 Units = [Angstroms / fs]
C  0.00488703 -0.00340678 -0.00251018
C  -0.00458782 0.00220897 -0.00006413
C  0.00020511 -0.00112377 -0.00364806
C  0.00250822 -0.00245471 0.00115123
C  0.00583335 0.00281900 -0.00164908
C  0.00221266 0.00187881 0.00010895
H  0.01109348 -0.01363737 0.01024532
H  0.01145260 0.02293851 -0.01829963
H  0.01192414 0.00623003 -0.00475993
H  0.00111910 0.03744884 -0.00799996
H  -0.01076071 0.02120243 -0.01780337
H  0.01724819 -0.00306103 -0.02478414
12
MD Step 752 Units = [Angstroms / fs]
C  0.00436001 -0.00408359 -0.00249578
C  -0.00444844 0.00208163 0.00011192
C  0.00052501 -0.00124803 -0.00355133
C  0.00282582 -0.00212865 0.00053499
C  0.00623707 0.00309139 -0.00143265
C  0.00208032 0.00214478 0.00017203
H  0.01476214 -0.01357565 0.01042594
H  0.01266806 0.01910658 -0.01966894
H  0.00932390 0.00552988 -0.00367386
H  -0.00160068 0.03881561 -0.00615585
H  -0.01504017 0.02680506 -0.01781518
H  0.01575246 -0.00479730 -0.02592337
12
MD Step 753 Units = [Angstroms / fs]
C  0.00372663 -0.00471682 -0.00245704
C  -0.00421860 0.00198056 0.00025992
C  0.00090671 -0.00130614 -0.00345034
C  0.00324582 -0.00160043 -0.00010278
C  0.00646915 0.00350761 -0.00124256
C  0.00208813 0.00238786 0.00020296
H  0.01836249 -0.01317677 0.01049037
H  0.01409844 0.01450930 -0.02086367
H  0.00601372 0.00468822 -0.00255288
H  -0.00535062 0.03783299 -0.00405759
H  -0.01779009 0.02974475 -0.01745331
H  0.01292872 -0.00642277 -0.02683679
12
MD Step 754 Units = [Angstroms / fs]
C  0.00300762 -0.00528749 -0.00239456
C  -0.00388951 0.00188295 0.00038259
C  0.00132457 -0.00130232 -0.00334290
C  0.00374199 -0.00089704 -0.00075559
C  0.00652145 0.00406577 -0.00108204
C  0.00222264 0.00260642 0.00020398
H  0.02173742 -0.01260707 0.01044489
H  0.01553656 0.00951336 -0.02192819
H  0.00229130 0.00372205 -0.00142790
H  -0.00984756 0.03481088 -0.00176010
H  -0.01893026 0.02993913 -0.01667538
H  0.00900394 -0.00792173 -0.02755964
12
MD Step 755 Units = [Angstroms / fs]
C  0.00222667 -0.00577761 -0.00230947
C  -0.00345290 0.00176459 0.00048243
C  0.00175039 -0.00124274 -0.00322662
C  0.00428476 -0.00005360 -0.00141604
C  0.00639944 0.00474201 -0.00095097
C  0.00245800 0.00279931 0.00017787
H  0.02473521 -0.01203571 0.01030004
H  0.01674767 0.00451453 -0.02290190
H  -0.00152079 0.00265268 -0.00033150
H  -0.01477113 0.03015294 0.00066882
H  -0.01853509 0.02758974 -0.01548150
H  0.00434602 -0.00928402 -0.02813024
12
MD Step 756 Units = [Angstroms / fs]
C  0.00140932 -0.00617089 -0.00220338
C  -0.00290354 0.00160362 0.00056111
C  0.00215508 -0.00113483 -0.00309909
C  0.00484367 0.00088997 -0.00207644
C  0.00611876 0.00549843 -0.00084660
C  0.00275881 0.00296534 0.00012724
H  0.02721912 -0.01162231 0.01006975
H  0.01750267 -0.00011138 -0.02381114
H  -0.00509391 0.00150481 0.00070418
H  -0.01979321 0.02431528 0.00315593
H  -0.01678882 0.02308834 -0.01390642
H  -0.00057263 -0.01050151 -0.02858094
12
MD Step 757 Units = [Angstroms / fs]
C  0.00058167 -0.00645366 -0.00207826
C  -0.00224165 0.00138360 0.00061905
C  0.00251019 -0.00098661 -0.00295811
C  0.00538871 0.00189085 -0.00272919
C  0.00570178 0.00629028 -0.00076444
C  0.00308495 0.00310276 0.00005392
H  0.02907678 -0.01150392 0.00976995
H  0.01761084 -0.00405201 -0.02466479
H  -0.00811172 0.00030542 0.00164955
H  -0.02459394 0.01778193 0.00562769
H  -0.01394270 0.01693144 -0.01200922
H  -0.00523451 -0.01156418 -0.02893033
12
MD Step 758 Units = [Angstroms / fs]
C  -0.00023088 -0.00661583 -0.00193629
C  -0.00147454 0.00109552 0.00065549
C  0.00278974 -0.00080606 -0.00280189
C  0.00589099 0.00290433 -0.00336696
C  0.00517513 0.00707097 -0.00069911
C  0.00339730 0.00320891 -0.00004138
H  0.03022901 -0.01178127 0.00941686
H  0.01694465 -0.00708832 -0.02545429
H  -0.01029007 -0.00091759 0.00247960
H  -0.02886906 0.01105277 0.00801355
H  -0.01028340 0.00965980 -0.00986441
H  -0.00914763 -0.01245733 -0.02917921
12
MD Step 759 Units = [Angstroms / fs]
C  -0.00100489 -0.00665196 -0.00177972
C  -0.00061714 0.00073845 0.00066878
C  0.00297223 -0.00060063 -0.00262929
C  0.00632321 0.00388445 -0.00398287
C  0.00456813 0.00779490 -0.00064476
C  0.00366307 0.00328013 -0.00015900
H  0.03063709 -0.01250545 0.00902472
H  0.01545252 -0.00910690 -0.02615744
H  -0.01139947 -0.00213707 0.00317596
H  -0.03233382 0.00463736 0.01024848
H  -0.00611470 0.00182472 -0.00755584
H  -0.01191082 -0.01316108 -0.02931138
12
MD Step 760 Units = [Angstroms / fs]
C  -0.00171991 -0.00656216 -0.00161059
C  0.00030866 0.00031881 0.00065680
C  0.00304287 -0.00037686 -0.00243999
C  0.00666027 0.00478465 -0.00457063
C  0.00391199 0.00841854 -0.00059536
C  0.00385951 0.00331197 -0.00030001
H  0.03030717 -0.01366680 0.00860359
H  0.01315913 -0.01009647 -0.02674428
H  -0.01129009 -0.00332837 0.00372893
H  -0.03472818 -0.00095318 0.01227574
H  -0.00174960 -0.00602526 -0.00517353
H  -0.01325951 -0.01365221 -0.02929882
12
MD Step 761 Units = [Angstroms / fs]
C  -0.00235923 -0.00635266 -0.00143057
C  0.00127544 -0.00015095 0.00061750
C  0.00299573 -0.00014009 -0.00223466
C  0.00688025 0.00555944 -0.00512480
C  0.00323945 0.00890062 -0.00054480
C  0.00397545 0.00329963 -0.00046559
H  0.02929033 -0.01518908 0.00815730
H  0.01015615 -0.01013351 -0.02718332
H  -0.00991619 -0.00447096 0.00413908
H  -0.03582725 -0.00522386 0.01405051
H  0.00249148 -0.01334693 -0.00281222
H  -0.01308470 -0.01390781 -0.02910920
12
MD Step 762 Units = [Angstroms / fs]
C  -0.00291018 -0.00603584 -0.00124084
C  0.00225224 -0.00065411 0.00054931
C  0.00283543 0.00010551 -0.00201502
C  0.00696604 0.00616733 -0.00564115
C  0.00258452 0.00920221 -0.00048690
C  0.00401081 0.00323851 -0.00065649
H  0.02767730 -0.01693150 0.00768240
H  0.00658786 -0.00936278 -0.02744678
H  -0.00735504 -0.00554945 0.00441789
H  -0.03545897 -0.00773072 0.01554464
H  0.00628190 -0.01960388 -0.00057025
H  -0.01142701 -0.01390912 -0.02871340
12
MD Step 763 Units = [Angstroms / fs]
C  -0.00336384 -0.00562938 -0.00104205
C  0.00320657 -0.00117120 0.00045136
C  0.00257774 0.00035685 -0.00178379
C  0.00690736 0.00657560 -0.00611705
C  0.00198176 0.00928745 -0.00041555
C  0.00397471 0.00312475 -0.00087267
H  0.02558791 -0.01870041 0.00716827
H  0.00263529 -0.00797753 -0.02751444
H  -0.00381341 -0.00655356 0.00458710
H  -0.03352875 -0.00813646 0.01675151
H  0.00929494 -0.02427647 0.00145305
H  -0.00845334 -0.01364481 -0.02809141
12
MD Step 764 Units = [Angstroms / fs]
C  -0.00371454 -0.00515472 -0.00083442
C  0.00410633 -0.00168139 0.00032372
C  0.00224867 0.00061158 -0.00154449
C  0.00670288 0.00676652 -0.00655180
C  0.00146482 0.00912562 -0.00032506
C  0.00388301 0.00295579 -0.00111303
H  0.02315683 -0.02027039 0.00659886
H  -0.00149853 -0.00620189 -0.02737588
H  0.00038437 -0.00747684 0.00467637
H  -0.03004705 -0.00628316 0.01768890
H  0.01122074 -0.02688928 0.00316325
H  -0.00442587 -0.01311286 -0.02723590
12
MD Step 765 Units = [Angstroms / fs]
C  -0.00395898 -0.00463492 -0.00061797
C  0.00492139 -0.00216342 0.00016746
C  0.00188179 0.00086759 -0.00130107
C  0.00636183 0.00674366 -0.00694658
C  0.00106370 0.00869509 -0.00021093
C  0.00375585 0.00273080 -0.00137539
H  0.02051798 -0.02141163 0.00595571
H  -0.00560146 -0.00427604 -0.02703151
H  0.00482897 -0.00831424 0.00471938
H  -0.02515130 -0.00226604 0.01839706
H  0.01179862 -0.02706229 0.00448137
H  0.00032889 -0.01232128 -0.02615353
12
MD Step 766 Units = [Angstroms / fs]
C  -0.00409547 -0.00409237 -0.00039281
C  0.00562490 -0.00259642 -0.00001538
C  0.00151412 0.00112251 -0.00105757
C  0.00590420 0.00653602 -0.00730380
C  0.00080071 0.00798920 -0.00007097
C  0.00361569 0.00245101 -0.00165657
H  0.01779065 -0.02191888 0.00522157
H  -0.00946362 -0.00244327 -0.02649266
H  0.00907572 -0.00905942 0.00474931
H  -0.01911151 0.00351985 0.01892962
H  0.01086534 -0.02458547 0.00535901
H  0.00544670 -0.01128769 -0.02486480
12
MD Step 767 Units = [Angstroms / fs]
C  -0.00412332 -0.00354669 -0.00015941
C  0.00619439 -0.00296064 -0.00022185
C  0.00118132 0.00137328 -0.00081762
C  0.00535890 0.00619720 -0.00762594
C  0.00068563 0.00702279 0.00009339
C  0.00348581 0.00211993 -0.00195254
H  0.01506958 -0.02163648 0.00438405
H  -0.01288817 -0.00093727 -0.02578070
H  0.01270186 -0.00970249 0.00479433
H  -0.01231083 0.01039106 0.01933818
H  0.00841186 -0.01950363 0.00579542
H  0.01054704 -0.01003844 -0.02340279
12
MD Step 768 Units = [Angstroms / fs]
C  -0.00404254 -0.00301325 0.00008119
C  0.00661271 -0.00323839 -0.00044818
C  0.00091331 0.00161591 -0.00058421
C  0.00476004 0.00579843 -0.00791424
C  0.00071152 0.00583735 0.00027615
C  0.00338912 0.00174341 -0.00225854
H  0.01242014 -0.02047547 0.00343828
H  -0.01570266 0.00003197 -0.02492536
H  0.01535913 -0.01022925 0.00487450
H  -0.00520009 0.01746178 0.01965494
H  0.00463003 -0.01218268 0.00585024
H  0.01525086 -0.00860725 -0.02181122
12
MD Step 769 Units = [Angstroms / fs]
C  -0.00385381 -0.00250244 0.00032722
C  0.00686891 -0.00341517 -0.00069006
C  0.00073099 0.00184542 -0.00035954
C  0.00414212 0.00541625 -0.00816773
C  0.00085325 0.00450145 0.00046657
C  0.00334707 0.00132941 -0.00256934
H  0.00987816 -0.01842076 0.00238827
H  -0.01777119 0.00029483 -0.02396187
H  0.01681112 -0.01062194 0.00500023
H  0.00176354 0.02379081 0.01988065
H  -0.00007562 -0.00331966 0.00564430
H  0.01919757 -0.00703349 -0.02014189
12
MD Step 770 Units = [Angstroms / fs]
C  -0.00355867 -0.00201953 0.00057624
C  0.00695897 -0.00348111 -0.00094296
C  0.00064471 0.00205619 -0.00014498
C  0.00353555 0.00511874 -0.00838311
C  0.00107050 0.00310433 0.00065060
C  0.00337843 0.00088761 -0.00287944
H  0.00745341 -0.01552916 0.00124698
H  -0.01900698 -0.00025913 -0.02292687
H  0.01695020 -0.01086136 0.00517264
H  0.00817708 0.02854608 0.01998328
H  -0.00513081 0.00613087 0.00534305
H  0.02206409 -0.00536007 -0.01845116
12
MD Step 771 Units = [Angstroms / fs]
C  -0.00315971 -0.00156517 0.00082514
C  0.00688635 -0.00343251 -0.00120250
C  0.00065430 0.00224238 0.00005875
C  0.00296373 0.00495449 -0.00855551
C  0.00131516 0.00174312 0.00081334
C  0.00349765 0.00042870 -0.00318343
H  0.00513491 -0.01192056 0.00003523
H  -0.01938358 -0.00166215 -0.02185326
H  0.01579496 -0.01092944 0.00538516
H  0.01373505 0.03113446 0.01990786
H  -0.00988767 0.01510947 0.00512480
H  0.02358822 -0.00363068 -0.01679512
12
MD Step 772 Units = [Angstroms / fs]
C  -0.00266084 -0.00113609 0.00107030
C  0.00666209 -0.00327318 -0.00146502
C  0.00075023 0.00239851 0.00025141
C  0.00244210 0.00494729 -0.00867974
C  0.00154109 0.00050715 0.00094199
C  0.00371278 -0.00003644 -0.00347640
H  0.00289687 -0.00776497 -0.00122015
H  -0.01894170 -0.00385329 -0.02076448
H  0.01347355 -0.01081177 0.00562582
H  0.01824784 0.03126266 0.01959247
H  -0.01374617 0.02263941 0.00514397
H  0.02359623 -0.00188647 -0.01522356
12
MD Step 773 Units = [Angstroms / fs]
C  -0.00206738 -0.00072606 0.00130775
C  0.00630430 -0.00301510 -0.00172789
C  0.00091545 0.00252003 0.00043301
C  0.00197891 0.00509675 -0.00875150
C  0.00171258 -0.00053527 0.00102813
C  0.00402329 -0.00049754 -0.00375448
H  0.00070421 -0.00326790 -0.00248841
H  -0.01778870 -0.00667269 -0.01966963
H  0.01019986 -0.01049945 0.00587956
H  0.02163699 0.02892713 0.01898378
H  -0.01625905 0.02798655 0.00550264
H  0.02203190 -0.00016249 -0.01377278
12
MD Step 774 Units = [Angstroms / fs]
C  -0.00138618 -0.00032681 0.00153332
C  0.00583688 -0.00267789 -0.00198986
C  0.00112736 0.00260377 0.00060368
C  0.00157686 0.00538298 -0.00876816
C  0.00180911 -0.00134378 0.00106857
C  0.00441828 -0.00094551 -0.00401536
H  -0.00148262 0.00134440 -0.00373711
H  -0.01608850 -0.00986992 -0.01856066
H  0.00624858 -0.00999011 0.00613029
H  0.02391612 0.02435625 0.01804754
H  -0.01718756 0.03074348 0.00623927
H  0.01898075 0.00151529 -0.01245871
12
MD Step 775 Units = [Angstroms / fs]
C  -0.00062563 0.00007094 0.00174281
C  0.00528752 -0.00228714 -0.00225097
C  0.00135971 0.00264823 0.00076348
C  0.00123477 0.00577272 -0.00872910
C  0.00182540 -0.00190582 0.00106483
C  0.00487564 -0.00137281 -0.00425870
H  -0.00370344 0.00583952 -0.00493431
H  -0.01404207 -0.01312846 -0.01741306
H  0.00193240 -0.00928837 0.00636241
H  0.02516701 0.01793602 0.01677271
H  -0.01650080 0.03082845 0.00733447
H  0.01468080 0.00313148 -0.01127193
12
MD Step 776 Units = [Angstroms / fs]
C  0.00020442 0.00047643 0.00193218
C  0.00468527 -0.00187141 -0.00251222
C  0.00158426 0.00265367 0.00091233
C  0.00094894 0.00622501 -0.00863556
C  0.00176841 -0.00223146 0.00102177
C  0.00536299 -0.00177329 -0.00448620
H  -0.00599435 0.00999339 -0.00605058
H  -0.01186163 -0.01610375 -0.01619040
H  -0.00241751 -0.00840565 0.00656191
H  0.02551819 0.01014329 0.01517110
H  -0.01433487 0.02842357 0.00872741
H  0.00951165 0.00468024 -0.01017687
12
MD Step 777 Units = [Angstroms / fs]
C  0.00109257 0.00089766 0.00209774
C  0.00405815 -0.00145874 -0.00277503
C  0.00177234 0.00262194 0.00105000
C  0.00071387 0.00669534 -0.00849049
C  0.00165299 -0.00234632 0.00094605
C  0.00584069 -0.00214175 -0.00470126
H  -0.00838375 0.01360525 -0.00706091
H  -0.00974381 -0.01846770 -0.01485179
H  -0.00646882 -0.00735965 0.00671720
H  0.02512933 0.00149769 0.01327460
H  -0.01093698 0.02389009 0.01033439
H  0.00395781 0.00616147 -0.00911634
12
MD Step 778 Units = [Angstroms / fs]
C  0.00202588 0.00134019 0.00223635
C  0.00343113 -0.00107334 -0.00304053
C  0.00189646 0.00255620 0.00117600
C  0.00052251 0.00713830 -0.00829826
C  0.00149806 -0.00228515 0.00084496
C  0.00626651 -0.00247335 -0.00490820
H  -0.01088765 0.01651310 -0.00794641
H  -0.00784730 -0.01995037 -0.01336050
H  -0.00990497 -0.00617347 0.00681958
H  0.02418202 -0.00746683 0.01113204
H  -0.00661480 0.01769115 0.01206425
H  -0.00144976 0.00757538 -0.00802136
12
MD Step 779 Units = [Angstroms / fs]
C  0.00298966 0.00180579 0.00234556
C  0.00282493 -0.00073310 -0.00330904
C  0.00193200 0.00246052 0.00128965
C  0.00036614 0.00750899 -0.00806445
C  0.00132394 -0.00208724 0.00072561
C  0.00660109 -0.00276293 -0.00511128
H  -0.01350451 0.01860895 -0.00869564
H  -0.00627900 -0.02037028 -0.01169144
H  -0.01244396 -0.00487433 0.00686375
H  0.02287547 -0.01621640 0.00880664
H  -0.00170098 0.01033710 0.01382828
H  -0.00620272 0.00891685 -0.00682396
12
MD Step 780 Units = [Angstroms / fs]
C  0.00396733 0.00229143 0.00242375
C  0.00225566 -0.00044840 -0.00357966
C  0.00185924 0.00233939 0.00139003
C  0.00023424 0.00776400 -0.00779577
C  0.00115103 -0.00179382 0.00059456
C  0.00681296 -0.00300476 -0.00531370
H  -0.01620980 0.01985200 -0.00930523
H  -0.00508969 -0.01964913 -0.00983600
H  -0.01386016 -0.00349182 0.00684811
H  0.02142482 -0.02422529 0.00637377
H  0.00346625 0.00235509 0.01554549
H  -0.00987921 0.01017178 -0.00546965
12
MD Step 781 Units = [Angstroms / fs]
C  0.00494021 0.00278863 0.00247015
C  0.00173509 -0.00022204 -0.00385021
C  0.00166555 0.00219720 0.00147599
C  0.00011448 0.00786231 -0.00749983
C  0.00099938 -0.00144699 0.00045774
C  0.00688196 -0.00319251 -0.00551692
H  -0.01895123 0.02027689 -0.00977968
H  -0.00427778 -0.01781105 -0.00780354
H  -0.01400868 -0.00205572 0.00677499
H  0.02005869 -0.03098583 0.00391859
H  0.00855056 -0.00572291 0.01714471
H  -0.01218904 0.01131634 -0.00392643
12
MD Step 782 Units = [Angstroms / fs]
C  0.00588743 0.00328352 0.00248479
C  0.00127130 -0.00005018 -0.00411735
C  0.00134756 0.00203793 0.00154622
C  -0.00000679 0.00776709 -0.00718494
C  0.00088878 -0.00108939 0.00032037
C  0.00680058 -0.00331967 -0.00572034
H  -0.02164613 0.01999391 -0.01012995
H  -0.00379809 -0.01497042 -0.00562013
H  -0.01284961 -0.00059355 0.00665054
H  0.01901230 -0.03602773 0.00153191
H  0.01321876 -0.01336229 0.01856549
H  -0.01299348 0.01231933 -0.00218854
12
MD Step 783 Units = [Angstroms / fs]
C  0.00678616 0.00375782 0.00246830
C  0.00086953 0.00007629 -0.00437686
C  0.00091286 0.00186490 0.00159927
C  -0.00014324 0.00744847 -0.00685955
C  0.00083888 -0.00076402 0.00018698
C  0.00657333 -0.00338020 -0.00592148
H  -0.02418261 0.01917864 -0.01037113
H  -0.00357263 -0.01131345 -0.00332531
H  -0.01046663 0.00087169 0.00648427
H  0.01851185 -0.03895239 -0.00069674
H  0.01714173 -0.02002727 0.01975906
H  -0.01230105 0.01314622 -0.00027526
12
MD Step 784 Units = [Angstroms / fs]
C  0.00761214 0.00419066 0.00242167
C  0.00053284 0.00017021 -0.00462395
C  0.00038061 0.00168077 0.00163371
C  -0.00030633 0.00688771 -0.00653142
C  0.00086880 -0.00051334 0.00006121
C  0.00621480 -0.00336923 -0.00611634
H  -0.02642567 0.01805097 -0.01051935
H  -0.00350105 -0.00707811 -0.00096804
H  -0.00707325 0.00232295 0.00628814
H  0.01874706 -0.03948380 -0.00269004
H  0.02000100 -0.02519125 0.02069050
H  -0.01024662 0.01376385 0.00177390
12
MD Step 785 Units = [Angstroms / fs]
C  0.00834074 0.00456114 0.00234599
C  0.00026265 0.00024675 -0.00485361
C  -0.00021933 0.00148783 0.00164825
C  -0.00050200 0.00608215 -0.00620651
C  0.00099598 -0.00037691 -0.00005444
C  0.00574714 -0.00328361 -0.00629995
H  -0.02822856 0.01684614 -0.01058876
H  -0.00346969 -0.00253523 0.00139742
H  -0.00300054 0.00374913 0.00607520
H  0.01983190 -0.03752946 -0.00439699
H  0.02150615 -0.02836480 0.02134203
H  -0.00706273 0.01414440 0.00390560
12
MD Step 786 Units = [Angstroms / fs]
C  0.00894838 0.00485086 0.00224221
C  0.00005905 0.00032213 -0.00506090
C  -0.00084914 0.00128838 0.00164190
C  -0.00072704 0.00504966 -0.00588781
C  0.00123366 -0.00038715 -0.00015894
C  0.00519757 -0.00312230 -0.00646683
H  -0.02944808 0.01578307 -0.01058908
H  -0.00335917 0.00202832 0.00371550
H  0.00133597 0.00514345 0.00585793
H  0.02176012 -0.03323543 -0.00580721
H  0.02142692 -0.02914832 0.02171702
H  -0.00305058 0.01426827 0.00605900
12
MD Step 787 Units = [Angstroms / fs]
C  0.00941403 0.00504629 0.00211097
C  -0.00007904 0.00041247 -0.00524123
C  -0.00146715 0.00108527 0.00161409
C  -0.00096627 0.00383061 -0.00557450
C  0.00158721 -0.00056304 -0.00025307
C  0.00459626 -0.00288652 -0.00661149
H  -0.02996110 0.01503607 -0.01052449
H  -0.00305109 0.00632513 0.00593288
H  0.00548632 0.00650053 0.00564682
H  0.02437007 -0.02701139 -0.00696002
H  0.01963970 -0.02730908 0.02184266
H  0.00144521 0.01412569 0.00817130
12
MD Step 788 Units = [Angstroms / fs]
C  0.00972084 0.00514020 0.00195264
C  -0.00015379 0.00053266 -0.00539058
C  -0.00203259 0.00088220 0.00156477
C  -0.00119202 0.00248561 -0.00526213
C  0.00204987 -0.00090296 -0.00033937
C  0.00397477 -0.00257958 -0.00672867
H  -0.02967951 0.01471517 -0.01039373
H  -0.00243475 0.01008278 0.00800197
H  0.00902384 0.00781313 0.00544921
H  0.02733759 -0.01950358 -0.00794226
H  0.01617999 -0.02286941 0.02176844
H  0.00605707 0.01371742 0.01018212
12
MD Step 789 Units = [Angstroms / fs]
C  0.00985731 0.00513219 0.00176729
C  -0.00016821 0.00069505 -0.00550577
C  -0.00251003 0.00068386 0.00149440
C  -0.00136715 0.00108840 -0.00494379
C  0.00259932 -0.00137902 -0.00042157
C  0.00336471 -0.00220665 -0.00681368
H  -0.02856066 0.01485751 -0.01019138
H  -0.00141477 0.01306096 0.00988417
H  0.01159800 0.00906951 0.00526891
H  0.03021047 -0.01150880 -0.00887230
H  0.01128335 -0.01617638 0.02155810
H  0.01041167 0.01305475 0.01203700
12
MD Step 790 Units = [Angstroms / fs]
C  0.00981819 0.00502823 0.00155484
C  -0.00012590 0.00090805 -0.00558466
C  -0.00287256 0.00049568 0.00140394
C  -0.00145128 -0.00028468 -0.00461219
C  0.00319701 -0.00193619 -0.00050352
C  0.00279659 -0.00177438 -0.00686253
H  -0.02661224 0.01542940 -0.00990971
H  0.00007984 0.01507077 0.01155296
H  0.01297206 0.01025245 0.00510636
H  0.03248277 -0.00384736 -0.00987341
H  0.00539161 -0.00791365 0.02127472
H  0.01414638 0.01215883 0.01369042
12
MD Step 791 Units = [Angstroms / fs]
C  0.00960480 0.00483964 0.00131518
C  -0.00003051 0.00117462 -0.00562632
C  -0.00310332 0.00032331 0.00129469
C  -0.00140867 -0.00156546 -0.00426190
C  0.00379175 -0.00249854 -0.00058783
C  0.00229839 -0.00129049 -0.00687218
H  -0.02389156 0.01633613 -0.00954068
H  0.00208547 0.01599552 0.01299628
H  0.01304015 0.01133988 0.00495938
H  0.03368819 0.00276764 -0.01104561
H  -0.00089257 0.00097318 0.02096332
H  0.01692822 0.01105953 0.01510844
12
MD Step 792 Units = [Angstroms / fs]
C  0.00922507 0.00458170 0.00104828
C  0.00011491 0.00149081 -0.00563112
C  -0.00319553 0.00017197 0.00116822
C  -0.00121493 -0.00270188 -0.00389089
C  0.00432745 -0.00298215 -0.00067488
C  0.00189382 -0.00076344 -0.00684075
H  -0.02050053 0.01743627 -0.00907758
H  0.00459370 0.01581001 0.01421763
H  0.01182485 0.01230683 0.00482415
H  0.03348219 0.00782588 -0.01244571
H  -0.00689991 0.00943286 0.02063781
H  0.01847735 0.00979333 0.01627111
12
MD Step 793 Units = [Angstroms / fs]
C  0.00869309 0.00427223 0.00075427
C  0.00030846 0.00184489 -0.00560059
C  -0.00315136 0.00004584 0.00102624
C  -0.00086096 -0.00366136 -0.00350097
C  0.00475264 -0.00331098 -0.00076264
C  0.00160006 -0.00020207 -0.00676761
H  -0.01657784 0.01855720 -0.00851627
H  0.00754330 0.01459369 0.01523511
H  0.00946060 0.01312806 0.00469617
H  0.03168879 0.01105908 -0.01408103
H  -0.01201072 0.01650045 0.02027869
H  0.01859569 0.00840045 0.01717423
12
MD Step 794 Units = [Angstroms / fs]
C  0.00802851 0.00393036 0.00043346
C  0.00054979 0.00221735 -0.00553719
C  -0.00298034 -0.00005247 0.00087053
C  -0.00035324 -0.00442985 -0.00309726
C  0.00502888 -0.00343013 -0.00084735
C  0.00142527 0.00038477 -0.00665355
H  -0.01228986 0.01950990 -0.00785585
H  0.01081739 0.01253213 0.01607800
H  0.00616993 0.01378058 0.00457106
H  0.02830558 0.01242697 -0.01591575
H  -0.01575453 0.02145957 0.01984206
H  0.01719815 0.00692101 0.01782964
12
MD Step 795 Units = [Angstroms / fs]
C  0.00725559 0.00357549 0.00008642
C  0.00083991 0.00258217 -0.00544382
C  -0.00269764 -0.00012212 0.00070287
C  0.00028844 -0.00500821 -0.00268704
C  0.00513524 -0.00331252 -0.00092474
C  0.00136635 0.00098850 -0.00650062
H  -0.00782082 0.02010236 -0.00709888
H  0.01424847 0.00990256 0.01678105
H  0.00223846 0.01424567 0.00444521
H  0.02347679 0.01207024 -0.01788445
H  -0.01786346 0.02392577 0.01927524
H  0.01434027 0.00539108 0.01826338
12
MD Step 796 Units = [Angstroms / fs]
C  0.00640215 0.00322645 -0.00028603
C  0.00118047 0.00290944 -0.00532325
C  -0.00232249 -0.00016412 0.00052498
C  0.00103438 -0.00540784 -0.00227862
C  0.00506855 -0.00295836 -0.00099119
C  0.00140769 0.00160106 -0.00631186
H  -0.00336250 0.02015184 -0.00625129
H  0.01763231 0.00704287 0.01737755
H  -0.00200811 0.01451037 0.00431608
H  0.01745201 0.01025373 -0.01990703
H  -0.01827296 0.02384232 0.01853190
H  0.01023340 0.00383923 0.01851116
12
MD Step 797 Units = [Angstroms / fs]
C  0.00549812 0.00290066 -0.00068282
C  0.00157254 0.00316887 -0.00517766
C  -0.00187683 -0.00018116 0.00033854
C  0.00184855 -0.00564699 -0.00188030
C  0.00484046 -0.00238946 -0.00104435
C  0.00152171 0.00221490 -0.00609073
H  0.00089696 0.01949684 -0.00532199
H  0.02074964 0.00430853 0.01789287
H  -0.00622386 0.01456833 0.00418245
H  0.01054578 0.00731678 -0.02190085
H  -0.01708474 0.02141468 0.01758175
H  0.00523800 0.00228508 0.01861140
12
MD Step 798 Units = [Angstroms / fs]
C  0.00457402 0.00261339 -0.00110267
C  0.00201505 0.00333363 -0.00500827
C  -0.00138409 -0.00017735 0.00014516
C  0.00269134 -0.00574808 -0.00149985
C  0.00447307 -0.00164192 -0.00108338
C  0.00167162 0.00282283 -0.00584058
H  0.00478547 0.01800962 -0.00432226
H  0.02339169 0.00202595 0.01834021
H  -0.01006066 0.01442015 0.00404444
H  0.00310641 0.00363810 -0.02378900
H  -0.01451505 0.01702317 0.01641402
H  -0.00017014 0.00074037 0.01859744
12
MD Step 799 Units = [Angstroms / fs]
C  0.00365911 0.00237677 -0.00154404
C  0.00250353 0.00338358 -0.00481528
C  -0.00086790 -0.00015781 -0.00005360
C  0.00352169 -0.00573631 -0.00114405
C  0.00399493 -0.00075952 -0.00110875
C  0.00181608 0.00341753 -0.00556401
H  0.00816090 0.01560966 -0.00326504
H  0.02538435 0.00045212 0.01871952
H  -0.01318609 0.01407339 0.00390350
H  -0.00450422 -0.00038499 -0.02550523
H  -0.01084702 0.01114461 0.01503636
H  -0.00545813 -0.00078746 0.01849094
12
MD Step 800 Units = [Angstroms / fs]
C  0.00277951 0.00219880 -0.00200525
C  0.00302925 0.00330736 -0.00459812
C  -0.00035053 -0.00012827 -0.00025628
C  0.00429862 -0.00563899 -0.00081859
C  0.00343795 0.00021078 -0.00112193
C  0.00191506 0.00399109 -0.00526267
H  0.01092538 0.01227760 -0.00216420
H  0.02660637 -0.00025168 0.01901945
H  -0.01530371 0.01354200 0.00376216
H  -0.01192273 -0.00434736 -0.02699668
H  -0.00639672 0.00429788 0.01347198
H  -0.01010750 -0.00229046 0.01829857
12
MD Step 801 Units = [Angstroms / fs]
C  0.00195653 0.00208227 -0.00248442
C  0.00357916 0.00310306 -0.00435574
C  0.00014889 -0.00009456 -0.00046146
C  0.00498263 -0.00548513 -0.00052790
C  0.00283547 0.00122126 -0.00112516
C  0.00193533 0.00453455 -0.00493726
H  0.01303826 0.00806774 -0.00103390
H  0.02699878 -0.00002931 0.01922158
H  -0.01617671 0.01284520 0.00362375
H  -0.01879285 -0.00784293 -0.02822589
H  -0.00149404 -0.00298581 0.01175656
H  -0.01368245 -0.00375578 0.01801283
12
MD Step 802 Units = [Angstroms / fs]
C  0.00120531 0.00202399 -0.00297952
C  0.00413642 0.00277771 -0.00408708
C  0.00061651 -0.00006215 -0.00066779
C  0.00553729 -0.00530487 -0.00027501
C  0.00222119 0.00222439 -0.00112127
C  0.00185440 0.00503784 -0.00458786
H  0.01452450 0.00311638 0.00011168
H  0.02656542 0.00107580 0.01930529
H  -0.01565436 0.01200557 0.00349174
H  -0.02477585 -0.01047429 -0.02917266
H  0.00352497 -0.01017425 0.00993628
H  -0.01587974 -0.00516338 0.01761646
12
MD Step 803 Units = [Angstroms / fs]
C  0.00053429 0.00201448 -0.00348831
C  0.00468153 0.00234592 -0.00379147
C  0.00104588 -0.00003558 -0.00087393
C  0.00593122 -0.00512806 -0.00006142
C  0.00162867 0.00317289 -0.00111363
C  0.00166230 0.00548994 -0.00421440
H  0.01547512 -0.00235793 0.00125818
H  0.02536683 0.00293639 0.01925233
H  -0.01369815 0.01104650 0.00336896
H  -0.02956734 -0.01187125 -0.02983581
H  0.00831972 -0.01673625 0.00806650
H  -0.01655191 -0.00648624 0.01708871
12
MD Step 804 Units = [Angstroms / fs]
C  -0.00005437 0.00203851 -0.00400823
C  0.00519357 0.00182821 -0.00346887
C  0.00143962 -0.00001803 -0.00107851
C  0.00614076 -0.00498173 0.00011307
C  0.00109089 0.00401996 -0.00110610
C  0.00136122 0.00587947 -0.00381712
H  0.01603726 -0.00806514 0.00239036
H  0.02351004 0.00536171 0.01905022
H  -0.01040158 0.00998918 0.00325653
H  -0.03292314 -0.01172335 -0.03023420
H  0.01254657 -0.02214389 0.00621074
H  -0.01570468 -0.00769274 0.01641134
12
MD Step 805 Units = [Angstroms / fs]
C  -0.00056339 0.00207654 -0.00453635
C  0.00565152 0.00124925 -0.00312009
C  0.00180997 -0.00001097 -0.00128011
C  0.00615298 -0.00488613 0.00025027
C  0.00063943 0.00472015 -0.00110298
C  0.00096360 0.00619544 -0.00339691
H  0.01639370 -0.01366652 0.00349110
H  0.02113712 0.00811806 0.01869435
H  -0.00599632 0.00884993 0.00315289
H  -0.03469309 -0.00982754 -0.03040522
H  0.01586636 -0.02588419 0.00443863
H  -0.01347577 -0.00875017 0.01557325
12
MD Step 806 Units = [Angstroms / fs]
C  -0.00099824 0.00210706 -0.00506920
C  0.00603534 0.00063637 -0.00274686
C  0.00217780 -0.00001412 -0.00147721
C  0.00596853 -0.00484999 0.00035319
C  0.00030286 0.00523182 -0.00110872
C  0.00048957 0.00642815 -0.00295552
H  0.01673516 -0.01880755 0.00454056
H  0.01841399 0.01094743 0.01818894
H  -0.00083827 0.00763869 0.00305300
H  -0.03485628 -0.00614517 -0.03039894
H  0.01796406 -0.02748933 0.00282159
H  -0.01010469 -0.00962825 0.01457292
12
MD Step 807 Units = [Angstroms / fs]
C  -0.00136484 0.00210925 -0.00560278
C  0.00632694 0.00001820 -0.00235185
C  0.00256979 -0.00002559 -0.00166825
C  0.00560331 -0.00486600 0.00042526
C  0.00010391 0.00552160 -0.00112739
C  -0.00003561 0.00656994 -0.00249550
H  0.01723092 -0.02315566 0.00551584
H  0.01551998 0.01358371 0.01754710
H  0.00462855 0.00635931 0.00294816
H  -0.03354537 -0.00085331 -0.03026714
H  0.01858507 -0.02659133 0.00142470
H  -0.00590178 -0.01030196 0.01341921
12
MD Step 808 Units = [Angstroms / fs]
C  -0.00166752 0.00206568 -0.00613259
C  0.00651091 -0.00057655 -0.00193860
C  0.00301427 -0.00004245 -0.00185163
C  0.00508781 -0.00490871 0.00046919
C  0.00005534 0.00557081 -0.00116179
C  -0.00058375 0.00661593 -0.00202025
H  0.01800432 -0.02643566 0.00639166
H  0.01263791 0.01576744 0.01679004
H  0.00992565 0.00501182 0.00282660
H  -0.03104558 0.00563256 -0.03004848
H  0.01758755 -0.02300018 0.00029475
H  -0.00122106 -0.01075353 0.01213084
12
MD Step 809 Units = [Angstroms / fs]
C  -0.00190788 0.00196430 -0.00665374
C  0.00657529 -0.00112033 -0.00151143
C  0.00353637 -0.00006136 -0.00202590
C  0.00446349 -0.00493629 0.00048585
C  0.00015536 0.00538251 -0.00121231
C  -0.00112538 0.00656447 -0.00153384
H  0.01911796 -0.02845664 0.00714196
H  0.00994364 0.01726068 0.01594565
H  0.01460085 0.00359609 0.00267486
H  -0.02775926 0.01268537 -0.02975428
H  0.01500098 -0.01679075 -0.00055404
H  0.00356170 -0.01097363 0.01073508
12
MD Step 810 Units = [Angstroms / fs]
C  -0.00208437 0.00179962 -0.00716119
C  0.00651228 -0.00158809 -0.00107524
C  0.00415383 -0.00007936 -0.00218980
C  0.00377678 -0.00489717 0.00047372
C  0.00038405 0.00498687 -0.00127606
C  -0.00163096 0.00641740 -0.00104084
H  0.02057020 -0.02912625 0.00774211
H  0.00759432 0.01786321 0.01504618
H  0.01828293 0.00211556 0.00247961
H  -0.02413999 0.01954982 -0.02936120
H  0.01107006 -0.00836787 -0.00115165
H  0.00806706 -0.01096186 0.00926612
12
MD Step 811 Units = [Angstroms / fs]
C  -0.00219290 0.00157292 -0.00764997
C  0.00631912 -0.00195886 -0.00063526
C  0.00487402 -0.00009430 -0.00234241
C  0.00307215 -0.00473992 0.00042914
C  0.00070316 0.00444147 -0.00134661
C  -0.00207203 0.00617988 -0.00054624
H  0.02230144 -0.02845226 0.00817129
H  0.00571489 0.01743046 0.01412511
H  0.02071932 0.00058014 0.00222957
H  -0.02061436 0.02546499 -0.02881486
H  0.00625719 0.00152898 -0.00157500
H  0.01192884 -0.01072675 0.00776296
12
MD Step 812 Units = [Angstroms / fs]
C  -0.00222777 0.00129172 -0.00811536
C  0.00599891 -0.00221732 -0.00019668
C  0.00569286 -0.00010515 -0.00248316
C  0.00238660 -0.00442361 0.00034745
C  0.00106073 0.00382456 -0.00141482
C  -0.00242247 0.00586003 -0.00005518
H  0.02420671 -0.02653361 0.00841454
H  0.00438357 0.01589213 0.01321311
H  0.02179196 -0.00099267 0.00191696
H  -0.01751564 0.02979036 -0.02804396
H  0.00118579 0.01190789 -0.00193698
H  0.01481293 -0.01028527 0.00626681
12
MD Step 813 Units = [Angstroms / fs]
C  -0.00218287 0.00096884 -0.00855314
C  0.00556148 -0.00235536 0.00023572
C  0.00659523 -0.00011187 -0.00261183
C  0.00174675 -0.00392536 0.00022444
C  0.00139986 0.00322174 -0.00147077
C  -0.00266016 0.00546820 0.00042725
H  0.02615065 -0.02354514 0.00846422
H  0.00361848 0.01326856 0.01233352
H  0.02151303 -0.00257830 0.00153837
H  -0.01504774 0.03209746 -0.02697939
H  -0.00346901 0.02168518 -0.00236282
H  0.01644031 -0.00966147 0.00481786
12
MD Step 814 Units = [Angstroms / fs]
C  -0.00205281 0.00062128 -0.00895964
C  0.00502368 -0.00237308 0.00065795
C  0.00755662 -0.00011507 -0.00272852
C  0.00116897 -0.00324332 0.00005761
C  0.00166925 0.00271031 -0.00150594
C  -0.00276905 0.00501599 0.00089632
H  0.02798197 -0.01971981 0.00832075
H  0.00336872 0.00968040 0.01149819
H  0.02000668 -0.00414686 0.00109496
H  -0.01328324 0.03220625 -0.02557113
H  -0.00710827 0.02987702 -0.00296175
H  0.01661480 -0.00888422 0.00345134
12
MD Step 815 Units = [Angstroms / fs]
C  -0.00183380 0.00026902 -0.00933188
C  0.00440917 -0.00227891 0.00106712
C  0.00854532 -0.00011563 -0.00283353
C  0.00066136 -0.00239527 -0.00015309
C  0.00183151 0.00234629 -0.00151500
C  -0.00274156 0.00451532 0.00134801
H  0.02954569 -0.01533093 0.00799282
H  0.00351382 0.00534684 0.01070469
H  0.01748423 -0.00566540 0.00059211
H  -0.01218623 0.03016915 -0.02379819
H  -0.00931129 0.03575711 -0.00380466
H  0.01525326 -0.00798381 0.00219317
12
MD Step 816 Units = [Angstroms / fs]
C  -0.00152426 -0.00006597 -0.00966761
C  0.00374714 -0.00208861 0.00146150
C  0.00952473 -0.00011430 -0.00292727
C  0.00022652 -0.00141440 -0.00040522
C  0.00186701 0.00215821 -0.00149644
C  -0.00258073 0.00397752 0.00177927
H  0.03069301 -0.01067567 0.00749700
H  0.00387449 0.00056921 0.00993603
H  0.01421872 -0.00710021 0.00003881
H  -0.01164566 0.02622244 -0.02167068
H  -0.00988152 0.03893482 -0.00491491
H  0.01241227 -0.00698782 0.00105611
12
MD Step 817 Units = [Angstroms / fs]
C  -0.00112530 -0.00036088 -0.00996526
C  0.00307015 -0.00182308 0.00184040
C  0.01045552 -0.00011145 -0.00301026
C  -0.00013618 -0.00034416 -0.00069420
C  0.00177299 0.00214792 -0.00145220
C  -0.00230144 0.00341262 0.00218829
H  0.03128921 -0.00605961 0.00685691
H  0.00423466 -0.00429988 0.00916343
H  0.01052212 -0.00841873 -0.00055315
H  -0.01150702 0.02072799 -0.01922638
H  -0.00883422 0.03934724 -0.00627268
H  0.00830275 -0.00591708 0.00003743
12
MD Step 818 Units = [Angstroms / fs]
C  -0.00064087 -0.00059326 -0.01022398
C  0.00241130 -0.00150536 0.00220370
C  0.01129760 -0.00010695 -0.00308299
C  -0.00042911 0.00076644 -0.00101381
C  0.00155964 0.00229621 -0.00138659
C  -0.00193006 0.00282904 0.00257445
H  0.03122039 -0.00178099 0.00610193
H  0.00437149 -0.00889719 0.00835187
H  0.00672599 -0.00959124 -0.00116997
H  -0.01159593 0.01412219 -0.01652480
H  -0.00634670 0.03719279 -0.00782734
H  0.00328364 -0.00478298 -0.00088068
12
MD Step 819 Units = [Angstroms / fs]
C  -0.00007790 -0.00074240 -0.01044345
C  0.00180130 -0.00115754 0.00255147
C  0.01201195 -0.00010023 -0.00314599
C  -0.00065575 0.00186637 -0.00135666
C  0.00124545 0.00257011 -0.00130514
C  -0.00150191 0.00223359 0.00293806
H  0.03039994 0.00188638 0.00526510
H  0.00408712 -0.01289135 0.00746705
H  0.00316413 -0.01059208 -0.00179666
H  -0.01173267 0.00687928 -0.01364131
H  -0.00269803 0.03284487 -0.00951179
H  -0.00217065 -0.00358748 -0.00172735
12
MD Step 820 Units = [Angstroms / fs]
C  0.00055362 -0.00079105 -0.01062377
C  0.00126588 -0.00079800 0.00288337
C  0.01256247 -0.00009030 -0.00319974
C  -0.00082076 0.00290487 -0.00171455
C  0.00085327 0.00292932 -0.00121371
C  -0.00105692 0.00163195 0.00327987
H  0.02877498 0.00471282 0.00438020
H  0.00323519 -0.01601879 0.00648203
H  0.00015522 -0.01140089 -0.00241793
H  -0.01173941 -0.00051125 -0.01066233
H  0.00178231 0.02677515 -0.01125406
H  -0.00752668 -0.00232628 -0.00253648
12
MD Step 821 Units = [Angstroms / fs]
C  0.00124068 -0.00072735 -0.01076517
C  0.00082416 -0.00043985 0.00319842
C  0.01291802 -0.00007598 -0.00324464
C  -0.00093017 0.00383304 -0.00207874
C  0.00040780 0.00333064 -0.00111789
C  -0.00063421 0.00102931 0.00360046
H  0.02633266 0.00653445 0.00347790
H  0.00173728 -0.01810675 0.00538213
H  -0.00201695 -0.01200359 -0.00301927
H  -0.01144354 -0.00755817 -0.00768164
H  0.00674855 0.01950055 -0.01298490
H  -0.01226166 -0.00099428 -0.00333913
12
MD Step 822 Units = [Angstroms / fs]
C  0.00196732 -0.00054677 -0.01086767
C  0.00048796 -0.00009031 0.00349480
C  0.01305464 -0.00005602 -0.00328098
C  -0.00099164 0.00460495 -0.00244015
C  -0.00006554 0.00373052 -0.00102277
C  -0.00026685 0.00043107 0.00389976
H  0.02310545 0.00727483 0.00258106
H  -0.00041267 -0.01908136 0.00416703
H  -0.00312686 -0.01239318 -0.00358819
H  -0.01068007 -0.01377973 -0.00479680
H  0.01185636 0.01155431 -0.01464175
H  -0.01593075 0.00040824 -0.00415682
12
MD Step 823 Units = [Angstroms / fs]
C  0.00271482 -0.00025363 -0.01093074
C  0.00026198 0.00024876 0.00376996
C  0.01295799 -0.00002917 -0.00330885
C  -0.00101433 0.00517912 -0.00278967
C  -0.00054093 0.00408599 -0.00093287
C  0.00002194 -0.00015668 0.00417676
H  0.01917412 0.00696217 0.00170008
H  -0.00315393 -0.01896269 0.00285043
H  -0.00303354 -0.01257008 -0.00411559
H  -0.00929629 -0.01871980 -0.00210456
H  0.01676918 0.00347519 -0.01617052
H  -0.01821712 0.00187091 -0.00499765
12
MD Step 824 Units = [Angstroms / fs]
C  0.00346217 0.00013819 -0.01095298
C  0.00014470 0.00057989 0.00402084
C  0.01262562 0.00000568 -0.00332807
C  -0.00100825 0.00552071 -0.00311867
C  -0.00099200 0.00435491 -0.00085211
C  0.00022055 -0.00072692 0.00442947
H  0.01466686 0.00573676 0.00082911
H  -0.00637116 -0.01785120 0.00145771
H  -0.00170647 -0.01254169 -0.00459703
H  -0.00716119 -0.02197522 0.00030589
H  0.02115944 -0.00419433 -0.01752655
H  -0.01895659 0.00337131 -0.00585575
12
MD Step 825 Units = [Angstroms / fs]
C  0.00418673 0.00060588 -0.01093205
C  0.00012942 0.00090868 0.00424412
C  0.01206854 0.00004952 -0.00333816
C  -0.00098295 0.00560486 -0.00341977
C  -0.00139185 0.00449617 -0.00078372
C  0.00032871 -0.00127185 0.00465519
H  0.00975349 0.00384337 -0.00005535
H  -0.00990925 -0.01591015 0.00002274
H  0.00075517 -0.01232102 -0.00503368
H  -0.00418129 -0.02323806 0.00236274
H  0.02471053 -0.01091015 -0.01867582
H  -0.01813702 0.00487590 -0.00671363
12
MD Step 826 Units = [Angstroms / fs]
C  0.00486525 0.00111968 -0.01086480
C  0.00020548 0.00124264 0.00443647
C  0.01131157 0.00010311 -0.00333833
C  -0.00094566 0.00542099 -0.00368779
C  -0.00171358 0.00447065 -0.00073017
C  0.00035579 -0.00178323 0.00485083
H  0.00463424 0.00160631 -0.00099250
H  -0.01358793 -0.01334795 -0.00141549
H  0.00411749 -0.01192436 -0.00543233
H  -0.00032292 -0.02235057 0.00402351
H  0.02712502 -0.01613862 -0.01959701
H  -0.01587907 0.00634317 -0.00754612
12
MD Step 827 Units = [Angstroms / fs]
C  0.00547515 0.00164633 -0.01074767
C  0.00035934 0.00159019 0.00459478
C  0.01039179 0.00016699 -0.00332757
C  -0.00089897 0.00497738 -0.00392074
C  -0.00193179 0.00424368 -0.00069287
C  0.00031837 -0.00225284 0.00501324
H  -0.00047573 -0.00061046 -0.00203165
H  -0.01721465 -0.01040202 -0.00281613
H  0.00802757 -0.01136851 -0.00580441
H  0.00436235 -0.01936244 0.00528666
H  0.02814369 -0.01938774 -0.02028426
H  -0.01240762 0.00772770 -0.00832461
12
MD Step 828 Units = [Angstroms / fs]
C  0.00599582 0.00215293 -0.01057737
C  0.00057556 0.00195984 0.00471637
C  0.00935519 0.00024149 -0.00330486
C  -0.00083891 0.00430424 -0.00412041
C  -0.00202518 0.00378951 -0.00067190
C  0.00023785 -0.00267288 0.00513958
H  -0.00536409 -0.00245107 -0.00322406
H  -0.02059572 -0.00732467 -0.00413909
H  0.01205139 -0.01066832 -0.00616387
H  0.00971645 -0.01457054 0.00619834
H  0.02757739 -0.02026407 -0.02074971
H  -0.00802167 0.00898412 -0.00902085
12
MD Step 829 Units = [Angstroms / fs]
C  0.00640997 0.00261079 -0.01035154
C  0.00083771 0.00235958 0.00479907
C  0.00825171 0.00032675 -0.00326934
C  -0.00075415 0.00345355 -0.00429223
C  -0.00198023 0.00309779 -0.00066595
C  0.00013835 -0.00303629 0.00522751
H  -0.00983860 -0.00361344 -0.00461380
H  -0.02354617 -0.00436990 -0.00534752
H  0.01572911 -0.00983528 -0.00652441
H  0.01546804 -0.00851767 0.00684940
H  0.02534948 -0.01855408 -0.02102394
H  -0.00306774 0.01007052 -0.00960981
12
MD Step 830 Units = [Angstroms / fs]
C  0.00670464 0.00299821 -0.01006934
C  0.00112921 0.00279605 0.00484135
C  0.00712993 0.00042276 -0.00322056
C  -0.00062708 0.00249418 -0.00444410
C  -0.00179501 0.00218075 -0.00067252
C  0.00004514 -0.00333694 0.00527534
H  -0.01374120 -0.00388373 -0.00623012
H  -0.02589943 -0.00177980 -0.00640991
H  0.01863627 -0.00887762 -0.00689674
H  0.02124919 -0.00193492 0.00736033
H  0.02153887 -0.01431447 -0.02115190
H  0.00208197 0.01095097 -0.01007161
12
MD Step 831 Units = [Angstroms / fs]
C  0.00687190 0.00330197 -0.00973177
C  0.00143421 0.00327373 0.00484249
C  0.00603233 0.00052943 -0.00315857
C  -0.00043697 0.00150279 -0.00458453
C  -0.00148181 0.00107848 -0.00068859
C  -0.00001658 -0.00356981 0.00528211
H  -0.01695731 -0.00315442 -0.00808265
H  -0.02751739 0.00023105 -0.00730212
H  0.02043747 -0.00780177 -0.00728657
H  0.02663820 0.00436775 0.00785683
H  0.01640672 -0.00793922 -0.02118290
H  0.00704770 0.01159740 -0.01039286
12
MD Step 832 Units = [Angstroms / fs]
C  0.00690915 0.00351733 -0.00934173
C  0.00173850 0.00379374 0.00480257
C  0.00499200 0.00064658 -0.00308402
C  -0.00016456 0.00055268 -0.00472054
C  -0.00106706 -0.00014099 -0.00071175
C  -0.00002283 -0.00373104 0.00524762
H  -0.01941965 -0.00142558 -0.01016024
H  -0.02830076 0.00149351 -0.00800906
H  0.02092190 -0.00661439 -0.00769381
H  0.03122000 0.00963481 0.00844354
H  0.01038780 -0.00016316 -0.02115623
H  0.01145909 0.01199094 -0.01056730
12
MD Step 833 Units = [Angstroms / fs]
C  0.00681902 0.00364709 -0.00890379
C  0.00203035 0.00435254 0.00472261
C  0.00403137 0.00077392 -0.00299805
C  0.00020339 -0.00029601 -0.00485615
C  -0.00058741 -0.00138902 -0.00074122
C  0.00004790 -0.00381813 0.00517246
H  -0.02110749 0.00120687 -0.01243279
H  -0.02819910 0.00190345 -0.00852600
H  0.02001633 -0.00532429 -0.00811292
H  0.03464774 0.01328234 0.00918469
H  0.00403719 0.00802501 -0.02108732
H  0.01497405 0.01212291 -0.01059614
12
MD Step 834 Units = [Angstroms / fs]
C  0.00660907 0.00369994 -0.00842384
C  0.00230116 0.00494062 0.00460454
C  0.00316245 0.00091100 -0.00290223
C  0.00067094 -0.00100228 -0.00499188
C  -0.00008303 -0.00257033 -0.00077841
C  0.00021305 -0.00382994 0.00505799
H  -0.02204254 0.00457025 -0.01485528
H  -0.02721823 0.00144010 -0.00885887
H  0.01777805 -0.00394373 -0.00853425
H  0.03668794 0.01496701 0.01009720
H  -0.00205877 0.01554998 -0.02096093
H  0.01730170 0.01199515 -0.01048779
12
MD Step 835 Units = [Angstroms / fs]
C  0.00629124 0.00368880 -0.00790866
C  0.00254586 0.00554166 0.00445112
C  0.00238822 0.00105709 -0.00279836
C  0.00123197 -0.00154540 -0.00512515
C  0.00041002 -0.00359936 -0.00082659
C  0.00048387 -0.00376682 0.00490625
H  -0.02228305 0.00843658 -0.01737265
H  -0.02542302 0.00017879 -0.00902339
H  0.01437448 -0.00248871 -0.00894572
H  0.03723926 0.01459687 0.01115587
H  -0.00738011 0.02144701 -0.02073528
H  0.01823016 0.01161968 -0.01025683
12
MD Step 836 Units = [Angstroms / fs]
C  0.00588121 0.00362921 -0.00736552
C  0.00276270 0.00613237 0.00426570
C  0.00170448 0.00121113 -0.00268833
C  0.00187119 -0.00192226 -0.00525133
C  0.00086562 -0.00441343 -0.00088985
C  0.00086319 -0.00363045 0.00471986
H  -0.02191732 0.01254288 -0.01992471
H  -0.02293307 -0.00170735 -0.00904273
H  0.01005696 -0.00097863 -0.00933454
H  0.03632606 0.01229611 0.01230603
H  -0.01154800 0.02502174 -0.02035539
H  0.01765666 0.01101728 -0.00992208
12
MD Step 837 Units = [Angstroms / fs]
C  0.00539774 0.00353806 -0.00680176
C  0.00295250 0.00668368 0.00405198
C  0.00110172 0.00137166 -0.00257404
C  0.00256632 -0.00214296 -0.00536484
C  0.00127003 -0.00497906 -0.00097186
C  0.00134336 -0.00342363 0.00450180
H  -0.02105714 0.01660891 -0.02245064
H  -0.01991082 -0.00396039 -0.00894407
H  0.00513472 0.00056448 -0.00968860
H  0.03407535 0.00834745 0.01347802
H  -0.01435725 0.02592616 -0.01976931
H  0.01561447 0.01021486 -0.00950358
12
MD Step 838 Units = [Angstroms / fs]
C  0.00486183 0.00343244 -0.00622455
C  0.00311748 0.00716305 0.00381367
C  0.00056676 0.00153681 -0.00245726
C  0.00329062 -0.00222623 -0.00546004
C  0.00162108 -0.00529078 -0.00107495
C  0.00190510 -0.00314993 0.00425512
H  -0.01983131 0.02035268 -0.02489300
H  -0.01654300 -0.00626611 -0.00875457
H  -0.00004817 0.00211688 -0.00999765
H  0.03068818 0.00313365 0.01459932
H  -0.01576726 0.02414611 -0.01894088
H  0.01228804 0.00924197 -0.00901904
12
MD Step 839 Units = [Angstroms / fs]
C  0.00429590 0.00332879 -0.00564055
C  0.00325987 0.00753775 0.00355415
C  0.00008407 0.00170430 -0.00233958
C  0.00401502 -0.00219588 -0.00553190
C  0.00192525 -0.00536520 -0.00119967
C  0.00251802 -0.00281331 0.00398271
H  -0.01837872 0.02350481 -0.02720113
H  -0.01301903 -0.00829391 -0.00849787
H  -0.00513226 0.00365412 -0.01025400
H  0.02641389 -0.00290872 0.01560279
H  -0.01586673 0.01992988 -0.01785568
H  0.00800785 0.00812722 -0.00848026
12
MD Step 840 Units = [Angstroms / fs]
C  0.00372266 0.00324187 -0.00505571
C  0.00338070 0.00777845 0.00327637
C  -0.00036291 0.00187139 -0.00222237
C  0.00470974 -0.00207845 -0.00557624
C  0.00219427 -0.00523344 -0.00134491
C  0.00314317 -0.00241793 0.00368705
H  -0.01684021 0.02582337 -0.02933425
H  -0.00951045 -0.00974035 -0.00819166
H  -0.00976050 0.00515182 -0.01045308
H  0.02153123 -0.00931937 0.01643142
H  -0.01483067 0.01369804 -0.01652100
H  0.00321953 0.00689558 -0.00789092
12
MD Step 841 Units = [Angstroms / fs]
C  0.00316393 0.00318369 -0.00447510
C  0.00347903 0.00786238 0.00298271
C  -0.00079055 0.00203491 -0.00210671
C  0.00534519 -0.00190202 -0.00558991
C  0.00244222 -0.00493460 -0.00150822
C  0.00373749 -0.00196815 0.00337021
H  -0.01534853 0.02711003 -0.03126392
H  -0.00615546 -0.01036717 -0.00784703
H  -0.01359644 0.00658668 -0.01059364
H  0.01633642 -0.01563108 0.01704053
H  -0.01288363 0.00596475 -0.01496235
H  -0.00157024 0.00556761 -0.00724639
12
MD Step 842 Units = [Angstroms / fs]
C  0.00263919 0.00316234 -0.00390268
C  0.00355177 0.00777549 0.00267509
C  -0.00121341 0.00219125 -0.00199341
C  0.00589272 -0.00169560 -0.00557084
C  0.00268363 -0.00451124 -0.00168616
C  0.00425929 -0.00146891 0.00303399
H  -0.01401616 0.02722784 -0.03297568
H  -0.00305044 -0.01002690 -0.00746915
H  -0.01634540 0.00793732 -0.01067776
H  0.01113608 -0.02137863 0.01739887
H  -0.01027467 -0.00271584 -0.01321916
H  -0.00586124 0.00416063 -0.00653594
12
MD Step 843 Units = [Angstroms / fs]
C  0.00216405 0.00318066 -0.00334134
C  0.00359407 0.00751339 0.00235509
C  -0.00164240 0.00233633 -0.00188298
C  0.00632511 -0.00148863 -0.00551812
C  0.00293269 -0.00400692 -0.00187458
C  0.00467351 -0.00092617 0.00268016
H  -0.01292168 0.02611879 -0.03446918
H  -0.00024858 -0.00867296 -0.00705898
H  -0.01777944 0.00918517 -0.01071046
H  0.00624100 -0.02610677 0.01748940
H  -0.00726431 -0.01177829 -0.01134134
H  -0.00922505 0.00269145 -0.00574667
12
MD Step 844 Units = [Angstroms / fs]
C  0.00174887 0.00323527 -0.00279300
C  0.00360001 0.00708105 0.00202408
C  -0.00208266 0.00246579 -0.00177571
C  0.00661758 -0.00130996 -0.00543202
C  0.00320301 -0.00346524 -0.00206876
C  0.00495562 -0.00034747 0.00231074
H  -0.01209656 0.02381837 -0.03575629
H  0.00223615 -0.00635582 -0.00661523
H  -0.01776523 0.01031520 -0.01069872
H  0.00195661 -0.02938414 0.01731010
H  -0.00412011 -0.02065665 -0.00938696
H  -0.01135425 0.00117920 -0.00486793
12
MD Step 845 Units = [Angstroms / fs]
C  0.00139774 0.00331596 -0.00225887
C  0.00356352 0.00649185 0.00168335
C  -0.00253147 0.00257510 -0.00167177
C  0.00674927 -0.00118597 -0.00531414
C  0.00350795 -0.00292956 -0.00226352
C  0.00509348 0.00025773 0.00192822
H  -0.01151569 0.02046254 -0.03685659
H  0.00442204 -0.00320949 -0.00613618
H  -0.01629039 0.01131613 -0.01065002
H  -0.00143433 -0.03082885 0.01687453
H  -0.00111669 -0.02878690 -0.00742089
H  -0.01208701 -0.00035266 -0.00389489
12
MD Step 846 Units = [Angstroms / fs]
C  0.00110810 0.00340607 -0.00173997
C  0.00347910 0.00576606 0.00133424
C  -0.00297685 0.00265989 -0.00157133
C  0.00670561 -0.00113737 -0.00516737
C  0.00386080 -0.00244265 -0.00245321
C  0.00508721 0.00087793 0.00153563
H  -0.01109522 0.01628295 -0.03779085
H  0.00635186 0.00056701 -0.00562095
H  -0.01348172 0.01218001 -0.01057031
H  -0.00369948 -0.03014937 0.01621128
H  0.00146461 -0.03561105 -0.00551336
H  -0.01140734 -0.00187583 -0.00283051
12
MD Step 847 Units = [Angstroms / fs]
C  0.00087148 0.00348391 -0.00123769
C  0.00334246 0.00492928 0.00097812
C  -0.00339741 0.00271633 -0.00147469
C  0.00648132 -0.00117488 -0.00499568
C  0.00427469 -0.00204545 -0.00263196
C  0.00494751 0.00149980 0.00113648
H  -0.01070056 0.01158805 -0.03857344
H  0.00808551 0.00472904 -0.00507025
H  -0.00960716 0.01290102 -0.01046192
H  -0.00469477 -0.02719898 0.01536111
H  0.00334157 -0.04059253 -0.00373723
H  -0.00942710 -0.00335813 -0.00168576
12
MD Step 848 Units = [Angstroms / fs]
C  0.00067506 0.00352510 -0.00075425
C  0.00315082 0.00401094 0.00061644
C  -0.00376400 0.00274156 -0.00138246
C  0.00608373 -0.00129454 -0.00480369
C  0.00476144 -0.00177428 -0.00279400
C  0.00469325 0.00210872 0.00073456
H  -0.01016492 0.00673096 -0.03920581
H  0.00969382 0.00900466 -0.00448668
H  -0.00505536 0.01347378 -0.01032186
H  -0.00440536 -0.02203378 0.01437083
H  0.00424775 -0.04325154 -0.00216277
H  -0.00635873 -0.00476529 -0.00047853
12
MD Step 849 Units = [Angstroms / fs]
C  0.00050409 0.00350564 -0.00029301
C  0.00290306 0.00304281 0.00025071
C  -0.00404313 0.00273396 -0.00129554
C  0.00553494 -0.00147424 -0.00459595
C  0.00532930 -0.00165615 -0.00293438
C  0.00434906 0.00268957 0.00033375
H  -0.00931540 0.00206941 -0.03967288
H  0.01125319 0.01311167 -0.00387468
H  -0.00029247 0.01389174 -0.01014123
H  -0.00297667 -0.01495517 0.01328415
H  0.00396448 -0.04322500 -0.00084901
H  -0.00248616 -0.00606307 0.00076824
12
MD Step 850 Units = [Angstroms / fs]
C  0.00034447 0.00340488 0.00014163
C  0.00259975 0.00205757 -0.00011749
C  -0.00420172 0.00269334 -0.00121509
C  0.00487189 -0.00167331 -0.00437608
C  0.00597917 -0.00170230 -0.00304984
C  0.00394308 0.00322760 -0.00006218
H  -0.00800116 -0.00207489 -0.03994366
H  0.01284049 0.01677402 -0.00324030
H  0.00419740 0.01414634 -0.00990615
H  -0.00071856 -0.00651349 0.01213154
H  0.00236829 -0.04034727 0.00016800
H  0.00186120 -0.00721936 0.00202857
12
MD Step 851 Units = [Angstroms / fs]
C  0.00018498 0.00320791 0.00054454
C  0.00224316 0.00108724 -0.00048654
C  -0.00421209 0.00262080 -0.00114229
C  0.00414311 -0.00183677 -0.00414625
C  0.00670009 -0.00190176 -0.00313982
C  0.00350531 0.00370946 -0.00044975
H  -0.00611724 -0.00544929 -0.03997601
H  0.01452740 0.01973914 -0.00259078
H  0.00797540 0.01422728 -0.00960003
H  0.00192922 0.00254396 0.01092300
H  -0.00051394 -0.03473316 0.00088724
H  0.00633021 -0.00820585 0.00327546
12
MD Step 852 Units = [Angstroms / fs]
C  0.00001881 0.00290702 0.00091052
C  0.00183741 0.00016145 -0.00085482
C  -0.00405606 0.00251842 -0.00107818
C  0.00340253 -0.00190376 -0.00390701
C  0.00746541 -0.00221731 -0.00320708
C  0.00306619 0.00412397 -0.00082590
H  -0.00361945 -0.00789067 -0.03972401
H  0.01637355 0.02179696 -0.00193403
H  0.01070087 0.01412402 -0.00920668
H  0.00446808 0.01137778 0.00964722
H  -0.00446081 -0.02683029 0.00135030
H  0.01056224 -0.00899953 0.00448263
12
MD Step 853 Units = [Angstroms / fs]
C  -0.00015593 0.00250205 0.00123483
C  0.00138875 -0.00069443 -0.00122070
C  -0.00372740 0.00238885 -0.00102343
C  0.00270203 -0.00181835 -0.00365780
C  0.00823192 -0.00258706 -0.00325756
C  0.00265541 0.00446282 -0.00118806
H  -0.00052853 -0.00933172 -0.03914607
H  0.01841779 0.02280052 -0.00127819
H  0.01216412 0.01382786 -0.00871336
H  0.00642930 0.01918846 0.00827808
H  -0.00904803 -0.01740440 0.00163904
H  0.01421052 -0.00958370 0.00562617
12
MD Step 854 Units = [Angstroms / fs]
C  -0.00033649 0.00199987 0.00151379
C  0.00090607 -0.00146117 -0.00158255
C  -0.00323244 0.00223496 -0.00097823
C  0.00208481 -0.00153929 -0.00339779
C  0.00894336 -0.00293294 -0.00329911
C  0.00230052 0.00472083 -0.00153423
H  0.00307489 -0.00979536 -0.03821199
H  0.02066830 0.02268601 -0.00063121
H  0.01229585 0.01333398 -0.00811308
H  0.00745264 0.02533627 0.00678594
H  -0.01369448 -0.00743898 0.00186084
H  0.01695913 -0.00994886 0.00668613
12
MD Step 855 Units = [Angstroms / fs]
C  -0.00051636 0.00141335 0.00174510
C  0.00040146 -0.00212729 -0.00193876
C  -0.00258904 0.00205958 -0.00094223
C  0.00158167 -0.00104605 -0.00312673
C  0.00953849 -0.00317470 -0.00333968
C  0.00202530 0.00489598 -0.00186305
H  0.00706147 -0.00938141 -0.03690773
H  0.02309274 0.02148825 -0.00000056
H  0.01115689 0.01264298 -0.00740578
H  0.00733237 0.02941621 0.00514904
H  -0.01775986 0.00203242 0.00212484
H  0.01854568 -0.01009286 0.00764794
12
MD Step 856 Units = [Angstroms / fs]
C  -0.00068649 0.00076014 0.00192803
C  -0.00010934 -0.00268979 -0.00228774
C  -0.00182462 0.00186552 -0.00091465
C  0.00121033 -0.00034014 -0.00284545
C  0.00996112 -0.00324494 -0.00338533
C  0.00184764 0.00498896 -0.00217377
H  0.01126688 -0.00824984 -0.03523798
H  0.02561108 0.01934637 0.00060666
H  0.00891569 0.01176156 -0.00659835
H  0.00602364 0.03127573 0.00336087
H  -0.02066485 0.01010839 0.00251773
H  0.01878782 -0.01002043 0.00850355
12
MD Step 857 Units = [Angstroms / fs]
C  -0.00083644 0.00006141 0.00206346
C  -0.00060695 -0.00315381 -0.00262782
C  -0.00097379 0.00165562 -0.00089433
C  0.00097717 0.00055747 -0.00255598
C  0.01016889 -0.00310004 -0.00343903
C  0.00177736 0.00500261 -0.00246628
H  0.01550548 -0.00660382 -0.03322649
H  0.02809427 0.01649501 0.00118335
H  0.00582118 0.01070252 -0.00570393
H  0.00361820 0.03098554 0.00143221
H  -0.02199229 0.01615551 0.00308810
H  0.01761126 -0.00974160 0.00925191
12
MD Step 858 Units = [Angstroms / fs]
C  -0.00095555 -0.00065923 0.00215375
C  -0.00106898 -0.00353098 -0.00295728
C  -0.00007597 0.00143295 -0.00087987
C  0.00087995 0.00161114 -0.00226126
C  0.01013810 -0.00272431 -0.00350046
C  0.00181419 0.00494109 -0.00274100
H  0.01958260 -0.00467422 -0.03091502
H  0.03037133 0.01323908 0.00172186
H  0.00217653 0.00948423 -0.00474074
H  0.00030557 0.02878584 -0.00061121
H  -0.02153839 0.01986250 0.00384335
H  0.01507348 -0.00926909 0.00989833
12
MD Step 859 Units = [Angstroms / fs]
C  -0.00103382 -0.00137678 0.00220261
C  -0.00147145 -0.00383656 -0.00327428
C  0.00082678 0.00120094 -0.00086973
C  0.00091027 0.00277561 -0.00196479
C  0.00986396 -0.00212747 -0.00356671
C  0.00194672 0.00480910 -0.00299872
H  0.02330530 -0.00270558 -0.02836097
H  0.03224579 0.00991501 0.00221344
H  -0.00168370 0.00812990 -0.00373072
H  -0.00366563 0.02502933 -0.00273319
H  -0.01930873 0.02121604 0.00475725
H  0.01137546 -0.00861513 0.01045252
12
MD Step 860 Units = [Angstroms / fs]
C  -0.00106267 -0.00206588 0.00221487
C  -0.00179089 -0.00408617 -0.00357682
C  0.00169176 0.00096345 -0.00086231
C  0.00105527 0.00400026 -0.00167025
C  0.00935778 -0.00133829 -0.00363335
C  0.00215293 0.00461128 -0.00324031
H  0.02649214 -0.00094280 -0.02563407
H  0.03351927 0.00684588 0.00264809
H  -0.00541303 0.00666663 -0.00269823
H  -0.00801762 0.02013484 -0.00489171
H  -0.01547596 0.02042957 0.00578252
H  0.00685345 -0.00778859 0.01092532
12
MD Step 861 Units = [Angstroms / fs]
C  -0.00103560 -0.00270197 0.00219616
C  -0.00200662 -0.00429273 -0.00386285
C  0.00247755 0.00072484 -0.00085601
C  0.00129851 0.00523218 -0.00138129
C  0.00864274 -0.00039744 -0.00369540
C  0.00240262 0.00435183 -0.00346648
H  0.02898274 0.00038300 -0.02281175
H  0.03401765 0.00429989 0.00301485
H  -0.00867107 0.00512440 -0.00166854
H  -0.01246271 0.01455599 -0.00704286
H  -0.01032404 0.01786109 0.00686304
H  0.00194686 -0.00679367 0.01132483
12
MD Step 862 Units = [Angstroms / fs]
C  -0.00094869 -0.00326274 0.00215241
C  -0.00210289 -0.00446435 -0.00413035
C  0.00314602 0.00048988 -0.00084937
C  0.00162033 0.00641816 -0.00110135
C  0.00775018 0.00064859 -0.00374812
C  0.00266148 0.00403445 -0.00367745
H  0.03064772 0.00107035 -0.01997315
H  0.03361416 0.00246099 0.00330274
H  -0.01114248 0.00353472 -0.00066631
H  -0.01671391 0.00876287 -0.00914374
H  -0.00419870 0.01394497 0.00794282
H  -0.00285489 -0.00563087 0.01165309
12
MD Step 863 Units = [Angstroms / fs]
C  -0.00080110 -0.00372972 0.00208939
C  -0.00207046 -0.00460351 -0.00437745
C  0.00366467 0.00026374 -0.00084110
C  0.00199806 0.00750590 -0.00083354
C  0.00671677 0.00175135 -0.00378731
C  0.00289609 0.00366266 -0.00387292
H  0.03139886 0.00096567 -0.01719149
H  0.03224488 0.00141561 0.00350200
H  -0.01255910 0.00192900 0.00028624
H  -0.02049103 0.00323144 -0.01115483
H  0.00252694 0.00914713 0.00897123
H  -0.00707657 -0.00430023 0.01190439
12
MD Step 864 Units = [Angstroms / fs]
C  -0.00059543 -0.00409011 0.00201191
C  -0.00190726 -0.00470742 -0.00460263
C  0.00400908 0.00005198 -0.00083029
C  0.00240651 0.00844513 -0.00058063
C  0.00558281 0.00286257 -0.00380953
C  0.00307866 0.00324031 -0.00405203
H  0.03119852 -0.00001748 -0.01452534
H  0.02991454 0.00115504 0.00360532
H  -0.01272580 0.00033645 0.00117143
H  -0.02352646 -0.00156634 -0.01304221
H  0.00947133 0.00394221 0.00990541
H  -0.01031797 -0.00280588 0.01206581
12
MD Step 865 Units = [Angstroms / fs]
C  -0.00033785 -0.00433844 0.00192320
C  -0.00161846 -0.00476918 -0.00480478
C  0.00416554 -0.00013951 -0.00081649
C  0.00281907 0.00918917 -0.00034484
C  0.00439124 0.00393489 -0.00381207
C  0.00319038 0.00277208 -0.00421363
H  0.03006638 -0.00188085 -0.01200971
H  0.02669364 0.00158906 0.00360892
H  -0.01154839 -0.00121829 0.00197812
H  -0.02557490 -0.00517890 -0.01478001
H  0.01625225 -0.00119432 0.01071119
H  -0.01229851 -0.00116020 0.01211976
12
MD Step 866 Units = [Angstroms / fs]
C  -0.00003800 -0.00447769 0.00182431
C  -0.00121573 -0.00477932 -0.00498334
C  0.00413330 -0.00030453 -0.00079990
C  0.00320953 0.00969737 -0.00012775
C  0.00318688 0.00492205 -0.00379298
C  0.00322294 0.00226392 -0.00435657
H  0.02808135 -0.00453013 -0.00964907
H  0.02270926 0.00256517 0.00351314
H  -0.00905868 -0.00271721 0.00270343
H  -0.02643004 -0.00720461 -0.01635321
H  0.02249006 -0.00578740 0.01136353
H  -0.01287863 0.00061363 0.01204776
12
MD Step 867 Units = [Angstroms / fs]
C  0.00029166 -0.00451947 0.00171382
C  -0.00071635 -0.00472724 -0.00513836
C  0.00392580 -0.00043665 -0.00078136
C  0.00355472 0.00993899 0.00006995
C  0.00201543 0.00577913 -0.00375106
C  0.00317824 0.00172327 -0.00447995
H  0.02537664 -0.00777462 -0.00741436
H  0.01813288 0.00388867 0.00332268
H  -0.00542935 -0.00415024 0.00335341
H  -0.02594917 -0.00733795 -0.01775998
H  0.02781276 -0.00936578 0.01184730
H  -0.01205841 0.00248141 0.01183412
12
MD Step 868 Units = [Angstroms / fs]
C  0.00063688 -0.00448300 0.00158810
C  -0.00014198 -0.00460242 -0.00527044
C  0.00357036 -0.00052949 -0.00076233
C  0.00383758 0.00989822 0.00024847
C  0.00092188 0.00646368 -0.00368598
C  0.00306681 0.00115905 -0.00458335
H  0.02212744 -0.01134159 -0.00524594
H  0.01316746 0.00534070 0.00304653
H  -0.00097049 -0.00551484 0.00394212
H  -0.02408314 -0.00543031 -0.01901227
H  0.03186929 -0.01147602 0.01215844
H  -0.00995958 0.00439968 0.01146901
12
MD Step 869 Units = [Angstroms / fs]
C  0.00098304 -0.00439275 0.00144199
C  0.00048256 -0.00439528 -0.00538077
C  0.00310574 -0.00057708 -0.00074470
C  0.00405001 0.00957944 0.00040878
C  -0.00005220 0.00693830 -0.00359842
C  0.00290556 0.00058157 -0.00466697
H  0.01853269 -0.01490509 -0.00306290
H  0.00803512 0.00669334 0.00269752
H  0.00389720 -0.00681375 0.00448908
H  -0.02090438 -0.00155292 -0.02013299
H  0.03435615 -0.01171504 0.01230537
H  -0.00679903 0.00631876 0.01095020
12
MD Step 870 Units = [Angstroms / fs]
C  0.00131661 -0.00427526 0.00126988
C  0.00113062 -0.00409780 -0.00547099
C  0.00257787 -0.00057442 -0.00073043
C  0.00419444 0.00901083 0.00055209
C  -0.00087247 0.00717509 -0.00349015
C  0.00271562 0.00000222 -0.00473158
H  0.01479389 -0.01812539 -0.00077730
H  0.00296519 0.00772261 0.00229177
H  0.00869162 -0.00805114 0.00501535
H  -0.01662153 0.00396020 -0.02114863
H  0.03505904 -0.00978618 0.01230941
H  -0.00286090 0.00818622 0.01028375
12
MD Step 871 Units = [Angstroms / fs]
C  0.00162651 -0.00415560 0.00106701
C  0.00177507 -0.00370405 -0.00554313
C  0.00203430 -0.00051819 -0.00072124
C  0.00428329 0.00824421 0.00067902
C  -0.00151642 0.00716187 -0.00336399
C  0.00252041 -0.00056680 -0.00477855
H  0.01109530 -0.02069104 0.00169012
H  -0.00181782 0.00822065 0.00184776
H  0.01293205 -0.00922833 0.00553924
H  -0.01156925 0.01051549 -0.02207815
H  0.03390437 -0.00557519 0.01220298
H  0.00152866 0.00995022 0.00948385
12
MD Step 872 Units = [Angstroms / fs]
C  0.00190490 -0.00405437 0.00083047
C  0.00238986 -0.00321085 -0.00559942
C  0.00151871 -0.00040723 -0.00071834
C  0.00433578 0.00734966 0.00078880
C  -0.00197752 0.00690858 -0.00322340
C  0.00234409 -0.00111296 -0.00480970
H  0.00758872 -0.02235520 0.00439612
H  -0.00610768 0.00800896 0.00138514
H  0.01620210 -0.01034031 0.00607274
H  -0.00616835 0.01732597 -0.02292171
H  0.03100633 0.00077022 0.01202407
H  0.00602275 0.01156233 0.00857199
12
MD Step 873 Units = [Angstroms / fs]
C  0.00214758 -0.00398560 0.00055994
C  0.00295168 -0.00261854 -0.00564217
C  0.00106643 -0.00024294 -0.00072220
C  0.00437305 0.00640542 0.00087878
C  -0.00226729 0.00645160 -0.00307185
C  0.00221043 -0.00162385 -0.00482722
H  0.00438501 -0.02295968 0.00736629
H  -0.00973160 0.00695363 0.00092297
H  0.01819885 -0.01137415 0.00661963
H  -0.00086320 0.02353297 -0.02365410
H  0.02668726 0.00878899 0.01180725
H  0.01027199 0.01297994 0.00757585
12
MD Step 874 Units = [Angstroms / fs]
C  0.00235374 -0.00395588 0.00025778
C  0.00344164 -0.00193206 -0.00567349
C  0.00070192 -0.00002933 -0.00073256
C  0.00441281 0.00548577 0.00094467
C  -0.00241340 0.00585264 -0.00291197
C  0.00214160 -0.00208786 -0.00483351
H  0.00155205 -0.02244418 0.01059247
H  -0.01256678 0.00498263 0.00047767
H  0.01875949 -0.01230965 0.00717551
H  0.00394635 0.02835098 -0.02422659
H  0.02145111 0.01771892 0.01157327
H  0.01394211 0.01416829 0.00652758
12
MD Step 875 Units = [Angstroms / fs]
C  0.00252542 -0.00396456 -0.00007114
C  0.00384692 -0.00116207 -0.00569516
C  0.00043806 0.00022719 -0.00074857
C  0.00446546 0.00465050 0.00098133
C  -0.00245369 0.00519098 -0.00274496
C  0.00215694 -0.00249473 -0.00483106
H  -0.00088218 -0.02084228 0.01403559
H  -0.01455608 0.00210323 0.00006047
H  0.01786446 -0.01312167 0.00772940
H  0.00795844 0.03119080 -0.02457689
H  0.01590549 0.02659224 0.01132171
H  0.01673306 0.01510196 0.00546172
12
MD Step 876 Units = [Angstroms / fs]
C  0.00266686 -0.00400464 -0.00042002
C  0.00416187 -0.00032597 -0.00570831
C  0.00027710 0.00051835 -0.00076891
C  0.00453256 0.00393890 0.00098396
C  -0.00242747 0.00454994 -0.00257052
C  0.00227134 -0.00283620 -0.00482221
H  -0.00292352 -0.01826833 0.01763224
H  -0.01571924 -0.00158418 -0.00032489
H  0.01562208 -0.01378320 0.00826615
H  0.01099540 0.03172763 -0.02464330
H  0.01065180 0.03439859 0.01103046
H  0.01840128 0.01576589 0.00441223
12
MD Step 877 Units = [Angstroms / fs]
C  0.00278374 -0.00406410 -0.00078078
C  0.00438830 0.00055179 -0.00571338
C  0.00021232 0.00083460 -0.00079202
C  0.00460765 0.00336886 0.00094906
C  -0.00236731 0.00400207 -0.00238729
C  0.00249346 -0.00310632 -0.00480896
H  -0.00460457 -0.01489979 0.02130279
H  -0.01615499 -0.00588094 -0.00068387
H  0.01224288 -0.01426850 0.00876903
H  0.01300183 0.02990571 -0.02437754
H  0.00618048 0.04026492 0.01066289
H  0.01878485 0.01615545 0.00340896
12
MD Step 878 Units = [Angstroms / fs]
C  0.00288261 -0.00412727 -0.00114469
C  0.00453468 0.00144037 -0.00571003
C  0.00023019 0.00116586 -0.00081632
C  0.00467859 0.00293985 0.00087503
C  -0.00229397 0.00359781 -0.00219377
C  0.00282378 -0.00330159 -0.00479268
H  -0.00597783 -0.01095874 0.02495959
H  -0.01603083 -0.01049869 -0.00103128
H  0.00801121 -0.01455558 0.00922203
H  0.01402347 0.02589573 -0.02375288
H  0.00280513 0.04359207 0.01017945
H  0.01782862 0.01627527 0.00247355
12
MD Step 879 Units = [Angstroms / fs]
C  0.00297038 -0.00417616 -0.00150297
C  0.00461425 0.00230441 -0.00569731
C  0.00031217 0.00150214 -0.00084030
C  0.00473030 0.00263774 0.00076233
C  -0.00221554 0.00336081 -0.00198909
C  0.00325319 -0.00342067 -0.00477387
H  -0.00710963 -0.00669467 0.02851430
H  -0.01555976 -0.01508397 -0.00138968
H  0.00325917 -0.01462792 0.00961153
H  0.01417851 0.02003101 -0.02276672
H  0.00064903 0.04411131 0.00954877
H  0.01560389 0.01613667 0.00161553
12
MD Step 880 Units = [Angstroms / fs]
C  0.00305395 -0.00419165 -0.00184726
C  0.00464226 0.00310715 -0.00567395
C  0.00043644 0.00183408 -0.00086271
C  0.00474707 0.00243950 0.00061330
C  -0.00212992 0.00328973 -0.00177349
C  0.00376247 -0.00346388 -0.00475198
H  -0.00807477 -0.00236878 0.03188414
H  -0.01496769 -0.01925687 -0.00178578
H  -0.00165537 -0.01447566 0.00992753
H  0.01363078 0.01274551 -0.02143915
H  -0.00032623 0.04186226 0.00875431
H  0.01231531 0.01575386 0.00082975
12
MD Step 881 Units = [Angstroms / fs]
C  0.00313987 -0.00415473 -0.00217004
C  0.00463313 0.00381401 -0.00563872
C  0.00057932 0.00215333 -0.00088260
C  0.00471414 0.00231684 0.00043184
C  -0.00202876 0.00336403 -0.00154835
C  0.00432325 -0.00343254 -0.00472547
H  -0.00895139 0.00176075 0.03499706
H  -0.01445883 -0.02265701 -0.00224577
H  -0.00636717 -0.01409616 0.01016432
H  0.01256986 0.00452639 -0.01980979
H  -0.00027200 0.03712199 0.00779597
H  0.00828881 0.01514003 0.00009603
12
MD Step 882 Units = [Angstroms / fs]
C  0.00323395 -0.00404775 -0.00246500
C  0.00459809 0.00439612 -0.00559081
C  0.00071657 0.00245276 -0.00089939
C  0.00461844 0.00223856 0.00022312
C  -0.00190121 0.00355093 -0.00131606
C  0.00490073 -0.00332843 -0.00469197
H  -0.00981547 0.00545374 0.03779595
H  -0.01418694 -0.02498722 -0.00279057
H  -0.01052072 -0.01349428 0.01032097
H  0.01119867 -0.00411592 -0.01793444
H  0.00059573 0.03032152 0.00668803
H  0.00393807 0.01430423 -0.00061816
12
MD Step 883 Units = [Angstroms / fs]
C  0.00334088 -0.00385576 -0.00272729
C  0.00454388 0.00483293 -0.00553014
C  0.00082493 0.00272644 -0.00091290
C  0.00444875 0.00217182 -0.00000664
C  -0.00173648 0.00381112 -0.00107968
C  0.00545771 -0.00315347 -0.00464880
H  -0.01073423 0.00850425 0.04024188
H  -0.01423846 -0.02604612 -0.00343222
H  -0.01378853 -0.01268213 0.01040131
H  0.00972729 -0.01266405 -0.01588243
H  0.00203249 0.02197537 0.00545560
H  -0.00028645 0.01325052 -0.00135209
12
MD Step 884 Units = [Angstroms / fs]
C  0.00346354 -0.00356801 -0.00295375
C  0.00447257 0.00511358 -0.00545745
C  0.00088390 0.00296952 -0.00092333
C  0.00419560 0.00208300 -0.00025028
C  -0.00152515 0.00410280 -0.00084275
C  0.00595917 -0.00290977 -0.00459348
H  -0.01175839 0.01075797 0.04231591
H  -0.01462911 -0.02574444 -0.00417210
H  -0.01589279 -0.01167830 0.01041362
H  0.00836981 -0.02060283 -0.01373461
H  0.00378694 0.01263490 0.00413124
H  -0.00395607 0.01197966 -0.00214468
12
MD Step 885 Units = [Angstroms / fs]
C  0.00360245 -0.00317946 -0.00314286
C  0.00438237 0.00523693 -0.00537431
C  0.00087786 0.00317798 -0.00093120
C  0.00385108 0.00193853 -0.00049990
C  -0.00125938 0.00438372 -0.00060909
C  0.00637643 -0.00260001 -0.00452430
H  -0.01291342 0.01212941 0.04401885
H  -0.01531177 -0.02410490 -0.00500106
H  -0.01663097 -0.01050611 0.01036964
H  0.00734137 -0.02742921 -0.01158096
H  0.00561013 0.00286422 0.00275256
H  -0.00671713 0.01049278 -0.00302743
12
MD Step 886 Units = [Angstroms / fs]
C  0.00375501 -0.00269195 -0.00329462
C  0.00426891 0.00521063 -0.00528289
C  0.00079842 0.00334820 -0.00093720
C  0.00340901 0.00170652 -0.00074713
C  -0.00093245 0.00461207 -0.00038280
C  0.00668996 -0.00222793 -0.00444064
H  -0.01419114 0.01261587 0.04536834
H  -0.01619096 -0.02124979 -0.00590097
H  -0.01590332 -0.00919106 0.01028295
H  0.00685139 -0.03267051 -0.00951672
H  0.00725741 -0.00676828 0.00136068
H  -0.00832838 0.00879577 -0.00401924
12
MD Step 887 Units = [Angstroms / fs]
C  0.00391504 -0.00211483 -0.00341008
C  0.00412666 0.00504964 -0.00518583
C  0.00064657 0.00347670 -0.00094209
C  0.00286569 0.00135951 -0.00098365
C  -0.00053821 0.00474685 -0.00016815
C  0.00689049 -0.00179889 -0.00434319
H  -0.01554375 0.01230400 0.04639295
H  -0.01713929 -0.01738158 -0.00684716
H  -0.01373750 -0.00775740 0.01016652
H  0.00708993 -0.03591703 -0.00763549
H  0.00848741 -0.01569209 -0.00000085
H  -0.00867742 0.00690286 -0.00512400
12
MD Step 888 Units = [Angstroms / fs]
C  0.00407274 -0.00146461 -0.00349070
C  0.00395021 0.00477455 -0.00508594
C  0.00043401 0.00355978 -0.00094642
C  0.00222135 0.00087861 -0.00120203
C  -0.00007054 0.00474847 0.00003039
C  0.00697855 -0.00132015 -0.00423378
H  -0.01688267 0.01136504 0.04712395
H  -0.01801248 -0.01276188 -0.00781087
H  -0.01030298 -0.00622466 0.01002987
H  0.00820450 -0.03687171 -0.00601820
H  0.00906267 -0.02334024 -0.00128734
H  -0.00777738 0.00483855 -0.00633098
12
MD Step 889 Units = [Angstroms / fs]
C  0.00421518 -0.00076355 -0.00353766
C  0.00373509 0.00441009 -0.00498600
C  0.00018301 0.00359353 -0.00095038
C  0.00148251 0.00025862 -0.00139692
C  0.00047653 0.00458035 0.00020841
C  0.00696282 -0.00080099 -0.00411520
H  -0.01808434 0.01003658 0.04758638
H  -0.01866146 -0.00769175 -0.00876169
H  -0.00590733 -0.00460504 0.00987634
H  0.01026766 -0.03541201 -0.00471828
H  0.00875641 -0.02916847 -0.00245526
H  -0.00574975 0.00263753 -0.00761726
12
MD Step 890 Units = [Angstroms / fs]
C  0.00432744 -0.00003726 -0.00355125
C  0.00347832 0.00398368 -0.00488864
C  -0.00007554 0.00357397 -0.00095369
C  0.00066457 -0.00048708 -0.00156631
C  0.00110779 0.00421227 0.00036182
C  0.00685815 -0.00025249 -0.00399081
H  -0.01900334 0.00859228 0.04779163
H  -0.01894158 -0.00249449 -0.00966953
H  -0.00096959 -0.00290293 0.00970127
H  0.01324109 -0.03164918 -0.00374605
H  0.00736945 -0.03269649 -0.00346628
H  -0.00280046 0.00034319 -0.00895122
12
MD Step 891 Units = [Angstroms / fs]
C  0.00439441 0.00068828 -0.00353060
C  0.00317867 0.00352416 -0.00479617
C  -0.00030591 0.00349749 -0.00095562
C  -0.00020615 -0.00132380 -0.00171245
C  0.00182462 0.00362576 0.00048735
C  0.00668341 0.00031288 -0.00386427
H  -0.01949126 0.00730480 0.04773383
H  -0.01871970 0.00249995 -0.01050631
H  0.00402794 -0.00111692 0.00949198
H  0.01694748 -0.02596118 -0.00305742
H  0.00476020 -0.03357576 -0.00429313
H  0.00080490 -0.00199484 -0.01029618
12
MD Step 892 Units = [Angstroms / fs]
C  0.00440260 0.00138954 -0.00347376
C  0.00283672 0.00306039 -0.00471051
C  -0.00047242 0.00336149 -0.00095514
C  -0.00109217 -0.00219711 -0.00184191
C  0.00262148 0.00282107 0.00058320
C  0.00645974 0.00088193 -0.00373922
H  -0.01941760 0.00640938 0.04739109
H  -0.01788066 0.00697087 -0.01124753
H  0.00860128 0.00075579 0.00922957
H  0.02106551 -0.01897462 -0.00255378
H  0.00088649 -0.03167715 -0.00492647
H  0.00476344 -0.00432334 -0.01161373
12
MD Step 893 Units = [Angstroms / fs]
C  0.00434200 0.00204775 -0.00337809
C  0.00245499 0.00261973 -0.00463309
C  -0.00054435 0.00316497 -0.00095117
C  -0.00194723 -0.00303951 -0.00196437
C  0.00348203 0.00182374 0.00064956
C  0.00620906 0.00144145 -0.00361906
H  -0.01868837 0.00607539 0.04673114
H  -0.01633401 0.01062500 -0.01187377
H  0.01232622 0.00271404 0.00889250
H  0.02515941 -0.01148472 -0.00209673
H  -0.00414908 -0.02717600 -0.00538057
H  0.00875400 -0.00658820 -0.01286647
12
MD Step 894 Units = [Angstroms / fs]
C  0.00420731 0.00265004 -0.00324097
C  0.00203809 0.00222605 -0.00456476
C  -0.00049975 0.00290901 -0.00094293
C  -0.00272154 -0.00378110 -0.00209046
C  0.00437606 0.00068795 0.00068876
C  0.00595291 0.00197895 -0.00350681
H  -0.01725881 0.00639046 0.04571961
H  -0.01402209 0.01321867 -0.01237221
H  0.01488672 0.00474804 0.00846063
H  0.02874253 -0.00432748 -0.00153564
H  -0.01006724 -0.02059694 -0.00569443
H  0.01245396 -0.00873696 -0.01402034
12
MD Step 895 Units = [Angstroms / fs]
C  0.00399861 0.00318971 -0.00306043
C  0.00159306 0.00189760 -0.00450576
C  -0.00032762 0.00259691 -0.00093010
C  -0.00336820 -0.00436118 -0.00222921
C  0.00525927 -0.00050670 0.00070490
C  0.00571127 0.00248333 -0.00340497
H  -0.01513845 0.00735778 0.04432864
H  -0.01092917 0.01458366 -0.01273794
H  0.01610174 0.00683674 0.00791904
H  0.03135874 0.00175921 -0.00073930
H  -0.01641416 -0.01278073 -0.00592607
H  0.01555583 -0.01072120 -0.01504663
12
MD Step 896 Units = [Angstroms / fs]
C  0.00372133 0.00366555 -0.00283567
C  0.00112979 0.00164465 -0.00445564
C  -0.00002829 0.00223410 -0.00091305
C  -0.00384913 -0.00473721 -0.00238607
C  0.00607701 -0.00166584 0.00070288
C  0.00550130 0.00294532 -0.00331539
H  -0.01238918 0.00890413 0.04254406
H  -0.00709084 0.01465393 -0.01297485
H  0.01592948 0.00894777 0.00726050
H  0.03265655 0.00624292 0.00037889
H  -0.02261105 -0.00475925 -0.00613994
H  0.01778563 -0.01249883 -0.01592374
12
MD Step 897 Units = [Angstroms / fs]
C  0.00338572 0.00408080 -0.00256746
C  0.00066144 0.00146766 -0.00441329
C  0.00038769 0.00182783 -0.00089281
C  -0.00413872 -0.00488891 -0.00256209
C  0.00677176 -0.00269619 0.00068716
C  0.00533585 0.00335776 -0.00323921
H  -0.00911819 0.01089439 0.04036986
H  -0.00260161 0.01348760 -0.01309559
H  0.01445391 0.01103949 0.00648650
H  0.03243453 0.00884577 0.00184976
H  -0.02804542 0.00243243 -0.00639173
H  0.01892427 -0.01403616 -0.01663879
12
MD Step 898 Units = [Angstroms / fs]
C  0.00300596 0.00444193 -0.00225823
C  0.00020462 0.00135635 -0.00437704
C  0.00090128 0.00138669 -0.00087101
C  -0.00422471 -0.00481751 -0.00275423
C  0.00729215 -0.00352124 0.00066076
C  0.00522172 0.00371563 -0.00317676
H  -0.00546810 0.01314835 0.03783012
H  0.00238220 0.01127627 -0.01312015
H  0.01186101 0.01306439 0.00560706
H  0.03065046 0.00953487 0.00365155
H  -0.03217722 0.00794461 -0.00671632
H  0.01883143 -0.01530921 -0.01718869
12
MD Step 899 Units = [Angstroms / fs]
C  0.00259916 0.00475761 -0.00191205
C  -0.00022098 0.00129056 -0.00434491
C  0.00148709 0.00092017 -0.00084980
C  -0.00410691 -0.00454163 -0.00295645
C  0.00760056 -0.00409173 0.00062489
C  0.00515797 0.00401592 -0.00312760
H  -0.00160638 0.01545716 0.03496862
H  0.00764725 0.00833448 -0.01307313
H  0.00841223 0.01497283 0.00463955
H  0.02740114 0.00847363 0.00572267
H  -0.03462415 0.01123880 -0.00712314
H  0.01746887 -0.01630400 -0.01758041
12
MD Step 900 Units = [Angstroms / fs]
C  0.00218419 0.00503778 -0.00153449
C  -0.00059358 0.00124286 -0.00431485
C  0.00211536 0.00043817 -0.00083173
C  -0.00379506 -0.00409205 -0.00316096
C  0.00767716 -0.00438828 0.00057908
C  0.00513475 0.00425727 -0.00309052
H  0.00228505 0.01759816 0.03184684
H  0.01293708 0.00506608 -0.01297995
H  0.00441960 0.01671651 0.00360726
H  0.02288758 0.00595978 0.00797753
H  -0.03520209 0.01212158 -0.00759925
H  0.01491799 -0.01701519 -0.01782991
12
MD Step 901 Units = [Angstroms / fs]
C  0.00178058 0.00529290 -0.00113234
C  -0.00089090 0.00118284 -0.00428508
C  0.00275363 -0.00004941 -0.00081960
C  -0.00330665 -0.00350693 -0.00335935
C  0.00752008 -0.00441752 0.00052182
C  0.00513299 0.00443952 -0.00306381
H  0.00601976 0.01934815 0.02854060
H  0.01797483 0.00191123 -0.01286285
H  0.00022435 0.01825143 0.00253771
H  0.01737919 0.00236966 0.01032054
H  -0.03391805 0.01069939 -0.00811709
H  0.01138480 -0.01744326 -0.01795966
12
MD Step 902 Units = [Angstroms / fs]
C  0.00140737 0.00553326 -0.00071333
C  -0.00109231 0.00108204 -0.00425431
C  0.00336841 -0.00053300 -0.00081636
C  -0.00266542 -0.00282822 -0.00354331
C  0.00714284 -0.00420488 0.00045112
C  0.00512571 0.00456314 -0.00304549
H  0.00941691 0.02049624 0.02513547
H  0.02249104 -0.00071497 -0.01273774
H  -0.00382149 0.01954026 0.00146105
H  0.01118558 -0.00188184 0.01265612
H  -0.03093151 0.00729271 -0.00864302
H  0.00718667 -0.01759072 -0.01799471
12
MD Step 903 Units = [Angstroms / fs]
C  0.00108201 0.00576816 -0.00028561
C  -0.00118087 0.00091839 -0.00422184
C  0.00392676 -0.00100371 -0.00082498
C  -0.00190042 -0.00209944 -0.00370504
C  0.00657073 -0.00378709 0.00036501
C  0.00508083 0.00462877 -0.00303366
H  0.01231200 0.02085740 0.02172090
H  0.02625147 -0.00247841 -0.01261267
H  -0.00737263 0.02055426 0.00040831
H  0.00463815 -0.00636510 0.01489479
H  -0.02650564 0.00234757 -0.00914406
H  0.00271912 -0.01745869 -0.01795835
12
MD Step 904 Units = [Angstroms / fs]
C  0.00081921 0.00600490 0.00014272
C  -0.00114509 0.00067921 -0.00418754
C  0.00439808 -0.00145350 -0.00084834
C  -0.00104545 -0.00136447 -0.00383750
C  0.00583738 -0.00320652 0.00026180
C  0.00496518 0.00463689 -0.00302680
H  0.01456884 0.02028757 0.01838280
H  0.02907938 -0.00316399 -0.01248809
H  -0.01010977 0.02127468 -0.00059058
H  -0.00192041 -0.01064761 0.01695670
H  -0.02096465 -0.00363249 -0.00959191
H  -0.00159312 -0.01704512 -0.01786814
12
MD Step 905 Units = [Angstroms / fs]
C  0.00062987 0.00624756 0.00056440
C  -0.00097998 0.00036223 -0.00415166
C  0.00475622 -0.00187529 -0.00088898
C  -0.00013841 -0.00066680 -0.00393446
C  0.00498210 -0.00250772 0.00014020
C  0.00474908 0.00458778 -0.00302390
H  0.01609235 0.01870026 0.01519484
H  0.03086869 -0.00269056 -0.01235857
H  -0.01176249 0.02169354 -0.00150915
H  -0.00814277 -0.01430056 0.01877401
H  -0.01466479 -0.01012767 -0.00996478
H  -0.00535128 -0.01634542 -0.01773357
12
MD Step 906 Units = [Angstroms / fs]
C  0.00052015 0.00649574 0.00097367
C  -0.00068737 -0.00002517 -0.00411465
C  0.00498196 -0.00226290 -0.00094894
C  0.00077981 -0.00004874 -0.00399078
C  0.00404814 -0.00173591 -0.00000072
C  0.00441022 0.00448174 -0.00302448
H  0.01684070 0.01608297 0.01220911
H  0.03158718 -0.00110429 -0.01221521
H  -0.01213602 0.02181324 -0.00232699
H  -0.01368502 -0.01690697 0.02029331
H  -0.00797905 -0.01662053 -0.01024789
H  -0.00823186 -0.01535541 -0.01755577
12
MD Step 907 Units = [Angstroms / fs]
C  0.00049079 0.00674340 0.00136698
C  -0.00027553 -0.00046779 -0.00407694
C  0.00506555 -0.00261079 -0.00102947
C  0.00166736 0.00045000 -0.00400257
C  0.00308141 -0.00093656 -0.00016145
C  0.00393629 0.00431949 -0.00302848
H  0.01683445 0.01251043 0.00944791
H  0.03127162 0.00144241 -0.01204810
H  -0.01113966 0.02164472 -0.00303257
H  -0.01822129 -0.01807829 0.02147897
H  -0.00129154 -0.02260074 -0.01043356
H  -0.01002056 -0.01407545 -0.01732917
12
MD Step 908 Units = [Angstroms / fs]
C  0.00053709 0.00697829 0.00174342
C  0.00024151 -0.00094502 -0.00403876
C  0.00500888 -0.00291365 -0.00113087
C  0.00248445 0.00079488 -0.00396765
C  0.00212949 -0.00015550 -0.00034204
C  0.00332597 0.00410259 -0.00303598
H  0.01615946 0.00815026 0.00689869
H  0.03001774 0.00471827 -0.01184834
H  -0.00881134 0.02120396 -0.00362544
H  -0.02146921 -0.01748535 0.02231714
H  0.00500447 -0.02756536 -0.01052122
H  -0.01062629 -0.01251426 -0.01704433
12
MD Step 909 Units = [Angstroms / fs]
C  0.00064939 0.00718232 0.00210469
C  0.00084498 -0.00143307 -0.00400007
C  0.00482663 -0.00316588 -0.00125235
C  0.00319754 0.00096044 -0.00388587
C  0.00124032 0.00056149 -0.00054205
C  0.00258827 0.00383389 -0.00304703
H  0.01496089 0.00325694 0.00451447
H  0.02796837 0.00844021 -0.01160938
H  -0.00533056 0.02050714 -0.00411732
H  -0.02322735 -0.01490612 0.02281929
H  0.01051161 -0.03102393 -0.01051771
H  -0.01007690 -0.01069145 -0.01669106
12
MD Step 910 Units = [Angstroms / fs]
C  0.00081448 0.00733292 0.00245461
C  0.00151230 -0.00190682 -0.00396048
C  0.00454574 -0.00336117 -0.00139206
C  0.00378400 0.00093541 -0.00375928
C  0.00046019 0.00117009 -0.00076040
C  0.00174091 0.00351783 -0.00306141
H  0.01342765 -0.00184802 0.00222100
H  0.02530169 0.01229648 -0.01132780
H  -0.00101179 0.01956576 -0.00453111
H  -0.02342012 -0.01028618 0.02302299
H  0.01484380 -0.03251712 -0.01043747
H  -0.00850220 -0.00863815 -0.01626114
12
MD Step 911 Units = [Angstroms / fs]
C  0.00101746 0.00740559 0.00279803
C  0.00221808 -0.00234126 -0.00391925
C  0.00420285 -0.00349234 -0.00154730
C  0.00423612 0.00072775 -0.00359195
C  -0.00016952 0.00163065 -0.00099537
C  0.00080828 0.00316063 -0.00307858
H  0.01176882 -0.00680873 -0.00007009
H  0.02222063 0.01596529 -0.01100360
H  0.00372583 0.01838327 -0.00489793
H  -0.02213766 -0.00379769 0.02298751
H  0.01765864 -0.03165657 -0.01030213
H  -0.00611071 -0.00639606 -0.01575020
12
MD Step 912 Units = [Angstroms / fs]
C  0.00124384 0.00737697 0.00313959
C  0.00293516 -0.00271249 -0.00387537
C  0.00383990 -0.00355167 -0.00171487
C  0.00456289 0.00036773 -0.00338913
C  -0.00061701 0.00191337 -0.00124467
C  -0.00018072 0.00277036 -0.00309763
H  0.01018688 -0.01127485 -0.00244477
H  0.01894304 0.01913017 -0.01064021
H  0.00841002 0.01695486 -0.00525220
H  -0.01965243 0.00412693 0.02278272
H  0.01870978 -0.02818891 -0.01013851
H  -0.00316578 -0.00401537 -0.01515876
12
MD Step 913 Units = [Angstroms / fs]
C  0.00148134 0.00722795 0.00348244
C  0.00363572 -0.00299865 -0.00382752
C  0.00349888 -0.00353172 -0.00189148
C  0.00478809 -0.00009313 -0.00315610
C  -0.00086576 0.00200504 -0.00150567
C  -0.00119440 0.00235691 -0.00311731
H  0.00885304 -0.01494143 -0.00497071
H  0.01569138 0.02149462 -0.01024417
H  0.01257834 0.01527077 -0.00562619
H  -0.01639577 0.01281201 0.02247302
H  0.01791377 -0.02207724 -0.00997444
H  0.00003615 -0.00155209 -0.01449252
12
MD Step 914 Units = [Angstroms / fs]
C  0.00172109 0.00694626 0.00382739
C  0.00429263 -0.00318089 -0.00377425
C  0.00321661 -0.00342651 -0.00207412
C  0.00494464 -0.00058830 -0.00289692
C  -0.00091989 0.00191548 -0.00177591
C  -0.00219979 0.00193177 -0.00313611
H  0.00788968 -0.01758059 -0.00768567
H  0.01268043 0.02279818 -0.00982464
H  0.01583857 0.01332237 -0.00604515
H  -0.01289054 0.02141879 0.02210147
H  0.01541299 -0.01357846 -0.00983211
H  0.00318446 0.00093464 -0.01376211
12
MD Step 915 Units = [Angstroms / fs]
C  0.00195799 0.00652788 0.00417245
C  0.00488115 -0.00324463 -0.00371396
C  0.00302093 -0.00323276 -0.00226031
C  0.00506636 -0.00104680 -0.00261367
C  -0.00080650 0.00168086 -0.00205368
C  -0.00316386 0.00150760 -0.00315230
H  0.00736222 -0.01906023 -0.01059245
H  0.01010165 0.02283588 -0.00939261
H  0.01791342 0.01110877 -0.00652428
H  -0.00965590 0.02907601 0.02168039
H  0.01160503 -0.00328123 -0.00972069
H  0.00597147 0.00338549 -0.01298246
12
MD Step 916 Units = [Angstroms / fs]
C  0.00219039 0.00597750 0.00451307
C  0.00538086 -0.00318111 -0.00364509
C  0.00292865 -0.00295081 -0.00244821
C  0.00518023 -0.00140502 -0.00230658
C  -0.00057307 0.00136107 -0.00233842
C  -0.00405479 0.00109757 -0.00316408
H  0.00728003 -0.01934848 -0.01366024
H  0.00810401 0.02148084 -0.00895972
H  0.01866247 0.00864218 -0.00706789
H  -0.00711467 0.03502333 0.02119248
H  0.00711022 0.00792987 -0.00963125
H  0.00810963 0.00574370 -0.01217179
12
MD Step 917 Units = [Angstroms / fs]
C  0.00241921 0.00530791 0.00484256
C  0.00577771 -0.00298900 -0.00356622
C  0.00294530 -0.00258520 -0.00263664
C  0.00530137 -0.00161610 -0.00197477
C  -0.00027901 0.00103011 -0.00263074
C  -0.00484337 0.00071442 -0.00316960
H  0.00760398 -0.01850629 -0.01683080
H  0.00677293 0.01870767 -0.00853679
H  0.01808155 0.00595044 -0.00767048
H  -0.00553266 0.03872356 0.02060120
H  0.00267029 0.01899571 -0.00953698
H  0.00935076 0.00795798 -0.01135013
12
MD Step 918 Units = [Angstroms / fs]
C  0.00264697 0.00453885 0.00515288
C  0.00606589 -0.00267593 -0.00347619
C  0.00306627 -0.00214448 -0.00282494
C  0.00543203 -0.00165465 -0.00161732
C  0.00001629 0.00076176 -0.00293190
C  -0.00550483 0.00036952 -0.00316713
H  0.00825726 -0.01667249 -0.02002724
H  0.00611129 0.01461171 -0.00813207
H  0.01628559 0.00307676 -0.00831900
H  -0.00500311 0.03991465 0.01986505
H  -0.00099542 0.02886197 -0.00939992
H  0.00950798 0.00998534 -0.01053747
12
MD Step 919 Units = [Angstroms / fs]
C  0.00287681 0.00369553 0.00543529
C  0.00624878 -0.00225907 -0.00337431
C  0.00327862 -0.00164072 -0.00301286
C  0.00556378 -0.00151632 -0.00123420
C  0.00026473 0.00061526 -0.00324304
C  -0.00602077 0.00007192 -0.00315516
H  0.00913696 -0.01404564 -0.02316314
H  0.00602873 0.00941717 -0.00774966
H  0.01348283 0.00007720 -0.00899558
H  -0.00546950 0.03860007 0.01895026
H  -0.00332588 0.03665801 -0.00918159
H  0.00847955 0.01179350 -0.00975141
12
MD Step 920 Units = [Angstroms / fs]
C  0.00311175 0.00280713 0.00568106
C  0.00633871 -0.00176447 -0.00326037
C  0.00356312 -0.00108856 -0.00320041
C  0.00568142 -0.00121411 -0.00082673
C  0.00043633 0.00062582 -0.00356433
C  -0.00638118 -0.00017224 -0.00313256
H  0.01012448 -0.01086590 -0.02615078
H  0.00634518 0.00346749 -0.00738835
H  0.00994762 -0.00298293 -0.00968009
H  -0.00676858 0.03499766 0.01783827
H  -0.00400024 0.04181720 -0.00885325
H  0.00627109 0.01336233 -0.00900460
12
MD Step 921 Units = [Angstroms / fs]
C  0.00335420 0.00190531 0.00588195
C  0.00635512 -0.00122482 -0.00313469
C  0.00389605 -0.00050421 -0.00338776
C  0.00576692 -0.00077343 -0.00039765
C  0.00052022 0.00080209 -0.00389463
C  -0.00658588 -0.00035990 -0.00309872
H  0.01109438 -0.00739820 -0.02890799
H  0.00681213 -0.00280499 -0.00704159
H  0.00599569 -0.00603302 -0.01035224
H  -0.00867519 0.02947395 0.01652808
H  -0.00294885 0.04411124 -0.00840188
H  0.00301056 0.01468373 -0.00830244
12
MD Step 922 Units = [Angstroms / fs]
C  0.00360571 0.00102276 0.00603070
C  0.00632129 -0.00067577 -0.00299804
C  0.00425089 0.00009569 -0.00357512
C  0.00580242 -0.00022755 0.00004904
C  0.00052104 0.00112973 -0.00423145
C  -0.00664497 -0.00049085 -0.00305365
H  0.01192184 -0.00391687 -0.03136354
H  0.00714944 -0.00892732 -0.00669854
H  0.00196350 -0.00900089 -0.01099319
H  -0.01093758 0.02248501 0.01503502
H  -0.00030874 0.04361046 -0.00783089
H  -0.00105073 0.01575957 -0.00764160
12
MD Step 923 Units = [Angstroms / fs]
C  0.00386683 0.00019171 0.00612134
C  0.00626047 -0.00015158 -0.00285145
C  0.00459981 0.00069498 -0.00376262
C  0.00577202 0.00038560 0.00050836
C  0.00045345 0.00157805 -0.00457124
C  -0.00657768 -0.00056720 -0.00299795
H  0.01248947 -0.00069061 -0.03346130
H  0.00709009 -0.01444305 -0.00634614
H  -0.00180987 -0.01181635 -0.01158680
H  -0.01329991 0.01453400 0.01338810
H  0.00364528 0.04060481 -0.00715711
H  -0.00555608 0.01659779 -0.00700999
12
MD Step 924 Units = [Angstroms / fs]
C  0.00413698 -0.00055762 0.00614947
C  0.00619216 0.00031892 -0.00269601
C  0.00491518 0.00127883 -0.00395023
C  0.00566259 0.00102533 0.00097457
C  0.00033692 0.00210699 -0.00490977
C  -0.00640973 -0.00059254 -0.00293276
H  0.01269436 0.00203344 -0.03516339
H  0.00642160 -0.01896567 -0.00597174
H  -0.00500003 -0.01441456 -0.01212063
H  -0.01551361 0.00614623 0.01162732
H  0.00856603 0.03552094 -0.00640625
H  -0.01008119 0.01720760 -0.00638860
12
MD Step 925 Units = [Angstroms / fs]
C  0.00441422 -0.00119884 0.00611252
C  0.00612962 0.00071523 -0.00253271
C  0.00517122 0.00183440 -0.00413766
C  0.00546390 0.00164922 0.00144136
C  0.00019217 0.00267249 -0.00524251
C  -0.00616946 -0.00057128 -0.00285945
H  0.01245579 0.00404754 -0.03645214
H  0.00501468 -0.02221750 -0.00556546
H  -0.00731668 -0.01673927 -0.01258667
H  -0.01734171 -0.00214297 0.00980153
H  0.01408140 0.02885710 -0.00560884
H  -0.01418627 0.01759526 -0.00575485
12
MD Step 926 Units = [Angstroms / fs]
C  0.00469499 -0.00171122 0.00600980
C  0.00607871 0.00102642 -0.00236228
C  0.00534612 0.00235120 -0.00432425
C  0.00516851 0.00221365 0.00190194
C  0.00003927 0.00322993 -0.00556480
C  -0.00588364 -0.00050809 -0.00277939
H  0.01172370 0.00520275 -0.03733040
H  0.00283430 -0.02404809 -0.00512178
H  -0.00852640 -0.01874596 -0.01298200
H  -0.01856068 -0.00979512 0.00796656
H  0.01982117 0.02114284 -0.00479735
H  -0.01747205 0.01776165 -0.00508681
12
MD Step 927 Units = [Angstroms / fs]
C  0.00497367 -0.00208152 0.00584245
C  0.00603834 0.00125095 -0.00218515
C  0.00542427 0.00282135 -0.00450894
C  0.00477171 0.00267476 0.00234922
C  -0.00010287 0.00373566 -0.00587204
C  -0.00557383 -0.00040765 -0.00269366
H  0.01048705 0.00542805 -0.03781975
H  -0.00006561 -0.02443300 -0.00464026
H  -0.00847868 -0.02040416 -0.01330906
H  -0.01896350 -0.01627842 0.00618310
H  0.02542798 0.01292026 -0.00400459
H  -0.01962775 0.01770229 -0.00436717
12
MD Step 928 Units = [Angstroms / fs]
C  0.00524223 -0.00230538 0.00561317
C  0.00600175 0.00139526 -0.00200153
C  0.00539864 0.00323950 -0.00469026
C  0.00427175 0.00299030 0.00277598
C  -0.00021631 0.00414749 -0.00615967
C  -0.00525409 -0.00027469 -0.00260291
H  0.00878040 0.00474559 -0.03795602
H  -0.00355839 -0.02345847 -0.00412527
H  -0.00713193 -0.02169844 -0.01357537
H  -0.01836762 -0.02108912 0.00451334
H  0.03055943 0.00473928 -0.00326292
H  -0.02046201 0.01740961 -0.00358610
12
MD Step 929 Units = [Angstroms / fs]
C  0.00549004 -0.00238803 0.00532565
C  0.00595828 0.00147205 -0.00181143
C  0.00527267 0.00360252 -0.00486635
C  0.00367068 0.00312315 0.00317534
C  -0.00028360 0.00442469 -0.00642328
C  -0.00493027 -0.00011416 -0.00250725
H  0.00668647 0.00327692 -0.03778237
H  -0.00746553 -0.02129889 -0.00358526
H  -0.00457382 -0.02262715 -0.01379249
H  -0.01663018 -0.02379144 0.00301546
H  0.03488798 -0.00284226 -0.00260368
H  -0.01991325 0.01687631 -0.00274248
12
MD Step 930 Units = [Angstroms / fs]
C  0.00570413 -0.00234372 0.00498403
C  0.00589509 0.00149841 -0.00161479
C  0.00506100 0.00390901 -0.00503514
C  0.00297563 0.00304649 0.00354142
C  -0.00028772 0.00452832 -0.00665866
C  -0.00460063 0.00006856 -0.00240638
H  0.00433258 0.00123606 -0.03734087
H  -0.01157696 -0.01819347 -0.00303173
H  -0.00102788 -0.02319862 -0.01397418
H  -0.01367134 -0.02407877 0.00173566
H  0.03810476 -0.00926328 -0.00205637
H  -0.01804208 0.01609872 -0.00184354
12
MD Step 931 Units = [Angstroms / fs]
C  0.00586996 -0.00219395 0.00459218
C  0.00579865 0.00149425 -0.00141159
C  0.00478857 0.00415855 -0.00519451
C  0.00220066 0.00275045 0.00387004
C  -0.00021269 0.00442270 -0.00686196
C  -0.00425741 0.00026756 -0.00229971
H  0.00187990 -0.00109276 -0.03666451
H  -0.01566806 -0.01442525 -0.00247824
H  0.00316018 -0.02342547 -0.01413394
H  -0.00950313 -0.02184993 0.00069854
H  0.03993223 -0.01397889 -0.00164712
H  -0.01501178 0.01507929 -0.00090349
12
MD Step 932 Units = [Angstroms / fs]
C  0.00597266 -0.00196459 0.00415336
C  0.00565587 0.00148112 -0.00120189
C  0.00448776 0.00435110 -0.00534248
C  0.00136830 0.00224826 0.00415956
C  -0.00004525 0.00407868 -0.00702992
C  -0.00388867 0.00047643 -0.00218649
H  -0.00049378 -0.00339053 -0.03577182
H  -0.01951303 -0.01030395 -0.00193949
H  0.00755891 -0.02331853 -0.01428240
H  -0.00425688 -0.01728087 -0.00010153
H  0.04014899 -0.01650367 -0.00139603
H  -0.01106359 0.01382797 0.00005851
12
MD Step 933 Units = [Angstroms / fs]
C  0.00599859 -0.00168237 0.00366999
C  0.00545493 0.00148114 -0.00098596
C  0.00419402 0.00448645 -0.00547746
C  0.00051032 0.00157959 0.00441115
C  0.00022237 0.00347925 -0.00716022
C  -0.00348008 0.00068846 -0.00206597
H  -0.00261473 -0.00534557 -0.03466544
H  -0.02289542 -0.00615116 -0.00143057
H  0.01170571 -0.02288253 -0.01442537
H  0.00180225 -0.01086103 -0.00070406
H  0.03862642 -0.01648344 -0.00131393
H  -0.00649212 0.01236234 0.00102034
12
MD Step 934 Units = [Angstroms / fs]
C  0.00593690 -0.00137160 0.00314393
C  0.00518602 0.00151607 -0.00076423
C  0.00394088 0.00456407 -0.00559826
C  -0.00033360 0.00080832 0.00462845
C  0.00058901 0.00262677 -0.00725175
C  -0.00301640 0.00089686 -0.00193756
H  -0.00433365 -0.00669373 -0.03333528
H  -0.02561746 -0.00228616 -0.00096613
H  0.01516851 -0.02211503 -0.01456290
H  0.00828519 -0.00336380 -0.00117746
H  0.03537086 -0.01378873 -0.00139902
H  -0.00162339 0.01070710 0.00195880
12
MD Step 935 Units = [Angstroms / fs]
C  0.00578079 -0.00105168 0.00257693
C  0.00484196 0.00160613 -0.00053741
C  0.00375538 0.00458323 -0.00570416
C  -0.00111923 0.00001386 0.00481646
C  0.00104159 0.00155013 -0.00730486
C  -0.00248273 0.00109509 -0.00180086
H  -0.00554161 -0.00724864 -0.03176463
H  -0.02750992 0.00099052 -0.00055960
H  0.01760079 -0.02100898 -0.01468980
H  0.01471941 0.00426032 -0.00160502
H  0.03055739 -0.00860633 -0.00163517
H  0.00320398 0.00889299 0.00285119
12
MD Step 936 Units = [Angstroms / fs]
C  0.00552825 -0.00073579 0.00197111
C  0.00441895 0.00176849 -0.00030648
C  0.00365502 0.00454343 -0.00579476
C  -0.00180311 -0.00072223 0.00498006
C  0.00155414 0.00030837 -0.00732124
C  -0.00186557 0.00127709 -0.00165577
H  -0.00617918 -0.00691753 -0.02993770
H  -0.02844300 0.00341756 -0.00022217
H  0.01877861 -0.01955785 -0.01479722
H  0.02061385 0.01104570 -0.00206567
H  0.02453719 -0.00148849 -0.00199317
H  0.00765588 0.00695538 0.00367663
12
MD Step 937 Units = [Angstroms / fs]
C  0.00518221 -0.00043076 0.00132944
C  0.00391732 0.00201531 -0.00007276
C  0.00364649 0.00444482 -0.00586989
C  -0.00234804 -0.00133018 0.00512254
C  0.00208999 -0.00101244 -0.00730361
C  -0.00115393 0.00143747 -0.00150249
H  -0.00623827 -0.00570239 -0.02784612
H  -0.02833846 0.00479790 0.00003838
H  0.01861488 -0.01776122 -0.01487473
H  0.02553122 0.01617879 -0.00261641
H  0.01780431 0.00668036 -0.00243560
H  0.01142016 0.00493260 0.00441733
12
MD Step 938 Units = [Angstroms / fs]
C  0.00475029 -0.00013780 0.00065604
C  0.00334227 0.00235155 0.00016206
C  0.00372609 0.00428868 -0.00592945
C  -0.00272741 -0.00176207 0.00524491
C  0.00260728 -0.00231031 -0.00725511
C  -0.00034062 0.00157156 -0.00134164
H  -0.00575811 -0.00368982 -0.02549349
H  -0.02718107 0.00502650 0.00021894
H  0.01715306 -0.01562931 -0.01491257
H  0.02914648 0.01911747 -0.00328273
H  0.01092303 0.01481411 -0.00292405
H  0.01422638 0.00286404 0.00505973
12
MD Step 939 Units = [Angstroms / fs]
C  0.00424413 0.00014627 -0.00004378
C  0.00270432 0.00277298 0.00039589
C  0.00388117 0.00407763 -0.00597328
C  -0.00292705 -0.00199554 0.00534591
C  0.00306614 -0.00348395 -0.00717873
C  0.00057606 0.00167548 -0.00117424
H  -0.00481746 -0.00103451 -0.02289735
H  -0.02502675 0.00411540 0.00032218
H  0.01454691 -0.01318533 -0.01490323
H  0.03127677 0.01963408 -0.00405863
H  0.00443508 0.02182237 -0.00342606
H  0.01586856 0.00078793 0.00559554
12
MD Step 940 Units = [Angstroms / fs]
C  0.00367866 0.00042767 -0.00076360
C  0.00201925 0.00326485 0.00062617
C  0.00409219 0.00381579 -0.00600109
C  -0.00294472 -0.00203180 0.00542266
C  0.00343521 -0.00444926 -0.00707694
C  0.00159063 0.00174616 -0.00100177
H  -0.00352532 0.00205947 -0.02008903
H  -0.02200390 0.00220883 0.00035725
H  0.01103434 -0.01046572 -0.01484270
H  0.03188097 0.01778773 -0.00491412
H  -0.00122307 0.02680877 -0.00391941
H  0.01622995 -0.00126082 0.00602258
12
MD Step 941 Units = [Angstroms / fs]
C  0.00307123 0.00071442 -0.00149607
C  0.00130743 0.00380218 0.00084998
C  0.00433472 0.00350865 -0.00601241
C  -0.00278805 -0.00189002 0.00547146
C  0.00369557 -0.00515044 -0.00695160
C  0.00268874 0.00178143 -0.00082622
H  -0.00201159 0.00535641 -0.01711192
H  -0.01830519 -0.00042009 0.00033957
H  0.00691116 -0.00751876 -0.01473094
H  0.03103727 0.01385483 -0.00580554
H  -0.00576871 0.02920394 -0.00439258
H  0.01530581 -0.00325239 0.00634505
12
MD Step 942 Units = [Angstroms / fs]
C  0.00244080 0.00101531 -0.00223316
C  0.00059225 0.00435185 0.00106410
C  0.00458126 0.00316289 -0.00600654
C  -0.00247197 -0.00160101 0.00548852
C  0.00384125 -0.00556301 -0.00680409
C  0.00384622 0.00178010 -0.00064996
H  -0.00041844 0.00860476 -0.01401874
H  -0.01416932 -0.00339563 0.00028972
H  0.00250817 -0.00440234 -0.01457211
H  0.02891176 0.00825051 -0.00668495
H  -0.00908004 0.02880245 -0.00484252
H  0.01321827 -0.00516293 0.00657302
12
MD Step 943 Units = [Angstroms / fs]
C  0.00180704 0.00133900 -0.00296649
C  -0.00010189 0.00487643 0.00126518
C  0.00480282 0.00278609 -0.00598261
C  -0.00201651 -0.00120191 0.00547045
C  0.00387739 -0.00568992 -0.00663551
C  0.00502932 0.00174202 -0.00047570
H  0.00110785 0.01155138 -0.01086828
H  -0.00985513 -0.00628718 0.00023127
H  -0.00182814 -0.00118122 -0.01437440
H  0.02572874 0.00146310 -0.00750683
H  -0.01117173 0.02571712 -0.00527138
H  0.01021628 -0.00697399 0.00672101
12
MD Step 944 Units = [Angstroms / fs]
C  0.00118948 0.00169311 -0.00368758
C  -0.00075179 0.00533910 0.00145001
C  0.00497042 0.00238630 -0.00593953
C  -0.00144538 -0.00073257 0.00541451
C  0.00381715 -0.00555419 -0.00644681
C  0.00619655 0.00166800 -0.00030627
H  0.00242508 0.01395538 -0.00772149
H  -0.00561301 -0.00866928 0.00018809
H  -0.00575293 0.00207592 -0.01414963
H  0.02174862 -0.00598952 -0.00823178
H  -0.01215627 0.02029052 -0.00568360
H  0.00665571 -0.00867063 0.00680569
12
MD Step 945 Units = [Angstroms / fs]
C  0.00060654 0.00208327 -0.00438827
C  -0.00133734 0.00570840 0.00161566
C  0.00505667 0.00197162 -0.00587610
C  -0.00078515 -0.00023358 0.00531868
C  0.00367875 -0.00519127 -0.00623894
C  0.00730213 0.00155970 -0.00014438
H  0.00340405 0.01560301 -0.00463719
H  -0.00165963 -0.01018028 0.00018163
H  -0.00894090 0.00529967 -0.01391259
H  0.01725465 -0.01358326 -0.00882829
H  -0.01220639 0.01300330 -0.00608414
H  0.00295925 -0.01023855 0.00684324
12
MD Step 946 Units = [Angstroms / fs]
C  0.00007449 0.00251190 -0.00506102
C  -0.00184285 0.00596181 0.00175967
C  0.00503761 0.00154973 -0.00579106
C  -0.00006501 0.00025460 0.00518170
C  0.00348317 -0.00464310 -0.00601277
C  0.00830059 0.00141946 0.00000751
H  0.00393880 0.01632446 -0.00166732
H  0.00183964 -0.01056650 0.00022870
H  -0.01110722 0.00842353 -0.01367987
H  0.01254645 -0.02079738 -0.00927338
H  -0.01152690 0.00440309 -0.00647777
H  -0.00043759 -0.01166141 0.00684691
12
MD Step 947 Units = [Angstroms / fs]
C  -0.00039357 0.00297694 -0.00569938
C  -0.00225755 0.00608746 0.00188015
C  0.00489502 0.00112750 -0.00568329
C  0.00068343 0.00069205 0.00500304
C  0.00325274 -0.00395456 -0.00576916
C  0.00915151 0.00125012 0.00014739
H  0.00395778 0.01601236 0.00114782
H  0.00477859 -0.00970446 0.00034022
H  -0.01203288 0.01138765 -0.01346819
H  0.00793702 -0.02711849 -0.00955297
H  -0.01033787 -0.00493881 -0.00686906
H  -0.00314348 -0.01291929 0.00682547
12
MD Step 948 Units = [Angstroms / fs]
C  -0.00078874 0.00347040 -0.00629827
C  -0.00257552 0.00608413 0.00197576
C  0.00461889 0.00071063 -0.00555194
C  0.00142659 0.00104002 0.00478300
C  0.00301041 -0.00317185 -0.00550883
C  0.00982344 0.00105501 0.00027369
H  0.00343497 0.01463998 0.00378374
H  0.00710942 -0.00760098 0.00052100
H  -0.01159345 0.01414248 -0.01329206
H  0.00374825 -0.03204748 -0.00966245
H  -0.00886745 -0.01444731 -0.00726283
H  -0.00485898 -0.01398888 0.00678279
12
MD Step 949 Units = [Angstroms / fs]
C  -0.00110707 0.00397735 -0.00685425
C  -0.00279513 0.00595974 0.00204568
C  0.00420987 0.00030361 -0.00539674
C  0.00213001 0.00126236 0.00452276
C  0.00277951 -0.00234206 -0.00523240
C  0.01029635 0.00083800 0.00038529
H  0.00239857 0.01227542 0.00623404
H  0.00883598 -0.00437688 0.00077016
H  -0.00978698 0.01665134 -0.01316081
H  0.00030003 -0.03511729 -0.00960730
H  -0.00735066 -0.02354901 -0.00766478
H  -0.00540608 -0.01484551 0.00671853
12
MD Step 950 Units = [Angstroms / fs]
C  -0.00134982 0.00447552 -0.00736552
C  -0.00291844 0.00572929 0.00208959
C  0.00368107 -0.00009009 -0.00521820
C  0.00276058 0.00132839 0.00422445
C  0.00258369 -0.00151316 -0.00494030
C  0.01056225 0.00060362 0.00048141
H  0.00093446 0.00908695 0.00850988
H  0.01000432 -0.00024220 0.00108218
H  -0.00675390 0.01889083 -0.01307561
H  -0.00211234 -0.03592828 -0.00940344
H  -0.00603047 -0.03167348 -0.00808222
H  -0.00473694 -0.01546592 0.00662951
12
MD Step 951 Units = [Angstroms / fs]
C  -0.00152305 0.00493603 -0.00783161
C  -0.00295057 0.00541262 0.00210750
C  0.00305825 -0.00046748 -0.00501788
C  0.00328994 0.00121738 0.00389110
C  0.00244674 -0.00073334 -0.00463280
C  0.01062434 0.00035720 0.00056152
H  -0.00081829 0.00533491 0.01063586
H  0.01069288 0.00453007 0.00144802
H  -0.00277972 0.02084847 -0.01302708
H  -0.00325551 -0.03420395 -0.00907630
H  -0.00515666 -0.03826037 -0.00852466
H  -0.00292471 -0.01583128 0.00651134
12
MD Step 952 Units = [Angstroms / fs]
C  -0.00163653 0.00532538 -0.00825286
C  -0.00289920 0.00503240 0.00209981
C  0.00237817 -0.00082526 -0.00479840
C  0.00369890 0.00092432 0.00352647
C  0.00239195 -0.00004930 -0.00431000
C  0.01049520 0.00010490 0.00062523
H  -0.00268098 0.00134807 0.01264268
H  0.01100391 0.00962765 0.00185617
H  0.00172618 0.02251769 -0.01299444
H  -0.00300781 -0.02986178 -0.00865773
H  -0.00497788 -0.04278227 -0.00900414
H  -0.00014304 -0.01592944 0.00635986
12
MD Step 953 Units = [Angstroms / fs]
C  -0.00170194 0.00560852 -0.00862976
C  -0.00277422 0.00461257 0.00206717
C  0.00168468 -0.00115902 -0.00456335
C  0.00398200 0.00046553 0.00313449
C  0.00244051 0.00049765 -0.00397188
C  0.01019466 -0.00014621 0.00067231
H  -0.00445663 -0.00251324 0.01455821
H  0.01105634 0.01471857 0.00229372
H  0.00627692 0.02389150 -0.01294688
H  -0.00141065 -0.02308215 -0.00818018
H  -0.00572172 -0.04479101 -0.00953476
H  0.00335918 -0.01575624 0.00617220
12
MD Step 954 Units = [Angstroms / fs]
C  -0.00173087 0.00575263 -0.00896229
C  -0.00258742 0.00417702 0.00201051
C  0.00102334 -0.00146268 -0.00431699
C  0.00415037 -0.00011814 0.00271876
C  0.00260866 0.00087746 -0.00361849
C  0.00974769 -0.00038823 0.00070258
H  -0.00595517 -0.00590105 0.01639920
H  0.01097965 0.01946780 0.00274712
H  0.01037231 0.02495719 -0.01284734
H  0.00129868 -0.01434676 -0.00766911
H  -0.00755922 -0.04398955 -0.01013079
H  0.00728259 -0.01531587 0.00594741
12
MD Step 955 Units = [Angstroms / fs]
C  -0.00173291 0.00573064 -0.00924961
C  -0.00235210 0.00374852 0.00193099
C  0.00043573 -0.00172850 -0.00406382
C  0.00423115 -0.00076299 0.00228186
C  0.00290359 0.00107852 -0.00325025
C  0.00918271 -0.00061248 0.00071599
H  -0.00701732 -0.00852173 0.01816607
H  0.01090763 0.02355302 0.00320310
H  0.01356707 0.02569415 -0.01265785
H  0.00469473 -0.00441733 -0.00713608
H  -0.01055502 -0.04031982 -0.01080276
H  0.01129949 -0.01462054 0.00568679
12
MD Step 956 Units = [Angstroms / fs]
C  -0.00171440 0.00552408 -0.00948990
C  -0.00208245 0.00334753 0.00182991
C  -0.00004532 -0.00194764 -0.00380810
C  0.00426264 -0.00139025 0.00182520
C  0.00331879 0.00111416 -0.00286840
C  0.00853011 -0.00080972 0.00071252
H  -0.00753232 -0.01016776 0.01984181
H  0.01097089 0.02668180 0.00364958
H  0.01552723 0.02607541 -0.01234515
H  0.00822369 0.00575893 -0.00657596
H  -0.01461391 -0.03404026 -0.01155146
H  0.01507311 -0.01368959 0.00539384
12
MD Step 957 Units = [Angstroms / fs]
C  -0.00167788 0.00512471 -0.00968067
C  -0.00179268 0.00299092 0.00170864
C  -0.00039862 -0.00211118 -0.00355346
C  0.00428601 -0.00191841 0.00134922
C  0.00383084 0.00102497 -0.00247557
C  0.00782109 -0.00097040 0.00069223
H  -0.00744675 -0.01073444 0.02139496
H  0.01128693 0.02861202 0.00407663
H  0.01606368 0.02607250 -0.01188541
H  0.01130417 0.01519971 -0.00597013
H  -0.01944441 -0.02575468 -0.01236086
H  0.01827555 -0.01254831 0.00507416
12
MD Step 958 Units = [Angstroms / fs]
C  -0.00162236 0.00453491 -0.00981921
C  -0.00149579 0.00269034 0.00156852
C  -0.00061542 -0.00221141 -0.00330268
C  0.00433647 -0.00227659 0.00085409
C  0.00439937 0.00087447 -0.00207616
C  0.00708644 -0.00108514 0.00065518
H  -0.00676472 -0.01022124 0.02278536
H  0.01194727 0.02917538 0.00447767
H  0.01513970 0.02566147 -0.01126695
H  0.01343710 0.02304917 -0.00529463
H  -0.02456449 -0.01635883 -0.01319289
H  0.02060651 -0.01122634 0.00473508
12
MD Step 959 Units = [Angstroms / fs]
C  -0.00154416 0.00376714 -0.00990302
C  -0.00120206 0.00245059 0.00141073
C  -0.00069850 -0.00224281 -0.00305758
C  0.00443674 -0.00241467 0.00034046
C  0.00497195 0.00073761 -0.00167635
C  0.00635503 -0.00114537 0.00060146
H  -0.00554115 -0.00872111 0.02397077
H  0.01300250 0.02830168 0.00485041
H  0.01285707 0.02482841 -0.01049092
H  0.01428773 0.02869993 -0.00452976
H  -0.02936330 -0.00689992 -0.01398727
H  0.02181436 -0.00975574 0.00438516
12
MD Step 960 Units = [Angstroms / fs]
C  -0.00143797 0.00284273 -0.00993033
C  -0.00091755 0.00226829 0.00123620
C  -0.00066033 -0.00220279 -0.00281907
C  0.00459467 -0.00230778 -0.00019001
C  0.00549272 0.00068531 -0.00128349
C  0.00565214 -0.00114413 0.00053120
H  -0.00387151 -0.00640282 0.02491307
H  0.01444750 0.02603880 0.00519741
H  0.00942940 0.02357308 -0.00957031
H  0.01371806 0.03184521 -0.00366705
H  -0.03320845 0.00161317 -0.01466842
H  0.02172005 -0.00816852 0.00403355
12
MD Step 961 Units = [Angstroms / fs]
C  -0.00129803 0.00179045 -0.00990031
C  -0.00064295 0.00213124 0.00104555
C  -0.00052085 -0.00209196 -0.00258722
C  0.00480486 -0.00195518 -0.00073443
C  0.00591228 0.00077038 -0.00090507
C  0.00499737 -0.00107696 0.00044455
H  -0.00188045 -0.00349092 0.02558309
H  0.01621098 0.02256153 0.00552594
H  0.00515147 0.02191051 -0.00852805
H  0.01177133 0.03246262 -0.00271165
H  -0.03556414 0.00838467 -0.01515806
H  0.02024221 -0.00649391 0.00368910
12
MD Step 962 Units = [Angstroms / fs]
C  -0.00111903 0.00064493 -0.00981329
C  -0.00037315 0.00201923 0.00083920
C  -0.00030548 -0.00191396 -0.00236145
C  0.00505239 -0.00137549 -0.00128896
C  0.00619524 0.00101947 -0.00054762
C  0.00440280 -0.00094265 0.00034177
H  0.00028876 -0.00024647 0.02596383
H  0.01815394 0.01816293 0.00584666
H  0.00037071 0.01987090 -0.00739469
H  0.00862740 0.03075442 -0.00168069
H  -0.03607911 0.01293564 -0.01538915
H  0.01741903 -0.00475564 0.00335939
12
MD Step 963 Units = [Angstroms / fs]
C  -0.00089680 -0.00055485 -0.00967081
C  -0.00009805 0.00190632 0.00061746
C  -0.00004327 -0.00167506 -0.00214059
C  0.00531702 -0.00060087 -0.00184912
C  0.00632341 0.00143238 -0.00021586
C  0.00387163 -0.00074377 0.00022326
H  0.00248349 0.00305030 0.02605222
H  0.02008065 0.01322538 0.00617138
H  -0.00453673 0.01749831 -0.00620614
H  0.00455128 0.02707496 -0.00059951
H  -0.03462050 0.01511780 -0.01531628
H  0.01342076 -0.00296995 0.00304976
12
MD Step 964 Units = [Angstroms / fs]
C  -0.00062877 -0.00176729 -0.00947553
C  0.00019567 0.00176440 0.00038080
C  0.00023452 -0.00138359 -0.00192305
C  0.00557653 0.00032807 -0.00241015
C  0.00629480 0.00198719 0.00008762
C  0.00339805 -0.00048677 0.00008967
H  0.00454996 0.00611578 0.02585968
H  0.02176229 0.00817422 0.00651023
H  -0.00918562 0.01484875 -0.00500161
H  -0.00015002 0.02186755 0.00050242
H  -0.03125590 0.01505809 -0.01491990
H  0.00854593 -0.00114513 0.00276252
12
MD Step 965 Units = [Angstroms / fs]
C  -0.00031415 -0.00294986 -0.00923120
C  0.00052182 0.00156742 0.00012997
C  0.00049599 -0.00104924 -0.00170696
C  0.00580885 0.00136595 -0.00296736
C  0.00611999 0.00264773 0.00036218
C  0.00296864 -0.00018165 -0.00005814
H  0.00634110 0.00867850 0.02541138
H  0.02296925 0.00342330 0.00686902
H  -0.01319946 0.01198768 -0.00382147
H  -0.00515611 0.01562063 0.00159469
H  -0.02620471 0.01307282 -0.01420509
H  0.00319699 0.00071684 0.00249662
12
MD Step 966 Units = [Angstroms / fs]
C  0.00004584 -0.00406124 -0.00894243
C  0.00089193 0.00129517 -0.00013376
C  0.00071025 -0.00068234 -0.00149037
C  0.00599305 0.00246465 -0.00351627
C  0.00581800 0.00337063 0.00060873
C  0.00256522 0.00015879 -0.00021905
H  0.00772514 0.01049580 0.02474437
H  0.02350461 -0.00067578 0.00724752
H  -0.01622960 0.00898676 -0.00270486
H  -0.01014841 0.00884322 0.00264820
H  -0.01978328 0.00958542 -0.01319705
H  -0.00216364 0.00261672 0.00224790
12
MD Step 967 Units = [Angstroms / fs]
C  0.00044784 -0.00506365 -0.00861444
C  0.00131286 0.00093588 -0.00040861
C  0.00084954 -0.00029313 -0.00127149
C  0.00610973 0.00357439 -0.00405272
C  0.00541275 0.00411050 0.00082929
C  0.00216877 0.00052000 -0.00039176
H  0.00859536 0.01137271 0.02390408
H  0.02323117 -0.00386992 0.00763918
H  -0.01797840 0.00591964 -0.00168674
H  -0.01481638 0.00205418 0.00363665
H  -0.01236016 0.00506638 -0.01193604
H  -0.00707001 0.00455324 0.00200985
12
MD Step 968 Units = [Angstroms / fs]
C  0.00088612 -0.00592531 -0.00825268
C  0.00178547 0.00048717 -0.00069236
C  0.00089180 0.00010905 -0.00104903
C  0.00614111 0.00464419 -0.00457296
C  0.00493096 0.00482286 0.00102661
C  0.00176333 0.00088675 -0.00057483
H  0.00888092 0.01118235 0.02293898
H  0.02208670 -0.00602130 0.00803212
H  -0.01822763 0.00285661 -0.00079430
H  -0.01886012 -0.00422273 0.00453775
H  -0.00432755 -0.00000162 -0.01047334
H  -0.01110994 0.00651861 0.00177481
12
MD Step 969 Units = [Angstroms / fs]
C  0.00135224 -0.00662291 -0.00786230
C  0.00230436 -0.00004446 -0.00098247
C  0.00082353 0.00051640 -0.00082255
C  0.00607142 0.00562266 -0.00507372
C  0.00440094 0.00546544 0.00120400
C  0.00133906 0.00124417 -0.00076677
H  0.00855776 0.00988575 0.02189372
H  0.02008634 -0.00710538 0.00841109
H  -0.01687050 -0.00014151 -0.00004283
H  -0.02199468 -0.00946620 0.00533453
H  0.00391250 -0.00513832 -0.00886890
H  -0.01397120 0.00849552 0.00153527
12
MD Step 970 Units = [Angstroms / fs]
C  0.00183481 -0.00714359 -0.00744760
C  0.00285849 -0.00064511 -0.00127623
C  0.00064263 0.00092325 -0.00059280
C  0.00588770 0.00645967 -0.00555230
C  0.00385232 0.00599845 0.00136520
C  0.00089392 0.00157856 -0.00096605
H  0.00765700 0.00754676 0.02080115
H  0.01731469 -0.00719569 0.00875973
H  -0.01394203 -0.00302909 0.00056808
H  -0.02396061 -0.01317602 0.00601702
H  0.01195272 -0.00986881 -0.00719021
H  -0.01546850 0.01045660 0.00128495
12
MD Step 971 Units = [Angstroms / fs]
C  0.00231954 -0.00748585 -0.00701149
C  0.00343237 -0.00129545 -0.00157095
C  0.00036024 0.00132631 -0.00036199
C  0.00558143 0.00710959 -0.00600672
C  0.00331580 0.00638449 0.00151443
C  0.00043372 0.00187794 -0.00117119
H  0.00626823 0.00433673 0.01967513
H  0.01391197 -0.00644225 0.00906265
H  -0.00963879 -0.00577936 0.00105704
H  -0.02454416 -0.01491060 0.00658395
H  0.01938278 -0.01372366 -0.00551179
H  -0.01554971 0.01236596 0.00101954
12
MD Step 972 Units = [Angstroms / fs]
C  0.00278973 -0.00765921 -0.00655519
C  0.00400749 -0.00197256 -0.00186405
C  0.00000091 0.00172446 -0.00013373
C  0.00515079 0.00753644 -0.00643577
C  0.00282265 0.00658894 0.00165631
C  -0.00002905 0.00213243 -0.00138072
H  0.00453473 0.00052431 0.01850595
H  0.01005830 -0.00504909 0.00930710
H  -0.00431798 -0.00838406 0.00146065
H  -0.02360810 -0.01434724 0.00704380
H  0.02579644 -0.01624467 -0.00391383
H  -0.01428489 0.01418234 0.00073703
12
MD Step 973 Units = [Angstroms / fs]
C  0.00322740 -0.00768227 -0.00607823
C  0.00456362 -0.00265154 -0.00215318
C  -0.00039952 0.00211806 0.00008715
C  0.00460350 0.00772069 -0.00683900
C  0.00240308 0.00658134 0.00179564
C  -0.00047699 0.00233452 -0.00159323
H  0.00263963 -0.00355120 0.01726037
H  0.00595897 -0.00325443 0.00948409
H  0.00153137 -0.01084833 0.00182978
H  -0.02112907 -0.01136011 0.00741387
H  0.03081069 -0.01700486 -0.00247847
H  -0.01184480 0.01586275 0.00043768
12
MD Step 974 Units = [Angstroms / fs]
C  0.00361490 -0.00757952 -0.00557892
C  0.00508002 -0.00330666 -0.00243629
C  -0.00079841 0.00250780 0.00029528
C  0.00395909 0.00766592 -0.00721641
C  0.00208340 0.00633850 0.00193690
C  -0.00088981 0.00247925 -0.00180736
H  0.00078437 -0.00751992 0.01588720
H  0.00183163 -0.00131420 0.00958907
H  0.00734480 -0.01318147 0.00222243
H  -0.01723136 -0.00609739 0.00771613
H  0.03410243 -0.01564956 -0.00128206
H  -0.00847571 0.01736590 0.00012381
12
MD Step 975 Units = [Angstroms / fs]
C  0.00393680 -0.00737752 -0.00505520
C  0.00553652 -0.00391234 -0.00271167
C  -0.00115226 0.00289344 0.00048545
C  0.00324964 0.00740303 -0.00756790
C  0.00188147 0.00584936 0.00208331
C  -0.00124596 0.00256434 -0.00202184
H  -0.00083664 -0.01102740 0.01432743
H  -0.00210486 0.00051193 0.00962230
H  0.01255650 -0.01538662 0.00269457
H  -0.01220184 0.00097409 0.00796941
H  0.03546306 -0.01196113 -0.00038260
H  -0.00447492 0.01865491 -0.00020056
12
MD Step 976 Units = [Angstroms / fs]
C  0.00418153 -0.00710131 -0.00450554
C  0.00591446 -0.00444400 -0.00297794
C  -0.00142286 0.00327270 0.00065335
C  0.00251771 0.00698883 -0.00789252
C  0.00180153 0.00512129 0.00223557
C  -0.00152405 0.00259012 -0.00223550
H  -0.00205991 -0.01377698 0.01252642
H  -0.00564123 0.00197386 0.00958877
H  0.01667447 -0.01745258 0.00329129
H  -0.00647167 0.00908998 0.00817991
H  0.03486168 -0.00593927 0.00019661
H  -0.00016942 0.01969932 -0.00053004
12
MD Step 977 Units = [Angstroms / fs]
C  0.00434261 -0.00677158 -0.00392988
C  0.00619768 -0.00487906 -0.00323413
C  -0.00158205 0.00364068 0.00079611
C  0.00181135 0.00649793 -0.00818797
C  0.00182995 0.00418574 0.00239065
C  -0.00170381 0.00255945 -0.00244729
H  -0.00277045 -0.01556040 0.01044517
H  -0.00858933 0.00284580 0.00949775
H  0.01933925 -0.01935063 0.00404041
H  -0.00056066 0.01729074 0.00833369
H  0.03249542 0.00212584 0.00048264
H  0.00410264 0.02047645 -0.00085828
12
MD Step 978 Units = [Angstroms / fs]
C  0.00441910 -0.00640324 -0.00333012
C  0.00637359 -0.00519826 -0.00347954
C  -0.00161433 0.00398987 0.00091252
C  0.00117717 0.00600933 -0.00845051
C  0.00193437 0.00310048 0.00254112
C  -0.00176705 0.00247724 -0.00265626
H  -0.00291075 -0.01627224 0.00806796
H  -0.01079538 0.00294376 0.00936173
H  0.02035530 -0.02103680 0.00494981
H  0.00500398 0.02458529 0.00839557
H  0.02879805 0.01162306 0.00056060
H  0.00800906 0.02097216 -0.00117836
12
MD Step 979 Units = [Angstroms / fs]
C  0.00441537 -0.00600509 -0.00271034
C  0.00643430 -0.00538731 -0.00371366
C  -0.00151724 0.00431071 0.00100297
C  0.00065357 0.00559198 -0.00867552
C  0.00206800 0.00194577 0.00267576
C  -0.00169859 0.00234989 -0.00286155
H  -0.00248092 -0.01590901 0.00540537
H  -0.01215466 0.00214592 0.00919460
H  0.01969360 -0.02245819 0.00600852
H  0.00977009 0.03012547 0.00831556
H  0.02438600 0.02166510 0.00056619
H  0.01124136 0.02118130 -0.00148323
12
MD Step 980 Units = [Angstroms / fs]
C  0.00434036 -0.00558042 -0.00207663
C  0.00637766 -0.00543867 -0.00393599
C  -0.00129981 0.00459256 0.00106914
C  0.00026617 0.00529398 -0.00885846
C  0.00217883 0.00081366 0.00278151
C  -0.00148757 0.00218455 -0.00306226
H  -0.00153227 -0.01455679 0.00249310
H  -0.01262581 0.00041388 0.00900899
H  0.01747210 -0.02356072 0.00719036
H  0.01341930 0.03333461 0.00804081
H  0.01994605 0.03121671 0.00066129
H  0.01353495 0.02110747 -0.00176637
12
MD Step 981 Units = [Angstroms / fs]
C  0.00420660 -0.00512810 -0.00143670
C  0.00620807 -0.00535322 -0.00414577
C  -0.00098029 0.00482473 0.00111362
C  0.00002635 0.00513814 -0.00899584
C  0.00222078 -0.00020685 0.00284619
C  -0.00112897 0.00198836 -0.00325743
H  -0.00015720 -0.01237288 -0.00061237
H  -0.01224157 -0.00218975 0.00881301
H  0.01392435 -0.02429633 0.00845885
H  0.01578914 0.03395784 0.00752786
H  0.01609955 0.03927472 0.00099946
H  0.01469220 0.02076210 -0.00202244
12
MD Step 982 Units = [Angstroms / fs]
C  0.00402904 -0.00464380 -0.00079935
C  0.00593658 -0.00514114 -0.00434171
C  -0.00058351 0.00499754 0.00113952
C  -0.00006737 0.00512360 -0.00908583
C  0.00216277 -0.00104405 0.00286113
C  -0.00062535 0.00176801 -0.00344591
H  0.00152199 -0.00956594 -0.00383945
H  -0.01111181 -0.00549323 0.00860689
H  0.00936588 -0.02462827 0.00977199
H  0.01686158 0.03203784 0.00675104
H  0.01329173 0.04504040 0.00169378
H  0.01460676 0.02016256 -0.00224820
12
MD Step 983 Units = [Angstroms / fs]
C  0.00382409 -0.00412105 -0.00017397
C  0.00558018 -0.00482164 -0.00452181
C  -0.00013866 0.00510312 0.00115013
C  -0.00002641 0.00523133 -0.00912841
C  0.00199287 -0.00165252 0.00282255
C  0.00001167 0.00152948 -0.00362627
H  0.00336380 -0.00637748 -0.00710757
H  -0.00941543 -0.00922320 0.00838058
H  0.00416431 -0.02453421 0.01108644
H  0.01673151 0.02784536 0.00570542
H  0.01174072 0.04802842 0.00279843
H  0.01328509 0.01932921 -0.00244336
12
MD Step 984 Units = [Angstroms / fs]
C  0.00360863 -0.00355232 0.00042995
C  0.00516011 -0.00442104 -0.00468332
C  0.00032256 0.00513609 0.00114871
C  0.00013115 0.00543040 -0.00912522
C  0.00171713 -0.00201494 0.00273162
C  0.00076056 0.00127816 -0.00379682
H  0.00521704 -0.00306569 -0.01033302
H  -0.00738030 -0.01303043 0.00811319
H  -0.00128447 -0.02400782 0.01236058
H  0.01557032 0.02179866 0.00440535
H  0.01144984 0.04808955 0.00430789
H  0.01085918 0.01828182 -0.00261117
12
MD Step 985 Units = [Angstroms / fs]
C  0.00339917 -0.00292982 0.00100328
C  0.00469949 -0.00396961 -0.00482285
C  0.00076741 0.00509382 0.00113826
C  0.00038320 0.00568336 -0.00907918
C  0.00135488 -0.00213813 0.00259332
C  0.00159037 0.00101914 -0.00395555
H  0.00692956 0.00010905 -0.01343435
H  -0.00525382 -0.01653180 0.00777498
H  -0.00657513 -0.02305902 0.01355700
H  0.01359506 0.01439576 0.00288080
H  0.01226102 0.04536278 0.00616935
H  0.00758373 0.01703611 -0.00275870
12
MD Step 986 Units = [Angstroms / fs]
C  0.00321102 -0.00224646 0.00153761
C  0.00422073 -0.00349755 -0.00493678
C  0.00116349 0.00497655 0.00112138
C  0.00070548 0.00594989 -0.00899415
C  0.00093320 -0.00204624 0.00241502
C  0.00246265 0.00075760 -0.00410024
H  0.00835677 0.00289845 -0.01633751
H  -0.00327030 -0.01936040 0.00733172
H  -0.01130940 -0.02171358 0.01464434
H  0.01104741 0.00616897 0.00117349
H  0.01391960 0.04019306 0.00830058
H  0.00381389 0.01560145 -0.00289636
12
MD Step 987 Units = [Angstroms / fs]
C  0.00305741 -0.00149698 0.00202571
C  0.00374328 -0.00303119 -0.00502167
C  0.00148022 0.00478720 0.00110014
C  0.00107260 0.00618875 -0.00887469
C  0.00048207 -0.00177401 0.00220511
C  0.00333496 0.00049902 -0.00422859
H  0.00937088 0.00508172 -0.01898079
H  -0.00162222 -0.02121295 0.00675040
H  -0.01511383 -0.02001188 0.01559896
H  0.00818229 -0.00233947 -0.00066623
H  0.01612894 0.03304901 0.01060633
H  -0.00003581 0.01398064 -0.00303674
12
MD Step 988 Units = [Angstroms / fs]
C  0.00294868 -0.00067923 0.00246185
C  0.00328217 -0.00259013 -0.00507471
C  0.00169072 0.00453096 0.00107595
C  0.00145855 0.00635872 -0.00872589
C  0.00003119 -0.00136162 0.00197203
C  0.00416517 0.00024922 -0.00433837
H  0.00987120 0.00648307 -0.02131941
H  -0.00044116 -0.02188445 0.00600485
H  -0.01766176 -0.01800649 0.01640635
H  0.00526295 -0.01058743 -0.00258146
H  0.01858623 0.02446071 0.01299015
H  -0.00354441 0.01217222 -0.00319294
12
MD Step 989 Units = [Angstroms / fs]
C  0.00289127 0.00020433 0.00284214
C  0.00284757 -0.00218583 -0.00509410
C  0.00177422 0.00421459 0.00104947
C  0.00183698 0.00641905 -0.00855331
C  -0.00039168 -0.00085166 0.00172383
C  0.00491592 0.00001409 -0.00442762
H  0.00979508 0.00699082 -0.02332923
H  0.00020939 -0.02128472 0.00508002
H  -0.01870120 -0.01575828 0.01706228
H  0.00255907 -0.01803759 -0.00451030
H  0.02100045 0.01498285 0.01536112
H  -0.00633847 0.01017450 -0.00337672
12
MD Step 990 Units = [Angstroms / fs]
C  0.00288703 0.00114512 0.00316470
C  0.00244511 -0.00182160 -0.00507919
C  0.00171888 0.00384568 0.00102058
C  0.00218165 0.00633031 -0.00836287
C  -0.00076137 -0.00028786 0.00146788
C  0.00555804 -0.00020074 -0.00449479
H  0.00912824 0.00657576 -0.02500871
H  0.00033065 -0.01943710 0.00397406
H  -0.01808734 -0.01333066 0.01757302
H  0.00034296 -0.02416548 -0.00638772
H  0.02309807 0.00517913 0.01763710
H  -0.00813572 0.00799025 -0.00359682
12
MD Step 991 Units = [Angstroms / fs]
C  0.00293262 0.00212740 0.00342960
C  0.00207675 -0.00149362 -0.00503047
C  0.00152449 0.00343173 0.00098846
C  0.00246728 0.00605620 -0.00816067
C  -0.00105525 0.00028518 0.00121091
C  0.00607253 -0.00039030 -0.00453882
H  0.00791198 0.00530460 -0.02637793
H  -0.00002180 -0.01646407 0.00269834
H  -0.01581478 -0.01078243 0.01795433
H  -0.00112029 -0.02847989 -0.00814891
H  0.02462249 -0.00438037 0.01974609
H  -0.00877075 0.00563055 -0.00385796
12
MD Step 992 Units = [Angstroms / fs]
C  0.00301956 0.00312794 0.00363854
C  0.00174176 -0.00119255 -0.00494949
C  0.00120461 0.00297937 0.00095184
C  0.00267132 0.00556692 -0.00795258
C  -0.00125303 0.00082196 0.00095890
C  0.00645095 -0.00055060 -0.00455923
H  0.00624457 0.00334335 -0.02747409
H  -0.00075126 -0.01256607 0.00127589
H  -0.01204088 -0.00816047 0.01822847
H  -0.00159346 -0.03056237 -0.00973500
H  0.02533269 -0.01311836 0.02162746
H  -0.00820116 0.00311685 -0.00416055
12
MD Step 993 Units = [Angstroms / fs]
C  0.00313490 0.00411692 0.00379426
C  0.00143771 -0.00090523 -0.00483863
C  0.00078691 0.00249396 0.00090936
C  0.00277657 0.00484428 -0.00774357
C  -0.00133665 0.00127659 0.00071694
C  0.00669433 -0.00067877 -0.00455606
H  0.00427442 0.00094624 -0.02834366
H  -0.00173304 -0.00799916 -0.00026089
H  -0.00708961 -0.00549456 0.01841954
H  -0.00090078 -0.03012832 -0.01110153
H  0.02500531 -0.02045589 0.02323423
H  -0.00649762 0.00048108 -0.00450093
12
MD Step 994 Units = [Angstroms / fs]
C  0.00326261 0.00506011 0.00389976
C  0.00116105 -0.00061624 -0.00470091
C  0.00031137 0.00197963 0.00086003
C  0.00277466 0.00388800 -0.00753692
C  -0.00129067 0.00160468 0.00048896
C  0.00681148 -0.00077307 -0.00452988
H  0.00218462 -0.00157113 -0.02903249
H  -0.00282565 -0.00305468 -0.00187297
H  -0.00142787 -0.00279638 0.01854777
H  0.00102796 -0.02710244 -0.01222861
H  0.02344403 -0.02583484 0.02453694
H  -0.00382395 -0.00223581 -0.00487219
12
MD Step 995 Units = [Angstroms / fs]
C  0.00338554 0.00592211 0.00395760
C  0.00090765 -0.00030925 -0.00453984
C  -0.00017403 0.00143979 0.00080366
C  0.00266944 0.00272155 -0.00733343
C  -0.00110347 0.00176728 0.00027730
C  0.00681692 -0.00083280 -0.00448167
H  0.00017078 -0.00387117 -0.02957641
H  -0.00387997 0.00195796 -0.00351726
H  0.00438702 -0.00006398 0.01862433
H  0.00411279 -0.02168860 -0.01312973
H  0.02049901 -0.02876646 0.02552872
H  -0.00041362 -0.00498628 -0.00526510
12
MD Step 996 Units = [Angstroms / fs]
C  0.00348757 0.00666995 0.00396935
C  0.00067303 0.00003174 -0.00435915
C  -0.00061923 0.00087818 0.00074107
C  0.00247897 0.00139486 -0.00713113
C  -0.00076928 0.00173742 0.00008224
C  0.00672897 -0.00085811 -0.00441280
H  -0.00158362 -0.00563871 -0.02999472
H  -0.00474689 0.00672638 -0.00514913
H  0.00977989 0.00270925 0.01864830
H  0.00809654 -0.01440266 -0.01385463
H  0.01609732 -0.02891003 0.02622965
H  0.00345306 -0.00771878 -0.00566905
12
MD Step 997 Units = [Angstroms / fs]
C  0.00355552 0.00727642 0.00393548
C  0.00045267 0.00042129 -0.00416266
C  -0.00097841 0.00029979 0.00067408
C  0.00223438 -0.00001847 -0.00692571
C  -0.00029111 0.00150824 -0.00009815
C  0.00656821 -0.00084972 -0.00432496
H  -0.00292919 -0.00662122 -0.03028811
H  -0.00528486 0.01095008 -0.00672507
H  0.01423444 0.00552405 0.01860684
H  0.01255471 -0.00603849 -0.01448226
H  0.01028070 -0.02617298 0.02668732
H  0.00746910 -0.01038043 -0.00607297
12
MD Step 998 Units = [Angstroms / fs]
C  0.00358046 0.00772242 0.00385559
C  0.00024235 0.00087122 -0.00395406
C  -0.00121520 -0.00028840 0.00060522
C  0.00197519 -0.00143034 -0.00671182
C  0.00031634 0.00110065 -0.00026750
C  0.00635613 -0.00080861 -0.00422002
H  -0.00376581 -0.00665686 -0.03044118
H  -0.00536833 0.01435704 -0.00820551
H  0.01735606 0.00836655 0.01847843
H  0.01695162 0.00244211 -0.01510378
H  0.00324085 -0.02080464 0.02696961
H  0.01131835 -0.01291930 -0.00646611
12
MD Step 999 Units = [Angstroms / fs]
C  0.00355828 0.00799801 0.00372879
C  0.00003881 0.00138910 -0.00373664
C  -0.00130578 -0.00087729 0.00053728
C  0.00174185 -0.00275168 -0.00648474
C  0.00102494 0.00056672 -0.00042998
C  0.00611410 -0.00073576 -0.00409997
H  -0.00404922 -0.00568678 -0.03042812
H  -0.00489799 0.01672353 -0.00955798
H  0.01890855 0.01120423 0.01823799
H  0.02073255 0.01007148 -0.01580043
H  -0.00466346 -0.01343929 0.02714819
H  0.01469205 -0.01528669 -0.00683875
12
MD Step 1000 Units = [Angstroms / fs]
C  0.00348956 0.00810233 0.00355432
C  -0.00015941 0.00197661 -0.00351305
C  -0.00123963 -0.00145601 0.00047293
C  0.00156790 -0.00390621 -0.00624187
C  0.00179397 -0.00001458 -0.00058853
C  0.00586227 -0.00063191 -0.00396679
H  -0.00378947 -0.00375238 -0.03021980
H  -0.00381291 0.01789686 -0.01076039
H  0.01882178 0.01398690 0.01786227
H  0.02342325 0.01603953 -0.01662461
H  -0.01292382 -0.00504633 0.02727604
H  0.01730608 -0.01743915 -0.00718287
12
MD Step 1001 Units = [Angstroms / fs]
C  0.00337890 0.00804268 0.00333195
C  -0.00035102 0.00262787 -0.00328507
C  -0.00101847 -0.00201261 0.00041433
C  0.00147455 -0.00484013 -0.00598337
C  0.00257423 -0.00055028 -0.00074328
C  0.00561826 -0.00049742 -0.00382232
H  -0.00304370 -0.00098197 -0.02979024
H  -0.00210314 0.01781849 -0.01180381
H  0.01717607 0.01665169 0.01733421
H  0.02470418 0.01980709 -0.01759091
H  -0.02094032 0.00322276 0.02736782
H  0.01892073 -0.01934040 -0.00749276
12
MD Step 1002 Units = [Angstroms / fs]
C  0.00323398 0.00783315 0.00306239
C  -0.00053101 0.00332819 -0.00305345
C  -0.00065415 -0.00253490 0.00036294
C  0.00146887 -0.00552557 -0.00571199
C  0.00331475 -0.00095147 -0.00089099
C  0.00539569 -0.00033223 -0.00366818
H  -0.00190613 0.00242819 -0.02912166
H  0.00017963 0.01654251 -0.01269405
H  0.01417305 0.01912988 0.01664562
H  0.02444040 0.02114367 -0.01867865
H  -0.02811006 0.01025142 0.02739250
H  0.01936305 -0.02096285 -0.00776553
12
MD Step 1003 Units = [Angstroms / fs]
C  0.00306455 0.00749325 0.00274741
C  -0.00069017 0.00405371 -0.00281792
C  -0.00016629 -0.00301111 0.00031945
C  0.00154549 -0.00595851 -0.00543222
C  0.00397011 -0.00115031 -0.00102573
C  0.00520251 -0.00013606 -0.00350566
H  -0.00049744 0.00623390 -0.02820755
H  0.00291718 0.01424284 -0.01345092
H  0.01010289 0.02135361 0.01579828
H  0.02266850 0.02009742 -0.01984228
H  -0.03391961 0.01516348 0.02728258
H  0.01855020 -0.02228817 -0.00800144
12
MD Step 1004 Units = [Angstroms / fs]
C  0.00288151 0.00704660 0.00238986
C  -0.00081530 0.00477247 -0.00257750
C  0.00041993 -0.00343051 0.00028379
C  0.00169003 -0.00615348 -0.00514936
C  0.00450599 -0.00111025 -0.00114051
C  0.00503954 0.00009132 -0.00333574
H  0.00104492 0.01016163 -0.02705406
H  0.00592917 0.01120299 -0.01410488
H  0.00531448 0.02326152 0.01480383
H  0.01955718 0.01692680 -0.02102435
H  -0.03801274 0.01744826 0.02695493
H  0.01650958 -0.02330655 -0.00820376
12
MD Step 1005 Units = [Angstroms / fs]
C  0.00269609 0.00651973 0.00199362
C  -0.00089037 0.00544707 -0.00233087
C  0.00107550 -0.00378373 0.00025519
C  0.00188295 -0.00613761 -0.00486866
C  0.00490162 -0.00082735 -0.00122906
C  0.00489959 0.00034969 -0.00315911
H  0.00257525 0.01392503 -0.02568004
H  0.00898870 0.00778629 -0.01469111
H  0.00019118 0.02480283 0.01368297
H  0.01536115 0.01202527 -0.02216663
H  -0.04021691 0.01697936 0.02633358
H  0.01338992 -0.02401430 -0.00837819
12
MD Step 1006 Units = [Angstroms / fs]
C  0.00251914 0.00594095 0.00156344
C  -0.00089850 0.00603856 -0.00207695
C  0.00176904 -0.00406310 0.00023225
C  0.00210240 -0.00594564 -0.00459479
C  0.00514923 -0.00032451 -0.00128704
C  0.00476775 0.00063780 -0.00297624
H  0.00394754 0.01724025 -0.02411602
H  0.01184798 0.00438981 -0.01524240
H  -0.00486840 0.02594027 0.01246431
H  0.01038209 0.00585971 -0.02321756
H  -0.04053047 0.01394958 0.02536595
H  0.00945709 -0.02441022 -0.00853168
12
MD Step 1007 Units = [Angstroms / fs]
C  0.00236055 0.00533916 0.00110472
C  -0.00082438 0.00651092 -0.00181540
C  0.00246804 -0.00426279 0.00021305
C  0.00232605 -0.00561666 -0.00433161
C  0.00525152 0.00035739 -0.00131255
C  0.00462311 0.00095284 -0.00278755
H  0.00502345 0.01984141 -0.02240216
H  0.01426910 0.00139119 -0.01578257
H  -0.00946697 0.02665196 0.01118286
H  0.00494242 -0.00106987 -0.02413639
H  -0.03908607 0.00876834 0.02402950
H  0.00507091 -0.02449165 -0.00867081
12
MD Step 1008 Units = [Angstroms / fs]
C  0.00222858 0.00474230 0.00062325
C  -0.00065668 0.00683515 -0.00154693
C  0.00314032 -0.00437904 0.00019528
C  0.00253176 -0.00519219 -0.00408205
C  0.00521871 0.00116793 -0.00130593
C  0.00444179 0.00129003 -0.00259356
H  0.00568142 0.02149786 -0.02058525
H  0.01605375 -0.00089977 -0.01632228
H  -0.01322600 0.02693264 0.00987803
H  -0.00062878 -0.00825148 -0.02489512
H  -0.03610816 0.00196339 0.02233087
H  0.00064416 -0.02425157 -0.00880008
12
MD Step 1009 Units = [Angstroms / fs]
C  0.00212920 0.00417561 0.00012491
C  -0.00038977 0.00699196 -0.00127340
C  0.00375580 -0.00441024 0.00017644
C  0.00269784 -0.00471532 -0.00384802
C  0.00506609 0.00205339 -0.00126943
C  0.00420085 0.00164244 -0.00239499
H  0.00582728 0.02203367 -0.01871453
H  0.01706517 -0.00227474 -0.01685802
H  -0.01580707 0.02679388 0.00859101
H  -0.00600184 -0.01516968 -0.02547937
H  -0.03187746 -0.00589102 0.02030125
H  -0.00340935 -0.02367808 -0.00892066
12
MD Step 1010 Units = [Angstroms / fs]
C  0.00206535 0.00365966 -0.00038475
C  -0.00002460 0.00697300 -0.00099758
C  0.00428878 -0.00435686 0.00015409
C  0.00280301 -0.00423013 -0.00363038
C  0.00481247 0.00296044 -0.00120669
C  0.00388212 0.00200107 -0.00219285
H  0.00540606 0.02134862 -0.01683641
H  0.01723921 -0.00264117 -0.01737407
H  -0.01693893 0.02626291 0.00736101
H  -0.01084969 -0.02131012 -0.02588926
H  -0.02670772 -0.01421507 0.01799136
H  -0.00672690 -0.02275664 -0.00902979
12
MD Step 1011 Units = [Angstroms / fs]
C  0.00203626 0.00320832 -0.00090095
C  0.00043142 0.00678044 -0.00072289
C  0.00472071 -0.00422124 0.00012628
C  0.00282689 -0.00378076 -0.00342881
C  0.00447946 0.00383769 -0.00112255
C  0.00347514 0.00235534 -0.00198845
H  0.00441338 0.01943767 -0.01498856
H  0.01658419 -0.00201839 -0.01784652
H  -0.01644954 0.02537932 0.00622058
H  -0.01485379 -0.02616851 -0.02614028
H  -0.02093468 -0.02244004 0.01546767
H  -0.00903834 -0.02147433 -0.00912117
12
MD Step 1012 Units = [Angstroms / fs]
C  0.00203697 0.00282732 -0.00142005
C  0.00096516 0.00642558 -0.00045299
C  0.00504296 -0.00400709 0.00009189
C  0.00275106 -0.00340956 -0.00324170
C  0.00409149 0.00463611 -0.00102284
C  0.00297860 0.00269362 -0.00178330
H  0.00290394 0.01640425 -0.01319441
H  0.01517241 -0.00052116 -0.01824788
H  -0.01429868 0.02418941 0.00519032
H  -0.01771800 -0.02927259 -0.02626380
H  -0.01491370 -0.03001087 0.01281039
H  -0.01018989 -0.01982493 -0.00918597
12
MD Step 1013 Units = [Angstroms / fs]
C  0.00205834 0.00251355 -0.00193980
C  0.00155905 0.00592694 -0.00019144
C  0.00525908 -0.00371872 0.00005106
C  0.00256128 -0.00315356 -0.00306625
C  0.00367594 0.00530906 -0.00091437
C  0.00240030 0.00300397 -0.00157906
H  0.00099365 0.01246168 -0.01145945
H  0.01312718 0.00166273 -0.01855134
H  -0.01060317 0.02273852 0.00427404
H  -0.01919432 -0.03022368 -0.02630595
H  -0.00902084 -0.03638481 0.01011230
H  -0.01014883 -0.01781318 -0.00921437
12
MD Step 1014 Units = [Angstroms / fs]
C  0.00208771 0.00225578 -0.00245936
C  0.00219234 0.00530835 0.00005851
C  0.00538551 -0.00336035 0.00000538
C  0.00225063 -0.00303932 -0.00289870
C  0.00326306 0.00581262 -0.00080492
C  0.00175587 0.00327485 -0.00137740
H  -0.00114737 0.00791869 -0.00977073
H  0.01060864 0.00429534 -0.01873407
H  -0.00564451 0.02106308 0.00345595
H  -0.01912130 -0.02875961 -0.02632300
H  -0.00365129 -0.04103603 0.00747719
H  -0.00899270 -0.01545730 -0.00919708
12
MD Step 1015 Units = [Angstroms / fs]
C  0.00211030 0.00203672 -0.00297893
C  0.00284239 0.00459726 0.00029415
C  0.00545031 -0.00293554 -0.00004213
C  0.00182327 -0.00307654 -0.00273508
C  0.00288505 0.00610714 -0.00070290
C  0.00106677 0.00349583 -0.00117990
H  -0.00331161 0.00314811 -0.00810044
H  0.00780068 0.00710889 -0.01877949
H  0.00014960 0.01918472 0.00270121
H  -0.01746971 -0.02483096 -0.02637150
H  0.00079246 -0.04347473 0.00501568
H  -0.00688921 -0.01278959 -0.00912657
12
MD Step 1016 Units = [Angstroms / fs]
C  0.00211124 0.00183616 -0.00349917
C  0.00348585 0.00382344 0.00051337
C  0.00548934 -0.00244715 -0.00008750
C  0.00129755 -0.00325230 -0.00257236
C  0.00257354 0.00616029 -0.00061682
C  0.00035821 0.00365831 -0.00098791
H  -0.00527898 -0.00145679 -0.00641313
H  0.00489939 0.00982293 -0.01867852
H  0.00625187 0.01710908 0.00196077
H  -0.01438192 -0.01866907 -0.02649330
H  0.00393048 -0.04328830 0.00283626
H  -0.00407269 -0.00985528 -0.00899797
12
MD Step 1017 Units = [Angstroms / fs]
C  0.00207772 0.00163443 -0.00402049
C  0.00409965 0.00301778 0.00071470
C  0.00554090 -0.00189796 -0.00012639
C  0.00070695 -0.00352851 -0.00240985
C  0.00235513 0.00595212 -0.00055404
C  -0.00034281 0.00375616 -0.00080254
H  -0.00684467 -0.00552988 -0.00467466
H  0.00210282 0.01215931 -0.01843018
H  0.01210323 0.01483019 0.00117965
H  -0.01018592 -0.01081394 -0.02669825
H  0.00545865 -0.04020678 0.00103005
H  -0.00082152 -0.00671049 -0.00880954
12
MD Step 1018 Units = [Angstroms / fs]
C  0.00200094 0.00141560 -0.00454235
C  0.00466211 0.00221125 0.00089732
C  0.00563970 -0.00129176 -0.00015496
C  0.00009750 -0.00384506 -0.00225016
C  0.00224504 0.00548135 -0.00051916
C  -0.00100904 0.00378633 -0.00062454
H  -0.00784429 -0.00877398 -0.00286068
H  -0.00039930 0.01385701 -0.01804151
H  0.01718714 0.01233922 0.00030677
H  -0.00536735 -0.00207268 -0.02695125
H  0.00522256 -0.03418508 -0.00035014
H  0.00256194 -0.00341941 -0.00856287
12
MD Step 1019 Units = [Angstroms / fs]
C  0.00187736 0.00116952 -0.00506284
C  0.00515399 0.00143367 0.00106100
C  0.00581184 -0.00063453 -0.00017047
C  -0.00047850 -0.00412914 -0.00209939
C  0.00224038 0.00477123 -0.00051224
C  -0.00161422 0.00374919 -0.00045429
H  -0.00817126 -0.01098884 -0.00096254
H  -0.00243702 0.01468855 -0.01752677
H  0.02109296 0.00963469 -0.00069635
H  -0.00049735 0.00659760 -0.02717084
H  0.00329508 -0.02547947 -0.00131150
H  0.00576884 -0.00005144 -0.00826269
12
MD Step 1020 Units = [Angstroms / fs]
C  0.00170906 0.00089269 -0.00557854
C  0.00555971 0.00071211 0.00120599
C  0.00607162 0.00006445 -0.00017178
C  -0.00097081 -0.00430874 -0.00196605
C  0.00231575 0.00387209 -0.00052764
C  -0.00213411 0.00364866 -0.00029185
H  -0.00778426 -0.01208235 0.00101067
H  -0.00387334 0.01447923 -0.01690583
H  0.02355576 0.00673058 -0.00184999
H  0.00386588 0.01425493 -0.02724264
H  0.00002554 -0.01468344 -0.00193430
H  0.00850045 0.00332214 -0.00791658
12
MD Step 1021 Units = [Angstroms / fs]
C  0.00150337 0.00058803 -0.00608473
C  0.00586860 0.00006912 0.00133283
C  0.00642071 0.00079225 -0.00015932
C  -0.00133910 -0.00432573 -0.00185908
C  0.00242419 0.00285797 -0.00055441
C  -0.00254769 0.00349180 -0.00013697
H  -0.00670522 -0.01206655 0.00303335
H  -0.00461891 0.01312863 -0.01620152
H  0.02446851 0.00366027 -0.00315468
H  0.00727010 0.02013248 -0.02704408
H  -0.00397511 -0.00268964 -0.00236686
H  0.01048563 0.00663157 -0.00753425
12
MD Step 1022 Units = [Angstroms / fs]
C  0.00127193 0.00026378 -0.00657569
C  0.00607607 -0.00047928 0.00144207
C  0.00684910 0.00153251 -0.00013499
C  -0.00155778 -0.00414462 -0.00178582
C  0.00250502 0.00181662 -0.00057838
C  -0.00283842 0.00328807 0.00001077
H  -0.00501063 -0.01104300 0.00506722
H  -0.00464615 0.01063157 -0.01543593
H  0.02387082 0.00047580 -0.00459303
H  0.00942793 0.02374373 -0.02647096
H  -0.00792944 0.00943187 -0.00279807
H  0.01150065 0.00981244 -0.00712654
12
MD Step 1023 Units = [Angstroms / fs]
C  0.00102943 -0.00006774 -0.00704517
C  0.00618433 -0.00092528 0.00153397
C  0.00733728 0.00226631 -0.00010176
C  -0.00161718 -0.00375494 -0.00175049
C  0.00249678 0.00083514 -0.00058560
C  -0.00299598 0.00304813 0.00015179
H  -0.00281947 -0.00918319 0.00706607
H  -0.00399948 0.00709360 -0.01462607
H  0.02192331 -0.00275606 -0.00613375
H  0.01023060 0.02491030 -0.02545668
H  -0.01104772 0.02061048 -0.00341489
H  0.01139157 0.01280952 -0.00670404
12
MD Step 1024 Units = [Angstroms / fs]
C  0.00079240 -0.00039153 -0.00748683
C  0.00620247 -0.00127020 0.00160817
C  0.00785878 0.00297338 -0.00006330
C  -0.00152148 -0.00316835 -0.00175372
C  0.00235076 -0.00001409 -0.00056569
C  -0.00301789 0.00278259 0.00028633
H  -0.00028044 -0.00670819 0.00898070
H  -0.00279747 0.00273477 -0.01377971
H  0.01887696 -0.00595957 -0.00773650
H  0.00972422 0.02372454 -0.02397968
H  -0.01268690 0.02994973 -0.00436052
H  0.01009731 0.01558017 -0.00627526
12
MD Step 1025 Units = [Angstroms / fs]
C  0.00057801 -0.00069101 -0.00789463
C  0.00614552 -0.00152401 0.00166348
C  0.00838257 0.00363349 -0.00002362
C  -0.00128530 -0.00241288 -0.00179278
C  0.00204024 -0.00068260 -0.00051382
C  -0.00291110 0.00250092 0.00041421
H  0.00243974 -0.00387026 0.01076315
H  -0.00122347 -0.00212357 -0.01289259
H  0.01504391 -0.00905576 -0.00935635
H  0.00806750 0.02047757 -0.02206056
H  -0.01245780 0.03684447 -0.00570884
H  0.00766898 0.01809627 -0.00584469
12
MD Step 1026 Units = [Angstroms / fs]
C  0.00040316 -0.00094901 -0.00826306
C  0.00603251 -0.00170345 0.00169787
C  0.00887514 0.00422775 0.00001319
C  -0.00093019 -0.00152685 -0.00186240
C  0.00156305 -0.00114830 -0.00043100
C  -0.00269259 0.00221083 0.00053472
H  0.00516669 -0.00093663 0.01237021
H  0.00049581 -0.00709056 -0.01194823
H  0.01077296 -0.01196759 -0.01094772
H  0.00548835 0.01558396 -0.01975340
H  -0.01025302 0.04101493 -0.00746120
H  0.00427967 0.02034392 -0.00541110
12
MD Step 1027 Units = [Angstroms / fs]
C  0.00028353 -0.00114867 -0.00858744
C  0.00588390 -0.00182886 0.00170874
C  0.00930227 0.00473968 0.00004322
C  -0.00048178 -0.00055402 -0.00195547
C  0.00093823 -0.00141220 -0.00032280
C  -0.00238880 0.00191816 0.00064650
H  0.00772779 0.00182506 0.01376630
H  0.00212071 -0.01175205 -0.01092083
H  0.00642930 -0.01462416 -0.01246745
H  0.00225010 0.00952209 -0.01713617
H  -0.00620680 0.04246992 -0.00956093
H  0.00021822 0.02232024 -0.00496656
12
MD Step 1028 Units = [Angstroms / fs]
C  0.00023283 -0.00127435 -0.00886407
C  0.00571870 -0.00192049 0.00169332
C  0.00963059 0.00515610 0.00006287
C  0.00003196 0.00045948 -0.00206367
C  0.00019971 -0.00149222 -0.00019757
C  -0.00203339 0.00162729 0.00074762
H  0.00996140 0.00416145 0.01492553
H  0.00343169 -0.01572223 -0.00978069
H  0.00237669 -0.01696429 -0.01387740
H  -0.00136967 0.00279629 -0.01430288
H  -0.00062049 0.04143247 -0.01191544
H  -0.00413643 0.02402771 -0.00449685
12
MD Step 1029 Units = [Angstroms / fs]
C  0.00026196 -0.00131285 -0.00909033
C  0.00555213 -0.00199514 0.00164923
C  0.00982932 0.00546762 0.00006912
C  0.00058184 0.00146678 -0.00217785
C  -0.00061041 -0.00141670 -0.00006475
C  -0.00166364 0.00134175 0.00083575
H  0.01172687 0.00584962 0.01583329
H  0.00425747 -0.01868961 -0.00850081
H  -0.00104111 -0.01893964 -0.01514667
H  -0.00508978 -0.00408232 -0.01135850
H  0.00611304 0.03826154 -0.01441693
H  -0.00835872 0.02546739 -0.00398327
12
MD Step 1030 Units = [Angstroms / fs]
C  0.00037822 -0.00125469 -0.00926477
C  0.00539416 -0.00206381 0.00157493
C  0.00987216 0.00566905 0.00005963
C  0.00113815 0.00242091 -0.00228821
C  -0.00144712 -0.00121940 0.00006627
C  -0.00131598 0.00106491 0.00090848
H  0.01291546 0.00671547 0.01648689
H  0.00449288 -0.02044810 -0.00706279
H  -0.00352224 -0.02051719 -0.01625366
H  -0.00862939 -0.01060335 -0.00841598
H  0.01356663 0.03339030 -0.01695724
H  -0.01203046 0.02663324 -0.00340582
12
MD Step 1031 Units = [Angstroms / fs]
C  0.00058439 -0.00109572 -0.00938705
C  0.00524906 -0.00213080 0.00147005
C  0.00973963 0.00575935 0.00003291
C  0.00167128 0.00327518 -0.00238447
C  -0.00226596 -0.00093645 0.00018687
C  -0.00102163 0.00080046 0.00096363
H  0.01346169 0.00665349 0.01689495
H  0.00410429 -0.02090950 -0.00546079
H  -0.00483314 -0.02168114 -0.01718758
H  -0.01171042 -0.01626139 -0.00559399
H  0.02131299 0.02728765 -0.01943641
H  -0.01479390 0.02750924 -0.00274685
12
MD Step 1032 Units = [Angstroms / fs]
C  0.00087809 -0.00083855 -0.00945776
C  0.00511594 -0.00219403 0.00133547
C  0.00942161 0.00574145 -0.00001157
C  0.00215266 0.00398405 -0.00245610
C  -0.00302489 -0.00060492 0.00028942
C  -0.00080336 0.00055250 0.00099960
H  0.01335338 0.00564522 0.01707533
H  0.00312440 -0.02009888 -0.00370281
H  -0.00483811 -0.02243310 -0.01794922
H  -0.01406278 -0.02056573 -0.00301353
H  0.02894017 0.02044019 -0.02176667
H  -0.01639298 0.02807021 -0.00199440
12
MD Step 1033 Units = [Angstroms / fs]
C  0.00125137 -0.00049353 -0.00947820
C  0.00498972 -0.00224611 0.00117327
C  0.00891973 0.00562171 -0.00007346
C  0.00255622 0.00450503 -0.00249287
C  -0.00368514 -0.00026258 0.00036741
C  -0.00067366 0.00032535 0.00101553
H  0.01263778 0.00377187 0.01705125
H  0.00164029 -0.01813822 -0.00180979
H  -0.00352733 -0.02279019 -0.01855019
H  -0.01543716 -0.02306332 -0.00079140
H  0.03605595 0.01334767 -0.02387397
H  -0.01669577 0.02828575 -0.00114443
12
MD Step 1034 Units = [Angstroms / fs]
C  0.00169084 -0.00007893 -0.00944992
C  0.00486249 -0.00227592 0.00098651
C  0.00824887 0.00540923 -0.00015169
C  0.00286071 0.00480225 -0.00248575
C  -0.00421166 0.00005203 0.00041548
C  -0.00063465 0.00012317 0.00101142
H  0.01142085 0.00121578 0.01684624
H  -0.00022123 -0.01522469 0.00018690
H  -0.00103545 -0.02278058 -0.01901030
H  -0.01562857 -0.02338130 0.00097115
H  0.04228904 0.00652384 -0.02569925
H  -0.01569701 0.02812577 -0.00020146
12
MD Step 1035 Units = [Angstroms / fs]
C  0.00217855 0.00038027 -0.00937436
C  0.00472470 -0.00226999 0.00077897
C  0.00743721 0.00511488 -0.00024486
C  0.00305271 0.00485182 -0.00242827
C  -0.00457355 0.00029968 0.00042962
C  -0.00067924 -0.00005047 0.00098809
H  0.00985788 -0.00175328 0.01647893
H  -0.00230768 -0.01160846 0.00224849
H  0.00235806 -0.02243689 -0.01935303
H  -0.01451113 -0.02128998 0.00220487
H  0.04729368 0.00049385 -0.02720037
H  -0.01350508 0.02756600 0.00082196
12
MD Step 1036 Units = [Angstroms / fs]
C  0.00269347 0.00085471 -0.00925252
C  0.00456617 -0.00221376 0.00055493
C  0.00652403 0.00475039 -0.00035165
C  0.00312992 0.00464815 -0.00231818
C  -0.00474509 0.00044162 0.00040735
C  -0.00079300 -0.00019296 0.00094699
H  0.00813560 -0.00480762 0.01595896
H  -0.00445302 -0.00757291 0.00433210
H  0.00625318 -0.02178928 -0.01959994
H  -0.01207891 -0.01677729 0.00289173
H  0.05076291 -0.00422078 -0.02835531
H  -0.01031977 0.02659233 0.00190687
12
MD Step 1037 Units = [Angstroms / fs]
C  0.00321349 0.00131402 -0.00908488
C  0.00437696 -0.00209260 0.00031889
C  0.00555566 0.00432759 -0.00047130
C  0.00310376 0.00420958 -0.00215873
C  -0.00470740 0.00044244 0.00034810
C  -0.00095623 -0.00030286 0.00089011
H  0.00644846 -0.00760284 0.01528560
H  -0.00648751 -0.00341780 0.00639375
H  0.01017800 -0.02086012 -0.01976542
H  -0.00848049 -0.01011262 0.00308109
H  0.05245346 -0.00713841 -0.02916587
H  -0.00640718 0.02520339 0.00302991
12
MD Step 1038 Units = [Angstroms / fs]
C  0.00371748 0.00173040 -0.00887149
C  0.00414799 -0.00189271 0.00007532
C  0.00457994 0.00385792 -0.00060378
C  0.00299980 0.00358055 -0.00195920
C  -0.00445094 0.00027509 0.00025338
C  -0.00114583 -0.00037999 0.00081974
H  0.00497397 -0.00982256 0.01444925
H  -0.00824621 0.00055574 0.00839117
H  0.01365320 -0.01966229 -0.01985339
H  -0.00402971 -0.00186892 0.00289458
H  0.05222125 -0.00788019 -0.02965997
H  -0.00207603 0.02341164 0.00416530
12
MD Step 1039 Units = [Angstroms / fs]
C  0.00418703 0.00208173 -0.00861238
C  0.00387165 -0.00160203 -0.00017147
C  0.00364067 0.00335229 -0.00074987
C  0.00285489 0.00282816 -0.00173388
C  -0.00397824 -0.00007215 0.00012673
C  -0.00133693 -0.00042544 0.00073830
H  0.00385211 -0.01121749 0.01343560
H  -0.00957724 0.00406039 0.01028649
H  0.01625793 -0.01820153 -0.01985694
H  0.00082181 0.00712418 0.00251316
H  0.05006011 -0.00625563 -0.02988958
H  0.00234293 0.02124313 0.00528681
12
MD Step 1040 Units = [Angstroms / fs]
C  0.00460758 0.00235355 -0.00830790
C  0.00354247 -0.00121139 -0.00041767
C  0.00277313 0.00282109 -0.00091087
C  0.00271110 0.00203260 -0.00149954
C  -0.00330587 -0.00058850 -0.00002700
C  -0.00150414 -0.00044138 0.00064819
H  0.00317233 -0.01163126 0.01223099
H  -0.01035089 0.00683972 0.01204889
H  0.01768219 -0.01648164 -0.01976088
H  0.00555206 0.01589995 0.00214600
H  0.04613010 -0.00235160 -0.02992151
H  0.00651477 0.01873658 0.00636944
12
MD Step 1041 Units = [Angstroms / fs]
C  0.00496886 0.00253976 -0.00795920
C  0.00315782 -0.00071594 -0.00066008
C  0.00200154 0.00227436 -0.00108826
C  0.00260789 0.00127387 -0.00127220
C  -0.00246431 -0.00123601 -0.00020290
C  -0.00162284 -0.00043101 0.00055156
H  0.00296947 -0.01101040 0.01082739
H  -0.01047001 0.00868854 0.01365703
H  0.01775588 -0.01451049 -0.01954615
H  0.00965870 0.02351778 0.00198996
H  0.04075844 0.00341024 -0.02982056
H  0.01011710 0.01594155 0.00739092
12
MD Step 1042 Units = [Angstroms / fs]
C  0.00526474 0.00264212 -0.00756841
C  0.00271874 -0.00011678 -0.00089634
C  0.00133856 0.00172188 -0.00128325
C  0.00257510 0.00061893 -0.00106425
C  -0.00149497 -0.00195076 -0.00039758
C  -0.00167036 -0.00039825 0.00045027
H  0.00322708 -0.00939969 0.00922597
H  -0.00988148 0.00947559 0.01510086
H  0.01645306 -0.01230472 -0.01919462
H  0.01274309 0.02921827 0.00219346
H  0.03440274 0.01028656 -0.02962943
H  0.01285786 0.01291600 0.00833313
12
MD Step 1043 Units = [Angstroms / fs]
C  0.00549270 0.00266905 -0.00713880
C  0.00223074 0.00057737 -0.00112496
C  0.00078632 0.00117319 -0.00149646
C  0.00262887 0.00011340 -0.00088277
C  -0.00044457 -0.00265150 -0.00061037
C  -0.00162757 -0.00034748 0.00034570
H  0.00388568 -0.00692780 0.00743876
H  -0.00858694 0.00916586 0.01638226
H  0.01387682 -0.00989210 -0.01869307
H  0.01456247 0.03252282 0.00283623
H  0.02758051 0.01731506 -0.02935333
H  0.01449579 0.00972291 0.00918335
12
MD Step 1044 Units = [Angstroms / fs]
C  0.00565311 0.00263401 -0.00667471
C  0.00170429 0.00134900 -0.00134528
C  0.00033833 0.00063750 -0.00172778
C  0.00277127 -0.00022081 -0.00072955
C  0.00064136 -0.00325410 -0.00084349
C  -0.00148061 -0.00028312 0.00023872
H  0.00485300 -0.00378802 0.00548855
H  -0.00665014 0.00783701 0.01751377
H  0.01023320 -0.00731142 -0.01803577
H  0.01504056 0.03325825 0.00392829
H  0.02078577 0.02348709 -0.02895721
H  0.01486384 0.00642610 0.00993524
12
MD Step 1045 Units = [Angstroms / fs]
C  0.00574848 0.00255397 -0.00618139
C  0.00115488 0.00217159 -0.00155721
C  -0.00001837 0.00012363 -0.00197621
C  0.00299291 -0.00038275 -0.00060218
C  0.00172375 -0.00368712 -0.00110114
C  -0.00122285 -0.00020918 0.00012967
H  0.00601423 -0.00021858 0.00340749
H  -0.00419769 0.00568341 0.01851502
H  0.00580249 -0.00461067 -0.01722561
H  0.01424437 0.03151876 0.00542333
H  0.01441953 0.02793411 -0.02837753
H  0.01389377 0.00308543 0.01058923
12
MD Step 1046 Units = [Angstroms / fs]
C  0.00578285 0.00244802 -0.00566476
C  0.00060225 0.00301083 -0.00176080
C  -0.00030129 -0.00036011 -0.00223998
C  0.00327681 -0.00038709 -0.00049559
C  0.00277262 -0.00390327 -0.00138774
C  -0.00085661 -0.00012870 0.00001843
H  0.00724112 0.00351552 0.00123502
H  -0.00141072 0.00300231 0.01940736
H  0.00091296 -0.00184432 -0.01627411
H  0.01234428 0.02759564 0.00723825
H  0.00875309 0.03006563 -0.02754311
H  0.01163749 -0.00024765 0.01115211
12
MD Step 1047 Units = [Angstroms / fs]
C  0.00576121 0.00233618 -0.00513123
C  0.00006895 0.00382744 -0.00195580
C  -0.00053084 -0.00080603 -0.00251657
C  0.00360213 -0.00025851 -0.00040348
C  0.00376694 -0.00388386 -0.00170639
C  -0.00039415 -0.00004340 -0.00009542
H  0.00839993 0.00713849 -0.00098466
H  0.00149317 0.00016079 0.02020753
H  -0.00408100 0.00092964 -0.01520068
H  0.00957365 0.02190423 0.00927150
H  0.00392640 0.02962293 -0.02639582
H  0.00827849 -0.00353308 0.01163535
12
MD Step 1048 Units = [Angstroms / fs]
C  0.00568902 0.00223828 -0.00458734
C  -0.00042186 0.00458109 -0.00214125
C  -0.00072890 -0.00120712 -0.00280283
C  0.00394698 -0.00002738 -0.00031930
C  0.00469279 -0.00363651 -0.00205781
C  0.00014262 0.00004644 -0.00021233
H  0.00935866 0.01037864 -0.00320539
H  0.00428501 -0.00245205 0.02092246
H  -0.00881714 0.00365258 -0.01403138
H  0.00619752 0.01492644 0.01141661
H  -0.00002933 0.02665316 -0.02490387
H  0.00412672 -0.00674254 0.01205240
12
MD Step 1049 Units = [Angstroms / fs]
C  0.00557171 0.00217291 -0.00403956
C  -0.00084863 0.00523484 -0.00231527
C  -0.00091752 -0.00155721 -0.00309517
C  0.00428995 0.00027296 -0.00023683
C  0.00554093 -0.00318883 -0.00244016
C  0.00072410 0.00014173 -0.00033258
H  0.00999460 0.01298353 -0.00538198
H  0.00675202 -0.00447778 0.02154653
H  -0.01294239 0.00626805 -0.01279730
H  0.00249321 0.00717438 0.01357026
H  -0.00315991 0.02143623 -0.02306581
H  -0.00040741 -0.00985649 0.01241519
12
MD Step 1050 Units = [Angstroms / fs]
C  0.00541413 0.00215605 -0.00349397
C  -0.00119358 0.00575886 -0.00247517
C  -0.00111738 -0.00185117 -0.00338969
C  0.00461071 0.00060758 -0.00015040
C  0.00630492 -0.00258116 -0.00284931
C  0.00131640 0.00024392 -0.00045592
H  0.01020277 0.01473672 -0.00747346
H  0.00872165 -0.00563471 0.02206216
H  -0.01613152 0.00872455 -0.01153237
H  -0.00125922 -0.00082754 0.01563632
H  -0.00555907 0.01440098 -0.02090768
H  -0.00485857 -0.01285864 0.01273087
12
MD Step 1051 Units = [Angstroms / fs]
C  0.00521998 0.00219966 -0.00295597
C  -0.00144407 0.00613295 -0.00261775
C  -0.00134596 -0.00208511 -0.00368244
C  0.00489000 0.00094036 -0.00005494
C  0.00697997 -0.00186043 -0.00327946
C  0.00188578 0.00035422 -0.00058151
H  0.00990562 0.01547674 -0.00944635
H  0.01007776 -0.00574822 0.02244350
H  -0.01810984 0.01097831 -0.01027050
H  -0.00478034 -0.00854929 0.01752764
H  -0.00734758 0.00605547 -0.01847702
H  -0.00876421 -0.01572932 0.01299959
12
MD Step 1052 Units = [Angstroms / fs]
C  0.00499117 0.00231002 -0.00243002
C  -0.00159331 0.00634741 -0.00273975
C  -0.00161529 -0.00225662 -0.00396969
C  0.00510950 0.00123437 0.00005394
C  0.00756262 -0.00107593 -0.00372356
C  0.00240304 0.00047275 -0.00070785
H  0.00906352 0.01511691 -0.01127760
H  0.01076704 -0.00476149 0.02266167
H  -0.01868035 0.01299574 -0.00904202
H  -0.00779319 -0.01545879 0.01916733
H  -0.00866120 -0.00305918 -0.01583697
H  -0.01172225 -0.01844032 0.01321412
12
MD Step 1053 Units = [Angstroms / fs]
C  0.00472722 0.00248625 -0.00191949
C  -0.00164030 0.00640244 -0.00283833
C  -0.00192958 -0.00236487 -0.00424834
C  0.00525191 0.00145264 0.00017976
C  0.00805105 -0.00027688 -0.00417382
C  0.00284696 0.00059804 -0.00083296
H  0.00768439 0.01366327 -0.01295663
H  0.01079668 -0.00272905 0.02269032
H  -0.01775326 0.01475503 -0.00786963
H  -0.01002813 -0.02103136 0.02049113
H  -0.00964575 -0.01239351 -0.01306165
H  -0.01343698 -0.02095262 0.01336124
12
MD Step 1054 Units = [Angstroms / fs]
C  0.00442499 0.00271929 -0.00142659
C  -0.00158929 0.00630669 -0.00291139
C  -0.00228298 -0.00241061 -0.00451619
C  0.00530166 0.00156014 0.00032487
C  0.00844564 0.00048886 -0.00462189
C  0.00320611 0.00072676 -0.00095459
H  0.00583007 0.01122576 -0.01448550
H  0.01022606 0.00020121 0.02251014
H  -0.01537227 0.01624613 -0.00676446
H  -0.01123497 -0.02477348 0.02145146
H  -0.01045659 -0.02140039 -0.01023309
H  -0.01374501 -0.02321785 0.01342453
12
MD Step 1055 Units = [Angstroms / fs]
C  0.00407883 0.00299190 -0.00095254
C  -0.00144902 0.00607530 -0.00295787
C  -0.00265842 -0.00239586 -0.00477226
C  0.00524642 0.00152751 0.00048997
C  0.00874974 0.00117549 -0.00505910
C  0.00347898 0.00085396 -0.00107054
H  0.00361653 0.00801751 -0.01587682
H  0.00915566 0.00381089 0.02211186
H  -0.01172925 0.01746870 -0.00572352
H  -0.01120581 -0.02626795 0.02202336
H  -0.01125960 -0.02954098 -0.00743880
H  -0.01262014 -0.02518252 0.01338766
12
MD Step 1056 Units = [Angstroms / fs]
C  0.00368138 0.00327974 -0.00049793
C  -0.00123189 0.00572812 -0.00297784
C  -0.00302802 -0.00232347 -0.00501677
C  0.00507968 0.00133665 0.00067348
C  0.00897006 0.00174039 -0.00547671
C  0.00367281 0.00097339 -0.00117890
H  0.00120577 0.00433856 -0.01714920
H  0.00771575 0.00783389 0.02149786
H  -0.00715877 0.01842798 -0.00472955
H  -0.00980908 -0.02524185 0.02221104
H  -0.01223067 -0.03629505 -0.00476868
H  -0.01016088 -0.02679359 0.01323736
12
MD Step 1057 Units = [Angstroms / fs]
C  0.00322504 0.00355389 -0.00006317
C  -0.00095318 0.00528805 -0.00297250
C  -0.00335566 -0.00219656 -0.00525097
C  0.00480371 0.00098745 0.00087121
C  0.00911671 0.00214598 -0.00586627
C  0.00380153 0.00107821 -0.00127827
H  -0.00121091 0.00054384 -0.01832117
H  0.00605625 0.01197636 0.02068241
H  -0.00210723 0.01912964 -0.00375408
H  -0.00703036 -0.02164823 0.02205232
H  -0.01354990 -0.04118396 -0.00230986
H  -0.00656782 -0.02800386 0.01296560
12
MD Step 1058 Units = [Angstroms / fs]
C  0.00270387 0.00378411 0.00035098
C  -0.00063037 0.00477985 -0.00294413
C  -0.00360137 -0.00201811 -0.00547665
C  0.00443231 0.00050372 0.00107639
C  0.00920212 0.00236302 -0.00622032
C  0.00388364 0.00116167 -0.00136783
H  -0.00343577 -0.00299966 -0.01940505
H  0.00433792 0.01593363 0.01969115
H  0.00292114 0.01957539 -0.00276341
H  -0.00300813 -0.01573782 0.02161757
H  -0.01538672 -0.04381210 -0.00013854
H  -0.00211745 -0.02877627 0.01257089
12
MD Step 1059 Units = [Angstroms / fs]
C  0.00211556 0.00394245 0.00074314
C  -0.00028238 0.00422905 -0.00289596
C  -0.00372694 -0.00179084 -0.00569555
C  0.00399173 -0.00006457 0.00128035
C  0.00923886 0.00237528 -0.00653323
C  0.00394023 0.00121787 -0.00144748
H  -0.00528942 -0.00595848 -0.02040260
H  0.00272428 0.01940528 0.01855977
H  0.00743145 0.01976077 -0.00172613
H  0.00195219 -0.00808641 0.02100033
H  -0.01787262 -0.04392676 0.00169128
H  0.00286291 -0.02908675 0.01205877
12
MD Step 1060 Units = [Angstroms / fs]
C  0.00146305 0.00400621 0.00111110
C  0.00007126 0.00366095 -0.00283201
C  -0.00370119 -0.00151751 -0.00590872
C  0.00351878 -0.00064520 0.00147397
C  0.00923605 0.00218471 -0.00680221
C  0.00399332 0.00124258 -0.00151778
H  -0.00663214 -0.00807135 -0.02130342
H  0.00137317 0.02211041 0.01733195
H  0.01100305 0.01967622 -0.00062013
H  0.00740114 0.00045278 0.02030031
H  -0.02106225 -0.04148687 0.00316018
H  0.00801695 -0.02892567 0.01144163
12
MD Step 1061 Units = [Angstroms / fs]
C  0.00075533 0.00395996 0.00145205
C  0.00041147 0.00309955 -0.00275679
C  -0.00350406 -0.00120146 -0.00611621
C  0.00305582 -0.00115437 0.00164925
C  0.00919527 0.00181555 -0.00702802
C  0.00406463 0.00123382 -0.00157994
H  -0.00737792 -0.00917420 -0.02208651
H  0.00042685 0.02380490 0.01605622
H  0.01333809 0.01931055 0.00056287
H  0.01280780 0.00887669 0.01960351
H  -0.02489000 -0.03671898 0.00429243
H  0.01297839 -0.02829829 0.01073814
12
MD Step 1062 Units = [Angstroms / fs]
C  0.00000750 0.00379622 0.00176283
C  0.00072093 0.00256609 -0.00267495
C  -0.00312854 -0.00084730 -0.00631683
C  0.00264380 -0.00151132 0.00180064
C  0.00910709 0.00131494 -0.00721504
C  0.00417442 0.00119238 -0.00163576
H  -0.00749952 -0.00920887 -0.02272414
H  -0.00000009 0.02430168 0.01478150
H  0.01428545 0.01865570 0.00181593
H  0.01764744 0.01620824 0.01896658
H  -0.02913802 -0.03013157 0.00515648
H  0.01738892 -0.02722434 0.00997220
12
MD Step 1063 Units = [Angstroms / fs]
C  -0.00076006 0.00351513 0.00204035
C  0.00098563 0.00207742 -0.00259086
C  -0.00258069 -0.00046147 -0.00650834
C  0.00231573 -0.00165239 0.00192557
C  0.00895031 0.00074829 -0.00737033
C  0.00434032 0.00112196 -0.00168742
H  -0.00702550 -0.00821755 -0.02318669
H  0.00016537 0.02349305 0.01355135
H  0.01384012 0.01771089 0.00311870
H  0.02148664 0.02166357 0.01841104
H  -0.03343527 -0.02246494 0.00585319
H  0.02091716 -0.02573671 0.00917138
12
MD Step 1064 Units = [Angstroms / fs]
C  -0.00152300 0.00312336 0.00228197
C  0.00119634 0.00164427 -0.00250801
C  -0.00187818 -0.00005240 -0.00668766
C  0.00209240 -0.00153994 0.00202411
C  0.00869496 0.00018945 -0.00750179
C  0.00457598 0.00102885 -0.00173735
H  -0.00603173 -0.00632756 -0.02344739
H  0.00094062 0.02137207 0.01239720
H  0.01212462 0.01648530 0.00444104
H  0.02403992 0.02475820 0.01792781
H  -0.03730028 -0.01457702 0.00649328
H  0.02328056 -0.02387891 0.00836472
12
MD Step 1065 Units = [Angstroms / fs]
C  -0.00225468 0.00263290 0.00248581
C  0.00134993 0.00126987 -0.00242849
C  -0.00104809 0.00036968 -0.00685125
C  0.00198140 -0.00116453 0.00209817
C  0.00830880 -0.00029164 -0.00761616
C  0.00488929 0.00092130 -0.00178794
H  -0.00463034 -0.00373184 -0.02348600
H  0.00227648 0.01804755 0.01133180
H  0.00936111 0.01499886 0.00574744
H  0.02518628 0.02533107 0.01748825
H  -0.04022258 -0.00729498 0.00717140
H  0.02427055 -0.02170130 0.00757977
12
MD Step 1066 Units = [Angstroms / fs]
C  -0.00292780 0.00205972 0.00265091
C  0.00144999 0.00094938 -0.00235264
C  -0.00012450 0.00079322 -0.00699539
C  0.00197870 -0.00054148 0.00215052
C  0.00776536 -0.00064008 -0.00771737
C  0.00528060 0.00080842 -0.00184119
H  -0.00295832 -0.00066901 -0.02329139
H  0.00405344 0.01374635 0.01034454
H  0.00584206 0.01328164 0.00700108
H  0.02495148 0.02350113 0.01705633
H  -0.04175795 -0.00128023 0.00794620
H  0.02377904 -0.01925569 0.00683892
12
MD Step 1067 Units = [Angstroms / fs]
C  -0.00351594 0.00142274 0.00277736
C  0.00150638 0.00067066 -0.00227893
C  0.00085369 0.00120612 -0.00711643
C  0.00207155 0.00029557 0.00218403
C  0.00705062 -0.00082241 -0.00780604
C  0.00574103 0.00069894 -0.00189838
H  -0.00116708 0.00259473 -0.02286277
H  0.00608881 0.00879797 0.00940056
H  0.00190396 0.01137222 0.00816728
H  0.02347180 0.01958985 0.01659809
H  -0.04160556 0.00305294 0.00883306
H  0.02182182 -0.01658923 0.00615552
12
MD Step 1068 Units = [Angstroms / fs]
C  -0.00399489 0.00074292 0.00286629
C  0.00153390 0.00041645 -0.00220429
C  0.00184474 0.00159648 -0.00721105
C  0.00224143 0.00130119 0.00220120
C  0.00616643 -0.00082747 -0.00787992
C  0.00625169 0.00060000 -0.00195979
H  0.00058666 0.00578160 -0.02221004
H  0.00815580 0.00360045 0.00844487
H  -0.00209464 0.00931572 0.00921606
H  0.02095541 0.01404231 0.01608711
H  -0.03964479 0.00555174 0.00980921
H  0.01855205 -0.01373859 0.00553049
12
MD Step 1069 Units = [Angstroms / fs]
C  -0.00434386 0.00004236 0.00291982
C  0.00154984 0.00016759 -0.00212479
C  0.00280578 0.00195334 -0.00727635
C  0.00246641 0.00242343 0.00220392
C  0.00513026 -0.00066279 -0.00793495
C  0.00678413 0.00051620 -0.00202457
H  0.00214936 0.00861719 -0.02135323
H  0.01001244 -0.00142735 0.00741119
H  -0.00579190 0.00716158 0.01012400
H  0.01765139 0.00736594 0.01550679
H  -0.03592972 0.00628658 0.01082654
H  0.01425704 -0.01072636 0.00495045
12
MD Step 1070 Units = [Angstroms / fs]
C  -0.00454634 -0.00065660 0.00294092
C  0.00157132 -0.00009334 -0.00203654
C  0.00369475 0.00226736 -0.00731007
C  0.00272248 0.00360724 0.00219340
C  0.00397234 -0.00034910 -0.00796637
C  0.00730256 0.00044923 -0.00209075
H  0.00337907 0.01084569 -0.02032105
H  0.01143419 -0.00589781 0.00623368
H  -0.00884095 0.00496113 0.01087565
H  0.01382988 0.00009221 0.01485054
H  -0.03065492 0.00548784 0.01182583
H  0.00933385 -0.00756147 0.00438847
12
MD Step 1071 Units = [Angstroms / fs]
C  -0.00459101 -0.00133265 0.00293318
C  0.00161271 -0.00037901 -0.00193666
C  0.00447245 0.00253128 -0.00731064
C  0.00298444 0.00479638 0.00217006
C  0.00273179 0.00008510 -0.00796959
C  0.00776760 0.00039801 -0.00215562
H  0.00415460 0.01224700 -0.01914850
H  0.01224313 -0.00949928 0.00485854
H  -0.01093050 0.00276486 0.01146438
H  0.00977215 -0.00724234 0.01412122
H  -0.02411153 0.00348307 0.01274809
H  0.00424486 -0.00424407 0.00380755
12
MD Step 1072 Units = [Angstroms / fs]
C  -0.00447238 -0.00196704 0.00290056
C  0.00168391 -0.00069541 -0.00182385
C  0.00510502 0.00274028 -0.00727730
C  0.00322624 0.00593445 0.00213360
C  0.00145281 0.00060752 -0.00794078
C  0.00814095 0.00035946 -0.00221617
H  0.00438571 0.01265592 -0.01787329
H  0.01232769 -0.01202531 0.00325279
H  -0.01180956 0.00061932 0.01189254
H  0.00576677 -0.01410370 0.01333054
H  -0.01664805 0.00064901 0.01354194
H  -0.00053924 -0.00077398 0.00316657
12
MD Step 1073 Units = [Angstroms / fs]
C  -0.00419138 -0.00254524 0.00284692
C  0.00178944 -0.00104137 -0.00169879
C  0.00556682 0.00289231 -0.00721006
C  0.00342152 0.00696562 0.00208293
C  0.00018170 0.00118456 -0.00787704
C  0.00839011 0.00032936 -0.00226968
H  0.00402367 0.01198250 -0.01653117
H  0.01165030 -0.01338503 0.00140844
H  -0.01131637 -0.00143627 0.01217066
H  0.00210741 -0.01996564 0.01249840
H  -0.00864257 -0.00261815 0.01416720
H  -0.00459732 0.00283982 0.00242720
12
MD Step 1074 Units = [Angstroms / fs]
C  -0.00375570 -0.00305867 0.00277563
C  0.00192861 -0.00140931 -0.00156403
C  0.00584332 0.00298811 -0.00710962
C  0.00354446 0.00783596 0.00201626
C  -0.00103523 0.00178238 -0.00777656
C  0.00849194 0.00030338 -0.00231427
H  0.00307078 0.01023027 -0.01515041
H  0.01024402 -0.01359692 -0.00065775
H  -0.00940817 -0.00337303 0.01231523
H  -0.00091296 -0.02432159 0.01165225
H  -0.00048624 -0.00591748 0.01459647
H  -0.00760441 0.00657174 0.00156019
12
MD Step 1075 Units = [Angstroms / fs]
C  -0.00317979 -0.00350585 0.00268906
C  0.00209623 -0.00178664 -0.00142369
C  0.00593343 0.00303116 -0.00697709
C  0.00357130 0.00849588 0.00193118
C  -0.00215317 0.00236727 -0.00763855
C  0.00843470 0.00027777 -0.00234918
H  0.00158627 0.00750766 -0.01374652
H  0.00820169 -0.01277182 -0.00290791
H  -0.00618503 -0.00517432 0.01234497
H  -0.00301655 -0.02671132 0.01082557
H  0.00742579 -0.00884937 0.01481565
H  -0.00935923 0.01037602 0.00054958
12
MD Step 1076 Units = [Angstroms / fs]
C  -0.00248436 -0.00389267 0.00258831
C  0.00228359 -0.00215746 -0.00128301
C  0.00585056 0.00302745 -0.00681365
C  0.00348301 0.00890425 0.00182499
C  -0.00312996 0.00290577 -0.00746338
C  0.00821827 0.00024974 -0.00237492
H  -0.00031407 0.00402728 -0.01231845
H  0.00566159 -0.01109119 -0.00528849
H  -0.00189887 -0.00683544 0.01227608
H  -0.00396808 -0.02676825 0.01005491
H  0.01470192 -0.01101994 0.01482436
H  -0.00979092 0.01418788 -0.00060569
12
MD Step 1077 Units = [Angstroms / fs]
C  -0.00169526 -0.00423138 0.00247311
C  0.00247964 -0.00250409 -0.00114788
C  0.00562166 0.00298488 -0.00662015
C  0.00326883 0.00903413 0.00169512
C  -0.00392749 0.00336528 -0.00725255
C  0.00785295 0.00021761 -0.00239315
H  -0.00246625 0.00008933 -0.01084774
H  0.00279307 -0.00878558 -0.00773602
H  0.00306063 -0.00836071 0.01211739
H  -0.00361603 -0.02428669 0.00937461
H  0.02096616 -0.01205084 0.01463631
H  -0.00894883 0.01792813 -0.00189253
12
MD Step 1078 Units = [Angstroms / fs]
C  -0.00084173 -0.00453828 0.00234203
C  0.00267195 -0.00280829 -0.00102438
C  0.00528397 0.00291257 -0.00639687
C  0.00293037 0.00887929 0.00153983
C  -0.00451362 0.00371562 -0.00700872
C  0.00735750 0.00018077 -0.00240647
H  -0.00467486 -0.00395089 -0.00930156
H  -0.00021636 -0.00611565 -0.01018256
H  0.00820641 -0.00975822 0.01186707
H  -0.00194187 -0.01929765 0.00880937
H  0.02588021 -0.01160090 0.01427903
H  -0.00698189 0.02150973 -0.00328612
12
MD Step 1079 Units = [Angstroms / fs]
C  0.00004573 -0.00483051 0.00219306
C  0.00284760 -0.00305219 -0.00091843
C  0.00487989 0.00281997 -0.00614341
C  0.00248493 0.00845935 0.00135893
C  -0.00486498 0.00393191 -0.00673561
C  0.00675688 0.00013959 -0.00241808
H  -0.00673542 -0.00772627 -0.00763935
H  -0.00317192 -0.00335607 -0.01256029
H  0.01301580 -0.01103380 0.01151221
H  0.00089754 -0.01212816 0.00836590
H  0.02917864 -0.00940406 0.01379204
H  -0.00411426 0.02484450 -0.00475311
12
MD Step 1080 Units = [Angstroms / fs]
C  0.00093753 -0.00512275 0.00202423
C  0.00299400 -0.00321906 -0.00083549
C  0.00445109 0.00271600 -0.00585893
C  0.00196627 0.00782090 0.00115436
C  -0.00497044 0.00399891 -0.00643765
C  0.00608014 0.00009531 -0.00243147
H  -0.00845858 -0.01090371 -0.00582165
H  -0.00588140 -0.00078123 -0.01480570
H  0.01700088 -0.01218597 0.01103161
H  0.00455566 -0.00341178 0.00802649
H  0.03071496 -0.00532366 0.01322182
H  -0.00062172 0.02784907 -0.00625485
12
MD Step 1081 Units = [Angstroms / fs]
C  0.00180690 -0.00542432 0.00183441
C  0.00309965 -0.00329409 -0.00078019
C  0.00403314 0.00260847 -0.00554252
C  0.00142155 0.00703263 0.00093029
C  -0.00483466 0.00391608 -0.00611929
C  0.00535871 0.00004993 -0.00245018
H  -0.00969091 -0.01322269 -0.00381874
H  -0.00816491 0.00134933 -0.01686341
H  0.01977132 -0.01320370 0.01040106
H  0.00852823 0.00597429 0.00774804
H  0.03050857 0.00058584 0.01261316
H  0.00318896 0.03044956 -0.00775043
12
MD Step 1082 Units = [Angstroms / fs]
C  0.00263123 -0.00573758 0.00162373
C  0.00315504 -0.00326540 -0.00075611
C  0.00365192 0.00250352 -0.00519369
C  0.00090408 0.00617446 0.00069267
C  -0.00448009 0.00370174 -0.00578408
C  0.00462487 0.00000603 -0.00247750
H  -0.01032904 -0.01451995 -0.00161723
H  -0.00986574 0.00280745 -0.01868982
H  0.02107632 -0.01406729 0.00959953
H  0.01223296 0.01504272 0.00746842
H  0.02877441 0.00802905 0.01199752
H  0.00699786 0.03258513 -0.00919921
12
MD Step 1083 Units = [Angstroms / fs]
C  0.00339276 -0.00605759 0.00139388
C  0.00315358 -0.00312525 -0.00076546
C  0.00332205 0.00240553 -0.00481275
C  0.00046411 0.00532383 0.00044816
C  -0.00394603 0.00339423 -0.00543381
C  0.00391049 -0.00003347 -0.00251629
H  -0.01032546 -0.01473760 0.00077693
H  -0.01086271 0.00341568 -0.02025661
H  0.02082008 -0.01475180 0.00861431
H  0.01511613 0.02286439 0.00711898
H  0.02591543 0.01645799 0.01138193
H  0.01048826 0.03421048 -0.01056327
12
MD Step 1084 Units = [Angstroms / fs]
C  0.00407865 -0.00637284 0.00114806
C  0.00309266 -0.00287163 -0.00080891
C  0.00304739 0.00231705 -0.00440110
C  0.00014040 0.00454335 0.00020305
C  -0.00328374 0.00304822 -0.00506804
C  0.00324574 -0.00006568 -0.00256882
H  -0.00968697 -0.01391700 0.00333878
H  -0.01108347 0.00306889 -0.02155344
H  0.01905352 -0.01523148 0.00744413
H  0.01675053 0.02871735 0.00663886
H  0.02246699 0.02511965 0.01074335
H  0.01336355 0.03529752 -0.01180952
12
MD Step 1085 Units = [Angstroms / fs]
C  0.00468067 -0.00666679 0.00089070
C  0.00297450 -0.00250974 -0.00088546
C  0.00282265 0.00223902 -0.00396123
C  -0.00004468 0.00387368 -0.00003771
C  -0.00254839 0.00272611 -0.00468441
C  0.00265754 -0.00008807 -0.00263663
H  -0.00846794 -0.01218297 0.00602747
H  -0.01051646 0.00175486 -0.02258907
H  0.01595027 -0.01548396 0.00610004
H  0.01689406 0.03217249 0.00598610
H  0.01900248 0.03316356 0.01003242
H  0.01536611 0.03583608 -0.01291186
12
MD Step 1086 Units = [Angstroms / fs]
C  0.00519470 -0.00691960 0.00062712
C  0.00280671 -0.00205313 -0.00099255
C  0.00263566 0.00217100 -0.00349673
C  -0.00008578 0.00333244 -0.00027090
C  -0.00179038 0.00248672 -0.00427962
C  0.00216791 -0.00009872 -0.00272043
H  -0.00676095 -0.00972386 0.00879078
H  -0.00921865 -0.00043111 -0.02339003
H  0.01177626 -0.01549327 0.00460439
H  0.01549846 0.03310333 0.00514247
H  0.01602871 0.03978258 0.00918633
H  0.01629885 0.03583325 -0.01385311
12
MD Step 1087 Units = [Angstroms / fs]
C  0.00562013 -0.00710985 0.00036312
C  0.00260219 -0.00152380 -0.00112643
C  0.00246946 0.00211155 -0.00301208
C  0.00000823 0.00291786 -0.00049496
C  -0.00104861 0.00237469 -0.00385086
C  0.00179208 -0.00009632 -0.00282005
H  -0.00468701 -0.00677124 0.01157006
H  -0.00731520 -0.00328394 -0.02399624
H  0.00686002 -0.01525157 0.00298879
H  0.01267876 0.03163806 0.00411236
H  0.01390549 0.04434322 0.00814629
H  0.01604783 0.03531093 -0.01462653
12
MD Step 1088 Units = [Angstroms / fs]
C  0.00595932 -0.00721602 0.00010454
C  0.00237814 -0.00095108 -0.00128270
C  0.00230410 0.00205857 -0.00251246
C  0.00021859 0.00261448 -0.00070960
C  -0.00034769 0.00241404 -0.00339695
C  0.00153685 -0.00007999 -0.00293446
H  -0.00238624 -0.00358153 0.01430501
H  -0.00498868 -0.00650364 -0.02445387
H  0.00156752 -0.01475983 0.00129164
H  0.00866458 0.02808572 0.00291780
H  0.01281105 0.04646679 0.00687256
H  0.01460261 0.03430144 -0.01523643
12
MD Step 1089 Units = [Angstroms / fs]
C  0.00621704 -0.00721769 -0.00014301
C  0.00215433 -0.00036893 -0.00145702
C  0.00211820 0.00200967 -0.00200359
C  0.00052080 0.00239863 -0.00091541
C  0.00030101 0.00260685 -0.00291889
C  0.00139940 -0.00004879 -0.00306189
H  -0.00000941 -0.00041994 0.01693788
H  -0.00245813 -0.00972826 -0.02480689
H  -0.00371815 -0.01402772 -0.00044437
H  0.00375250 0.02286482 0.00159268
H  0.01275327 0.04604668 0.00535237
H  0.01206876 0.03284164 -0.01569744
12
MD Step 1090 Units = [Angstroms / fs]
C  0.00639986 -0.00709658 -0.00037451
C  0.00195077 0.00018781 -0.00164569
C  0.00189017 0.00196245 -0.00149150
C  0.00088779 0.00224248 -0.00111346
C  0.00089601 0.00293631 -0.00241985
C  0.00136732 -0.00000123 -0.00320002
H  0.00229031 0.00245441 0.01941715
H  0.00004882 -0.01258014 -0.02508928
H  -0.00861413 -0.01307316 -0.00217487
H  -0.00172985 0.01644980 0.00017763
H  0.01360992 0.04321341 0.00360004
H  0.00866703 0.03096656 -0.01603226
12
MD Step 1091 Units = [Angstroms / fs]
C  0.00651552 -0.00683758 -0.00058580
C  0.00178536 0.00068741 -0.00184612
C  0.00159961 0.00191476 -0.00098231
C  0.00129191 0.00211635 -0.00130510
C  0.00144170 0.00337189 -0.00190468
C  0.00141991 0.00006508 -0.00334629
H  0.00436608 0.00480324 0.02170071
H  0.00232485 -0.01471605 -0.02531998
H  -0.01275502 -0.01192143 -0.00385645
H  -0.00744547 0.00933884 -0.00128338
H  0.01517719 0.03827295 0.00165164
H  0.00471515 0.02870453 -0.01626797
12
MD Step 1092 Units = [Angstroms / fs]
C  0.00657204 -0.00642983 -0.00077373
C  0.00167191 0.00110475 -0.00205689
C  0.00122892 0.00186479 -0.00048197
C  0.00170583 0.00198977 -0.00149176
C  0.00194506 0.00387475 -0.00137934
C  0.00153083 0.00015349 -0.00349822
H  0.00608748 0.00642519 0.02375852
H  0.00420669 -0.01587016 -0.02550174
H  -0.01581311 -0.01060388 -0.00544966
H  -0.01305847 0.00203891 -0.00274508
H  0.01721112 0.03164333 -0.00044231
H  0.00059259 0.02607528 -0.01643163
12
MD Step 1093 Units = [Angstroms / fs]
C  0.00657674 -0.00586788 -0.00093639
C  0.00161908 0.00142346 -0.00227757
C  0.00076533 0.00181104 0.00000407
C  0.00210302 0.00183170 -0.00167495
C  0.00241352 0.00440193 -0.00085040
C  0.00167178 0.00026792 -0.00365368
H  0.00735203 0.00717341 0.02557440
H  0.00558958 -0.01588167 -0.02562350
H  -0.01752366 -0.00915578 -0.00692230
H  -0.01823831 -0.00493941 -0.00416205
H  0.01945575 0.02380457 -0.00262347
H  -0.00330608 0.02309205 -0.01654621
12
MD Step 1094 Units = [Angstroms / fs]
C  0.00653519 -0.00515296 -0.00107310
C  0.00163002 0.00163667 -0.00250836
C  0.00020339 0.00175222 0.00047114
C  0.00245806 0.00161076 -0.00185616
C  0.00285404 0.00490925 -0.00032465
C  0.00181624 0.00041207 -0.00381106
H  0.00809744 0.00697363 0.02714644
H  0.00643115 -0.01470389 -0.02566526
H  -0.01771473 -0.00761343 -0.00825278
H  -0.02266341 -0.01108569 -0.00548978
H  0.02165828 0.01526667 -0.00483060
H  -0.00662007 0.01976684 -0.01662774
12
MD Step 1095 Units = [Angstroms / fs]
C  0.00645019 -0.00429400 -0.00118431
C  0.00170287 0.00174630 -0.00274962
C  -0.00045252 0.00168697 0.00091566
C  0.00274734 0.00129605 -0.00203671
C  0.00327296 0.00535286 0.00019106
C  0.00194270 0.00058853 -0.00396932
H  0.00831268 0.00583957 0.02848551
H  0.00674679 -0.01239732 -0.02560370
H  -0.01633830 -0.00601039 -0.00943284
H  -0.02602936 -0.01590075 -0.00668636
H  0.02357524 0.00655283 -0.00700292
H  -0.00906350 0.01611729 -0.01668424
12
MD Step 1096 Units = [Angstroms / fs]
C  0.00632109 -0.00330821 -0.00127126
C  0.00183152 0.00176163 -0.00300153
C  -0.00118612 0.00161365 0.00133529
C  0.00295038 0.00085925 -0.00221759
C  0.00367634 0.00569015 0.00068999
C  0.00203659 0.00079785 -0.00412779
H  0.00804491 0.00388176 0.02961147
H  0.00659962 -0.00911209 -0.02541720
H  -0.01349516 -0.00437364 -0.01046864
H  -0.02806629 -0.01892327 -0.00771547
H  0.02497425 -0.00180847 -0.00908241
H  -0.01045154 0.01217272 -0.01671644
12
MD Step 1097 Units = [Angstroms / fs]
C  0.00614377 -0.00222073 -0.00133556
C  0.00200657 0.00169746 -0.00326375
C  -0.00196849 0.00153011 0.00172890
C  0.00305197 0.00027857 -0.00239905
C  0.00407033 0.00588053 0.00116570
C  0.00209096 0.00103806 -0.00428605
H  0.00739912 0.00130479 0.03054726
H  0.00608851 -0.00506617 -0.02508956
H  -0.00944423 -0.00272054 -0.01137929
H  -0.02856757 -0.01977784 -0.00855091
H  0.02563583 -0.00929059 -0.01101614
H  -0.01070955 0.00797775 -0.01671971
12
MD Step 1098 Units = [Angstroms / fs]
C  0.00591144 -0.00106318 -0.00137865
C  0.00221626 0.00157230 -0.00353536
C  -0.00275926 0.00143377 0.00209625
C  0.00304505 -0.00045559 -0.00258020
C  0.00446127 0.00588677 0.00161229
C  0.00210590 0.00130439 -0.00444368
H  0.00652825 -0.00160960 0.03131210
H  0.00533671 -0.00052386 -0.02461229
H  -0.00458773 -0.00105800 -0.01219231
H  -0.02742822 -0.01824434 -0.00918219
H  0.02535910 -0.01538349 -0.01275928
H  -0.00986732 0.00359287 -0.01668656
12
MD Step 1099 Units = [Angstroms / fs]
C  0.00561611 0.00012885 -0.00140123
C  0.00244709 0.00140685 -0.00381470
C  -0.00351016 0.00132181 0.00243750
C  0.00293355 -0.00133402 -0.00275860
C  0.00485517 0.00567754 0.00202478
C  0.00208730 0.00158961 -0.00460005
H  0.00561409 -0.00453334 0.03191526
H  0.00448199 0.00422314 -0.02398565
H  0.00057120 0.00061561 -0.01293688
H  -0.02468468 -0.01433687 -0.00961971
H  0.02397457 -0.01962389 -0.01427932
H  -0.00804357 -0.00090769 -0.01660899
12
MD Step 1100 Units = [Angstroms / fs]
C  0.00525076 0.00131898 -0.00140308
C  0.00268440 0.00122270 -0.00409946
C  -0.00417028 0.00119156 0.00275266
C  0.00273411 -0.00232342 -0.00293011
C  0.00525639 0.00523147 0.00239956
C  0.00204526 0.00188448 -0.00475420
H  0.00484191 -0.00713202 0.03235249
H  0.00366841 0.00887171 -0.02321878
H  0.00549283 0.00230577 -0.01363637
H  -0.02054106 -0.00836686 -0.00989710
H  0.02136570 -0.02164599 -0.01556091
H  -0.00542604 -0.00543971 -0.01648035
12
MD Step 1101 Units = [Angstroms / fs]
C  0.00481150 0.00247339 -0.00138299
C  0.00291292 0.00104122 -0.00438668
C  -0.00469217 0.00104100 0.00304109
C  0.00247535 -0.00336519 -0.00308913
C  0.00566549 0.00454263 0.00273486
C  0.00199255 0.00217860 -0.00490481
H  0.00437430 -0.00910628 0.03260599
H  0.00303891 0.01312183 -0.02232913
H  0.00967375 0.00401602 -0.01430253
H  -0.01536534 -0.00095624 -0.01006817
H  0.01749837 -0.02125084 -0.01661008
H  -0.00225127 -0.00991353 -0.01629667
12
MD Step 1102 Units = [Angstroms / fs]
C  0.00429929 0.00356349 -0.00133911
C  0.00311728 0.00088246 -0.00467292
C  -0.00503718 0.00086903 0.00330133
C  0.00219400 -0.00438057 -0.00322941
C  0.00607658 0.00362630 0.00303083
C  0.00194326 0.00246120 -0.00505020
H  0.00432955 -0.01022632 0.03264815
H  0.00272758 0.01669151 -0.02134121
H  0.01271138 0.00574260 -0.01493293
H  -0.00964590 0.00702488 -0.01019780
H  0.01245272 -0.01848108 -0.01745518
H  0.00121400 -0.01423854 -0.01605737
12
MD Step 1103 Units = [Angstroms / fs]
C  0.00372097 0.00456764 -0.00126944
C  0.00328288 0.00076395 -0.00495440
C  -0.00517911 0.00067562 0.00353122
C  0.00192866 -0.00528196 -0.00334513
C  0.00647510 0.00252304 0.00328924
C  0.00191175 0.00272205 -0.00518839
H  0.00476884 -0.01035363 0.03244758
H  0.00285058 0.01933389 -0.02028469
H  0.01434654 0.00747144 -0.01551212
H  -0.00391481 0.01459426 -0.01034876
H  0.00644669 -0.01367491 -0.01814187
H  0.00468933 -0.01832747 -0.01576553
12
MD Step 1104 Units = [Angstroms / fs]
C  0.00308930 0.00547170 -0.00117234
C  0.00339686 0.00069927 -0.00522721
C  -0.00510562 0.00046174 0.00372812
C  0.00171285 -0.00598746 -0.00343197
C  0.00683708 0.00129823 0.00351262
C  0.00191154 0.00295212 -0.00531724
H  0.00569316 -0.00944799 0.03197599
H  0.00349504 0.02085735 -0.01919161
H  0.01447850 0.00917792 -0.01601571
H  0.00134006 0.02083031 -0.01056894
H  -0.00016219 -0.00746712 -0.01872149
H  0.00789633 -0.02210015 -0.01542775
12
MD Step 1105 Units = [Angstroms / fs]
C  0.00242230 0.00626857 -0.00104703
C  0.00344946 0.00069645 -0.00548765
C  -0.00481776 0.00022918 0.00388938
C  0.00156986 -0.00643394 -0.00348775
C  0.00713095 0.00003559 0.00370293
C  0.00195432 0.00314418 -0.00543450
H  0.00704859 -0.00756183 0.03121402
H  0.00470629 0.02114770 -0.01809279
H  0.01315573 0.01082900 -0.01641560
H  0.00574605 0.02502524 -0.01088348
H  -0.00690709 -0.00071619 -0.01923518
H  0.01057480 -0.02548710 -0.01505374
12
MD Step 1106 Units = [Angstroms / fs]
C  0.00174198 0.00695720 -0.00089388
C  0.00343535 0.00075646 -0.00573251
C  -0.00432826 -0.00001954 0.00401271
C  0.00151060 -0.00658482 -0.00351252
C  0.00732194 -0.00117478 0.00386048
C  0.00204873 0.00329312 -0.00553800
H  0.00873679 -0.00482622 0.03015538
H  0.00647516 0.02018910 -0.01701354
H  0.01055088 0.01238680 -0.01668516
H  0.00908131 0.02677312 -0.01129382
H  -0.01327327 0.00563539 -0.01969985
H  0.01250078 -0.02843244 -0.01465547
12
MD Step 1107 Units = [Angstroms / fs]
C  0.00107285 0.00754130 -0.00071457
C  0.00335483 0.00087217 -0.00595943
C  -0.00365929 -0.00028124 0.00409640
C  0.00153456 -0.00643139 -0.00350810
C  0.00737805 -0.00225052 0.00398346
C  0.00219896 0.00339602 -0.00562579
H  0.01062762 -0.00143299 0.02880882
H  0.00872815 0.01807831 -0.01596952
H  0.00692959 0.01381233 -0.01680313
H  0.01127300 0.02597943 -0.01178245
H  -0.01877599 0.01072816 -0.02010208
H  0.01350643 -0.03089598 -0.01424597
12
MD Step 1108 Units = [Angstroms / fs]
C  0.00044037 0.00802817 -0.00051206
C  0.00321443 0.00102828 -0.00616715
C  -0.00284028 -0.00055202 0.00413952
C  0.00163265 -0.00598904 -0.00347746
C  0.00727568 -0.00312884 0.00406824
C  0.00240335 0.00345208 -0.00569623
H  0.01257167 0.00238333 0.02719847
H  0.01132452 0.01502596 -0.01496363
H  0.00262036 0.01506881 -0.01675619
H  0.01236971 0.02281093 -0.01232042
H  -0.02303192 0.01392596 -0.02040262
H  0.01350025 -0.03285382 -0.01383777
12
MD Step 1109 Units = [Angstroms / fs]
C  -0.00013046 0.00842762 -0.00029048
C  0.00302671 0.00120265 -0.00635556
C  -0.00190606 -0.00082719 0.00414199
C  0.00179043 -0.00529128 -0.00342402
C  0.00700334 -0.00377261 0.00411042
C  0.00265320 0.00346221 -0.00574816
H  0.01441121 0.00636212 0.02536268
H  0.01406362 0.01134021 -0.01398522
H  -0.00201092 0.01612421 -0.01654032
H  0.01250463 0.01761924 -0.01287458
H  -0.02580366 0.01488942 -0.02054870
H  0.01248429 -0.03429681 -0.01344109
12
MD Step 1110 Units = [Angstroms / fs]
C  -0.00061642 0.00875116 -0.00005498
C  0.00280897 0.00136899 -0.00652552
C  -0.00089522 -0.00110129 0.00410452
C  0.00199085 -0.00438366 -0.00335117
C  0.00656262 -0.00417026 0.00410595
C  0.00293228 0.00342850 -0.00578102
H  0.01598989 0.01023162 0.02335200
H  0.01670366 0.00739219 -0.01301217
H  -0.00658155 0.01695316 -0.01616119
H  0.01186187 0.01086709 -0.01341300
H  -0.02700994 0.01357481 -0.02048850
H  0.01056327 -0.03522688 -0.01306208
12
MD Step 1111 Units = [Angstroms / fs]
C  -0.00099715 0.00901109 0.00018858
C  0.00258113 0.00150060 -0.00667850
C  0.00015140 -0.00136819 0.00402860
C  0.00221591 -0.00331909 -0.00326194
C  0.00596690 -0.00433116 0.00405203
C  0.00321733 0.00335360 -0.00579487
H  0.01716131 0.01372321 0.02122628
H  0.01898982 0.00356876 -0.01201571
H  -0.01070961 0.01753825 -0.01563387
H  0.01065242 0.00307335 -0.01390827
H  -0.02670725 0.01017929 -0.02018244
H  0.00794072 -0.03565170 -0.01270152
12
MD Step 1112 Units = [Angstroms / fs]
C  -0.00125613 0.00921960 0.00043393
C  0.00236321 0.00157427 -0.00681599
C  0.00119243 -0.00162138 0.00391644
C  0.00244745 -0.00215471 -0.00315882
C  0.00523873 -0.00427924 0.00394755
C  0.00347986 0.00324006 -0.00579042
H  0.01779744 0.01658645 0.01905075
H  0.02068622 0.00022211 -0.01096688
H  -0.01403167 0.01787096 -0.01498203
H  0.00910021 -0.00522020 -0.01433914
H  -0.02505677 0.00506500 -0.01960934
H  0.00489946 -0.03557912 -0.01235449
12
MD Step 1113 Units = [Angstroms / fs]
C  -0.00138153 0.00938759 0.00067479
C  0.00217286 0.00157350 -0.00693906
C  0.00218800 -0.00185430 0.00377083
C  0.00266725 -0.00094999 -0.00304370
C  0.00440700 -0.00404709 0.00379313
C  0.00368910 0.00308985 -0.00576887
H  0.01779742 0.01860607 0.01689110
H  0.02160497 -0.00237249 -0.00984288
H  -0.01622366 0.01795208 -0.01423619
H  0.00743610 -0.01346493 -0.01469128
H  -0.02228977 -0.00131127 -0.01876776
H  0.00176759 -0.03501328 -0.01201105
12
MD Step 1114 Units = [Angstroms / fs]
C  -0.00136690 0.00952326 0.00090536
C  0.00202365 0.00149040 -0.00704796
C  0.00310232 -0.00206074 0.00359494
C  0.00285685 0.00023452 -0.00291783
C  0.00350455 -0.00367166 0.00359098
C  0.00381561 0.00290419 -0.00573172
H  0.01709664 0.01962109 0.01480733
H  0.02162625 -0.00404306 -0.00863164
H  -0.01702677 0.01779129 -0.01343093
H  0.00589610 -0.02111244 -0.01495773
H  -0.01867988 -0.00844926 -0.01767470
H  -0.00112434 -0.03395381 -0.01165803
12
MD Step 1115 Units = [Angstroms / fs]
C  -0.00121172 0.00963055 0.00112087
C  0.00192406 0.00132601 -0.00714195
C  0.00390670 -0.00223513 0.00339206
C  0.00299756 0.00133842 -0.00278180
C  0.00256646 -0.00319176 0.00334473
C  0.00383485 0.00268378 -0.00568057
H  0.01567547 0.01954483 0.01284686
H  0.02070689 -0.00472869 -0.00733396
H  -0.01627778 0.01740557 -0.01260082
H  0.00471967 -0.02762195 -0.01513944
H  -0.01452511 -0.01583538 -0.01636340
H  -0.00348603 -0.03239846 -0.01128154
12
MD Step 1116 Units = [Angstroms / fs]
C  -0.00092169 0.00970770 0.00131814
C  0.00187740 0.00108946 -0.00721935
C  0.00458267 -0.00237263 0.00316519
C  0.00307079 0.00230353 -0.00263555
C  0.00162889 -0.00264689 0.00305919
C  0.00372993 0.00242919 -0.00561683
H  0.01356609 0.01838258 0.01103773
H  0.01887798 -0.00447163 -0.00596311
H  -0.01394027 0.01681611 -0.01177499
H  0.00414375 -0.03247707 -0.01524576
H  -0.01013828 -0.02295699 -0.01488140
H  -0.00510161 -0.03034833 -0.01086945
12
MD Step 1117 Units = [Angstroms / fs]
C  -0.00050861 0.00974640 0.00149595
C  0.00188235 0.00079618 -0.00727773
C  0.00512454 -0.00246907 0.00291662
C  0.00305934 0.00307717 -0.00247843
C  0.00072838 -0.00207683 0.00274032
C  0.00349317 0.00214147 -0.00554157
H  0.01085529 0.01624207 0.00938333
H  0.01623480 -0.00339928 -0.00454261
H  -0.01012885 0.01604394 -0.01097128
H  0.00438821 -0.03521998 -0.01529444
H  -0.00584228 -0.02930859 -0.01328913
H  -0.00584946 -0.02781377 -0.01041340
12
MD Step 1118 Units = [Angstroms / fs]
C  0.00001016 0.00973179 0.00165521
C  0.00193372 0.00046603 -0.00731415
C  0.00554055 -0.00252063 0.00264751
C  0.00294960 0.00361729 -0.00230935
C  -0.00009889 -0.00152121 0.00239510
C  0.00312630 0.00182261 -0.00545537
H  0.00768130 0.01333175 0.00786053
H  0.01292294 -0.00170246 -0.00310319
H  -0.00511722 0.01510505 -0.01019124
H  0.00562899 -0.03550736 -0.01531037
H  -0.00196553 -0.03439838 -0.01165853
H  -0.00570665 -0.02481917 -0.00991005
12
MD Step 1119 Units = [Angstroms / fs]
C  0.00061284 0.00964392 0.00179873
C  0.00202335 0.00012144 -0.00732543
C  0.00585194 -0.00252352 0.00235775
C  0.00273489 0.00389880 -0.00212710
C  -0.00081817 -0.00101853 0.00203135
C  0.00263966 0.00147598 -0.00535839
H  0.00422353 0.00994360 0.00642238
H  0.00912387 0.00038579 -0.00167957
H  0.00067868 0.01400667 -0.00941785
H  0.00795894 -0.03318418 -0.01532191
H  0.00116770 -0.03776327 -0.01007049
H  -0.00474074 -0.02140552 -0.00936134
12
MD Step 1120 Units = [Angstroms / fs]
C  0.00127475 0.00946027 0.00193056
C  0.00214097 -0.00021411 -0.00730840
C  0.00608961 -0.00247388 0.00204604
C  0.00241932 0.00392011 -0.00193091
C  -0.00139798 -0.00060394 0.00165735
C  0.00205070 0.00110648 -0.00525034
H  0.00068593 0.00642072 0.00500570
H  0.00504172 0.00260861 -0.00030757
H  0.00674461 0.01274620 -0.00861737
H  0.01134256 -0.02835878 -0.01535414
H  0.00325726 -0.03899908 -0.00860969
H  -0.00309364 -0.01763054 -0.00877412
12
MD Step 1121 Units = [Angstroms / fs]
C  0.00197012 0.00915922 0.00205514
C  0.00227500 -0.00051730 -0.00726012
C  0.00628899 -0.00236788 0.00171038
C  0.00202080 0.00370714 -0.00172120
C  -0.00181306 -0.00030548 0.00128113
C  0.00138228 0.00072061 -0.00513063
H  -0.00272367 0.00311488 0.00354220
H  0.00089165 0.00470084 0.00097838
H  0.01253331 0.01131372 -0.00774546
H  0.01557927 -0.02144959 -0.01541980
H  0.00406106 -0.03780961 -0.00735538
H  -0.00096232 -0.01356671 -0.00815933
12
MD Step 1122 Units = [Angstroms / fs]
C  0.00267387 0.00872364 0.00217625
C  0.00241329 -0.00076592 -0.00717805
C  0.00648414 -0.00220230 0.00134874
C  0.00157174 0.00331232 -0.00150031
C  -0.00204828 -0.00013903 0.00090932
C  0.00066098 0.00032637 -0.00499850
H  -0.00581452 0.00034236 0.00197072
H  -0.00311100 0.00640301 0.00214739
H  0.01753687 0.00969762 -0.00675637
H  0.02029541 -0.01317094 -0.01551041
H  0.00344205 -0.03407143 -0.00636766
H  0.00142031 -0.00929801 -0.00753095
12
MD Step 1123 Units = [Angstroms / fs]
C  0.00336299 0.00814381 0.00229624
C  0.00254407 -0.00093992 -0.00706025
C  0.00670258 -0.00197523 0.00095980
C  0.00111597 0.00280710 -0.00127281
C  -0.00210308 -0.00010302 0.00054584
C  -0.00008429 -0.00006692 -0.00485308
H  -0.00843035 -0.00165288 0.00024752
H  -0.00676192 0.00747571 0.00317402
H  0.02134966 0.00789148 -0.00561247
H  0.02498054 -0.00444105 -0.01559173
H  0.00141974 -0.02790023 -0.00567106
H  0.00380301 -0.00491605 -0.00690492
12
MD Step 1124 Units = [Angstroms / fs]
C  0.00401750 0.00741920 0.00241548
C  0.00265698 -0.00102242 -0.00690550
C  0.00696194 -0.00168684 0.00054351
C  0.00070204 0.00226921 -0.00104525
C  -0.00199457 -0.00017491 0.00019074
C  -0.00082365 -0.00044890 -0.00469355
H  -0.01046074 -0.00272220 -0.00164724
H  -0.00988059 0.00771599 0.00404004
H  0.02370879 0.00589999 -0.00429172
H  0.02906708 0.00377201 -0.01560683
H  -0.00179164 -0.01969420 -0.00524051
H  0.00593225 -0.00051575 -0.00629802
12
MD Step 1125 Units = [Angstroms / fs]
C  0.00462086 0.00655890 0.00253228
C  0.00274430 -0.00100115 -0.00671344
C  0.00726869 -0.00133996 0.00010136
C  0.00037473 0.00176866 -0.00082522
C  -0.00175784 -0.00031175 -0.00016026
C  -0.00152748 -0.00080866 -0.00451916
H  -0.01184567 -0.00281946 -0.00370786
H  -0.01232492 0.00697665 0.00473596
H  0.02450759 0.00374225 -0.00279129
H  0.03203157 0.01061958 -0.01548696
H  -0.00578037 -0.01012571 -0.00499639
H  0.00756794 0.00380907 -0.00572670
12
MD Step 1126 Units = [Angstroms / fs]
C  0.00515997 0.00558084 0.00264309
C  0.00280217 -0.00087000 -0.00648470
C  0.00761882 -0.00094032 -0.00036364
C  0.00016754 0.00135692 -0.00062013
C  -0.00144188 -0.00045613 -0.00051496
C  -0.00216780 -0.00113531 -0.00432933
H  -0.01257397 -0.00199449 -0.00590544
H  -0.01400682 0.00518730 0.00526201
H  0.02378560 0.00145187 -0.00112745
H  0.03348404 0.01550165 -0.01516636
H  -0.00998478 -0.00006536 -0.00481446
H  0.00850002 0.00797025 -0.00520581
12
MD Step 1127 Units = [Angstroms / fs]
C  0.00562494 0.00451026 0.00274290
C  0.00283179 -0.00063056 -0.00622086
C  0.00799968 -0.00049643 -0.00084720
C  0.00009851 0.00106219 -0.00043606
C  -0.00110158 -0.00054675 -0.00088271
C  -0.00271990 -0.00141874 -0.00412372
H  -0.01267773 -0.00037736 -0.00819297
H  -0.01490598 0.00237415 0.00562824
H  0.02170391 -0.00092528 0.00066744
H  0.03321818 0.01812214 -0.01459542
H  -0.01378638 0.00955163 -0.00455024
H  0.00856676 0.01188996 -0.00474707
12
MD Step 1128 Units = [Angstroms / fs]
C  0.00600877 0.00337770 0.00282579
C  0.00283989 -0.00029322 -0.00592438
C  0.00839216 -0.00001913 -0.00134402
C  0.00016985 0.00089059 -0.00027714
C  -0.00078816 -0.00053039 -0.00127187
C  -0.00316409 -0.00165043 -0.00390231
H  -0.01222468 0.00184129 -0.01051150
H  -0.01507777 -0.00132688 0.00585325
H  0.01851491 -0.00333481 0.00254934
H  0.03121498 0.01847105 -0.01374830
H  -0.01662189 0.01787846 -0.00407051
H  0.00767429 0.01550482 -0.00435757
12
MD Step 1129 Units = [Angstroms / fs]
C  0.00630712 0.00221707 0.00288542
C  0.00283847 0.00012271 -0.00559839
C  0.00877291 0.00047907 -0.00184823
C  0.00037058 0.00083120 -0.00014543
C  -0.00054095 -0.00037147 -0.00168762
C  -0.00348756 -0.00182400 -0.00366545
H  -0.01131008 0.00443032 -0.01279618
H  -0.01465106 -0.00566980 0.00596155
H  0.01453326 -0.00571777 0.00446723
H  0.02761139 0.01676048 -0.01262401
H  -0.01807709 0.02428143 -0.00328057
H  0.00581507 0.01876893 -0.00403815
12
MD Step 1130 Units = [Angstroms / fs]
C  0.00651812 0.00106375 0.00291549
C  0.00284344 0.00059022 -0.00524636
C  0.00911606 0.00098469 -0.00235358
C  0.00068029 0.00086201 -0.00004118
C  -0.00038300 -0.00005656 -0.00213087
C  -0.00368582 -0.00193564 -0.00341397
H  -0.01004902 0.00713634 -0.01498171
H  -0.01381335 -0.01031573 0.00597981
H  0.01011144 -0.00801430 0.00636733
H  0.02265396 0.01334753 -0.01124302
H  -0.01793552 0.02840267 -0.00213853
H  0.00308125 0.02165489 -0.00378225
12
MD Step 1131 Units = [Angstroms / fs]
C  0.00664232 -0.00004710 0.00291009
C  0.00287221 0.00107729 -0.00487180
C  0.00939476 0.00148410 -0.00285380
C  0.00107281 0.00095512 0.00003675
C  -0.00032093 0.00040653 -0.00259833
C  -0.00376337 -0.00198401 -0.00314926
H  -0.00856921 0.00969989 -0.01700683
H  -0.01278408 -0.01486795 0.00593284
H  0.00561979 -0.01016681 0.00819676
H  0.01665477 0.00866817 -0.00964198
H  -0.01617701 0.03015688 -0.00065465
H  -0.00033218 0.02415187 -0.00357554
12
MD Step 1132 Units = [Angstroms / fs]
C  0.00668256 -0.00108210 0.00286405
C  0.00294084 0.00155065 -0.00447794
C  0.00958252 0.00196422 -0.00334277
C  0.00151890 0.00108017 0.00009050
C  -0.00034788 0.00099328 -0.00308349
C  -0.00373321 -0.00196983 -0.00287317
H  -0.00700388 0.01187021 -0.01881815
H  -0.01178138 -0.01891987 0.00584024
H  0.00142906 -0.01212274 0.00990664
H  0.00995888 0.00319212 -0.00786871
H  -0.01294044 0.02968187 0.00111980
H  -0.00413875 0.02626090 -0.00339663
12
MD Step 1133 Units = [Angstroms / fs]
C  0.00664376 -0.00201103 0.00277323
C  0.00306124 0.00197979 -0.00406758
C  0.00965462 0.00241317 -0.00381477
C  0.00198798 0.00120609 0.00012291
C  -0.00044764 0.00166832 -0.00357788
C  -0.00361500 -0.00189520 -0.00258798
H  -0.00548399 0.01341986 -0.02037324
H  -0.01098967 -0.02210603 0.00571459
H  -0.00210762 -0.01383714 0.01145510
H  0.00292498 -0.00260161 -0.00597864
H  -0.00847285 0.02727145 0.00310782
H  -0.00798817 0.02798823 -0.00321910
12
MD Step 1134 Units = [Angstroms / fs]
C  0.00653242 -0.00280833 0.00263475
C  0.00323920 0.00234036 -0.00364309
C  0.00958996 0.00282082 -0.00426475
C  0.00244899 0.00130181 0.00013736
C  -0.00059862 0.00239066 -0.00407221
C  -0.00343209 -0.00176293 -0.00229619
H  -0.00412917 0.01416001 -0.02164331
H  -0.01053573 -0.02414536 0.00556144
H  -0.00467618 -0.01527505 0.01281014
H  -0.00408397 -0.00823473 -0.00403243
H  -0.00308258 0.02331365 0.00522041
H  -0.01150695 0.02933860 -0.00301458
12
MD Step 1135 Units = [Angstroms / fs]
C  0.00635597 -0.00345445 0.00244715
C  0.00347355 0.00261632 -0.00320650
C  0.00937317 0.00317925 -0.00468858
C  0.00287109 0.00133634 0.00013764
C  -0.00077675 0.00311747 -0.00455708
C  -0.00320803 -0.00157601 -0.00200031
H  -0.00303718 0.01395655 -0.02261500
H  -0.01047724 -0.02486829 0.00538078
H  -0.00602815 -0.01641362 0.01395219
H  -0.01070531 -0.01323316 -0.00209449
H  0.00289469 0.01824569 0.00736661
H  -0.01434516 0.03031041 -0.00275636
12
MD Step 1136 Units = [Angstroms / fs]
C  0.00612173 -0.00393721 0.00221053
C  0.00375641 0.00280069 -0.00275965
C  0.00899726 0.00348293 -0.00508326
C  0.00322433 0.00127905 0.00012784
C  -0.00095724 0.00380628 -0.00502354
C  -0.00296320 -0.00133748 -0.00170265
H  -0.00227248 0.01274589 -0.02329112
H  -0.01080411 -0.02422521 0.00516929
H  -0.00601144 -0.01724320 0.01487600
H  -0.01658239 -0.01713216 -0.00023116
H  0.00911578 0.01252731 0.00945958
H  -0.01621941 0.03089428 -0.00242270
12
MD Step 1137 Units = [Angstroms / fs]
C  0.00583591 -0.00425271 0.00192647
C  0.00407435 0.00289489 -0.00230436
C  0.00846606 0.00372882 -0.00544704
C  0.00348097 0.00110077 0.00011212
C  -0.00111551 0.00441598 -0.00546324
C  -0.00271246 -0.00105057 -0.00140516
H  -0.00185562 0.01054791 -0.02368981
H  -0.01144900 -0.02227870 0.00492257
H  -0.00460087 -0.01776687 0.01559081
H  -0.02137733 -0.01949125 0.00149234
H  0.01523953 0.00662814 0.01141981
H  -0.01694396 0.03107518 -0.00199932
12
MD Step 1138 Units = [Angstroms / fs]
C  0.00550268 -0.00440589 0.00159785
C  0.00440998 0.00290738 -0.00184255
C  0.00779612 0.00391610 -0.00577931
C  0.00361769 0.00077622 0.00009430
C  -0.00122755 0.00490722 -0.00586866
C  -0.00246390 -0.00071907 -0.00110941
H  -0.00175593 0.00747241 -0.02384169
H  -0.01230256 -0.01918535 0.00463703
H  -0.00192047 -0.01799783 0.01611824
H  -0.02479550 -0.01992587 0.00301747
H  0.02093106 0.00102248 0.01317718
H  -0.01644539 0.03083689 -0.00148048
12
MD Step 1139 Units = [Angstroms / fs]
C  0.00512367 -0.00441008 0.00122850
C  0.00474361 0.00285201 -0.00137634
C  0.00701697 0.00404579 -0.00608029
C  0.00361875 0.00028819 0.00007723
C  -0.00127028 0.00524282 -0.00623319
C  -0.00221895 -0.00034779 -0.00081657
H  -0.00189049 0.00371564 -0.02378526
H  -0.01322923 -0.01517335 0.00431100
H  0.00175206 -0.01795462 0.01648725
H  -0.02662370 -0.01815956 0.00430055
H  0.02586660 -0.00381631 0.01467303
H  -0.01476108 0.03016734 -0.00086892
12
MD Step 1140 Units = [Angstroms / fs]
C  0.00469815 -0.00428570 0.00082278
C  0.00505470 0.00274637 -0.00090803
C  0.00616930 0.00412009 -0.00635053
C  0.00347982 -0.00036673 0.00006194
C  -0.00122225 0.00538880 -0.00655152
C  -0.00197334 0.00005716 -0.00052751
H  -0.00213150 -0.00045526 -0.02356107
H  -0.01408101 -0.01052049 0.00394531
H  0.00600670 -0.01765537 0.01672723
H  -0.02677757 -0.01409314 0.00532306
H  0.02974386 -0.00742935 0.01586316
H  -0.01202549 0.02906327 -0.00017470
12
MD Step 1141 Units = [Angstroms / fs]
C  0.00422398 -0.00405805 0.00038508
C  0.00532307 0.00261039 -0.00044013
C  0.00530090 0.00414179 -0.00659033
C  0.00321129 -0.00117226 0.00004688
C  -0.00106508 0.00531663 -0.00681992
C  -0.00171851 0.00048830 -0.00024293
H  -0.00232233 -0.00472930 -0.02320587
H  -0.01470845 -0.00553473 0.00354337
H  0.01034928 -0.01711275 0.01686055
H  -0.02534545 -0.00787545 0.00610082
H  0.03230226 -0.00940106 0.01672206
H  -0.00844976 0.02753330 0.00058644
12
MD Step 1142 Units = [Angstroms / fs]
C  0.00369902 -0.00375448 -0.00008053
C  0.00552980 0.00246517 0.00002469
C  0.00446098 0.00411381 -0.00679931
C  0.00283957 -0.00208854 0.00002759
C  -0.00078575 0.00500702 -0.00703674
C  -0.00144318 0.00093694 0.00003655
H  -0.00229969 -0.00878612 -0.02274815
H  -0.01496911 -0.00053765 0.00311092
H  0.01426892 -0.01633160 0.01689715
H  -0.02260875 0.00005201 0.00668796
H  0.03335436 -0.00940775 0.01724726
H  -0.00429942 0.02559927 0.00139490
12
MD Step 1143 Units = [Angstroms / fs]
C  0.00312288 -0.00340152 -0.00057044
C  0.00565793 0.00233191 0.00048364
C  0.00369421 0.00403887 -0.00697626
C  0.00240472 -0.00305283 -0.00000283
C  -0.00037969 0.00445518 -0.00720263
C  -0.00113473 0.00139351 0.00031034
H  -0.00191774 -0.01233166 -0.02220589
H  -0.01473458 0.00415097 0.00265560
H  0.01730937 -0.01530993 0.01683264
H  -0.01901975 0.00896748 0.00717096
H  0.03282527 -0.00728391 0.01746219
H  0.00012667 0.02329611 0.00222895
12
MD Step 1144 Units = [Angstroms / fs]
C  0.00249845 -0.00302252 -0.00108155
C  0.00569309 0.00223076 0.00093388
C  0.00303582 0.00391950 -0.00711924
C  0.00195423 -0.00398644 -0.00005248
C  0.00014622 0.00367635 -0.00732052
C  -0.00078034 0.00184796 0.00057777
H  -0.00106895 -0.01512852 -0.02158686
H  -0.01389717 0.00822932 0.00218642
H  0.01912771 -0.01404306 0.01665056
H  -0.01513161 0.01795547 0.00765221
H  0.03078980 -0.00309323 0.01741451
H  0.00451504 0.02067069 0.00306622
12
MD Step 1145 Units = [Angstroms / fs]
C  0.00183276 -0.00263599 -0.00161106
C  0.00562413 0.00217944 0.00137257
C  0.00250864 0.00375809 -0.00722595
C  0.00153444 -0.00480667 -0.00012870
C  0.00077201 0.00270971 -0.00739496
C  -0.00036803 0.00229025 0.00083812
H  0.00030230 -0.01701607 -0.02089099
H  -0.01237708 0.01143239 0.00171313
H  0.01952857 -0.01252894 0.01632753
H  -0.01149710 0.02605386 0.00822708
H  0.02749156 0.00282078 0.01716789
H  0.00855466 0.01777980 0.00388511
12
MD Step 1146 Units = [Angstroms / fs]
C  0.00113735 -0.00225496 -0.00215623
C  0.00544376 0.00219150 0.00179691
C  0.00212243 0.00355706 -0.00729422
C  0.00118235 -0.00544038 -0.00023644
C  0.00146554 0.00161803 -0.00743098
C  0.00011237 0.00271061 0.00109059
H  0.00219482 -0.01791870 -0.02011381
H  -0.01013050 0.01355458 0.00124556
H  0.01847108 -0.01077291 0.01583953
H  -0.00856919 0.03241839 0.00896280
H  0.02332787 0.00983517 0.01678764
H  0.01195367 0.01468756 0.00466606
12
MD Step 1147 Units = [Angstroms / fs]
C  0.00042777 -0.00188709 -0.00271419
C  0.00514930 0.00227444 0.00220421
C  0.00187487 0.00331904 -0.00732241
C  0.00092060 -0.00583478 -0.00037722
C  0.00218673 0.00048152 -0.00743276
C  0.00066803 0.00309989 0.00133425
H  0.00455377 -0.01784333 -0.01924996
H  -0.00715808 0.01447457 0.00079307
H  0.01605376 -0.00879059 0.01516755
H  -0.00663596 0.03645119 0.00988670
H  0.01879492 0.01711823 0.01632416
H  0.01445749 0.01146214 0.00539280
12
MD Step 1148 Units = [Angstroms / fs]
C  -0.00027728 -0.00153531 -0.00328174
C  0.00474327 0.00242777 0.00259192
C  0.00175366 0.00304708 -0.00730968
C  0.00075671 -0.00596253 -0.00054925
C  0.00289400 -0.00061342 -0.00740261
C  0.00130182 0.00344971 0.00156803
H  0.00727932 -0.01686952 -0.01829606
H  -0.00351244 0.01417894 0.00036408
H  0.01248678 -0.00660851 0.01430144
H  -0.00580417 0.03785935 0.01098642
H  0.01440405 0.02376287 0.01580076
H  0.01586904 0.00817189 0.00605371
12
MD Step 1149 Units = [Angstroms / fs]
C  -0.00095709 -0.00119872 -0.00385523
C  0.00423387 0.00264173 0.00295764
C  0.00173874 0.00274487 -0.00725613
C  0.00068585 -0.00582101 -0.00074814
C  0.00355111 -0.00158760 -0.00734076
C  0.00201076 0.00375271 0.00179062
H  0.01023828 -0.01513558 -0.01725259
H  0.00069742 0.01277813 -0.00003394
H  0.00806070 -0.00426314 0.01324188
H  -0.00602402 0.03664172 0.01221935
H  0.01059491 0.02894506 0.01521104
H  0.01607051 0.00488114 0.00664295
12
MD Step 1150 Units = [Angstroms / fs]
C  -0.00159029 -0.00087348 -0.00443062
C  0.00363495 0.00289718 0.00329909
C  0.00180443 0.00241681 -0.00716286
C  0.00069518 -0.00542772 -0.00096805
C  0.00413199 -0.00238018 -0.00724594
C  0.00278458 0.00400268 0.00200045
H  0.01327607 -0.01282364 -0.01612480
H  0.00530726 0.01050750 -0.00039418
H  0.00311797 -0.00179881 0.01200081
H  -0.00713502 0.03302882 0.01352586
H  0.00767288 0.03205624 0.01452626
H  0.01504391 0.00164615 0.00716140
12
MD Step 1151 Units = [Angstroms / fs]
C  -0.00215595 -0.00055368 -0.00500348
C  0.00296552 0.00316710 0.00361405
C  0.00192122 0.00206821 -0.00703191
C  0.00076819 -0.00481439 -0.00120270
C  0.00462245 -0.00295461 -0.00711641
C  0.00360473 0.00419480 0.00219559
H  0.01622807 -0.01014529 -0.01492274
H  0.01010610 0.00770819 -0.00070976
H  -0.00197056 0.00073461 0.01060076
H  -0.00891312 0.02740755 0.01484151
H  0.00578543 0.03277284 0.01370855
H  0.01288571 -0.00148783 0.00761683
12
MD Step 1152 Units = [Angstroms / fs]
C  -0.00263481 -0.00023202 -0.00556910
C  0.00224851 0.00341981 0.00390033
C  0.00205724 0.00170521 -0.00686618
C  0.00088775 -0.00402169 -0.00144605
C  0.00501901 -0.00329875 -0.00695097
C  0.00444440 0.00432568 0.00237390
H  0.01892964 -0.00732819 -0.01366080
H  0.01485253 0.00478718 -0.00097302
H  -0.00682465 0.00328422 0.00907362
H  -0.01110711 0.02025513 0.01610575
H  0.00493501 0.03105593 0.01272392
H  0.00980967 -0.00448734 0.00802314
12
MD Step 1153 Units = [Angstroms / fs]
C  -0.00301019 0.00009942 -0.00612261
C  0.00150912 0.00362328 0.00415571
C  0.00217978 0.00133463 -0.00666929
C  0.00103791 -0.00309557 -0.00169279
C  0.00532603 -0.00342083 -0.00674962
C  0.00526975 0.00439334 0.00253305
H  0.02122530 -0.00460309 -0.01235669
H  0.01929696 0.00216306 -0.00117498
H  -0.01107196 0.00579656 0.00745874
H  -0.01346108 0.01209331 0.01726700
H  0.00501358 0.02710067 0.01155105
H  0.00613304 -0.00732902 0.00839844
12
MD Step 1154 Units = [Angstroms / fs]
C  -0.00326898 0.00044831 -0.00665913
C  0.00077290 0.00374979 0.00437795
C  0.00225692 0.00096370 -0.00644543
C  0.00120446 -0.00208497 -0.00193846
C  0.00555257 -0.00334368 -0.00651379
C  0.00604270 0.00439694 0.00267077
H  0.02297738 -0.00219020 -0.01103017
H  0.02320609 0.00020885 -0.00130549
H  -0.01436671 0.00822019 0.00580052
H  -0.01572499 0.00346293 0.01828512
H  0.00584217 0.02126585 0.01018483
H  0.00224477 -0.00999553 0.00876219
12
MD Step 1155 Units = [Angstroms / fs]
C  -0.00340232 0.00082105 -0.00717391
C  0.00006390 0.00377963 0.00456492
C  0.00225971 0.00059964 -0.00619906
C  0.00137475 -0.00104085 -0.00217958
C  0.00570986 -0.00309937 -0.00624621
C  0.00672470 0.00433648 0.00278510
H  0.02407463 -0.00028421 -0.00970154
H  0.02638503 -0.00079528 -0.00135396
H  -0.01641285 0.01050849 0.00414490
H  -0.01765789 -0.00508652 0.01913259
H  0.00720414 0.01400831 0.00863590
H  -0.00144058 -0.01247033 0.00913198
12
MD Step 1156 Units = [Angstroms / fs]
C  -0.00340622 0.00122155 -0.00766249
C  -0.00059675 0.00370326 0.00471468
C  0.00216481 0.00024922 -0.00593463
C  0.00153729 -0.00001547 -0.00241365
C  0.00580974 -0.00272523 -0.00595072
C  0.00728103 0.00421245 0.00287455
H  0.02444055 0.00096233 -0.00839002
H  0.02869341 -0.00069036 -0.00131056
H  -0.01699261 0.01262248 0.00253488
H  -0.01902823 -0.01300101 0.01979536
H  0.00886750 0.00583480 0.00692833
H  -0.00453466 -0.01473321 0.00952062
12
MD Step 1157 Units = [Angstroms / fs]
C  -0.00328199 0.00164978 -0.00812086
C  -0.00119176 0.00352165 0.00482564
C  0.00195751 -0.00008167 -0.00565610
C  0.00168135 0.00093841 -0.00263925
C  0.00586401 -0.00226141 -0.00563200
C  0.00768454 0.00402569 0.00293827
H  0.02404079 0.00145628 -0.00711215
H  0.03005335 0.00055469 -0.00116759
H  -0.01599896 0.01453299 0.00100492
H  -0.01961571 -0.01972831 0.02027399
H  0.01059706 -0.00272663 0.00509697
H  -0.00672219 -0.01675786 0.00993430
12
MD Step 1158 Units = [Angstroms / fs]
C  -0.00303635 0.00210055 -0.00854560
C  -0.00170806 0.00324509 0.00489668
C  0.00163463 -0.00038822 -0.00536649
C  0.00179706 0.00176938 -0.00285611
C  0.00588446 -0.00174963 -0.00529535
C  0.00791828 0.00377746 0.00297608
H  0.02288835 0.00117933 -0.00588066
H  0.03044977 0.00285437 -0.00092054
H  -0.01346611 0.01622161 -0.00042474
H  -0.01921809 -0.02473620 0.02058480
H  0.01215946 -0.01114084 0.00318510
H  -0.00779403 -0.01851244 0.01037205
12
MD Step 1159 Units = [Angstroms / fs]
C  -0.00268108 0.00256257 -0.00893393
C  -0.00213682 0.00289113 0.00492723
C  0.00120650 -0.00066668 -0.00506749
C  0.00187611 0.00243080 -0.00306515
C  0.00588312 -0.00123247 -0.00494654
C  0.00797643 0.00346965 0.00298839
H  0.02104484 0.00019784 -0.00470384
H  0.02992489 0.00602898 -0.00056869
H  -0.00958904 0.01767932 -0.00175260
H  -0.01766626 -0.02755056 0.02076019
H  0.01332513 -0.01887280 0.00124259
H  -0.00766181 -0.01996248 0.01082662
12
MD Step 1160 Units = [Angstroms / fs]
C  -0.00223238 0.00301835 -0.00928369
C  -0.00247327 0.00248213 0.00491729
C  0.00069719 -0.00091397 -0.00475933
C  0.00191333 0.00288631 -0.00326834
C  0.00587259 -0.00075255 -0.00459165
C  0.00786396 0.00310511 0.00297607
H  0.01861657 -0.00133688 -0.00358595
H  0.02856955 0.00983089 -0.00011532
H  -0.00472168 0.01890284 -0.00299732
H  -0.01484896 -0.02781821 0.02084633
H  0.01387107 -0.02539660 -0.00067618
H  -0.00635532 -0.02107516 0.01128614
12
MD Step 1161 Units = [Angstroms / fs]
C  -0.00170968 0.00344511 -0.00959329
C  -0.00271639 0.00204303 0.00486746
C  0.00014229 -0.00112715 -0.00444099
C  0.00190894 0.00311687 -0.00346819
C  0.00586591 -0.00035084 -0.00423679
C  0.00759510 0.00268801 0.00294029
H  0.01574507 -0.00320073 -0.00252852
H  0.02651358 0.01396944 0.00043261
H  0.00065331 0.01988929 -0.00419480
H  -0.01074525 -0.02538967 0.02089629
H  0.01358828 -0.03021455 -0.00251517
H  -0.00400726 -0.02182357 0.01173630
12
MD Step 1162 Units = [Angstroms / fs]
C  -0.00113412 0.00381677 -0.00986157
C  -0.00286867 0.00159951 0.00477888
C  -0.00041563 -0.00130283 -0.00411073
C  0.00187089 0.00312795 -0.00366676
C  0.00587572 -0.00006372 -0.00388771
C  0.00719134 0.00222407 0.00288241
H  0.01259285 -0.00512159 -0.00153231
H  0.02391658 0.01813211 0.00106488
H  0.00598229 0.02063105 -0.00539067
H  -0.00545766 -0.02040291 0.02095718
H  0.01229697 -0.03289364 -0.00422145
H  -0.00083133 -0.02219007 0.01216232
12
MD Step 1163 Units = [Angstroms / fs]
C  -0.00052701 0.00410664 -0.01008760
C  -0.00293577 0.00117658 0.00465319
C  -0.00093302 -0.00143686 -0.00376689
C  0.00181640 0.00295396 -0.00386441
C  0.00591254 0.00008169 -0.00354922
C  0.00667939 0.00172071 0.00280386
H  0.00932684 -0.00681328 -0.00059938
H  0.02095947 0.02200177 0.00176876
H  0.01071534 0.02111277 -0.00663006
H  0.00076674 -0.01333432 0.02105303
H  0.00987174 -0.03312242 -0.00575191
H  0.00290105 -0.02216835 0.01255077
12
MD Step 1164 Units = [Angstroms / fs]
C  0.00009169 0.00429056 -0.01027058
C  -0.00292615 0.00079743 0.00449249
C  -0.00137145 -0.00152442 -0.00340863
C  0.00177145 0.00265684 -0.00405847
C  0.00598198 0.00007339 -0.00322446
C  0.00608928 0.00118711 0.00270607
H  0.00610229 -0.00801237 0.00026532
H  0.01783627 0.02527168 0.00252971
H  0.01438050 0.02131193 -0.00794732
H  0.00754177 -0.00498000 0.02116848
H  0.00627509 -0.03078330 -0.00708157
H  0.00688244 -0.02176431 0.01289080
12
MD Step 1165 Units = [Angstroms / fs]
C  0.00070442 0.00434957 -0.01040982
C  -0.00285039 0.00048260 0.00429919
C  -0.00170233 -0.00156054 -0.00303653
C  0.00176765 0.00231738 -0.00424274
C  0.00608160 -0.00007993 -0.00291430
C  0.00545282 0.00063413 0.00259039
H  0.00304986 -0.00851074 0.00105337
H  0.01474502 0.02765999 0.00333230
H  0.01664056 0.02120273 -0.00935877
H  0.01438239 0.00365049 0.02124129
H  0.00159291 -0.02602282 -0.00821095
H  0.01078863 -0.02099586 0.01317511
12
MD Step 1166 Units = [Angstroms / fs]
C  0.00129669 0.00427188 -0.01050474
C  -0.00272029 0.00024893 0.00407597
C  -0.00190934 -0.00154089 -0.00265275
C  0.00183683 0.00202072 -0.00440806
C  0.00619833 -0.00034570 -0.00261706
C  0.00480222 0.00007412 0.00245805
H  0.00026757 -0.00817803 0.00175332
H  0.01187639 0.02892601 0.00416129
H  0.01732174 0.02076180 -0.01086000
H  0.02077464 0.01150823 0.02116949
H  -0.00394101 -0.01929119 -0.00916929
H  0.01429624 -0.01989196 0.01340048
12
MD Step 1167 Units = [Angstroms / fs]
C  0.00185726 0.00405384 -0.01055499
C  -0.00254757 0.00010847 0.00382559
C  -0.00198868 -0.00146263 -0.00226087
C  0.00200504 0.00184083 -0.00454409
C  0.00630794 -0.00066945 -0.00232888
C  0.00416880 -0.00047942 0.00231011
H  -0.00218225 -0.00697147 0.00235214
H  0.00939924 0.02888870 0.00500280
H  0.01641393 0.01997376 -0.01242768
H  0.02625578 0.01769239 0.02083252
H  -0.00994663 -0.01132081 -0.01001007
H  0.01710038 -0.01849102 0.01356801
12
MD Step 1168 Units = [Angstroms / fs]
C  0.00237790 0.00369991 -0.01056056
C  -0.00234227 0.00006722 0.00355080
C  -0.00194754 -0.00132502 -0.00186554
C  0.00228777 0.00182876 -0.00464144
C  0.00637756 -0.00098271 -0.00204479
C  0.00358149 -0.00101238 0.00214739
H  -0.00427168 -0.00493374 0.00283693
H  0.00744316 0.02744714 0.00584560
H  0.01404960 0.01883514 -0.01402428
H  0.03047987 0.02158876 0.02011860
H  -0.01593555 -0.00303059 -0.01079834
H  0.01893416 -0.01683856 0.01368294
12
MD Step 1169 Units = [Angstroms / fs]
C  0.00285303 0.00322186 -0.01052186
C  -0.00211103 0.00012383 0.00325418
C  -0.00180178 -0.00112987 -0.00147200
C  0.00268777 0.00200810 -0.00469357
C  0.00637110 -0.00121555 -0.00176020
C  0.00306513 -0.00151069 0.00197051
H  -0.00600320 -0.00218210 0.00319679
H  0.00607975 0.02459981 0.00668209
H  0.01047205 0.01735612 -0.01560411
H  0.03325134 0.02292355 0.01894777
H  -0.02138188 0.00462658 -0.01159351
H  0.01959094 -0.01498404 0.01375404
12
MD Step 1170 Units = [Angstroms / fs]
C  0.00327921 0.00263764 -0.01043984
C  -0.00185560 0.00026866 0.00293808
C  -0.00157353 -0.00088151 -0.00108564
C  0.00319562 0.00237691 -0.00469761
C  0.00625608 -0.00130977 -0.00147218
C  0.00263852 -0.00196119 0.00177987
H  -0.00740437 0.00110749 0.00342425
H  0.00530662 0.02045833 0.00750881
H  0.00600216 0.01556038 -0.01711902
H  0.03452394 0.02173624 0.01728388
H  -0.02580697 0.01082694 -0.01243392
H  0.01894846 -0.01297696 0.01379225
12
MD Step 1171 Units = [Angstroms / fs]
C  0.00365467 0.00196993 -0.01031595
C  -0.00157209 0.00048364 0.00260461
C  -0.00128906 -0.00058664 -0.00071167
C  0.00379211 0.00291379 -0.00465435
C  0.00600969 -0.00122858 -0.00118013
C  0.00231242 -0.00235244 0.00157582
H  -0.00852208 0.00471796 0.00351628
H  0.00503915 0.01524982 0.00832590
H  0.00100929 0.01348376 -0.01852310
H  0.03437527 0.01830385 0.01513483
H  -0.02885177 0.01499783 -0.01332903
H  0.01699189 -0.01086249 0.01380866
12
MD Step 1172 Units = [Angstroms / fs]
C  0.00397902 0.00124473 -0.01015216
C  -0.00125127 0.00074329 0.00225572
C  -0.00097708 -0.00025392 -0.00035484
C  0.00445128 0.00358487 -0.00456750
C  0.00562231 -0.00096019 -0.00088571
C  0.00208804 -0.00267549 0.00135878
H  -0.00941724 0.00840836 0.00347474
H  0.00511504 0.00930342 0.00913548
H  -0.00411199 0.01117225 -0.01977618
H  0.03297191 0.01305393 0.01254512
H  -0.03031668 0.01686775 -0.01426090
H  0.01383035 -0.00867751 0.01381186
12
MD Step 1173 Units = [Angstroms / fs]
C  0.00425296 0.00048993 -0.00995083
C  -0.00088028 0.00101701 0.00189342
C  -0.00066736 0.00010654 -0.00001923
C  0.00514311 0.00434964 -0.00444288
C  0.00509795 -0.00051563 -0.00059213
C  0.00195656 -0.00292437 0.00112954
H  -0.01015957 0.01193008 0.00330642
H  0.00531394 0.00301994 0.00993914
H  -0.00896074 0.00867971 -0.02084643
H  0.03053698 0.00649222 0.00958584
H  -0.03016408 0.01644673 -0.01519241
H  0.00970034 -0.00644805 0.01380501
12
MD Step 1174 Units = [Angstroms / fs]
C  0.00447808 -0.00026611 -0.00971467
C  -0.00044535 0.00127238 0.00151997
C  -0.00038935 0.00048379 0.00029189
C  0.00583556 0.00516472 -0.00428764
C  0.00445230 0.00007702 -0.00030337
C  0.00190005 -0.00309621 0.00088941
H  -0.01082242 0.01504230 0.00302258
H  0.00538998 -0.00317178 0.01073509
H  -0.01314714 0.00606534 -0.02171224
H  0.02732664 -0.00084511 0.00634572
H  -0.02849306 0.01396305 -0.01607783
H  0.00495071 -0.00418921 0.01378348
12
MD Step 1175 Units = [Angstroms / fs]
C  0.00465674 -0.00099608 -0.00944658
C  0.00006486 0.00147884 0.00113804
C  -0.00017059 0.00086666 0.00057620
C  0.00649580 0.00598591 -0.00410974
C  0.00370970 0.00077919 -0.00002339
C  0.00189396 -0.00319107 0.00064036
H  -0.01147711 0.01752737 0.00263803
H  0.00511032 -0.00886343 0.01151601
H  -0.01631217 0.00339066 -0.02236359
H  0.02361647 -0.00841632 0.00292491
H  -0.02550212 0.00978802 -0.01687199
H  0.00000780 -0.00190799 0.01373366
12
MD Step 1176 Units = [Angstroms / fs]
C  0.00479178 -0.00167517 -0.00914952
C  0.00065633 0.00161093 0.00075081
C  -0.00003462 0.00124450 0.00083239
C  0.00709100 0.00676892 -0.00391770
C  0.00290000 0.00154748 0.00024429
C  0.00191096 -0.00321136 0.00038499
H  -0.01218629 0.01920637 0.00216983
H  0.00429076 -0.01371095 0.01226823
H  -0.01815248 0.00071566 -0.02280272
H  0.01969557 -0.01568339 -0.00056888
H  -0.02145321 0.00437131 -0.01753647
H  -0.00467500 0.00039157 0.01363368
12
MD Step 1177 Units = [Angstroms / fs]
C  0.00488614 -0.00228267 -0.00882639
C  0.00132759 0.00165057 0.00036185
C  0.00000160 0.00160786 0.00106017
C  0.00758881 0.00746964 -0.00372043
C  0.00205610 0.00233741 0.00049688
C  0.00192519 -0.00316123 0.00012641
H  -0.01299628 0.01995460 0.00163548
H  0.00282046 -0.01746534 0.01297252
H  -0.01845123 -0.00190556 -0.02304366
H  0.01586455 -0.02211513 -0.00402286
H  -0.01664486 -0.00180350 -0.01804293
H  -0.00867348 0.00270240 0.01345604
12
MD Step 1178 Units = [Angstroms / fs]
C  0.00494238 -0.00280333 -0.00847983
C  0.00206910 0.00158801 -0.00002500
C  -0.00006944 0.00194913 0.00126016
C  0.00795798 0.00804461 -0.00352705
C  0.00121227 0.00310557 0.00073235
C  0.00191605 -0.00304596 -0.00013211
H  -0.01392896 0.01971556 0.00105076
H  0.00067206 -0.01998668 0.01360621
H  -0.01711256 -0.00442945 -0.02311001
H  0.01243253 -0.02719310 -0.00732229
H  -0.01139555 -0.00824365 -0.01837451
H  -0.01164299 0.00500950 0.01317167
12
MD Step 1179 Units = [Angstroms / fs]
C  0.00496208 -0.00322840 -0.00811208
C  0.00286385 0.00142170 -0.00040592
C  -0.00024312 0.00226303 0.00143357
C  0.00816954 0.00845246 -0.00334651
C  0.00040309 0.00381040 0.00094952
C  0.00187076 -0.00287152 -0.00038738
H  -0.01497422 0.01851091 0.00042761
H  -0.00210208 -0.02124283 0.01414603
H  -0.01419288 -0.00682661 -0.02303043
H  0.00970780 -0.03042952 -0.01035601
H  -0.00603543 -0.01445827 -0.01852637
H  -0.01335318 0.00728748 0.01275435
12
MD Step 1180 Units = [Angstroms / fs]
C  0.00494533 -0.00355611 -0.00772492
C  0.00368885 0.00115726 -0.00077731
C  -0.00050120 0.00254679 0.00158176
C  0.00819877 0.00865697 -0.00318688
C  -0.00033723 0.00441262 0.00114806
C  0.00178540 -0.00264441 -0.00063660
H  -0.01608498 0.01644328 -0.00022774
H  -0.00538322 -0.02129691 0.01457087
H  -0.00991897 -0.00908280 -0.02283230
H  0.00797640 -0.03140438 -0.01302614
H  -0.00090174 -0.01996355 -0.01850606
H  -0.01370268 0.00950100 0.01218457
12
MD Step 1181 Units = [Angstroms / fs]
C  0.00489048 -0.00379128 -0.00731960
C  0.00451711 0.00080617 -0.00113602
C  -0.00081227 0.00279993 0.00170574
C  0.00802840 0.00863197 -0.00305420
C  -0.00097552 0.00487557 0.00132855
C  0.00166433 -0.00237156 -0.00087755
H  -0.01717673 0.01368957 -0.00091563
H  -0.00900405 -0.02028924 0.01486418
H  -0.00468165 -0.01119625 -0.02253437
H  0.00746498 -0.02982515 -0.01526253
H  0.00366690 -0.02429005 -0.01833393
H  -0.01271525 0.01160755 0.01145210
12
MD Step 1182 Units = [Angstroms / fs]
C  0.00479428 -0.00394416 -0.00689694
C  0.00531966 0.00038445 -0.00147948
C  -0.00113473 0.00302361 0.00180568
C  0.00765277 0.00836765 -0.00295113
C  -0.00148077 0.00516645 0.00149254
C  0.00151880 -0.00206035 -0.00110864
H  -0.01813323 0.01048372 -0.00164253
H  -0.01276691 -0.01841821 0.01501557
H  0.00100116 -0.01317107 -0.02214079
H  0.00828910 -0.02560328 -0.01703977
H  0.00734301 -0.02699969 -0.01804300
H  -0.01052272 0.01356151 0.01055706
12
MD Step 1183 Units = [Angstroms / fs]
C  0.00465256 -0.00402841 -0.00645750
C  0.00606742 -0.00008851 -0.00180582
C  -0.00142219 0.00321976 0.00188081
C  0.00708210 0.00787692 -0.00287574
C  -0.00182605 0.00525869 0.00164244
C  0.00136496 -0.00171850 -0.00132896
H  -0.01881864 0.00709060 -0.00241925
H  -0.01645978 -0.01592264 0.01502183
H  0.00654948 -0.01500869 -0.02163869
H  0.01039772 -0.01892837 -0.01839153
H  0.00983431 -0.02771886 -0.01767751
H  -0.00734136 0.01531830 0.00950975
12
MD Step 1184 Units = [Angstroms / fs]
C  0.00446126 -0.00405888 -0.00600189
C  0.00673266 -0.00059087 -0.00211391
C  -0.00162993 0.00339003 0.00192947
C  0.00634525 0.00719879 -0.00282112
C  -0.00199160 0.00513592 0.00178122
C  0.00122197 -0.00135385 -0.00153824
H  -0.01909433 0.00377549 -0.00325792
H  -0.01986963 -0.01306649 0.01488729
H  0.01140139 -0.01669999 -0.02100043
H  0.01353485 -0.01030817 -0.01941400
H  0.01092173 -0.02618986 -0.01728861
H  -0.00344723 0.01683793 0.00832958
12
MD Step 1185 Units = [Angstroms / fs]
C  0.00421766 -0.00404930 -0.00553102
C  0.00729033 -0.00109920 -0.00240331
C  -0.00172122 0.00353506 0.00194969
C  0.00548882 0.00639652 -0.00277648
C  -0.00196876 0.00479692 0.00191182
C  0.00111031 -0.00097409 -0.00173678
H  -0.01883753 0.00077443 -0.00416861
H  -0.02279361 -0.01012501 0.01462373
H  0.01508909 -0.01822116 -0.02019031
H  0.01724319 -0.00054220 -0.02025212
H  0.01050811 -0.02233570 -0.01692590
H  0.00084632 0.01808763 0.00704356
12
MD Step 1186 Units = [Angstroms / fs]
C  0.00392154 -0.00401058 -0.00504638
C  0.00771904 -0.00158936 -0.00267432
C  -0.00167170 0.00365404 0.00193974
C  0.00457173 0.00554906 -0.00272958
C  -0.00176381 0.00426044 0.00203609
C  0.00105048 -0.00058643 -0.00192539
H  -0.01795805 -0.00172910 -0.00515628
H  -0.02504921 -0.00737083 0.01424973
H  0.01729328 -0.01953463 -0.01917336
H  0.02092417 0.00938450 -0.02106842
H  0.00866601 -0.01632224 -0.01662507
H  0.00520823 0.01904358 0.00568442
12
MD Step 1187 Units = [Angstroms / fs]
C  0.00357593 -0.00394980 -0.00455015
C  0.00800199 -0.00203764 -0.00292777
C  -0.00147127 0.00374470 0.00189869
C  0.00365585 0.00473766 -0.00266989
C  -0.00140028 0.00356770 0.00215376
C  0.00106181 -0.00019732 -0.00210531
H  -0.01640996 -0.00361811 -0.00621883
H  -0.02648427 -0.00505827 0.01378938
H  0.01786687 -0.02059421 -0.01792357
H  0.02394474 0.01846556 -0.02200416
H  0.00566501 -0.00859174 -0.01639396
H  0.00930718 0.01969195 0.00428870
12
MD Step 1188 Units = [Angstroms / fs]
C  0.00318746 -0.00386995 -0.00404529
C  0.00812774 -0.00242228 -0.00316488
C  -0.00112365 0.00380357 0.00182679
C  0.00279596 0.00403187 -0.00259111
C  -0.00091784 0.00278044 0.00226159
C  0.00116142 0.00018766 -0.00227805
H  -0.01419685 -0.00484585 -0.00734650
H  -0.02698751 -0.00340461 0.01326998
H  0.01682930 -0.02135234 -0.01642962
H  0.02575707 0.02584426 -0.02314738
H  0.00195797 0.00015874 -0.01620227
H  0.01282876 0.02002928 0.00289438
12
MD Step 1189 Units = [Angstroms / fs]
C  0.00276616 -0.00377033 -0.00353537
C  0.00809099 -0.00272528 -0.00338699
C  -0.00064428 0.00382648 0.00172554
C  0.00203198 0.00347940 -0.00249230
C  -0.00036701 0.00197356 0.00235335
C  0.00136294 0.00056374 -0.00244526
H  -0.01137077 -0.00543128 -0.00852246
H  -0.02649875 -0.00256854 0.01271887
H  0.01434065 -0.02176721 -0.01469719
H  0.02599015 0.03093602 -0.02451938
H  -0.00188230 0.00906540 -0.01598075
H  0.01549414 0.02006228 0.00153822
12
MD Step 1190 Units = [Angstroms / fs]
C  0.00232497 -0.00364730 -0.00302447
C  0.00789301 -0.00293452 -0.00359518
C  -0.00005755 0.00380915 0.00159763
C  0.00138609 0.00310244 -0.00237729
C  0.00019921 0.00122377 0.00242075
C  0.00167509 0.00092679 -0.00260841
H  -0.00802635 -0.00544891 -0.00972446
H  -0.02501757 -0.00262786 0.01215909
H  0.01066688 -0.02180803 -0.01274843
H  0.02448771 0.03347269 -0.02608131
H  -0.00526392 0.01723573 -0.01563271
H  0.01708120 0.01980693 0.00025254
12
MD Step 1191 Units = [Angstroms / fs]
C  0.00187891 -0.00349514 -0.00251695
C  0.00754183 -0.00304552 -0.00378987
C  0.00060588 0.00374781 0.00144673
C  0.00086402 0.00289972 -0.00225304
C  0.00073430 0.00059751 0.00245526
C  0.00210002 0.00127313 -0.00276849
H  -0.00429197 -0.00501604 -0.01092681
H  -0.02260802 -0.00356079 0.01160476
H  0.00614546 -0.02145809 -0.01061971
H  0.02129324 0.03347479 -0.02775398
H  -0.00768251 0.02389579 -0.01505501
H  0.01744760 0.01928662 -0.00093835
12
MD Step 1192 Units = [Angstroms / fs]
C  0.00144423 -0.00330696 -0.00201719
C  0.00705189 -0.00306262 -0.00397049
C  0.00131137 0.00363977 0.00127724
C  0.00045922 0.00285216 -0.00212780
C  0.00120485 0.00014190 0.00244993
C  0.00263172 0.00159936 -0.00292572
H  -0.00031963 -0.00427944 -0.01210264
H  -0.01939692 -0.00523690 0.01105669
H  0.00115656 -0.02071590 -0.00835850
H  0.01660230 0.03118161 -0.02944062
H  -0.00879936 0.02850077 -0.01416090
H  0.01655279 0.01852934 -0.00202167
12
MD Step 1193 Units = [Angstroms / fs]
C  0.00103750 -0.00307546 -0.00152945
C  0.00644314 -0.00299878 -0.00413523
C  0.00202204 0.00348384 0.00109416
C  0.00015751 0.00292912 -0.00200962
C  0.00159301 -0.00011896 0.00240075
C  0.00325494 0.00190245 -0.00307926
H  0.00372528 -0.00340276 -0.01322588
H  -0.01556439 -0.00742295 0.01049992
H  -0.00389915 -0.01959507 -0.00602023
H  0.01070666 0.02697274 -0.03104565
H  -0.00847122 0.03078194 -0.01289675
H  0.01447414 0.01756414 -0.00299890
12
MD Step 1194 Units = [Angstroms / fs]
C  0.00067463 -0.00279364 -0.00105767
C  0.00573951 -0.00287396 -0.00428108
C  0.00270027 0.00328064 0.00090281
C  -0.00005909 0.00309368 -0.00190541
C  0.00189532 -0.00018271 0.00230718
C  0.00394504 0.00217981 -0.00322712
H  0.00767409 -0.00255448 -0.01427309
H  -0.01132677 -0.00980663 0.00990397
H  -0.00861797 -0.01812345 -0.00366518
H  0.00394752 0.02130335 -0.03248651
H  -0.00673450 0.03073138 -0.01124849
H  0.01141094 0.01641745 -0.00388673
12
MD Step 1195 Units = [Angstroms / fs]
C  0.00036997 -0.00245549 -0.00060532
C  0.00496713 -0.00271209 -0.00440412
C  0.00330907 0.00303270 0.00070868
C  -0.00020991 0.00330608 -0.00182054
C  0.00211902 -0.00006418 0.00217182
C  0.00466923 0.00242946 -0.00336624
H  0.01136473 -0.00189641 -0.01522496
H  -0.00691461 -0.01203588 0.00922660
H  -0.01260914 -0.01634168 -0.00135529
H  -0.00331522 0.01466188 -0.03369957
H  -0.00376202 0.02854721 -0.00923875
H  0.00767135 0.01511032 -0.00471552
12
MD Step 1196 Units = [Angstroms / fs]
C  0.00013540 -0.00205668 -0.00017537
C  0.00415246 -0.00253731 -0.00450007
C  0.00381371 0.00274434 0.00051718
C  -0.00031449 0.00352555 -0.00175867
C  0.00227789 0.00021005 0.00199975
C  0.00538927 0.00265019 -0.00349287
H  0.01465167 -0.00157162 -0.01606736
H  -0.00254960 -0.01376646 0.00842037
H  -0.01551341 -0.01430113 0.00084957
H  -0.01071872 0.00754840 -0.03464229
H  0.00018691 0.02456703 -0.00691865
H  0.00364069 0.01365732 -0.00552498
12
MD Step 1197 Units = [Angstroms / fs]
C  -0.00002055 -0.00159546 0.00022981
C  0.00332072 -0.00237032 -0.00456494
C  0.00418393 0.00242135 0.00033327
C  -0.00039218 0.00371104 -0.00172181
C  0.00238874 0.00060640 0.00179769
C  0.00606531 0.00284144 -0.00360306
H  0.01741579 -0.00169199 -0.01679202
H  0.00157524 -0.01470764 0.00744065
H  -0.01702693 -0.01206074 0.00289610
H  -0.01790284 0.00046715 -0.03529396
H  0.00480822 0.01920998 -0.00435840
H  -0.00026495 0.01206765 -0.00635775
12
MD Step 1198 Units = [Angstroms / fs]
C  -0.00009351 -0.00107346 0.00060841
C  0.00249481 -0.00222556 -0.00459566
C  0.00439659 0.00207041 0.00016108
C  -0.00046208 0.00382151 -0.00171023
C  0.00246902 0.00108750 0.00157336
C  0.00666018 0.00300314 -0.00369331
H  0.01957375 -0.00232536 -0.01739643
H  0.00530905 -0.01465649 0.00625301
H  -0.01693187 -0.00968233 0.00474291
H  -0.02451189 -0.00607513 -0.03565633
H  0.00978106 0.01293630 -0.00163945
H  -0.00365104 0.01034812 -0.00725225
12
MD Step 1199 Units = [Angstroms / fs]
C  -0.00008379 -0.00049659 0.00095913
C  0.00169477 -0.00210977 -0.00459047
C  0.00443885 0.00169846 0.00000342
C  -0.00054279 0.00381634 -0.00172248
C  0.00253565 0.00161410 0.00133505
C  0.00714318 0.00313542 -0.00376100
H  0.02108564 -0.00348394 -0.01788307
H  0.00854935 -0.01351563 0.00483853
H  -0.01513160 -0.00722465 0.00636617
H  -0.03019860 -0.01157356 -0.03575461
H  0.01478287 0.00622463 0.00115095
H  -0.00619217 0.00850701 -0.00823651
12
MD Step 1200 Units = [Angstroms / fs]
C  0.00000337 0.00012438 0.00128104
C  0.00093761 -0.00202194 -0.00454921
C  0.00431106 0.00131197 -0.00013863
C  -0.00065150 0.00365674 -0.00175526
C  0.00260453 0.00214592 0.00109132
C  0.00749274 0.00323835 -0.00380481
H  0.02195909 -0.00511610 -0.01825766
H  0.01124184 -0.01129409 0.00319619
H  -0.01168376 -0.00473672 0.00776425
H  -0.03463612 -0.01554086 -0.03563813
H  0.01949572 -0.00043838 0.00392317
H  -0.00766550 0.00655755 -0.00932421
12
MD Step 1201 Units = [Angstroms / fs]
C  0.00015812 0.00077367 0.00157337
C  0.00023744 -0.00195436 -0.00447320
C  0.00402876 0.00091641 -0.00026592
C  -0.00080205 0.00330867 -0.00180356
C  0.00269054 0.00264211 0.00085082
C  0.00769748 0.00331182 -0.00382479
H  0.02224844 -0.00710453 -0.01852677
H  0.01337569 -0.00809539 0.00134251
H  -0.00682107 -0.00225224 0.00895959
H  -0.03754250 -0.01754260 -0.03537879
H  0.02360929 -0.00656296 0.00658779
H  -0.00796604 0.00451992 -0.01051371
12
MD Step 1202 Units = [Angstroms / fs]
C  0.00036681 0.00143106 0.00183538
C  -0.00039434 -0.00189418 -0.00436513
C  0.00362257 0.00051609 -0.00038112
C  -0.00100204 0.00274766 -0.00186113
C  0.00280754 0.00306201 0.00062207
C  0.00775589 0.00335548 -0.00382224
H  0.02204764 -0.00927314 -0.01869507
H  0.01497668 -0.00409839 -0.00069077
H  -0.00094809 0.00021278 0.00999617
H  -0.03871902 -0.01725613 -0.03506457
H  0.02682571 -0.01166378 0.00905852
H  -0.00710456 0.00242174 -0.01178945
12
MD Step 1203 Units = [Angstroms / fs]
C  0.00061331 0.00207322 0.00206613
C  -0.00094892 -0.00182535 -0.00422873
C  0.00313556 0.00011439 -0.00048816
C  -0.00124924 0.00196534 -0.00192157
C  0.00296787 0.00336674 0.00041304
C  0.00767503 0.00336893 -0.00379948
H  0.02147742 -0.01140351 -0.01876299
H  0.01609983 0.00046391 -0.00286011
H  0.00539347 0.00265763 0.01093189
H  -0.03809720 -0.01454906 -0.03478522
H  0.02887096 -0.01527771 0.01125687
H  -0.00519301 0.00029687 -0.01312512
12
MD Step 1204 Units = [Angstroms / fs]
C  0.00088073 0.00267566 0.00226444
C  -0.00142007 -0.00173028 -0.00406852
C  0.00261794 -0.00028549 -0.00059138
C  -0.00152857 0.00097611 -0.00198010
C  0.00318119 0.00352213 0.00023054
C  0.00746865 0.00335193 -0.00375961
H  0.02066855 -0.01325945 -0.01872535
H  0.01682253 0.00532450 -0.00511397
H  0.01158957 0.00508964 0.01182730
H  -0.03578085 -0.00955908 -0.03460983
H  0.02951653 -0.01699873 0.01311934
H  -0.00242350 -0.00181653 -0.01448750
12
MD Step 1205 Units = [Angstroms / fs]
C  0.00115303 0.00321509 0.00242894
C  -0.00180409 -0.00159142 -0.00388943
C  0.00212043 -0.00067973 -0.00069461
C  -0.00181122 -0.00017876 -0.00203564
C  0.00345232 0.00350338 0.00007940
C  0.00715538 0.00330461 -0.00370613
H  0.01974437 -0.01461569 -0.01857156
H  0.01723849 0.01020001 -0.00739647
H  0.01703641 0.00751428 0.01273343
H  -0.03206306 -0.00274277 -0.03456052
H  0.02861223 -0.01653316 0.01460684
H  0.00095422 -0.00387838 -0.01584024
12
MD Step 1206 Units = [Angstroms / fs]
C  0.00141655 0.00367164 0.00255818
C  -0.00209989 -0.00139252 -0.00369663
C  0.00168756 -0.00106319 -0.00080036
C  -0.00205732 -0.00143232 -0.00209240
C  0.00377846 0.00330085 -0.00003846
C  0.00675701 0.00322780 -0.00364274
H  0.01880593 -0.01528556 -0.01828730
H  0.01745200 0.01480634 -0.00965100
H  0.02122107 0.00992583 0.01368230
H  -0.02740016 0.00514180 -0.03459186
H  0.02612624 -0.01377020 0.01571459
H  0.00465359 -0.00584888 -0.01714718
12
MD Step 1207 Units = [Angstroms / fs]
C  0.00166091 0.00403065 0.00265094
C  -0.00230879 -0.00111977 -0.00349514
C  0.00135278 -0.00142918 -0.00090950
C  -0.00222235 -0.00270018 -0.00216013
C  0.00414639 0.00292573 -0.00012462
C  0.00629716 0.00312315 -0.00357309
H  0.01792220 -0.01514250 -0.01785729
H  0.01757191 0.01887351 -0.01182359
H  0.02378158 0.01230200 0.01468255
H  -0.02233981 0.01313585 -0.03458770
H  0.02218181 -0.00885122 0.01647847
H  0.00836947 -0.00769047 -0.01837496
12
MD Step 1208 Units = [Angstroms / fs]
C  0.00187947 0.00428372 0.00270644
C  -0.00243414 -0.00076286 -0.00328964
C  0.00113598 -0.00176976 -0.00102125
C  -0.00226557 -0.00389405 -0.00225235
C  0.00453109 0.00241316 -0.00018411
C  0.00580009 0.00299330 -0.00350055
H  0.01712636 -0.01413244 -0.01726856
H  0.01770440 0.02216108 -0.01386638
H  0.02453549 0.01460357 0.01572060
H  -0.01742175 0.02024508 -0.03438115
H  0.01707449 -0.00220956 0.01697337
H  0.01179477 -0.00936956 -0.01949523
12
MD Step 1209 Units = [Angstroms / fs]
C  0.00206925 0.00442898 0.00272462
C  -0.00248071 -0.00031605 -0.00308419
C  0.00104359 -0.00207640 -0.00113352
C  -0.00215770 -0.00493651 -0.00238333
C  0.00489704 0.00182056 -0.00022445
C  0.00528957 0.00284186 -0.00342807
H  0.01641746 -0.01227626 -0.01651325
H  0.01794396 0.02447484 -0.01574108
H  0.02347753 0.01677860 0.01676596
H  -0.01308473 0.02561726 -0.03379251
H  0.01125455 0.00544860 0.01730055
H  0.01463686 -0.01085797 -0.02048630
12
MD Step 1210 Units = [Angstroms / fs]
C  0.00223043 0.00447070 0.00270621
C  -0.00245371 0.00022076 -0.00288191
C  0.00107038 -0.00234078 -0.00124340
C  -0.00188536 -0.00577199 -0.00256460
C  0.00520258 0.00121984 -0.00025383
C  0.00478764 0.00267329 -0.00335797
H  0.01576586 -0.00966403 -0.01559072
H  0.01836241 0.02568418 -0.01742203
H  0.02075485 0.01876899 0.01777833
H  -0.00960901 0.02867322 -0.03267063
H  0.00526930 0.01323588 0.01756590
H  0.01663552 -0.01213418 -0.02133438
12
MD Step 1211 Units = [Angstroms / fs]
C  0.00236572 0.00441855 0.00265285
C  -0.00235767 0.00084101 -0.00268486
C  0.00120212 -0.00255548 -0.00134760
C  -0.00145151 -0.00637116 -0.00280267
C  0.00540675 0.00068510 -0.00027919
C  0.00431312 0.00249274 -0.00329183
H  0.01512057 -0.00644361 -0.01450854
H  0.01899696 0.02573826 -0.01889842
H  0.01663186 0.02051723 0.01871464
H  -0.00710555 0.02915757 -0.03092253
H  -0.00032304 0.02023091 0.01785593
H  0.01758351 -0.01318419 -0.02203434
12
MD Step 1212 Units = [Angstroms / fs]
C  0.00247963 0.00428653 0.00256702
C  -0.00219534 0.00153090 -0.00249395
C  0.00141818 -0.00271447 -0.00144286
C  -0.00087272 -0.00672923 -0.00309822
C  0.00547624 0.00027953 -0.00030468
C  0.00387990 0.00230572 -0.00323045
H  0.01441696 -0.00280649 -0.01328255
H  0.01983923 0.02467729 -0.02017486
H  0.01145465 0.02197211 0.01953464
H  -0.00554207 0.02711311 -0.02852405
H  -0.00504237 0.02563694 0.01822036
H  0.01734900 -0.01400188 -0.02258962
12
MD Step 1213 Units = [Angstroms / fs]
C  0.00257778 0.00409192 0.00245193
C  -0.00196692 0.00226950 -0.00230902
C  0.00169378 -0.00281339 -0.00152626
C  -0.00017510 -0.00686029 -0.00344672
C  0.00539050 0.00004550 -0.00033127
C  0.00349523 0.00211783 -0.00317391
H  0.01358388 0.00102719 -0.01193606
H  0.02082844 0.02263474 -0.02126963
H  0.00562069 0.02309259 0.02020487
H  -0.00478639 0.02280969 -0.02551383
H  -0.00855156 0.02890121 0.01866703
H  0.01589727 -0.01458834 -0.02301106
12
MD Step 1214 Units = [Angstroms / fs]
C  0.00266632 0.00385419 0.00231137
C  -0.00166988 0.00302968 -0.00212923
C  0.00200168 -0.00284964 -0.00159538
C  0.00060959 -0.00679096 -0.00383972
C  0.00514368 0.00000059 -0.00035725
C  0.00315843 0.00193438 -0.00312172
H  0.01254996 0.00482331 -0.01049847
H  0.02185189 0.01982740 -0.02221045
H  -0.00044451 0.02385022 0.02070117
H  -0.00464898 0.01666264 -0.02197834
H  -0.01068209 0.02976519 0.01916872
H  0.01330679 -0.01495025 -0.02331444
12
MD Step 1215 Units = [Angstroms / fs]
C  0.00275137 0.00359387 0.00214948
C  -0.00129961 0.00378017 -0.00195347
C  0.00231346 -0.00282242 -0.00164851
C  0.00144687 -0.00655502 -0.00426627
C  0.00474358 0.00013926 -0.00037930
C  0.00286036 0.00176009 -0.00307315
H  0.01124923 0.00834830 -0.00900340
H  0.02275489 0.01653238 -0.02302829
H  -0.00630565 0.02423059 0.02101012
H  -0.00491498 0.00916525 -0.01803572
H  -0.01142285 0.02824718 0.01967674
H  0.00977382 -0.01509729 -0.02351672
12
MD Step 1216 Units = [Angstroms / fs]
C  0.00283863 0.00333138 0.00197056
C  -0.00085084 0.00448827 -0.00178093
C  0.00260081 -0.00273271 -0.00168471
C  0.00230141 -0.00618989 -0.00471399
C  0.00420873 0.00043803 -0.00039368
C  0.00258434 0.00159869 -0.00302758
H  0.00962651 0.01138380 -0.00748632
H  0.02335986 0.01305416 -0.02375060
H  -0.01153413 0.02423391 0.02112992
H  -0.00536351 0.00084450 -0.01382288
H  -0.01088626 0.02458230 0.02013528
H  0.00560031 -0.01503910 -0.02363183
12
MD Step 1217 Units = [Angstroms / fs]
C  0.00293290 0.00308573 0.00177878
C  -0.00031965 0.00512289 -0.00161154
C  0.00283695 -0.00258319 -0.00170395
C  0.00313810 -0.00573484 -0.00516972
C  0.00356492 0.00086172 -0.00039713
C  0.00230835 0.00145278 -0.00298481
H  0.00764289 0.01374201 -0.00598176
H  0.02349129 0.00968758 -0.02439556
H  -0.01572692 0.02387504 0.02107046
H  -0.00577657 -0.00776141 -0.00948732
H  -0.00926821 0.01915016 0.02049243
H  0.00116368 -0.01478285 -0.02366670
12
MD Step 1218 Units = [Angstroms / fs]
C  0.00303773 0.00287310 0.00157794
C  0.00029458 0.00565721 -0.00144623
C  0.00299859 -0.00237813 -0.00170705
C  0.00392265 -0.00523033 -0.00561986
C  0.00284222 0.00136887 -0.00038739
C  0.00200847 0.00132362 -0.00294531
H  0.00528142 0.01528169 -0.00452019
H  0.02300144 0.00668434 -0.02496885
H  -0.01853117 0.02318247 0.02085272
H  -0.00594161 -0.01611103 -0.00518260
H  -0.00681366 0.01241242 0.02070685
H  -0.00312823 -0.01433209 -0.02361896
12
MD Step 1219 Units = [Angstroms / fs]
C  0.00315498 0.00270544 0.00137117
C  0.00098750 0.00607063 -0.00128695
C  0.00306848 -0.00212306 -0.00169563
C  0.00462208 -0.00471782 -0.00605054
C  0.00207277 0.00191552 -0.00036343
C  0.00166278 0.00121121 -0.00291022
H  0.00255295 0.01592374 -0.00312472
H  0.02179120 0.00422874 -0.02546337
H  -0.01967615 0.02219568 0.02050671
H  -0.00565197 -0.02366203 -0.00106530
H  -0.00379271 0.00486968 0.02075066
H  -0.00688827 -0.01368736 -0.02347690
12
MD Step 1220 Units = [Angstroms / fs]
C  0.00328447 0.00258915 0.00116072
C  0.00174898 0.00634968 -0.00113642
C  0.00303842 -0.00182437 -0.00167184
C  0.00520537 -0.00423921 -0.00644788
C  0.00128947 0.00245746 -0.00032555
C  0.00125487 0.00111445 -0.00288120
H  -0.00049889 0.01566415 -0.00180817
H  0.01982240 0.00242600 -0.02586174
H  -0.01901046 0.02096046 0.02006763
H  -0.00470875 -0.02987766 0.00270896
H  -0.00048711 -0.00296265 0.02061034
H  -0.00979684 -0.01284841 -0.02322178
12
MD Step 1221 Units = [Angstroms / fs]
C  0.00342369 0.00252433 0.00094780
C  0.00256319 0.00648801 -0.00099782
C  0.00291211 -0.00148858 -0.00163796
C  0.00564453 -0.00383525 -0.00679852
C  0.00052526 0.00295126 -0.00027536
C  0.00077628 0.00103142 -0.00286016
H  -0.00379456 0.01458108 -0.00057105
H  0.01712049 0.00130215 -0.02614039
H  -0.01653823 0.01952211 0.01956999
H  -0.00292796 -0.03424644 0.00599329
H  0.00281610 -0.01056549 0.02028663
H  -0.01163522 -0.01181715 -0.02283184
12
MD Step 1222 Units = [Angstroms / fs]
C  0.00356775 0.00250472 0.00073262
C  0.00340931 0.00648572 -0.00087443
C  0.00270716 -0.00112165 -0.00159586
C  0.00591624 -0.00354214 -0.00709070
C  -0.00018734 0.00335500 -0.00021575
C  0.00022743 0.00095958 -0.00284888
H  -0.00721899 0.01283271 0.00059868
H  0.01376921 0.00081278 -0.02627414
H  -0.01244358 0.01791768 0.01904043
H  -0.00015607 -0.03632366 0.00866316
H  0.00582804 -0.01742191 0.01979431
H  -0.01230102 -0.01060038 -0.02228677
12
MD Step 1223 Units = [Angstroms / fs]
C  0.00370963 0.00251851 0.00051448
C  0.00426289 0.00634840 -0.00076920
C  0.00245500 -0.00072829 -0.00154648
C  0.00600420 -0.00338605 -0.00731579
C  -0.00081672 0.00362898 -0.00015087
C  -0.00038278 0.00089607 -0.00284876
H  -0.01062660 0.01064391 0.00172379
H  0.00989999 0.00085653 -0.02624036
H  -0.00709120 0.01616946 0.01849053
H  0.00370387 -0.03579793 0.01063614
H  0.00826324 -0.02302635 0.01916198
H  -0.01180639 -0.00921166 -0.02157173
12
MD Step 1224 Units = [Angstroms / fs]
C  0.00384079 0.00255018 0.00029220
C  0.00509739 0.00608611 -0.00068455
C  0.00219825 -0.00031174 -0.00148951
C  0.00590210 -0.00337610 -0.00747022
C  -0.00133312 0.00373738 -0.00008603
C  -0.00103832 0.00083795 -0.00286058
H  -0.01385139 0.00828177 0.00283378
H  0.00567896 0.00128994 -0.02602208
H  -0.00099467 0.01428231 0.01791225
H  0.00865698 -0.03257637 0.01189478
H  0.00985131 -0.02690523 0.01843112
H  -0.01026374 -0.00767181 -0.02068003
12
MD Step 1225 Units = [Angstroms / fs]
C  0.00395209 0.00258287 0.00006448
C  0.00588566 0.00571250 -0.00062216
C  0.00198542 0.00012599 -0.00142337
C  0.00561657 -0.00349750 -0.00755699
C  -0.00171054 0.00365126 -0.00002741
C  -0.00171799 0.00078237 -0.00288438
H  -0.01672144 0.00602355 0.00395936
H  0.00129391 0.00194175 -0.02561001
H  0.00524652 0.01224663 0.01727777
H  0.01457933 -0.02686573 0.01250489
H  0.01035908 -0.02865544 0.01765344
H  -0.00786477 -0.00600851 -0.01961453
12
MD Step 1226 Units = [Angstroms / fs]
C  0.00403495 0.00260098 -0.00016957
C  0.00660153 0.00524413 -0.00058289
C  0.00186408 0.00058326 -0.00134564
C  0.00516914 -0.00370814 -0.00758610
C  -0.00192950 0.00335302 0.00001845
C  -0.00239719 0.00072687 -0.00291945
H  -0.01907559 0.00412282 0.00512663
H  -0.00305811 0.00262581 -0.02500363
H  0.01102932 0.01004658 0.01654463
H  0.02119274 -0.01921348 0.01261865
H  0.00962464 -0.02800295 0.01688521
H  -0.00485787 -0.00425497 -0.01838769
12
MD Step 1227 Units = [Angstroms / fs]
C  0.00408240 0.00259244 -0.00041006
C  0.00722103 0.00469984 -0.00056672
C  0.00187404 0.00105768 -0.00125371
C  0.00459575 -0.00394132 -0.00757296
C  -0.00198085 0.00284194 0.00004556
C  -0.00304972 0.00066965 -0.00296435
H  -0.02077951 0.00277998 0.00635222
H  -0.00718215 0.00315302 -0.02421122
H  0.01582898 0.00767094 0.01566481
H  0.02806866 -0.01047236 0.01245435
H  0.00760001 -0.02487452 0.01617763
H  -0.00152707 -0.00244833 -0.01702088
12
MD Step 1228 Units = [Angstroms / fs]
C  0.00409000 0.00255017 -0.00065613
C  0.00772370 0.00410016 -0.00057287
C  0.00204225 0.00154500 -0.00114556
C  0.00394300 -0.00411611 -0.00753505
C  -0.00186934 0.00213922 0.00004958
C  -0.00364911 0.00060977 -0.00301698
H  -0.02173850 0.00212248 0.00764041
H  -0.01089641 0.00334343 -0.02324923
H  0.01926108 0.00512282 0.01459512
H  0.03467182 -0.00167607 0.01225378
H  0.00439126 -0.01946348 0.01556401
H  0.00182667 -0.00062793 -0.01554300
12
MD Step 1229 Units = [Angstroms / fs]
C  0.00405633 0.00247269 -0.00090590
C  0.00809363 0.00346655 -0.00059986
C  0.00238014 0.00203840 -0.00102034
C  0.00326164 -0.00415270 -0.00748776
C  -0.00161572 0.00129013 0.00002899
C  -0.00416983 0.00054735 -0.00307470
H  -0.02190508 0.00219663 0.00898259
H  -0.01404335 0.00303919 -0.02214072
H  0.02111258 0.00242517 0.01330585
H  0.04043914 0.00614559 0.01223034
H  0.00027894 -0.01226034 0.01504698
H  0.00490243 0.00116655 -0.01398859
12
MD Step 1230 Units = [Angstroms / fs]
C  0.00398306 0.00236386 -0.00115666
C  0.00832044 0.00282030 -0.00064575
C  0.00288369 0.00252834 -0.00087873
C  0.00259904 -0.00398785 -0.00744101
C  -0.00125568 0.00036109 -0.00001424
C  -0.00458848 0.00048354 -0.00313447
H  -0.02128102 0.00297030 0.01035877
H  -0.01650098 0.00211908 -0.02091292
H  0.02134174 -0.00037886 0.01178581
H  0.04487134 0.01215154 0.01252692
H  -0.00429863 -0.00402035 0.01459104
H  0.00741615 0.00289694 -0.01239555
12
MD Step 1231 Units = [Angstroms / fs]
C  0.00387476 0.00223203 -0.00140507
C  0.00840007 0.00218121 -0.00070839
C  0.00353525 0.00300292 -0.00072292
C  0.00199308 -0.00358528 -0.00739783
C  -0.00083508 -0.00056910 -0.00007489
C  -0.00488503 0.00042039 -0.00319309
H  -0.01991444 0.00434365 0.01174050
H  -0.01819358 0.00051388 -0.01959400
H  0.02005547 -0.00322970 0.01004345
H  0.04760800 0.01581269 0.01319788
H  -0.00880559 0.00434046 0.01412524
H  0.00911884 0.00452852 -0.01080226
12
MD Step 1232 Units = [Angstroms / fs]
C  0.00373839 0.00208889 -0.00164755
C  0.00833520 0.00156607 -0.00078573
C  0.00430633 0.00344874 -0.00055650
C  0.00146907 -0.00293857 -0.00735504
C  -0.00040228 -0.00142188 -0.00014564
C  -0.00504434 0.00036041 -0.00324750
H  -0.01789359 0.00616413 0.01309445
H  -0.01910032 -0.00177914 -0.01820910
H  0.01747571 -0.00605744 0.00810507
H  0.04846468 0.01694513 0.01421656
H  -0.01269990 0.01189820 0.01355739
H  0.00981708 0.00603203 -0.00924403
12
MD Step 1233 Units = [Angstroms / fs]
C  0.00358272 0.00194823 -0.00188049
C  0.00813529 0.00098724 -0.00087619
C  0.00516055 0.00385182 -0.00038418
C  0.00104000 -0.00206744 -0.00730516
C  -0.00000011 -0.00213162 -0.00021887
C  -0.00505784 0.00030624 -0.00329514
H  -0.01533868 0.00824286 0.01438590
H  -0.01925945 -0.00468589 -0.01677635
H  0.01390500 -0.00878813 0.00601126
H  0.04742927 0.01566552 0.01549952
H  -0.01552753 0.01787591 0.01279514
H  0.00939492 0.00738548 -0.00774921
12
MD Step 1234 Units = [Angstroms / fs]
C  0.00341766 0.00182480 -0.00210058
C  0.00781592 0.00045169 -0.00097883
C  0.00605623 0.00419864 -0.00021150
C  0.00070890 -0.00101060 -0.00723870
C  0.00034011 -0.00265442 -0.00028841
C  -0.00492514 0.00026013 -0.00333427
H  -0.01239306 0.01037041 0.01558190
H  -0.01876586 -0.00805308 -0.01530369
H  0.00969676 -0.01134928 0.00381304
H  0.04463013 0.01230576 0.01693467
H  -0.01698970 0.02175201 0.01176649
H  0.00783457 0.00857546 -0.00633520
12
MD Step 1235 Units = [Angstroms / fs]
C  0.00325369 0.00173330 -0.00230497
C  0.00739754 -0.00003911 -0.00109354
C  0.00694864 0.00447698 -0.00004461
C  0.00047192 0.00018182 -0.00714600
C  0.00060110 -0.00297096 -0.00035062
C  -0.00465515 0.00022370 -0.00336432
H  -0.00921423 0.01233130 0.01665378
H  -0.01776082 -0.01165690 -0.01378750
H  0.00523210 -0.01367410 0.00156806
H  0.04029389 0.00732445 0.01840448
H  -0.01696703 0.02329813 0.01043264
H  0.00523092 0.00959745 -0.00500538
12
MD Step 1236 Units = [Angstroms / fs]
C  0.00310114 0.00168741 -0.00249146
C  0.00690364 -0.00048834 -0.00122096
C  0.00779185 0.00467666 0.00010994
C  0.00032090 0.00145437 -0.00701834
C  0.00077871 -0.00308412 -0.00040471
C  -0.00426632 0.00019779 -0.00338603
H  -0.00596475 0.01391743 0.01757912
H  -0.01641460 -0.01522383 -0.01221361
H  0.00090150 -0.01570481 -0.00066284
H  0.03470760 0.00123784 0.01980091
H  -0.01550372 0.02255277 0.00879101
H  0.00179426 0.01045476 -0.00374782
12
MD Step 1237 Units = [Angstroms / fs]
C  0.00296954 0.00169888 -0.00265853
C  0.00635859 -0.00090214 -0.00136212
C  0.00854060 0.00479005 0.00024553
C  0.00024489 0.00275027 -0.00684846
C  0.00087912 -0.00301356 -0.00045236
C  -0.00378550 0.00018257 -0.00340131
H  -0.00280269 0.01494120 0.01834309
H  -0.01490471 -0.01846124 -0.01056097
H  -0.00291203 -0.01739520 -0.00281902
H  0.02819225 -0.00542296 0.02103272
H  -0.01276836 0.01975789 0.00687041
H  -0.00216360 0.01115608 -0.00253675
12
MD Step 1238 Units = [Angstroms / fs]
C  0.00286685 0.00177654 -0.00280543
C  0.00578565 -0.00128733 -0.00151808
C  0.00915242 0.00481240 0.00035573
C  0.00023083 0.00401358 -0.00663071
C  0.00091542 -0.00278971 -0.00049704
C  -0.00324545 0.00017772 -0.00341296
H  0.00012860 0.01524879 0.01893919
H  -0.01339404 -0.02109253 -0.00880707
H  -0.00585183 -0.01871290 -0.00484369
H  0.02108851 -0.01213233 0.02202799
H  -0.00900947 0.01528768 0.00472250
H  -0.00626087 0.01171211 -0.00133698
12
MD Step 1239 Units = [Angstroms / fs]
C  0.00279865 0.00192533 -0.00293214
C  0.00520528 -0.00164929 -0.00168944
C  0.00959011 0.00474197 0.00043468
C  0.00026344 0.00519021 -0.00636110
C  0.00090469 -0.00244882 -0.00054331
C  -0.00268113 0.00018271 -0.00342409
H  0.00271137 0.01473389 0.01936920
H  -0.01201313 -0.02288989 -0.00693373
H  -0.00761180 -0.01964112 -0.00668827
H  0.01375172 -0.01837629 0.02273441
H  -0.00451843 0.00958947 0.00241313
H  -0.01009111 0.01213203 -0.00011050
12
MD Step 1240 Units = [Angstroms / fs]
C  0.00276732 0.00214530 -0.00303926
C  0.00463414 -0.00199026 -0.00187597
C  0.00982480 0.00458007 0.00047762
C  0.00032495 0.00622839 -0.00603727
C  0.00086603 -0.00202971 -0.00059630
C  -0.00212570 0.00019696 -0.00343750
H  0.00486436 0.01335073 0.01964220
H  -0.01084939 -0.02369863 -0.00493205
H  -0.00796697 -0.02017951 -0.00831714
H  0.00655104 -0.02365339 0.02311922
H  0.00039521 0.00314412 0.00001572
H  -0.01327392 0.01242087 0.00117606
12
MD Step 1241 Units = [Angstroms / fs]
C  0.00277142 0.00243082 -0.00312783
C  0.00408478 -0.00230847 -0.00207637
C  0.00983920 0.00433088 0.00048132
C  0.00039508 0.00707921 -0.00565859
C  0.00081937 -0.00157194 -0.00066132
C  -0.00160685 0.00021994 -0.00345519
H  0.00655209 0.01112480 0.01977257
H  -0.00994393 -0.02344972 -0.00280525
H  -0.00680812 -0.02034328 -0.00971245
H  -0.00013301 -0.02747893 0.02316976
H  0.00541716 -0.00355543 -0.00239315
H  -0.01550045 0.01257850 0.00254510
12
MD Step 1242 Units = [Angstroms / fs]
C  0.00280528 0.00277020 -0.00319911
C  0.00356583 -0.00259804 -0.00228828
C  0.00963070 0.00400104 0.00044447
C  0.00045185 0.00769802 -0.00522638
C  0.00078498 -0.00111506 -0.00074367
C  -0.00114436 0.00025108 -0.00347797
H  0.00779028 0.00815832 0.01977702
H  -0.00929495 -0.02216042 -0.00056929
H  -0.00417414 -0.02016012 -0.01087750
H  -0.00591942 -0.02940053 0.02289473
H  0.01023439 -0.01001383 -0.00473640
H  -0.01656531 0.01260026 0.00400419
12
MD Step 1243 Units = [Angstroms / fs]
C  0.00285922 0.00314592 -0.00325430
C  0.00308253 -0.00284962 -0.00250838
C  0.00921308 0.00359916 0.00036783
C  0.00047372 0.00804714 -0.00474405
C  0.00078308 -0.00069816 -0.00084846
C  -0.00074898 0.00028964 -0.00350538
H  0.00864519 0.00462771 0.01967099
H  -0.00886508 -0.01992556 0.00174859
H  -0.00027174 -0.01966466 -0.01183733
H  -0.01045222 -0.02903163 0.02232517
H  0.01453864 -0.01573883 -0.00693850
H  -0.01638066 0.01247889 0.00554524
12
MD Step 1244 Units = [Angstroms / fs]
C  0.00292035 0.00353569 -0.00329422
C  0.00263738 -0.00305135 -0.00273263
C  0.00861633 0.00313523 0.00025405
C  0.00044328 0.00810023 -0.00421708
C  0.00083341 -0.00035912 -0.00098043
C  -0.00042281 0.00033456 -0.00353583
H  0.00922545 0.00077102 0.01946524
H  -0.00859053 -0.01690315 0.00411252
H  0.00452858 -0.01889166 -0.01263526
H  -0.01344512 -0.02610652 0.02151335
H  0.01803250 -0.02025100 -0.00892816
H  -0.01497348 0.01220693 0.00714630
12
MD Step 1245 Units = [Angstroms / fs]
C  0.00297394 0.00391420 -0.00331919
C  0.00223078 -0.00318990 -0.00295660
C  0.00788363 0.00262011 0.00010705
C  0.00035240 0.00784805 -0.00365262
C  0.00095419 -0.00013294 -0.00114360
C  -0.00016051 0.00038445 -0.00356683
H  0.00966658 -0.00313428 0.01916333
H  -0.00839019 -0.01329784 0.00648132
H  0.00972710 -0.01786977 -0.01332522
H  -0.01474251 -0.02055233 0.02052726
H  0.02044280 -0.02310509 -0.01064250
H  -0.01247090 0.01177900 0.00877520
12
MD Step 1246 Units = [Angstroms / fs]
C  0.00300523 0.00425556 -0.00332893
C  0.00186145 -0.00325160 -0.00317571
C  0.00706597 0.00206521 -0.00006868
C  0.00020753 0.00730436 -0.00305859
C  0.00116036 -0.00004858 -0.00134076
C  0.00004900 0.00043759 -0.00359532
H  0.01011061 -0.00680062 0.01876085
H  -0.00817372 -0.00934432 0.00881194
H  0.01475801 -0.01661822 -0.01396143
H  -0.01438314 -0.01256143 0.01943935
H  0.02154449 -0.02392925 -0.01203352
H  -0.00907904 0.01119355 0.01039374
12
MD Step 1247 Units = [Angstroms / fs]
C  0.00300133 0.00453572 -0.00332272
C  0.00152693 -0.00322341 -0.00338552
C  0.00621532 0.00148242 -0.00026899
C  0.00003293 0.00650947 -0.00244243
C  0.00146094 -0.00012430 -0.00157283
C  0.00022074 0.00049211 -0.00361801
H  0.01068480 -0.00996174 0.01824663
H  -0.00784847 -0.00529179 0.01106254
H  0.01906836 -0.01514754 -0.01458822
H  -0.01264098 -0.00263523 0.01831068
H  0.02119550 -0.02248309 -0.01307609
H  -0.00506062 0.01045384 0.01196182
12
MD Step 1248 Units = [Angstroms / fs]
C  0.00295274 0.00473472 -0.00329961
C  0.00122382 -0.00309382 -0.00358199
C  0.00537810 0.00088407 -0.00049058
C  -0.00013031 0.00552908 -0.00180970
C  0.00185587 -0.00036207 -0.00183824
C  0.00037216 0.00054625 -0.00363160
H  0.01148372 -0.01240056 0.01760569
H  -0.00732573 -0.00138919 0.01319531
H  0.02219401 -0.01346410 -0.01523267
H  -0.01001462 0.00843225 0.01717527
H  0.01937727 -0.01872723 -0.01377591
H  -0.00071400 0.00956835 0.01344100
12
MD Step 1249 Units = [Angstroms / fs]
C  0.00285439 0.00483823 -0.00325874
C  0.00094817 -0.00285385 -0.00376166
C  0.00459043 0.00028294 -0.00073126
C  -0.00023085 0.00444680 -0.00116346
C  0.00233326 -0.00074267 -0.00213255
C  0.00052182 0.00059857 -0.00363313
H  0.01255777 -0.01396912 0.01682297
H  -0.00652659 0.00212965 0.01517890
H  0.02381486 -0.01157621 -0.01590203
H  -0.00715122 0.01964740 0.01603176
H  0.01622901 -0.01288455 -0.01417393
H  0.00364544 0.00855068 0.01479736
12
MD Step 1250 Units = [Angstroms / fs]
C  0.00270599 0.00483829 -0.00319965
C  0.00069589 -0.00249795 -0.00392183
C  0.00387577 -0.00030800 -0.00098983
C  -0.00021772 0.00335168 -0.00050445
C  0.00286845 -0.00122377 -0.00244866
C  0.00068830 0.00064815 -0.00362006
H  0.01390951 -0.01459821 0.01588718
H  -0.00538819 0.00506158 0.01699034
H  0.02377991 -0.00949964 -0.01658557
H  -0.00472036 0.02997129 0.01484727
H  0.01205897 -0.00546490 -0.01434380
H  0.00770233 0.00741912 0.01600363
12
MD Step 1251 Units = [Angstroms / fs]
C  0.00251171 0.00473329 -0.00312248
C  0.00046329 -0.00202516 -0.00406067
C  0.00324515 -0.00087598 -0.00126577
C  -0.00005149 0.00232439 0.00016762
C  0.00342597 -0.00174318 -0.00277776
C  0.00088906 0.00069467 -0.00359054
H  0.01549682 -0.01429718 0.01479377
H  -0.00387032 0.00725065 0.01861625
H  0.02210325 -0.00726054 -0.01725957
H  -0.00328009 0.03848946 0.01357250
H  0.00731861 0.00277273 -0.01438057
H  0.01115843 0.00619582 0.01704088
12
MD Step 1252 Units = [Angstroms / fs]
C  0.00227952 0.00452737 -0.00302814
C  0.00024769 -0.00144015 -0.00417725
C  0.00269891 -0.00140895 -0.00155879
C  0.00028806 0.00142633 0.00085266
C  0.00396470 -0.00222771 -0.00311076
C  0.00113919 0.00073843 -0.00354349
H  0.01724072 -0.01314609 0.01354666
H  -0.00196213 0.00860456 0.02005307
H  0.01893967 -0.00489571 -0.01789335
H  -0.00318190 0.04454324 0.01216103
H  0.00253787 0.01092632 -0.01438264
H  0.01375139 0.00490570 0.01789954
12
MD Step 1253 Units = [Angstroms / fs]
C  0.00202017 0.00422958 -0.00291826
C  0.00004804 -0.00075416 -0.00427145
C  0.00222911 -0.00189592 -0.00186854
C  0.00079980 0.00069472 0.00154895
C  0.00444481 -0.00260567 -0.00343990
C  0.00144992 0.00078017 -0.00347870
H  0.01903565 -0.01128343 0.01215883
H  0.00031200 0.00910857 0.02130591
H  0.01455116 -0.00245053 -0.01845492
H  -0.00454027 0.04778848 0.01058479
H  -0.00176292 0.01810131 -0.01443271
H  0.01527596 0.00357504 0.01857964
12
MD Step 1254 Units = [Angstroms / fs]
C  0.00174625 0.00385283 -0.00279521
C  -0.00013460 0.00001452 -0.00434377
C  0.00182205 -0.00232732 -0.00219437
C  0.00146409 0.00014339 0.00225271
C  0.00483451 -0.00281906 -0.00375981
C  0.00182690 0.00082098 -0.00339674
H  0.02075996 -0.00889188 0.01065178
H  0.00288893 0.00883342 0.02238584
H  0.00927343 0.00002404 -0.01891520
H  -0.00726082 0.04818142 0.00884072
H  -0.00515729 0.02355889 -0.01458414
H  0.01560680 0.00222984 0.01909010
12
MD Step 1255 Units = [Angstroms / fs]
C  0.00147110 0.00341298 -0.00266189
C  -0.00029687 0.00084087 -0.00439497
C  0.00146024 -0.00269503 -0.00253517
C  0.00224833 -0.00023245 0.00295833
C  0.00511430 -0.00283185 -0.00406789
C  0.00226866 0.00086212 -0.00329890
H  0.02228564 -0.00618408 0.00905430
H  0.00566724 0.00793351 0.02330582
H  0.00348758 0.00247477 -0.01925088
H  -0.01110086 0.04591726 0.00694939
H  -0.00736772 0.02681695 -0.01485673
H  0.01471987 0.00089412 0.01944659
12
MD Step 1256 Units = [Angstroms / fs]
C  0.00120800 0.00292792 -0.00252161
C  -0.00043338 0.00169437 -0.00442574
C  0.00112396 -0.00299240 -0.00288934
C  0.00311280 -0.00045040 0.00365898
C  0.00527797 -0.00263252 -0.00436386
C  0.00276542 0.00090494 -0.00318684
H  0.02348682 -0.00338899 0.00740077
H  0.00851299 0.00663283 0.02407599
H  -0.00240207 0.00484909 -0.01944602
H  -0.01573430 0.04135389 0.00494875
H  -0.00828091 0.02768195 -0.01524117
H  0.01270725 -0.00041142 0.01966813
12
MD Step 1257 Units = [Angstroms / fs]
C  0.00096936 0.00241668 -0.00237791
C  -0.00053740 0.00254118 -0.00443627
C  0.00079253 -0.00321418 -0.00325476
C  0.00401533 -0.00053572 0.00434718
C  0.00533085 -0.00223146 -0.00464902
C  0.00329896 0.00095074 -0.00306224
H  0.02424732 -0.00073855 0.00572902
H  0.01127108 0.00519915 0.02469945
H  -0.00798582 0.00709761 -0.01949291
H  -0.02080290 0.03494511 0.00288699
H  -0.00792925 0.02622002 -0.01570851
H  0.00977955 -0.00167000 0.01977256
12
MD Step 1258 Units = [Angstroms / fs]
C  0.00076599 0.00189844 -0.00223434
C  -0.00060197 0.00334705 -0.00442615
C  0.00044558 -0.00335639 -0.00362876
C  0.00491429 -0.00051787 0.00501535
C  0.00528649 -0.00165567 -0.00492530
C  0.00384379 0.00100065 -0.00292644
H  0.02446753 0.00154585 0.00407793
H  0.01378086 0.00390992 0.02516979
H  -0.01286564 0.00917633 -0.01939226
H  -0.02594850 0.02719443 0.00081664
H  -0.00645405 0.02269391 -0.01622037
H  0.00625097 -0.00286850 0.01977195
12
MD Step 1259 Units = [Angstroms / fs]
C  0.00060652 0.00139147 -0.00209422
C  -0.00062117 0.00408025 -0.00439425
C  0.00006452 -0.00341626 -0.00400816
C  0.00577026 -0.00042873 0.00565612
C  0.00516335 -0.00094289 -0.00519462
C  0.00436981 0.00105547 -0.00278012
H  0.02407115 0.00326815 0.00248461
H  0.01589351 0.00301643 0.02547106
H  -0.01667510 0.01104865 -0.01915299
H  -0.03082879 0.01862982 -0.00120946
H  -0.00406656 0.01749381 -0.01673710
H  0.00250617 -0.00399623 0.01966909
12
MD Step 1260 Units = [Angstroms / fs]
C  0.00049681 0.00091181 -0.00196045
C  -0.00059129 0.00471418 -0.00433899
C  -0.00036541 -0.00339229 -0.00438933
C  0.00654679 -0.00030193 0.00626244
C  0.00498200 -0.00013677 -0.00545843
C  0.00484597 0.00111545 -0.00262316
H  0.02301167 0.00427359 0.00098137
H  0.01748812 0.00271310 0.02558033
H  -0.01910507 0.01268709 -0.01879136
H  -0.03512293 0.00979415 -0.00314067
H  -0.00101647 0.01108057 -0.01722299
H  -0.00104674 -0.00504326 0.01945622
12
MD Step 1261 Units = [Angstroms / fs]
C  0.00043954 0.00047189 -0.00183522
C  -0.00051174 0.00522911 -0.00425860
C  -0.00085269 -0.00328421 -0.00476831
C  0.00721089 -0.00017290 0.00682779
C  0.00476345 0.00071638 -0.00571746
C  0.00524433 0.00118009 -0.00245481
H  0.02127827 0.00446523 -0.00040750
H  0.01848346 0.00311719 0.02547207
H  -0.01993565 0.01407439 -0.01832926
H  -0.03853310 0.00124350 -0.00493044
H  0.00242861 0.00394801 -0.01764892
H  -0.00402797 -0.00599885 0.01911658
12
MD Step 1262 Units = [Angstroms / fs]
C  0.00043388 0.00007916 -0.00171983
C  -0.00038538 0.00561289 -0.00415159
C  -0.00139674 -0.00309304 -0.00514100
C  0.00773354 -0.00007870 0.00734621
C  0.00452824 0.00156950 -0.00597168
C  0.00554358 0.00124806 -0.00227393
H  0.01890031 0.00381899 -0.00166848
H  0.01884412 0.00426117 0.02512320
H  -0.01907144 0.01520345 -0.01779149
H  -0.04078763 -0.00645544 -0.00653833
H  0.00599393 -0.00339754 -0.01799340
H  -0.00613202 -0.00685059 0.01862824
12
MD Step 1263 Units = [Angstroms / fs]
C  0.00047548 -0.00026493 -0.00161456
C  -0.00021850 0.00586072 -0.00401703
C  -0.00198548 -0.00282095 -0.00550350
C  0.00809059 -0.00005709 0.00781261
C  0.00429623 0.00237577 -0.00622023
C  0.00573132 0.00131718 -0.00207944
H  0.01594903 0.00239386 -0.00280082
H  0.01858098 0.00609633 0.02451759
H  -0.01657261 0.01607544 -0.01720208
H  -0.04164958 -0.01273807 -0.00793282
H  0.00940245 -0.01044669 -0.01824288
H  -0.00715895 -0.00758454 0.01796922
12
MD Step 1264 Units = [Angstroms / fs]
C  0.00055672 -0.00056530 -0.00151862
C  -0.00002036 0.00597438 -0.00385487
C  -0.00259417 -0.00247111 -0.00585243
C  0.00826410 -0.00014389 0.00822299
C  0.00408663 0.00308938 -0.00646153
C  0.00580488 0.00138450 -0.00187067
H  0.01253544 0.00033366 -0.00381678
H  0.01774708 0.00850457 0.02364938
H  -0.01267100 0.01669618 -0.01658032
H  -0.04093322 -0.01707389 -0.00909495
H  0.01237789 -0.01669322 -0.01839188
H  -0.00702735 -0.00818617 0.01712252
12
MD Step 1265 Units = [Angstroms / fs]
C  0.00066733 -0.00083273 -0.00143034
C  0.00019748 0.00596105 -0.00366599
C  -0.00318623 -0.00204739 -0.00618517
C  0.00824418 -0.00036818 0.00857483
C  0.00391791 0.00366671 -0.00669325
C  0.00577071 0.00144657 -0.00164769
H  0.00880348 -0.00214257 -0.00473991
H  0.01643070 0.01131420 0.02252476
H  -0.00776074 0.01707134 -0.01593739
H  -0.03852849 -0.01902471 -0.01002215
H  0.01465059 -0.02164525 -0.01844321
H  -0.00577041 -0.00864183 0.01607983
12
MD Step 1266 Units = [Angstroms / fs]
C  0.00079538 -0.00108234 -0.00134743
C  0.00042194 0.00583217 -0.00345233
C  -0.00371670 -0.00155424 -0.00650005
C  0.00803089 -0.00074538 0.00886734
C  0.00380724 0.00406844 -0.00691240
C  0.00564286 0.00149969 -0.00141147
H  0.00491883 -0.00476240 -0.00560132
H  0.01474726 0.01431676 0.02116233
H  -0.00235774 0.01720223 -0.01527495
H  -0.03442946 -0.01832790 -0.01073042
H  0.01597054 -0.02484891 -0.01840809
H  -0.00351994 -0.00894023 0.01484360
12
MD Step 1267 Units = [Angstroms / fs]
C  0.00092843 -0.00133127 -0.00126744
C  0.00063927 0.00560234 -0.00321676
C  -0.00413778 -0.00099677 -0.00679622
C  0.00763570 -0.00126933 0.00910135
C  0.00376907 0.00426312 -0.00711546
C  0.00544103 0.00154027 -0.00116388
H  0.00105456 -0.00723139 -0.00643442
H  0.01283097 0.01728303 0.01959239
H  0.00296752 0.01708390 -0.01458621
H  -0.02875864 -0.01499014 -0.01125248
H  0.01613088 -0.02593017 -0.01830584
H  -0.00048454 -0.00907363 0.01342744
12
MD Step 1268 Units = [Angstroms / fs]
C  0.00105485 -0.00159606 -0.00118815
C  0.00083578 0.00528849 -0.00296302
C  -0.00440541 -0.00038115 -0.00707345
C  0.00708159 -0.00190615 0.00927880
C  0.00381277 0.00423215 -0.00729851
C  0.00518862 0.00156518 -0.00090766
H  -0.00262424 -0.00926879 -0.00726928
H  0.01082670 0.01997758 0.01785527
H  0.00766970 0.01670651 -0.01385940
H  -0.02177611 -0.00935973 -0.01163006
H  0.01500234 -0.02465531 -0.01816225
H  0.00307332 -0.00903865 0.01185527
12
MD Step 1269 Units = [Angstroms / fs]
C  0.00116483 -0.00189006 -0.00110797
C  0.00099871 0.00490904 -0.00269552
C  -0.00448530 0.00028473 -0.00733171
C  0.00640120 -0.00259329 0.00940171
C  0.00393944 0.00397539 -0.00745764
C  0.00491101 0.00157210 -0.00064630
H  -0.00597427 -0.01064070 -0.00812791
H  0.00888194 0.02217257 0.01599897
H  0.01130147 0.01605975 -0.01308247
H  -0.01386381 -0.00213712 -0.01190070
H  0.01257392 -0.02100107 -0.01800612
H  0.00685852 -0.00883662 0.01015962
12
MD Step 1270 Units = [Angstroms / fs]
C  0.00125122 -0.00222157 -0.00102613
C  0.00111697 0.00448316 -0.00241916
C  -0.00435693 0.00099058 -0.00757088
C  0.00563317 -0.00324611 0.00947105
C  0.00413893 0.00351590 -0.00758943
C  0.00463411 0.00155976 -0.00038385
H  -0.00888438 -0.01118493 -0.00902122
H  0.00713819 0.02366153 0.01407596
H  0.01356320 0.01513846 -0.01224752
H  -0.00548335 0.00570456 -0.01208341
H  0.00898819 -0.01521375 -0.01786357
H  0.01056206 -0.00847364 0.00837955
12
MD Step 1271 Units = [Angstroms / fs]
C  0.00130989 -0.00259283 -0.00094276
C  0.00118204 0.00402985 -0.00213901
C  -0.00401522 0.00172328 -0.00779046
C  0.00481731 -0.00377154 0.00948605
C  0.00438830 0.00290112 -0.00769146
C  0.00438310 0.00152812 -0.00012478
H  -0.01128139 -0.01082407 -0.00994816
H  0.00572147 0.02427394 0.01213923
H  0.01432221 0.01394745 -0.01135369
H  0.00288401 0.01308207 -0.01216955
H  0.00455438 -0.00782819 -0.01775141
H  0.01387833 -0.00796027 0.00655806
12
MD Step 1272 Units = [Angstroms / fs]
C  0.00133979 -0.00299993 -0.00085871
C  0.00118883 0.00356685 -0.00185994
C  -0.00346981 0.00246684 -0.00798951
C  0.00399018 -0.00408488 0.00944425
C  0.00465305 0.00219884 -0.00776283
C  0.00418120 0.00147829 0.00012629
H  -0.01313148 -0.00956665 -0.01089686
H  0.00473171 0.02389064 0.01023736
H  0.01360429 0.01250411 -0.01040817
H  0.01079865 0.01899999 -0.01212374
H  -0.00027570 0.00037756 -0.01767149
H  0.01652236 -0.00731099 0.00473927
12
MD Step 1273 Units = [Angstroms / fs]
C  0.00134259 -0.00343344 -0.00077545
C  0.00113653 0.00310944 -0.00158629
C  -0.00274293 0.00320297 -0.00816664
C  0.00318213 -0.00412412 0.00934240
C  0.00489167 0.00148755 -0.00780426
C  0.00404829 0.00141237 0.00036485
H  -0.01443792 -0.00749898 -0.01184701
H  0.00423161 0.02245905 0.00840921
H  0.01156727 0.01083856 -0.00942547
H  0.01790884 0.02271782 -0.01189463
H  -0.00497161 0.00849485 -0.01760864
H  0.01824877 -0.00654331 0.00296510
12
MD Step 1274 Units = [Angstroms / fs]
C  0.00132228 -0.00387940 -0.00069471
C  0.00102932 0.00266912 -0.00132134
C  -0.00186672 0.00391202 -0.00832006
C  0.00241624 -0.00385769 0.00917767
C  0.00506245 0.00084357 -0.00781783
C  0.00399936 0.00133304 0.00058681
H  -0.01523646 -0.00477097 -0.01277296
H  0.00423648 0.02000573 0.00667858
H  0.00846737 0.00899170 -0.00842580
H  0.02397349 0.02383707 -0.01143023
H  -0.00901353 0.01563703 -0.01753374
H  0.01887277 -0.00567647 0.00127147
12
MD Step 1275 Units = [Angstroms / fs]
C  0.00128456 -0.00432061 -0.00061829
C  0.00087662 0.00225266 -0.00106709
C  -0.00088055 0.00457418 -0.00844765
C  0.00170891 -0.00328480 0.00894866
C  0.00513037 0.00032901 -0.00780640
C  0.00404275 0.00124314 0.00078885
H  -0.01558954 -0.00157949 -0.01364674
H  0.00470743 0.01664301 0.00505024
H  0.00462693 0.00701227 -0.00743302
H  0.02886205 0.02229953 -0.01069138
H  -0.01197905 0.02108451 -0.01741085
H  0.01829239 -0.00472982 -0.00031553
12
MD Step 1276 Units = [Angstroms / fs]
C  0.00123630 -0.00473784 -0.00054788
C  0.00069294 0.00186163 -0.00082406
C  0.00017128 0.00517081 -0.00854703
C  0.00107132 -0.00243036 0.00865592
C  0.00507204 -0.00001608 -0.00777287
C  0.00417860 0.00114523 0.00096876
H  -0.01558011 0.00184841 -0.01444086
H  0.00555045 0.01256633 0.00350838
H  0.00040739 0.00495367 -0.00647271
H  0.03253908 0.01832262 -0.00965926
H  -0.01360117 0.02437894 -0.01720580
H  0.01650850 -0.00372087 -0.00178303
12
MD Step 1277 Units = [Angstroms / fs]
C  0.00118507 -0.00511103 -0.00048483
C  0.00049691 0.00149282 -0.00059141
C  0.00124147 0.00568549 -0.00861556
C  0.00051102 -0.00133765 0.00830193
C  0.00487742 -0.00017562 -0.00771962
C  0.00439784 0.00104124 0.00112564
H  -0.01530544 0.00527148 -0.01513055
H  0.00662342 0.00803980 0.00201855
H  -0.00381185 0.00287088 -0.00557055
H  0.03504270 0.01231084 -0.00833685
H  -0.01378530 0.02534806 -0.01689315
H  0.01363779 -0.00266360 -0.00313350
12
MD Step 1278 Units = [Angstroms / fs]
C  0.00113854 -0.00542042 -0.00043010
C  0.00030974 0.00113947 -0.00036738
C  0.00228154 0.00610493 -0.00865046
C  0.00003303 -0.00006141 0.00789077
C  0.00454886 -0.00015459 -0.00764819
C  0.00468214 0.00093225 0.00125992
H  -0.01487072 0.00844928 -0.01569550
H  0.00775139 0.00337071 0.00053331
H  -0.00765112 0.00081771 -0.00475082
H  0.03646413 0.00477451 -0.00674622
H  -0.01259073 0.02407223 -0.01645989
H  0.00991277 -0.00156748 -0.00438443
12
MD Step 1279 Units = [Angstroms / fs]
C  0.00110409 -0.00564773 -0.00038418
C  0.00015311 0.00079320 -0.00014988
C  0.00324368 0.00641945 -0.00864889
C  -0.00035961 0.00133756 0.00742760
C  0.00409850 0.00002649 -0.00755927
C  0.00500530 0.00081855 0.00137315
H  -0.01438231 0.01115694 -0.01612115
H  0.00874804 -0.00112374 -0.00099924
H  -0.01074810 -0.00115583 -0.00403501
H  0.03693219 -0.00372885 -0.00492443
H  -0.01019240 0.02081989 -0.01590587
H  0.00566470 -0.00043754 -0.00556528
12
MD Step 1280 Units = [Angstroms / fs]
C  0.00108826 -0.00577733 -0.00034703
C  0.00004691 0.00044611 0.00006279
C  0.00408310 0.00662322 -0.00860808
C  -0.00066592 0.00279588 0.00691836
C  0.00354537 0.00033731 -0.00745279
C  0.00533602 0.00069979 0.00146754
H  -0.01393999 0.01320008 -0.01639954
H  0.00943954 -0.00515139 -0.00262606
H  -0.01277895 -0.00300602 -0.00344040
H  0.03660387 -0.01262908 -0.00291962
H  -0.00683953 0.01597944 -0.01524217
H  0.00128897 0.00072397 -0.00671177
12
MD Step 1281 Units = [Angstroms / fs]
C  0.00109615 -0.00579756 -0.00031813
C  0.00000730 0.00009267 0.00027131
C  0.00476081 0.00671422 -0.00852557
C  -0.00088750 0.00424982 0.00636942
C  0.00291305 0.00074244 -0.00732809
C  0.00564170 0.00057528 0.00154542
H  -0.01362827 0.01443017 -0.01652958
H  0.00968590 -0.00847528 -0.00438080
H  -0.01348504 -0.00469803 -0.00297858
H  0.03566026 -0.02136016 -0.00078805
H  -0.00282201 0.01000451 -0.01448884
H  -0.00280206 0.00191497 -0.00785871
12
MD Step 1282 Units = [Angstroms / fs]
C  0.00113086 -0.00570193 -0.00029650
C  0.00004530 -0.00026901 0.00047499
C  0.00524698 0.00669387 -0.00839945
C  -0.00102917 0.00563674 0.00578747
C  0.00222808 0.00120432 -0.00718410
C  0.00589244 0.00044442 0.00160866
H  -0.01350680 0.01475925 -0.01651678
H  0.00939614 -0.01093399 -0.00627845
H  -0.01270523 -0.00620789 -0.00265404
H  0.03430558 -0.02936812 0.00140807
H  0.00155197 0.00337825 -0.01367280
H  -0.00622987 0.00313050 -0.00903303
12
MD Step 1283 Units = [Angstroms / fs]
C  0.00119287 -0.00549020 -0.00028077
C  0.00016609 -0.00063670 0.00067167
C  0.00552434 0.00656664 -0.00822859
C  -0.00109962 0.00689648 0.00517939
C  0.00151907 0.00168488 -0.00701944
C  0.00606456 0.00030690 0.00165826
H  -0.01360124 0.01417220 -0.01637212
H  0.00853527 -0.01245021 -0.00831351
H  -0.01040947 -0.00752360 -0.00246325
H  0.03276659 -0.03611937 0.00360279
H  0.00596814 -0.00340567 -0.01282643
H  -0.00869383 0.00436024 -0.01024886
12
MD Step 1284 Units = [Angstroms / fs]
C  0.00127958 -0.00516894 -0.00026940
C  0.00036906 -0.00100431 0.00085789
C  0.00559103 0.00633941 -0.00801280
C  -0.00111149 0.00797334 0.00455212
C  0.00081626 0.00214626 -0.00683243
C  0.00614286 0.00016301 0.00169417
H  -0.01389603 0.01273352 -0.01611030
H  0.00712350 -0.01302848 -0.01046160
H  -0.00672557 -0.00864436 -0.00239453
H  0.03128828 -0.04111758 0.00572951
H  0.01011225 -0.00985196 -0.01198672
H  -0.01000038 0.00558736 -0.01150552
12
MD Step 1285 Units = [Angstroms / fs]
C  0.00138526 -0.00475145 -0.00026078
C  0.00064837 -0.00136258 0.00102921
C  0.00546176 0.00602077 -0.00775292
C  -0.00108066 0.00881906 0.00391239
C  0.00015090 0.00255126 -0.00662119
C  0.00612142 0.00001358 0.00171539
H  -0.01433159 0.01058576 -0.01574731
H  0.00522960 -0.01274508 -0.01268333
H  -0.00194818 -0.00957767 -0.00242917
H  0.03012111 -0.04393512 0.00772590
H  0.01367482 -0.01547014 -0.01119454
H  -0.01007431 0.00678884 -0.01278840
12
MD Step 1286 Units = [Angstroms / fs]
C  0.00150130 -0.00425681 -0.00025347
C  0.00099382 -0.00170000 0.00118063
C  0.00516672 0.00562039 -0.00745074
C  -0.00102424 0.00939701 0.00326619
C  -0.00044555 0.00286419 -0.00638370
C  0.00600303 -0.00013996 0.00172014
H  -0.01480760 0.00793755 -0.01529788
H  0.00296097 -0.01173380 -0.01492938
H  0.00347944 -0.01033448 -0.00254367
H  0.02949526 -0.04426143 0.00954102
H  0.01635941 -0.01978676 -0.01049347
H  -0.00895382 0.00793700 -0.01407218
12
MD Step 1287 Units = [Angstroms / fs]
C  0.00161720 -0.00370810 -0.00024637
C  0.00139181 -0.00200381 0.00130704
C  0.00474766 0.00514841 -0.00710883
C  -0.00095718 0.00968720 0.00261818
C  -0.00094303 0.00305275 -0.00611794
C  0.00579782 -0.00029574 0.00170626
H  -0.01519342 0.00504160 -0.01477328
H  0.00045259 -0.01017054 -0.01714564
H  0.00901420 -0.01092388 -0.00271282
H  0.02958024 -0.04196302 0.01114386
H  0.01789880 -0.02237056 -0.00992748
H  -0.00677433 0.00900185 -0.01532505
12
MD Step 1288 Units = [Angstroms / fs]
C  0.00172180 -0.00313000 -0.00023875
C  0.00182629 -0.00226080 0.00140360
C  0.00425196 0.00461509 -0.00673032
C  -0.00088790 0.00969096 0.00197106
C  -0.00131539 0.00309135 -0.00582227
C  0.00552140 -0.00045147 0.00167148
H  -0.01534451 0.00216551 -0.01418010
H  -0.00214378 -0.00825851 -0.01927795
H  0.01408517 -0.01134887 -0.00291282
H  0.03043451 -0.03714056 0.01253086
H  0.01808187 -0.02287599 -0.00953665
H  -0.00374682 0.00995346 -0.01651301
12
MD Step 1289 Units = [Angstroms / fs]
C  0.00180496 -0.00254625 -0.00023028
C  0.00227975 -0.00245811 0.00146602
C  0.00372586 0.00403073 -0.00631863
C  -0.00081417 0.00943342 0.00132527
C  -0.00154374 0.00296590 -0.00549587
C  0.00519308 -0.00060452 0.00161370
H  -0.01512200 -0.00043945 -0.01352017
H  -0.00466970 -0.00621450 -0.02127613
H  0.01817299 -0.01160498 -0.00312373
H  0.03195953 -0.03015994 0.01372861
H  0.01679053 -0.02110447 -0.00935059
H  -0.00013538 0.01076419 -0.01760363
12
MD Step 1290 Units = [Angstroms / fs]
C  0.00185894 -0.00197744 -0.00022095
C  0.00273405 -0.00258389 0.00149085
C  0.00320863 0.00340581 -0.00587732
C  -0.00072105 0.00896188 0.00067940
C  -0.00162011 0.00267933 -0.00513939
C  0.00483423 -0.00075193 0.00153124
H  -0.01441177 -0.00256593 -0.01279172
H  -0.00696953 -0.00425603 -0.02309725
H  0.02087745 -0.01168186 -0.00333081
H  0.03387908 -0.02163456 0.01478852
H  0.01404014 -0.01707340 -0.00938027
H  0.00376354 0.01141044 -0.01856894
12
MD Step 1291 Units = [Angstroms / fs]
C  0.00187962 -0.00143943 -0.00021085
C  0.00317137 -0.00262806 0.00147571
C  0.00272878 0.00275109 -0.00540992
C  -0.00058249 0.00833940 0.00003118
C  -0.00155027 0.00225587 -0.00475559
C  0.00446697 -0.00089035 0.00142295
H  -0.01313925 -0.00406986 -0.01199124
H  -0.00889990 -0.00258818 -0.02470829
H  0.02195888 -0.01156723 -0.00352458
H  0.03576276 -0.01234912 0.01577279
H  0.01001018 -0.01107090 -0.00960991
H  0.00763953 0.01187396 -0.01938748
12
MD Step 1292 Units = [Angstroms / fs]
C  0.00186700 -0.00094256 -0.00020009
C  0.00357514 -0.00258316 0.00141943
C  0.00230281 0.00207772 -0.00491995
C  -0.00036687 0.00763477 -0.00062104
C  -0.00135444 0.00174196 -0.00434965
C  0.00411300 -0.00101616 0.00128833
H  -0.01127776 -0.00487959 -0.01111562
H  -0.01033954 -0.00138957 -0.02608806
H  0.02134880 -0.01125139 -0.00370017
H  0.03709686 -0.00313903 0.01673578
H  0.00504869 -0.00366726 -0.00999226
H  0.01118515 0.01214279 -0.02004568
12
MD Step 1293 Units = [Angstroms / fs]
C  0.00182522 -0.00049172 -0.00018861
C  0.00393107 -0.00244533 0.00132210
C  0.00193607 0.00139706 -0.00441083
C  -0.00004501 0.00691171 -0.00127700
C  -0.00106472 0.00120177 -0.00392903
C  0.00379248 -0.00112548 0.00112756
H  -0.00885005 -0.00499530 -0.01016394
H  -0.01119934 -0.00079709 -0.02722820
H  0.01913494 -0.01073088 -0.00385624
H  0.03738407 0.00523996 0.01770771
H  -0.00036188 0.00433923 -0.01045047
H  0.01411301 0.01221172 -0.02053845
12
MD Step 1294 Units = [Angstroms / fs]
C  0.00176205 -0.00008686 -0.00017612
C  0.00422809 -0.00221543 0.00118510
C  0.00162488 0.00072035 -0.00388596
C  0.00040227 0.00622048 -0.00193396
C  -0.00071947 0.00070737 -0.00350269
C  0.00352279 -0.00121436 0.00094154
H  -0.00592410 -0.00448109 -0.00913871
H  -0.01143199 -0.00089034 -0.02813296
H  0.01553099 -0.01001056 -0.00399394
H  0.03623871 0.01221294 0.01868688
H  -0.00567565 0.01204141 -0.01088789
H  0.01617415 0.01208242 -0.02086926
12
MD Step 1295 Units = [Angstroms / fs]
C  0.00168808 0.00027606 -0.00016207
C  0.00445923 -0.00190003 0.00101095
C  0.00135898 0.00005829 -0.00334871
C  0.00097944 0.00559388 -0.00258683
C  -0.00035609 0.00032618 -0.00307973
C  0.00331715 -0.00127893 0.00073179
H  -0.00260516 -0.00345278 -0.00804638
H  -0.01103955 -0.00167811 -0.02881741
H  0.01084179 -0.00910396 -0.00411613
H  0.03344755 0.01743416 0.01964220
H  -0.01037271 0.01857690 -0.01120387
H  0.01717851 0.01176285 -0.02104919
12
MD Step 1296 Units = [Angstroms / fs]
C  0.00161575 0.00060415 -0.00014571
C  0.00462209 -0.00151200 0.00080296
C  0.00112376 -0.00057924 -0.00280247
C  0.00167544 0.00504754 -0.00322901
C  -0.00000455 0.00010962 -0.00266815
C  0.00318309 -0.00131554 0.00050036
H  0.00097400 -0.00206411 -0.00689724
H  -0.01007693 -0.00308991 -0.02930398
H  0.00543138 -0.00803250 -0.00422681
H  0.02898436 0.02078225 0.02052314
H  -0.01403934 0.02326795 -0.01131083
H  0.01701612 0.01126613 -0.02109511
12
MD Step 1297 Units = [Angstroms / fs]
C  0.00155832 0.00090660 -0.00012612
C  0.00471883 -0.00107049 0.00056492
C  0.00090202 -0.00118342 -0.00225059
C  0.00246604 0.00458301 -0.00385332
C  0.00031642 0.00008622 -0.00227380
C  0.00312105 -0.00132084 0.00024956
H  0.00466331 -0.00049300 -0.00570488
H  -0.00864912 -0.00497662 -0.02961758
H  -0.00030280 -0.00682399 -0.00433094
H  0.02298609 0.02231998 0.02127211
H  -0.01641627 0.02570647 -0.01114710
H  0.01567605 0.01060863 -0.02102673
12
MD Step 1298 Units = [Angstroms / fs]
C  0.00152889 0.00119382 -0.00010234
C  0.00475555 -0.00059994 0.00030056
C  0.00067527 -0.00174646 -0.00169647
C  0.00331781 0.00419193 -0.00445288
C  0.00059997 0.00026058 -0.00189997
C  0.00312353 -0.00129175 -0.00001827
H  0.00830526 0.00107146 -0.00448532
H  -0.00690137 -0.00712238 -0.02978026
H  -0.00595008 -0.00551099 -0.00443429
H  0.01570943 0.02224117 0.02183514
H  -0.01740744 0.02576981 -0.01068265
H  0.01325844 0.00980763 -0.02086277
12
MD Step 1299 Units = [Angstroms / fs]
C  0.00153951 0.00147660 -0.00007342
C  0.00474111 -0.00012819 0.00001323
C  0.00042488 -0.00226153 -0.00114346
C  0.00419224 0.00385973 -0.00502158
C  0.00084908 0.00061679 -0.00154764
C  0.00317513 -0.00122539 -0.00030115
H  0.01174454 0.00244147 -0.00325588
H  -0.00500267 -0.00926806 -0.02980656
H  -0.01110358 -0.00412902 -0.00454345
H  0.00748559 0.02082213 0.02216905
H  -0.01705777 0.02358105 -0.00991777
H  0.00997423 0.00887903 -0.02061695
12
MD Step 1300 Units = [Angstroms / fs]
C  0.00160027 0.00176521 -0.00003859
C  0.00468566 0.00031617 -0.00029440
C  0.00013331 -0.00272267 -0.00059488
C  0.00504911 0.00356828 -0.00555444
C  0.00107338 0.00112411 -0.00121597
C  0.00325376 -0.00111916 -0.00059764
H  0.01483750 0.00344309 -0.00203398
H  -0.00312536 -0.01114299 -0.02970080
H  -0.01537806 -0.00271472 -0.00466574
H  -0.00131582 0.01838607 0.02224520
H  -0.01551588 0.01944222 -0.00887737
H  0.00612893 0.00783563 -0.02029466
12
MD Step 1301 Units = [Angstroms / fs]
C  0.00171846 0.00206847 0.00000272
C  0.00459904 0.00070657 -0.00062038
C  -0.00021431 -0.00312463 -0.00005400
C  0.00584878 0.00329750 -0.00604766
C  0.00128598 0.00174267 -0.00090297
C  0.00333322 -0.00097079 -0.00090705
H  0.01746165 0.00392938 -0.00083573
H  -0.00142467 -0.01249924 -0.02945710
H  -0.01843168 -0.00130383 -0.00480889
H  -0.01031086 0.01528145 0.02205095
H  -0.01299649 0.01376662 -0.00760385
H  0.00209017 0.00668670 -0.01989141
12
MD Step 1302 Units = [Angstroms / fs]
C  0.00189782 0.00239272 0.00005069
C  0.00448960 0.00102105 -0.00096327
C  -0.00062802 -0.00346284 0.00047597
C  0.00655379 0.00302605 -0.00649869
C  0.00150102 0.00242795 -0.00060602
C  0.00338653 -0.00077863 -0.00122927
H  0.01952513 0.00379417 0.00032534
H  -0.00002189 -0.01314174 -0.02906190
H  -0.01999406 0.00007106 -0.00498032
H  -0.01911564 0.01187080 0.02159022
H  -0.00975116 0.00702612 -0.00615085
H  -0.00175624 0.00543905 -0.01939364
12
MD Step 1303 Units = [Angstroms / fs]
C  0.00213789 0.00274073 0.00010512
C  0.00436336 0.00124397 -0.00132193
C  -0.00111044 -0.00373344 0.00099183
C  0.00712991 0.00273166 -0.00690625
C  0.00173222 0.00313362 -0.00032232
C  0.00338955 -0.00054206 -0.00156456
H  0.02097516 0.00298553 0.00143960
H  0.00100590 -0.01294900 -0.02849821
H  -0.01989962 0.00138273 -0.00518582
H  -0.02735562 0.00852476 0.02088344
H  -0.00604995 -0.00028250 -0.00457888
H  -0.00505354 0.00409918 -0.01878189
12
MD Step 1304 Units = [Angstroms / fs]
C  0.00243358 0.00311081 0.00016535
C  0.00422384 0.00136693 -0.00169511
C  -0.00165418 -0.00393325 0.00149033
C  0.00754722 0.00239159 -0.00727037
C  0.00199222 0.00381322 -0.00004901
C  0.00332412 -0.00026191 -0.00191315
H  0.02180432 0.00151703 0.00250215
H  0.00162911 -0.01188223 -0.02775049
H  -0.01812159 0.00261119 -0.00542764
H  -0.03467531 0.00561547 0.01996743
H  -0.00217215 -0.00765513 -0.00295274
H  -0.00751501 0.00267593 -0.01803546
12
MD Step 1305 Units = [Angstroms / fs]
C  0.00277520 0.00349627 0.00023024
C  0.00407228 0.00138867 -0.00208124
C  -0.00223975 -0.00405985 0.00196803
C  0.00778150 0.00198357 -0.00759231
C  0.00229252 0.00442099 0.00021666
C  0.00317993 0.00005919 -0.00227483
H  0.02205262 -0.00052602 0.00351311
H  0.00186270 -0.00998334 -0.02680876
H  -0.01479784 0.00374440 -0.00570207
H  -0.04075293 0.00350327 0.01889410
H  0.00159757 -0.01458866 -0.00134006
H  -0.00895156 0.00118274 -0.01713730
12
MD Step 1306 Units = [Angstroms / fs]
C  0.00314886 0.00388542 0.00029830
C  0.00390812 0.00131437 -0.00247818
C  -0.00283522 -0.00411153 0.00242121
C  0.00781609 0.00148781 -0.00787444
C  0.00264354 0.00491264 0.00047734
C  0.00295525 0.00041661 -0.00264859
H  0.02180402 -0.00298835 0.00447706
H  0.00175924 -0.00736509 -0.02567158
H  -0.01023727 0.00477731 -0.00599710
H  -0.04532305 0.00251156 0.01772704
H  0.00497201 -0.02058805 0.00018989
H  -0.00928286 -0.00036108 -0.01607807
12
MD Step 1307 Units = [Angstroms / fs]
C  0.00353758 0.00426246 0.00036776
C  0.00372963 0.00115463 -0.00288323
C  -0.00339810 -0.00408719 0.00284580
C  0.00764413 0.00089027 -0.00811968
C  0.00305451 0.00524668 0.00073549
C  0.00265638 0.00080377 -0.00303249
H  0.02117668 -0.00565633 0.00540168
H  0.00140013 -0.00419664 -0.02434751
H  -0.00489770 0.00570929 -0.00629107
H  -0.04820639 0.00288718 0.01653447
H  0.00766825 -0.02517968 0.00156840
H  -0.00853360 -0.00193036 -0.01485852
12
MD Step 1308 Units = [Angstroms / fs]
C  0.00392269 0.00460904 0.00043676
C  0.00353446 0.00092425 -0.00329306
C  -0.00387969 -0.00398630 0.00323749
C  0.00727084 0.00018696 -0.00833072
C  0.00353272 0.00538675 0.00099313
C  0.00229632 0.00121239 -0.00342360
H  0.02030793 -0.00827941 0.00629571
H  0.00088653 -0.00068770 -0.02285525
H  0.00066675 0.00654048 -0.00655291
H  -0.04934177 0.00474890 0.01537778
H  0.00942291 -0.02793824 0.00273146
H  -0.00681935 -0.00349508 -0.01349016
12
MD Step 1309 Units = [Angstroms / fs]
C  0.00428556 0.00490645 0.00050356
C  0.00332011 0.00064110 -0.00370384
C  -0.00423125 -0.00380892 0.00359189
C  0.00671474 -0.00061164 -0.00850889
C  0.00408180 0.00530541 0.00125146
C  0.00189311 0.00163299 -0.00381809
H  0.01933634 -0.01059856 0.00716672
H  0.00033113 0.00292698 -0.02122279
H  0.00588033 0.00726842 -0.00674481
H  -0.04880931 0.00803520 0.01429670
H  0.01001949 -0.02853119 0.00362673
H  -0.00432714 -0.00502201 -0.01199455
12
MD Step 1310 Units = [Angstroms / fs]
C  0.00460931 0.00513793 0.00056667
C  0.00308430 0.00032506 -0.00411134
C  -0.00441051 -0.00355601 0.00390496
C  0.00600716 -0.00147762 -0.00865304
C  0.00469897 0.00498908 0.00151021
C  0.00146811 0.00205551 -0.00421144
H  0.01838430 -0.01237678 0.00801919
H  -0.00014946 0.00640234 -0.01948579
H  0.01022538 0.00788623 -0.00682670
H  -0.04683228 0.01247035 0.01329460
H  0.00932788 -0.02677909 0.00422314
H  -0.00129496 -0.00647669 -0.01040162
12
MD Step 1311 Units = [Angstroms / fs]
C  0.00488007 0.00529070 0.00062492
C  0.00282539 -0.00000299 -0.00451111
C  -0.00438704 -0.00322986 0.00417339
C  0.00518913 -0.00236595 -0.00875889
C  0.00537168 0.00444334 0.00176688
C  0.00104454 0.00246996 -0.00459860
H  0.01754434 -0.01342619 0.00885337
H  -0.00044168 0.00949743 -0.01768534
H  0.01330797 0.00838293 -0.00676166
H  -0.04374904 0.01757022 0.01232994
H  0.00734971 -0.02272023 0.00452140
H  0.00200740 -0.00782535 -0.00874755
12
MD Step 1312 Units = [Angstroms / fs]
C  0.00508794 0.00535739 0.00067750
C  0.00254274 -0.00032225 -0.00489866
C  -0.00414521 -0.00283471 0.00439492
C  0.00430627 -0.00321923 -0.00881931
C  0.00607464 0.00369655 0.00201621
C  0.00064617 0.00286706 -0.00497431
H  0.01687115 -0.01362714 0.00966508
H  -0.00044226 0.01199024 -0.01586508
H  0.01489601 0.00874567 -0.00652093
H  -0.03995727 0.02269974 0.01131916
H  0.00425562 -0.01665753 0.00456179
H  0.00529559 -0.00903668 -0.00707237
12
MD Step 1313 Units = [Angstroms / fs]
C  0.00522719 0.00533660 0.00072390
C  0.00223720 -0.00061315 -0.00526971
C  -0.00368479 -0.00237714 0.00456856
C  0.00340281 -0.00397608 -0.00882559
C  0.00676901 0.00279990 0.00225017
C  0.00029612 0.00323876 -0.00533327
H  0.01637982 -0.01293701 0.01044647
H  -0.00006612 0.01369392 -0.01406776
H  0.01492659 0.00896271 -0.00608720
H  -0.03584567 0.02717445 0.01015257
H  0.00039521 -0.00916069 0.00442479
H  0.00828680 -0.01008348 -0.00541745
12
MD Step 1314 Units = [Angstroms / fs]
C  0.00529614 0.00523281 0.00076375
C  0.00191169 -0.00085872 -0.00562045
C  -0.00301938 -0.00186635 0.00469457
C  0.00251666 -0.00458113 -0.00876946
C  0.00740491 0.00182211 0.00245873
C  0.00001565 0.00357850 -0.00567042
H  0.01604915 -0.01138938 0.01118739
H  0.00074497 0.01447391 -0.01233113
H  0.01348873 0.00902629 -0.00545601
H  -0.03173421 0.03037793 0.00871896
H  -0.00373572 -0.00100557 0.00422148
H  0.01071604 -0.01094398 -0.00382283
12
MD Step 1315 Units = [Angstroms / fs]
C  0.00529669 0.00505557 0.00079675
C  0.00157175 -0.00104605 -0.00594788
C  -0.00217385 -0.00131396 0.00477433
C  0.00167671 -0.00499338 -0.00864502
C  0.00792748 0.00083944 0.00263140
C  -0.00017718 0.00388130 -0.00598115
H  0.01582837 -0.00908549 0.01187699
H  0.00201342 0.01426502 -0.01068373
H  0.01079226 0.00893449 -0.00463529
H  -0.02783969 0.03185954 0.00693036
H  -0.00757088 0.00694408 0.00407426
H  0.01235396 -0.01160296 -0.00232431
12
MD Step 1316 Units = [Angstroms / fs]
C  0.00523364 0.00481852 0.00082252
C  0.00122610 -0.00116757 -0.00625006
C  -0.00118143 -0.00073351 0.00481012
C  0.00090278 -0.00519097 -0.00845008
C  0.00828499 -0.00007630 0.00275905
C  -0.00026912 0.00414363 -0.00626156
H  0.01564527 -0.00618123 0.01250530
H  0.00371791 0.01308523 -0.00914103
H  0.00713347 0.00869205 -0.00364377
H  -0.02427085 0.03138680 0.00473914
H  -0.01057288 0.01388076 0.00409375
H  0.01302642 -0.01205226 -0.00095052
12
MD Step 1317 Units = [Angstroms / fs]
C  0.00511402 0.00453818 0.00084051
C  0.00088684 -0.00122199 -0.00652631
C  -0.00008117 -0.00013969 0.00480488
C  0.00020721 -0.00517162 -0.00818647
C  0.00843652 -0.00086822 0.00283549
C  -0.00025339 0.00436304 -0.00650867
H  0.01541441 -0.00287212 0.01306457
H  0.00578859 0.01104278 -0.00770285
H  0.00286425 0.00831024 -0.00250890
H  -0.02104567 0.02894753 0.00214349
H  -0.01232465 0.01917817 0.00435920
H  0.01263505 -0.01229059 0.00027998
12
MD Step 1318 Units = [Angstroms / fs]
C  0.00494645 0.00423279 0.00084995
C  0.00056928 -0.00121443 -0.00677719
C  0.00108420 0.00045251 0.00476197
C  -0.00040292 -0.00495003 -0.00785961
C  0.00835674 -0.00150015 0.00285816
C  -0.00013124 0.00453781 -0.00672065
H  0.01504476 0.00062181 0.01355022
H  0.00810763 0.00833228 -0.00635320
H  -0.00163242 0.00780614 -0.00126479
H  -0.01811859 0.02471505 -0.00081694
H  -0.01258539 0.02246228 0.00490849
H  0.01117556 -0.01232230 0.00136073
12
MD Step 1319 Units = [Angstroms / fs]
C  0.00474049 0.00392123 0.00084984
C  0.00029116 -0.00115550 -0.00700429
C  0.00226990 0.00102869 0.00468504
C  -0.00092381 -0.00455378 -0.00747761
C  0.00803729 -0.00195731 0.00282809
C  0.00008709 0.00466652 -0.00689681
H  0.01444645 0.00407088 0.01396141
H  0.01051683 0.00521804 -0.00506285
H  -0.00596146 0.00720155 0.00004974
H  -0.01540686 0.01899732 -0.00407115
H  -0.01130120 0.02361929 0.00573884
H  0.00874932 -0.01215529 0.00229818
12
MD Step 1320 Units = [Angstroms / fs]
C  0.00450611 0.00362190 0.00083895
C  0.00007124 -0.00105955 -0.00720980
C  0.00343066 0.00157570 0.00457780
C  -0.00135377 -0.00401915 -0.00705028
C  0.00748505 -0.00224285 0.00274912
C  0.00038231 0.00474767 -0.00703759
H  0.01353713 0.00725018 0.01430121
H  0.01283238 0.00200522 -0.00379471
H  -0.00973215 0.00652184 0.00139319
H  -0.01281041 0.01218749 -0.00752811
H  -0.00857907 0.02275568 0.00681529
H  0.00556307 -0.01179832 0.00311038
12
MD Step 1321 Units = [Angstroms / fs]
C  0.00425317 0.00335161 0.00081584
C  -0.00007250 -0.00094218 -0.00739593
C  0.00452242 0.00208219 0.00444395
C  -0.00169276 -0.00338781 -0.00658835
C  0.00671902 -0.00237274 0.00262694
C  0.00072743 0.00477937 -0.00714430
H  0.01224797 0.00995431 0.01457636
H  0.01486501 -0.00099661 -0.00251098
H  -0.01257578 0.00579450 0.00272350
H  -0.01022406 0.00472560 -0.01108641
H  -0.00464277 0.02013676 0.00808214
H  0.00191307 -0.01125857 0.00382371
12
MD Step 1322 Units = [Angstroms / fs]
C  0.00399089 0.00312444 0.00077900
C  -0.00012481 -0.00081769 -0.00756434
C  0.00550441 0.00253893 0.00428695
C  -0.00194244 -0.00270435 -0.00610285
C  0.00576706 -0.00237077 0.00246828
C  0.00109029 0.00475926 -0.00721871
H  0.01052991 0.01201260 0.01479653
H  0.01644193 -0.00351057 -0.00118032
H  -0.01416798 0.00504746 0.00400100
H  -0.00754359 -0.00292702 -0.01464152
H  0.00021183 0.01612659 0.00947355
H  -0.00184655 -0.01054012 0.00446785
12
MD Step 1323 Units = [Angstroms / fs]
C  0.00372737 0.00295046 0.00072691
C  -0.00007490 -0.00069696 -0.00771573
C  0.00634193 0.00293900 0.00410978
C  -0.00210649 -0.00201466 -0.00560475
C  0.00466330 -0.00226468 0.00228021
C  0.00143713 0.00468463 -0.00726266
H  0.00835985 0.01330457 0.01497307
H  0.01742631 -0.00532302 0.00021650
H  -0.01425785 0.00430711 0.00519206
H  -0.00466820 -0.01030389 -0.01809100
H  0.00565192 0.01114230 0.01092140
H  -0.00534666 -0.00964428 0.00507023
12
MD Step 1324 Units = [Angstroms / fs]
C  0.00346912 0.00283461 0.00065818
C  0.00008232 -0.00058616 -0.00784954
C  0.00700957 0.00327778 0.00391465
C  -0.00219085 -0.00136447 -0.00510457
C  0.00344637 -0.00208382 0.00206982
C  0.00173638 0.00455270 -0.00727765
H  0.00574646 0.01377423 0.01511720
H  0.01773106 -0.00630271 0.00168361
H  -0.01270285 0.00359602 0.00627336
H  -0.00150194 -0.01694621 -0.02133896
H  0.01133042 0.00562567 0.01236016
H  -0.00824922 -0.00857148 0.00565116
12
MD Step 1325 Units = [Angstroms / fs]
C  0.00322069 0.00277577 0.00057176
C  0.00034569 -0.00048643 -0.00796403
C  0.00749459 0.00355288 0.00370274
C  -0.00220385 -0.00079769 -0.00461209
C  0.00215837 -0.00185804 0.00184397
C  0.00196201 0.00436104 -0.00726466
H  0.00273463 0.01344069 0.01523785
H  0.01732504 -0.00640672 0.00320998
H  -0.00950441 0.00293071 0.00723620
H  0.00204370 -0.02241909 -0.02430087
H  0.01689863 0.00002858 0.01372953
H  -0.01028724 -0.00732437 0.00622092
12
MD Step 1326 Units = [Angstroms / fs]
C  0.00298451 0.00276640 0.00046708
C  0.00070794 -0.00039429 -0.00805643
C  0.00779947 0.00376395 0.00347399
C  -0.00215575 -0.00035396 -0.00413582
C  0.00084398 -0.00161723 0.00160922
C  0.00209576 0.00410812 -0.00722402
H  -0.00059278 0.01240220 0.01533921
H  0.01623221 -0.00567523 0.00477171
H  -0.00483457 0.00232008 0.00808933
H  0.00604377 -0.02633712 -0.02690980
H  0.02201350 -0.00519379 0.01497609
H  -0.01129146 -0.00591097 0.00677914
12
MD Step 1327 Units = [Angstroms / fs]
C  0.00276090 0.00279294 0.00034417
C  0.00115624 -0.00030260 -0.00812325
C  0.00794281 0.00391236 0.00322714
C  -0.00205790 -0.00006521 -0.00368241
C  -0.00045052 -0.00139101 0.00137167
C  0.00212812 0.00379376 -0.00715562
H  -0.00411707 0.01083040 0.01541881
H  0.01452541 -0.00421874 0.00633578
H  0.00095809 0.00176509 0.00885894
H  0.01054857 -0.02840288 -0.02912383
H  0.02634476 -0.00958948 0.01605476
H  -0.01120092 -0.00434705 0.00731628
12
MD Step 1328 Units = [Angstroms / fs]
C  0.00254848 0.00283710 0.00020377
C  0.00167320 -0.00020167 -0.00816063
C  0.00795760 0.00400084 0.00296012
C  -0.00192111 0.00004879 -0.00325604
C  -0.00167877 -0.00120794 0.00113675
C  0.00205807 0.00341943 -0.00705908
H  -0.00769067 0.00895383 0.01546634
H  0.01231705 -0.00220173 0.00786421
H  0.00737321 0.00126012 0.00958464
H  0.01556651 -0.02845695 -0.03093328
H  0.02958707 -0.01272340 0.01693097
H  -0.01005884 -0.00265715 0.00781643
12
MD Step 1329 Units = [Angstroms / fs]
C  0.00234481 0.00287796 0.00004727
C  0.00223799 -0.00008038 -0.00816466
C  0.00788673 0.00403302 0.00267065
C  -0.00175363 -0.00001506 -0.00285802
C  -0.00279676 -0.00109372 0.00090892
C  0.00189202 0.00298859 -0.00693401
H  -0.01114856 0.00703173 0.01546395
H  0.00974870 0.00017403 0.00931799
H  0.01381551 0.00079590 0.01031177
H  0.02104234 -0.02652990 -0.03236489
H  0.03148081 -0.01420471 0.01758359
H  -0.00799811 -0.00087419 0.00826068
12
MD Step 1330 Units = [Angstroms / fs]
C  0.00214726 0.00289452 -0.00012343
C  0.00282747 0.00007292 -0.00813169
C  0.00777652 0.00401299 0.00235704
C  -0.00155900 -0.00023989 -0.00248685
C  -0.00376605 -0.00106797 0.00069131
C  0.00164236 0.00250673 -0.00678024
H  -0.01432302 0.00532224 0.01538796
H  0.00698069 0.00268511 0.01066049
H  0.01967463 0.00036315 0.01108168
H  0.02683606 -0.02287876 -0.03347922
H  0.03184285 -0.01373228 0.01800814
H  -0.00522166 0.00096197 0.00863013
12
MD Step 1331 Units = [Angstroms / fs]
C  0.00195390 0.00286829 -0.00030617
C  0.00341743 0.00026954 -0.00805857
C  0.00766982 0.00394501 0.00201890
C  -0.00133452 -0.00058866 -0.00213914
C  -0.00455773 -0.00113958 0.00048537
C  0.00132589 0.00198138 -0.00659798
H  -0.01705931 0.00405073 0.01521202
H  0.00418210 0.00510055 0.01186014
H  0.02440918 -0.00004422 0.01192277
H  0.03271099 -0.01798676 -0.03435892
H  0.03060368 -0.01115639 0.01821914
H  -0.00198159 0.00280667 0.00890840
12
MD Step 1332 Units = [Angstroms / fs]
C  0.00176426 0.00278536 -0.00049880
C  0.00398373 0.00051973 -0.00794288
C  0.00760024 0.00383322 0.00165750
C  -0.00107130 -0.00100833 -0.00181104
C  -0.00515597 -0.00130176 0.00029084
C  0.00096244 0.00142201 -0.00638792
H  -0.01922977 0.00338405 0.01491080
H  0.00152085 0.00719539 0.01289257
H  0.02761459 -0.00042731 0.01284498
H  0.03834108 -0.01251169 -0.03508900
H  0.02784147 -0.00654476 0.01824937
H  0.00144056 0.00461281 0.00908332
12
MD Step 1333 Units = [Angstroms / fs]
C  0.00157976 0.00263772 -0.00069945
C  0.00450356 0.00083185 -0.00778309
C  0.00758894 0.00368162 0.00127585
C  -0.00075628 -0.00143804 -0.00149996
C  -0.00556013 -0.00152838 0.00010601
C  0.00057359 0.00083976 -0.00615127
H  -0.02074407 0.00341474 0.01446368
H  -0.00084661 0.00876447 0.01374204
H  0.02906115 -0.00078226 0.01383875
H  0.04334268 -0.00718640 -0.03573465
H  0.02379822 -0.00023010 0.01814464
H  0.00475184 0.00633333 0.00914802
12
MD Step 1334 Units = [Angstroms / fs]
C  0.00140386 0.00242373 -0.00090672
C  0.00495674 0.00121148 -0.00757870
C  0.00764384 0.00349404 0.00087832
C  -0.00037590 -0.00181931 -0.00120589
C  -0.00578415 -0.00177401 -0.00007154
C  0.00018148 0.00024705 -0.00588970
H  -0.02155476 0.00415625 0.01385772
H  -0.00278647 0.00963758 0.01440233
H  0.02869926 -0.00110154 0.01487813
H  0.04732716 -0.00269627 -0.03632473
H  0.01886398 0.00718870 0.01795373
H  0.00766512 0.00792362 0.00910134
12
MD Step 1335 Units = [Angstroms / fs]
C  0.00124177 0.00214780 -0.00111981
C  0.00532692 0.00166025 -0.00733031
C  0.00776107 0.00327419 0.00047020
C  0.00007950 -0.00210529 -0.00093171
C  -0.00585274 -0.00197919 -0.00024393
C  -0.00019239 -0.00034296 -0.00560536
H  -0.02165788 0.00554790 0.01308941
H  -0.00419936 0.00969561 0.01487674
H  0.02663912 -0.00137606 0.01592630
H  0.04996062 0.00042988 -0.03684676
H  0.01352431 0.01491041 0.01771620
H  0.00991671 0.00934396 0.00894785
12
MD Step 1336 Units = [Angstroms / fs]
C  0.00110003 0.00181953 -0.00133853
C  0.00560283 0.00217475 -0.00703951
C  0.00792743 0.00302565 0.00005715
C  0.00061220 -0.00226634 -0.00068262
C  -0.00579529 -0.00208040 -0.00041214
C  -0.00052852 -0.00091683 -0.00530073
H  -0.02108982 0.00746646 0.01216528
H  -0.00503171 0.00888676 0.01517702
H  0.02311669 -0.00159702 0.01694168
H  0.05101315 0.00188502 -0.03725447
H  0.00828171 0.02205464 0.01745229
H  0.01128558 0.01056169 0.00869724
12
MD Step 1337 Units = [Angstroms / fs]
C  0.00098594 0.00145268 -0.00156325
C  0.00577912 0.00274551 -0.00670881
C  0.00812305 0.00275190 -0.00035522
C  0.00121553 -0.00229130 -0.00046493
C  -0.00563954 -0.00202213 -0.00057566
C  -0.00081097 -0.00146146 -0.00497852
H  -0.01992156 0.00974123 0.01110141
H  -0.00528453 0.00723974 0.01532113
H  0.01845680 -0.00175738 0.01788335
H  0.05038467 0.00159503 -0.03748323
H  0.00357438 0.02781080 0.01715926
H  0.01161403 0.01155313 0.00836322
12
MD Step 1338 Units = [Angstroms / fs]
C  0.00090692 0.00106401 -0.00179480
C  0.00585675 0.00335652 -0.00634131
C  0.00832383 0.00245626 -0.00076172
C  0.00187430 -0.00218502 -0.00028475
C  -0.00540687 -0.00176711 -0.00073267
C  -0.00102891 -0.00196447 -0.00464154
H  -0.01825169 0.01216990 0.00992231
H  -0.00501713 0.00487021 0.01532982
H  0.01304070 -0.00185265 0.01871514
H  0.04810494 -0.00031384 -0.03746690
H  -0.00028282 0.03156639 0.01681510
H  0.01082836 0.01230471 0.00796181
12
MD Step 1339 Units = [Angstroms / fs]
C  0.00087003 0.00067212 -0.00203434
C  0.00584269 0.00398553 -0.00594037
C  0.00850321 0.00214188 -0.00115773
C  0.00256671 -0.00196419 -0.00014700
C  -0.00511054 -0.00130175 -0.00088066
C  -0.00117801 -0.00241451 -0.00429248
H  -0.01619884 0.01453380 0.00865916
H  -0.00434311 0.00197666 0.01522270
H  0.00728051 -0.00188118 0.01940842
H  0.04431414 -0.00356941 -0.03715123
H  -0.00312170 0.03297840 0.01638741
H  0.00895590 0.01281307 0.00750915
12
MD Step 1340 Units = [Angstroms / fs]
C  0.00088138 0.00029646 -0.00228320
C  0.00574877 0.00460540 -0.00550934
C  0.00863369 0.00181175 -0.00153936
C  0.00326687 -0.00165295 -0.00005489
C  -0.00475643 -0.00063617 -0.00101716
C  -0.00126132 -0.00280138 -0.00393378
H  -0.01389392 0.01661224 0.00734776
H  -0.00341774 -0.00117646 0.01501453
H  0.00159955 -0.00184406 0.01994394
H  0.03923490 -0.00780959 -0.03650175
H  -0.00491052 0.03197932 0.01584343
H  0.00613365 0.01308372 0.00701915
12
MD Step 1341 Units = [Angstroms / fs]
C  0.00094577 -0.00004381 -0.00254276
C  0.00559000 0.00518639 -0.00505128
C  0.00868801 0.00146872 -0.00190351
C  0.00394704 -0.00127938 -0.00000971
C  -0.00434539 0.00019998 -0.00114028
C  -0.00128902 -0.00311602 -0.00356741
H  -0.01147210 0.01819599 0.00602619
H  -0.00241790 -0.00428754 0.01471282
H  -0.00358462 -0.00174492 0.02031287
H  0.03314502 -0.01262710 -0.03550689
H  -0.00572347 0.02873383 0.01515771
H  0.00260353 0.01312842 0.00650135
12
MD Step 1342 Units = [Angstroms / fs]
C  0.00106613 -0.00033087 -0.00281422
C  0.00538244 0.00569909 -0.00456890
C  0.00864066 0.00111559 -0.00224792
C  0.00457937 -0.00087321 -0.00001093
C  -0.00387579 0.00116333 -0.00124896
C  -0.00127719 -0.00335057 -0.00319483
H  -0.00906417 0.01910074 0.00473203
H  -0.00151805 -0.00705395 0.01431737
H  -0.00787849 -0.00158954 0.02051735
H  0.02635625 -0.01759927 -0.03417803
H  -0.00570475 0.02357370 0.01431627
H  -0.00130859 0.01296184 0.00595978
12
MD Step 1343 Units = [Angstroms / fs]
C  0.00124303 -0.00054942 -0.00309842
C  0.00514121 0.00611738 -0.00406464
C  0.00846969 0.00075525 -0.00257118
C  0.00513689 -0.00046454 -0.00005628
C  -0.00334555 0.00220261 -0.00134304
C  -0.00124523 -0.00349833 -0.00281701
H  -0.00678697 0.01918066 0.00349923
H  -0.00086724 -0.00920876 0.01382189
H  -0.01093586 -0.00138553 0.02057020
H  0.01920013 -0.02230503 -0.03254833
H  -0.00503798 0.01693462 0.01331765
H  -0.00522872 0.01259826 0.00539295
12
MD Step 1344 Units = [Angstroms / fs]
C  0.00147411 -0.00068787 -0.00339555
C  0.00487900 0.00642094 -0.00354089
C  0.00815919 0.00039076 -0.00287265
C  0.00559415 -0.00008314 -0.00014185
C  -0.00275328 0.00326305 -0.00142314
C  -0.00121276 -0.00355404 -0.00243450
H  -0.00473324 0.01834192 0.00235474
H  -0.00057169 -0.01055086 0.01321721
H  -0.01248775 -0.00114181 0.02049340
H  0.01201903 -0.02633413 -0.03067112
H  -0.00392527 0.00930802 0.01217220
H  -0.00877998 0.01204948 0.00479536
12
MD Step 1345 Units = [Angstroms / fs]
C  0.00175351 -0.00073942 -0.00370497
C  0.00460515 0.00659674 -0.00300018
C  0.00770215 0.00002557 -0.00315226
C  0.00592768 0.00024207 -0.00026224
C  -0.00209856 0.00428948 -0.00149059
C  -0.00119635 -0.00351422 -0.00204774
H  -0.00296160 0.01655473 0.00131505
H  -0.00068555 -0.01096354 0.01249497
H  -0.01237801 -0.00086808 0.02031484
H  0.00515859 -0.02929491 -0.02861812
H  -0.00257564 0.00121070 0.01090062
H  -0.01162821 0.01132426 0.00415986
12
MD Step 1346 Units = [Angstroms / fs]
C  0.00207142 -0.00070295 -0.00402497
C  0.00432557 0.00663957 -0.00244544
C  0.00710339 -0.00033635 -0.00341016
C  0.00611672 0.00048385 -0.00041068
C  -0.00138172 0.00522807 -0.00154728
C  -0.00120703 -0.00337771 -0.00165717
H  -0.00148830 0.01386207 0.00038325
H  -0.00121006 -0.01042029 0.01165093
H  -0.01059866 -0.00057431 0.02006283
H  -0.00104302 -0.03082625 -0.02647657
H  -0.00120013 -0.00683191 0.00953268
H  -0.01351918 0.01042951 0.00348035
12
MD Step 1347 Units = [Angstroms / fs]
C  0.00241399 -0.00058336 -0.00435264
C  0.00404307 0.00655167 -0.00188006
C  0.00638153 -0.00069033 -0.00364624
C  0.00614451 0.00061828 -0.00057937
C  -0.00060333 0.00602762 -0.00159561
C  -0.00124883 -0.00314616 -0.00126356
H  -0.00028290 0.01038241 -0.00045273
H  -0.00209944 -0.00897933 0.01068723
H  -0.00731512 -0.00027023 0.01975902
H  -0.00627326 -0.03061877 -0.02434400
H  -0.00001002 -0.01429575 0.00810600
H  -0.01430118 0.00937244 0.00275410
12
MD Step 1348 Units = [Angstroms / fs]
C  0.00276368 -0.00039131 -0.00468390
C  0.00375805 0.00634166 -0.00130793
C  0.00556929 -0.00103080 -0.00385962
C  0.00600045 0.00062735 -0.00076016
C  0.00023619 0.00664076 -0.00163840
C  -0.00131861 -0.00282440 -0.00086802
H  0.00073004 0.00630410 -0.00121994
H  -0.00327058 -0.00677083 0.00961333
H  -0.00286930 0.00003497 0.01941092
H  -0.01027387 -0.02844814 -0.02231898
H  0.00078560 -0.02066956 0.00666470
H  -0.01393145 0.00816297 0.00198313
12
MD Step 1349 Units = [Angstroms / fs]
C  0.00310025 -0.00014221 -0.00501373
C  0.00346923 0.00602329 -0.00073340
C  0.00471106 -0.00135121 -0.00404829
C  0.00568293 0.00050248 -0.00094563
C  0.00113651 0.00702590 -0.00167877
C  -0.00140687 -0.00242054 -0.00047213
H  0.00166205 0.00187059 -0.00195797
H  -0.00461402 -0.00398061 0.00844590
H  0.00224840 0.00033274 0.01900642
H  -0.01287903 -0.02421920 -0.02048691
H  0.00098666 -0.02547586 0.00525710
H  -0.01246898 0.00681554 0.00117452
12
MD Step 1350 Units = [Angstroms / fs]
C  0.00340227 0.00014545 -0.00533650
C  0.00317431 0.00561412 -0.00016109
C  0.00385802 -0.00164404 -0.00420907
C  0.00520232 0.00024846 -0.00113048
C  0.00209660 0.00715017 -0.00171987
C  -0.00149916 -0.00194574 -0.00007791
H  0.00264517 -0.00264251 -0.00271423
H  -0.00600444 -0.00083325 0.00720788
H  0.00745881 0.00061497 0.01851277
H  -0.01405618 -0.01801315 -0.01890179
H  0.00041678 -0.02830743 0.00393178
H  -0.01005837 0.00535011 0.00034001
12
MD Step 1351 Units = [Angstroms / fs]
C  0.00364908 0.00045216 -0.00564649
C  0.00287046 0.00513427 0.00040414
C  0.00306139 -0.00190096 -0.00433802
C  0.00458301 -0.00011355 -0.00131308
C  0.00311302 0.00699377 -0.00176443
C  -0.00157774 -0.00141363 0.00031231
H  0.00381209 -0.00695536 -0.00353772
H  -0.00730999 0.00242385 0.00592701
H  0.01217448 0.00087394 0.01788105
H  -0.01393631 -0.01012305 -0.01756798
H  -0.00105213 -0.02888148 0.00273123
H  -0.00690983 0.00379221 -0.00050516
12
MD Step 1352 Units = [Angstroms / fs]
C  0.00382268 0.00075946 -0.00593842
C  0.00255482 0.00460532 0.00095743
C  0.00236576 -0.00211327 -0.00443114
C  0.00386327 -0.00054539 -0.00149636
C  0.00417723 0.00655500 -0.00181413
C  -0.00162304 -0.00083955 0.00069593
H  0.00527586 -0.01081202 -0.00447245
H  -0.00840029 0.00553536 0.00463413
H  0.01588194 0.00110229 0.01705546
H  -0.01281708 -0.00105847 -0.01642874
H  -0.00346633 -0.02710491 0.00168365
H  -0.00327885 0.00217227 -0.00134347
12
MD Step 1353 Units = [Angstroms / fs]
C  0.00390939 0.00105167 -0.00620787
C  0.00222486 0.00404933 0.00149404
C  0.00180380 -0.00227254 -0.00448522
C  0.00309187 -0.00099494 -0.00168772
C  0.00527254 0.00585472 -0.00186894
C  -0.00161505 -0.00023954 0.00107021
H  0.00711312 -0.01400428 -0.00555175
H  -0.00915394 0.00825267 0.00336116
H  0.01820585 0.00129334 0.01598464
H  -0.01112745 0.00849494 -0.01536857
H  -0.00675476 -0.02313363 0.00079419
H  0.00055251 0.00052441 -0.00215647
12
MD Step 1354 Units = [Angstroms / fs]
C  0.00390100 0.00131706 -0.00645160
C  0.00187883 0.00348769 0.00200948
C  0.00139350 -0.00237143 -0.00449856
C  0.00232196 -0.00140292 -0.00189753
C  0.00637177 0.00493803 -0.00192666
C  -0.00153442 0.00037061 0.00143236
H  0.00935365 -0.01638760 -0.00679454
H  -0.00946600 0.01034938 0.00213900
H  0.01894274 0.00144158 0.01463173
H  -0.00935627 0.01776140 -0.01423256
H  -0.01070418 -0.01739952 0.00003912
H  0.00429268 -0.00111507 -0.00292610
12
MD Step 1355 Units = [Angstroms / fs]
C  0.00379519 0.00154832 -0.00666767
C  0.00151631 0.00293998 0.00249974
C  0.00113813 -0.00240442 -0.00447129
C  0.00160365 -0.00171187 -0.00213655
C  0.00743688 0.00387126 -0.00198290
C  -0.00136352 0.00097617 0.00177969
H  0.01197728 -0.01788822 -0.00820384
H  -0.00925598 0.01163833 0.00099518
H  0.01806290 0.00154331 0.01298083
H  -0.00796363 0.02598771 -0.01285856
H  -0.01496041 -0.01058055 -0.00063363
H  0.00765700 -0.00270933 -0.00363586
12
MD Step 1356 Units = [Angstroms / fs]
C  0.00359538 0.00174246 -0.00685537
C  0.00113882 0.00242260 0.00296144
C  0.00102800 -0.00236846 -0.00440545
C  0.00097769 -0.00187495 -0.00241329
C  0.00842167 0.00273370 -0.00203188
C  -0.00108766 0.00156410 0.00210968
H  0.01491734 -0.01850202 -0.00976758
H  -0.00847634 0.01199002 -0.00004852
H  0.01568852 0.00159710 0.01103905
H  -0.00730270 0.03255130 -0.01111175
H  -0.01906593 -0.00350635 -0.00129569
H  0.01038487 -0.00422284 -0.00427195
12
MD Step 1357 Units = [Angstroms / fs]
C  0.00331010 0.00190026 -0.00701507
C  0.00075041 0.00194737 0.00339199
C  0.00104320 -0.00226332 -0.00430470
C  0.00047182 -0.00186197 -0.00273192
C  0.00927725 0.00160571 -0.00206755
C  -0.00069638 0.00212335 0.00242009
H  0.01806867 -0.01828737 -0.01146078
H  -0.00712061 0.01135055 -0.00097819
H  0.01205978 0.00160410 0.00883502
H  -0.00757423 0.03703440 -0.00891033
H  -0.02252978 0.00298087 -0.00202279
H  0.01225869 -0.00562320 -0.00482428
12
MD Step 1358 Units = [Angstroms / fs]
C  0.00295216 0.00202556 -0.00714800
C  0.00035821 0.00152031 0.00378973
C  0.00115649 -0.00209163 -0.00417398
C  0.00010054 -0.00166157 -0.00309160
C  0.00995887 0.00055680 -0.00208502
C  -0.00018508 0.00264493 0.00270905
H  0.02129800 -0.01735448 -0.01324884
H  -0.00522961 0.00975596 -0.00178914
H  0.00749936 0.00156813 0.00641524
H  -0.00882082 0.03925007 -0.00623575
H  -0.02491093 0.00816794 -0.00287790
H  0.01312464 -0.00688269 -0.00528725
12
MD Step 1359 Units = [Angstroms / fs]
C  0.00253753 0.00212443 -0.00725598
C  -0.00002740 0.00114096 0.00415391
C  0.00133574 -0.00185864 -0.00401909
C  -0.00013289 -0.00127980 -0.00348693
C  0.01043195 -0.00036281 -0.00208147
C  0.00044345 0.00312177 0.00297512
H  0.02445493 -0.01585326 -0.01509101
H  -0.00289386 0.00733838 -0.00248608
H  0.00238180 0.00149563 0.00383973
H  -0.01095195 0.03922493 -0.00312794
H  -0.02588893 0.01157161 -0.00389870
H  0.01291319 -0.00797934 -0.00566009
12
MD Step 1360 Units = [Angstroms / fs]
C  0.00208435 0.00220440 -0.00734118
C  -0.00039310 0.00080257 0.00448459
C  0.00154588 -0.00157179 -0.00384637
C  -0.00023336 -0.00073661 -0.00390913
C  0.01067572 -0.00112530 -0.00205656
C  0.00117768 0.00354840 0.00321727
H  0.02738245 -0.01396100 -0.01694382
H  -0.00024988 0.00432002 -0.00308174
H  -0.00289052 0.00139536 0.00117771
H  -0.01378380 0.03715569 0.00032874
H  -0.02530206 0.01297560 -0.00509298
H  0.01165600 -0.00889715 -0.00594659
12
MD Step 1361 Units = [Angstroms / fs]
C  0.00161183 0.00227375 -0.00740592
C  -0.00072343 0.00049341 0.00478243
C  0.00175056 -0.00124013 -0.00366243
C  -0.00021105 -0.00006161 -0.00434743
C  0.01068384 -0.00172334 -0.00201210
C  0.00199681 0.00392053 0.00343486
H  0.02992652 -0.01187025 -0.01876433
H  0.00253024 0.00099284 -0.00359390
H  -0.00790612 0.00127801 -0.00149636
H  -0.01707875 0.03335843 0.00402226
H  -0.02314884 0.01240881 -0.00644167
H  0.00949360 -0.00962524 -0.00615399
12
MD Step 1362 Units = [Angstroms / fs]
C  0.00113927 0.00234076 -0.00745244
C  -0.00100221 0.00019894 0.00504834
C  0.00191360 -0.00087367 -0.00347390
C  -0.00007945 0.00070955 -0.00479020
C  0.01046294 -0.00216538 -0.00195143
C  0.00287135 0.00423466 0.00362751
H  0.03194494 -0.00977659 -0.02051292
H  0.00525572 -0.00231437 -0.00404159
H  -0.01226152 0.00115564 -0.00410682
H  -0.02057610 0.02822436 0.00782767
H  -0.01956240 0.01008841 -0.00790640
H  0.00666925 -0.01015606 -0.00629121
12
MD Step 1363 Units = [Angstroms / fs]
C  0.00068504 0.00241293 -0.00748273
C  -0.00121416 -0.00009535 0.00528320
C  0.00200079 -0.00048276 -0.00328713
C  0.00014574 0.00153785 -0.00522579
C  0.01003005 -0.00247016 -0.00187877
C  0.00376514 0.00448760 0.00379496
H  0.03331554 -0.00786600 -0.02215600
H  0.00773762 -0.00527621 -0.00444104
H  -0.01558053 0.00104078 -0.00658127
H  -0.02401181 0.02218796 0.01161797
H  -0.01477318 0.00635448 -0.00943817
H  0.00350608 -0.01048334 -0.00636661
12
MD Step 1364 Units = [Angstroms / fs]
C  0.00026580 0.00249611 -0.00749838
C  -0.00134666 -0.00040122 0.00548761
C  0.00198214 -0.00007747 -0.00310782
C  0.00044707 0.00238253 -0.00564300
C  0.00941012 -0.00266212 -0.00179860
C  0.00463846 0.00467622 0.00393690
H  0.03394382 -0.00630119 -0.02366815
H  0.00980942 -0.00760998 -0.00480270
H  -0.01753950 0.00094534 -0.00885606
H  -0.02712935 0.01570739 0.01527116
H  -0.00907334 0.00161494 -0.01098461
H  0.00036932 -0.01060034 -0.00638592
12
MD Step 1365 Units = [Angstroms / fs]
C  -0.00010436 0.00259352 -0.00750040
C  -0.00139111 -0.00072558 0.00566179
C  0.00183481 0.00033297 -0.00294055
C  0.00080552 0.00320202 -0.00603137
C  0.00863403 -0.00276826 -0.00171537
C  0.00545207 0.00479732 0.00405291
H  0.03376958 -0.00520738 -0.02503393
H  0.01134383 -0.00910683 -0.00512975
H  -0.01789978 0.00087909 -0.01088273
H  -0.02968533 0.00925314 0.01867500
H  -0.00278992 -0.00369205 -0.01249502
H  -0.00238014 -0.01049935 -0.00635095
12
MD Step 1366 Units = [Angstroms / fs]
C  -0.00041440 0.00270473 -0.00748917
C  -0.00134381 -0.00106948 0.00580556
C  0.00154639 0.00074054 -0.00278821
C  0.00120071 0.00395466 -0.00638144
C  0.00773722 -0.00281641 -0.00163324
C  0.00617100 0.00484769 0.00414244
H  0.03277200 -0.00465848 -0.02624870
H  0.01226319 -0.00964945 -0.00541838
H  -0.01654548 0.00084807 -0.01263475
H  -0.03145399 0.00329908 0.02173094
H  0.00373208 -0.00911889 -0.01392337
H  -0.00443142 -0.01017264 -0.00625938
12
MD Step 1367 Units = [Angstroms / fs]
C  -0.00065666 0.00282490 -0.00746443
C  -0.00120621 -0.00142805 0.00591849
C  0.00111811 0.00113879 -0.00265164
C  0.00161156 0.00459969 -0.00668503
C  0.00675880 -0.00283440 -0.00155606
C  0.00676760 0.00482447 0.00420490
H  0.03097206 -0.00466584 -0.02731840
H  0.01254276 -0.00921581 -0.00565930
H  -0.01351960 0.00085305 -0.01411303
H  -0.03223393 -0.00169072 0.02435870
H  0.01013920 -0.01421830 -0.01523018
H  -0.00555959 -0.00961457 -0.00610565
12
MD Step 1368 Units = [Angstroms / fs]
C  -0.00082686 0.00294424 -0.00742538
C  -0.00098472 -0.00179135 0.00600003
C  0.00056692 0.00152292 -0.00252933
C  0.00201738 0.00509925 -0.00693573
C  0.00574067 -0.00284968 -0.00148726
C  0.00722340 0.00472550 0.00423979
H  0.02843154 -0.00517227 -0.02825787
H  0.01220791 -0.00787120 -0.00584010
H  -0.00904727 0.00088864 -0.01534779
H  -0.03185968 -0.00528586 0.02650193
H  0.01607634 -0.01854894 -0.01638387
H  -0.00564605 -0.00882425 -0.00588268
12
MD Step 1369 Units = [Angstroms / fs]
C  -0.00092375 0.00304830 -0.00737087
C  -0.00069007 -0.00214570 0.00604968
C  -0.00007457 0.00188977 -0.00241778
C  0.00239960 0.00542158 -0.00712944
C  0.00472628 -0.00288875 -0.00142979
C  0.00752943 0.00454983 0.00424684
H  0.02524793 -0.00605400 -0.02908777
H  0.01132724 -0.00575318 -0.00594752
H  -0.00353343 0.00094358 -0.01639497
H  -0.03021913 -0.00712892 0.02813473
H  0.02119609 -0.02168431 -0.01736232
H  -0.00468221 -0.00780783 -0.00558377
12
MD Step 1370 Units = [Angstroms / fs]
C  -0.00094851 0.00311881 -0.00729972
C  -0.00033652 -0.00247507 0.00606710
C  -0.00076095 0.00223749 -0.00231216
C  0.00274384 0.00554566 -0.00726486
C  0.00375877 -0.00297579 -0.00138592
C  0.00768562 0.00429809 0.00422618
H  0.02154581 -0.00713208 -0.02983041
H  0.01000361 -0.00305357 -0.00596954
H  0.00247359 0.00100230 -0.01732638
H  -0.02727550 -0.00699038 0.02926684
H  0.02517572 -0.02323179 -0.01815478
H  -0.00275982 -0.00657984 -0.00520431
12
MD Step 1371 Units = [Angstroms / fs]
C  -0.00090403 0.00313545 -0.00721103
C  0.00005903 -0.00276243 0.00605216
C  -0.00143968 0.00256518 -0.00220745
C  0.00304196 0.00546652 -0.00734367
C  0.00287810 -0.00313007 -0.00135706
C  0.00769942 0.00397290 0.00417836
H  0.01746570 -0.00819281 -0.03050543
H  0.00836488 -0.00000061 -0.00589688
H  0.00835084 0.00104781 -0.01821556
H  -0.02308920 -0.00483105 0.02994451
H  0.02774550 -0.02286742 -0.01876366
H  -0.00005288 -0.00516354 -0.00474293
12
MD Step 1372 Units = [Angstroms / fs]
C  -0.00079412 0.00307793 -0.00710446
C  0.00047789 -0.00299082 0.00600501
C  -0.00205826 0.00287230 -0.00209961
C  0.00329352 0.00519984 -0.00737016
C  0.00211725 -0.00336212 -0.00134361
C  0.00758430 0.00357900 0.00410443
H  0.01315214 -0.00901404 -0.03112598
H  0.00655507 0.00315730 -0.00572392
H  0.01348823 0.00106493 -0.01912293
H  -0.01783191 -0.00085428 0.03024364
H  0.02872836 -0.02038767 -0.01920526
H  0.00320373 -0.00359020 -0.00420211
12
MD Step 1373 Units = [Angstroms / fs]
C  -0.00062294 0.00292840 -0.00698038
C  0.00090058 -0.00314425 0.00592605
C  -0.00257134 0.00315825 -0.00198639
C  0.00350573 0.00478355 -0.00735005
C  0.00149798 -0.00366886 -0.00134495
C  0.00735818 0.00312340 0.00400585
H  0.00874296 -0.00939304 -0.03169641
H  0.00472598 0.00616619 -0.00544925
H  0.01737322 0.00104307 -0.02008474
H  -0.01178411 0.00447704 0.03025416
H  0.02808465 -0.01577211 -0.01950791
H  0.00673530 -0.00189778 -0.00358823
12
MD Step 1374 Units = [Angstroms / fs]
C  -0.00039464 0.00267345 -0.00683994
C  0.00130769 -0.00320854 0.00581602
C  -0.00294585 0.00342195 -0.00186771
C  0.00369179 0.00427487 -0.00728886
C  0.00102731 -0.00402933 -0.00135977
C  0.00704215 0.00261522 0.00388447
H  0.00436100 -0.00917070 -0.03221183
H  0.00302884 0.00878071 -0.00507575
H  0.01965236 0.00097782 -0.02110859
H  -0.00531070 0.01047913 0.03005837
H  0.02594817 -0.00924012 -0.01970628
H  0.01024671 -0.00012914 -0.00291118
12
MD Step 1375 Units = [Angstroms / fs]
C  -0.00011326 0.00230562 -0.00668491
C  0.00168097 -0.00317214 0.00567592
C  -0.00316347 0.00366166 -0.00174543
C  0.00386759 0.00374234 -0.00719035
C  0.00069621 -0.00440292 -0.00138666
C  0.00665925 0.00206538 0.00374241
H  0.00010892 -0.00824843 -0.03265941
H  0.00160532 0.01077876 -0.00461031
H  0.02015865 0.00087091 -0.02217571
H  0.00118357 0.01634481 0.02971048
H  0.02263493 -0.00127618 -0.01983204
H  0.01344004 0.00167002 -0.00218376
12
MD Step 1376 Units = [Angstroms / fs]
C  0.00021714 0.00182418 -0.00651756
C  0.00200444 -0.00302714 0.00550705
C  -0.00322036 0.00387494 -0.00162280
C  0.00404778 0.00325473 -0.00705561
C  0.00048173 -0.00473207 -0.00142493
C  0.00623340 0.00148614 0.00358193
H  -0.00393283 -0.00659592 -0.03302098
H  0.00057728 0.01197770 -0.00406325
H  0.01890596 0.00072911 -0.02324803
H  0.00730854 0.02127739 0.02922510
H  0.01861023 0.00740051 -0.01990327
H  0.01603198 0.00345336 -0.00142077
12
MD Step 1377 Units = [Angstroms / fs]
C  0.00059216 0.00123514 -0.00634035
C  0.00226555 -0.00277037 0.00531094
C  -0.00312519 0.00405881 -0.00150376
C  0.00424236 0.00286999 -0.00688320
C  0.00035248 -0.00495020 -0.00147511
C  0.00578807 0.00089052 0.00340530
H  -0.00770586 -0.00425019 -0.03327624
H  0.00003556 0.01225193 -0.00344729
H  0.01606068 0.00056242 -0.02427714
H  0.01273821 0.02462148 0.02857913
H  0.01441435 0.01592973 -0.01991675
H  0.01777217 0.00517629 -0.00063784
12
MD Step 1378 Units = [Angstroms / fs]
C  0.00100684 0.00055082 -0.00615571
C  0.00245635 -0.00240466 0.00508928
C  -0.00289621 0.00421001 -0.00139232
C  0.00445477 0.00262765 -0.00667021
C  0.00027604 -0.00499316 -0.00153909
C  0.00534483 0.00029156 0.00321467
H  -0.01117206 -0.00130810 -0.03340586
H  0.00002848 0.01155025 -0.00277610
H  0.01190353 0.00038216 -0.02521263
H  0.01724326 0.02595241 0.02772493
H  0.01056628 0.02344823 -0.01984712
H  0.01846344 0.00679842 0.00014987
12
MD Step 1379 Units = [Angstroms / fs]
C  0.00145535 -0.00021106 -0.00596587
C  0.00257440 -0.00193980 0.00484384
C  -0.00255857 0.00432529 -0.00129214
C  0.00468172 0.00254595 -0.00641359
C  0.00022575 -0.00481087 -0.00161955
C  0.00492174 -0.00029818 0.00301194
H  -0.01431115 0.00208547 -0.03339415
H  0.00055225 0.00990978 -0.00206273
H  0.00679214 0.00019949 -0.02600860
H  0.02070159 0.02510645 0.02660825
H  0.00747651 0.02923059 -0.01965365
H  0.01798361 0.00828589 0.00092918
12
MD Step 1380 Units = [Angstroms / fs]
C  0.00193088 -0.00102847 -0.00577269
C  0.00262321 -0.00139301 0.00457637
C  -0.00214200 0.00440176 -0.00120619
C  0.00491437 0.00262343 -0.00611132
C  0.00018461 -0.00437550 -0.00171915
C  0.00453168 -0.00086705 0.00279863
H  -0.01711795 0.00575127 -0.03323092
H  0.00154596 0.00746221 -0.00131800
H  0.00113002 0.00002421 -0.02662789
H  0.02309008 0.02215802 0.02518426
H  0.00539494 0.03279009 -0.01929167
H  0.01630607 0.00961302 0.00169040
12
MD Step 1381 Units = [Angstroms / fs]
C  0.00242557 -0.00187631 -0.00557755
C  0.00261204 -0.00078847 0.00428849
C  -0.00167909 0.00443714 -0.00113662
C  0.00514032 0.00284309 -0.00576316
C  0.00014577 -0.00368434 -0.00183966
C  0.00418096 -0.00140453 0.00257578
H  -0.01959957 0.00948994 -0.03291255
H  0.00289385 0.00442811 -0.00054936
H  -0.00465691 -0.00013593 -0.02704477
H  0.02446554 0.01736602 0.02342752
H  0.00440282 0.03391652 -0.01872417
H  0.01351514 0.01076302 0.00242840
12
MD Step 1382 Units = [Angstroms / fs]
C  0.00293061 -0.00272773 -0.00538133
C  0.00255493 -0.00015573 0.00398167
C  -0.00120392 0.00442999 -0.00108470
C  0.00534550 0.00317721 -0.00537076
C  0.00011043 -0.00275773 -0.00198140
C  0.00386875 -0.00190111 0.00234394
H  -0.02177258 0.01309607 -0.03244233
H  0.00443644 0.00109728 0.00023938
H  -0.01013841 -0.00027563 -0.02724623
H  0.02494281 0.01111280 0.02133573
H  0.00443917 0.03265530 -0.01792953
H  0.00981037 0.01172715 0.00314315
12
MD Step 1383 Units = [Angstroms / fs]
C  0.00343634 -0.00355553 -0.00518446
C  0.00246896 0.00047294 0.00365732
C  -0.00075075 0.00437980 -0.00105074
C  0.00551568 0.00359155 -0.00493760
C  0.00008452 -0.00163385 -0.00214309
C  0.00358753 -0.00234820 0.00210319
H  -0.02365971 0.01637196 -0.03182991
H  0.00598965 -0.00220352 0.00104731
H  -0.01489655 -0.00039233 -0.02723266
H  0.02467580 0.00385228 0.01892904
H  0.00534327 0.02925114 -0.01690438
H  0.00549517 0.01250239 0.00383903
12
MD Step 1384 Units = [Angstroms / fs]
C  0.00393244 -0.00433361 -0.00498693
C  0.00237217 0.00106570 0.00331685
C  -0.00035235 0.00428703 -0.00103410
C  0.00563741 0.00404828 -0.00446867
C  0.00007576 -0.00036277 -0.00232204
C  0.00332485 -0.00273777 0.00185334
H  -0.02528603 0.01914114 -0.03109011
H  0.00736893 -0.00515007 0.00187493
H  -0.01854514 -0.00048615 -0.02701765
H  0.02384387 -0.00392668 0.01624729
H  0.00689657 0.02408271 -0.01566259
H  0.00094797 0.01308821 0.00452324
12
MD Step 1385 Units = [Angstroms / fs]
C  0.00440794 -0.00503841 -0.00478849
C  0.00228138 0.00159439 0.00296183
C  -0.00003788 0.00415303 -0.00103324
C  0.00569837 0.00450792 -0.00397022
C  0.00009169 0.00099885 -0.00251432
C  0.00306618 -0.00306228 0.00159406
H  -0.02667429 0.02126126 -0.03024089
H  0.00841323 -0.00745990 0.00272211
H  -0.02075530 -0.00055983 -0.02662685
H  0.02264349 -0.01172259 0.01334669
H  0.00885445 0.01760697 -0.01423236
H  -0.00342101 0.01348326 0.00520331
12
MD Step 1386 Units = [Angstroms / fs]
C  0.00485138 -0.00565025 -0.00458881
C  0.00221050 0.00203707 0.00259408
C  0.00017001 0.00397992 -0.00104591
C  0.00568745 0.00493051 -0.00344959
C  0.00013884 0.00239161 -0.00271513
C  0.00279816 -0.00331466 0.00132518
H  -0.02783951 0.02263562 -0.02930070
H  0.00900427 -0.00892333 0.00358643
H  -0.02128829 -0.00061825 -0.02609519
H  0.02128354 -0.01903473 0.01029669
H  0.01096577 0.01032071 -0.01265304
H  -0.00721963 0.01368322 0.00588448
12
MD Step 1387 Units = [Angstroms / fs]
C  0.00525072 -0.00615441 -0.00438772
C  0.00216940 0.00237957 0.00221574
C  0.00025840 0.00377043 -0.00106945
C  0.00559462 0.00527664 -0.00291494
C  0.00022277 0.00375597 -0.00291899
C  0.00251162 -0.00348866 0.00104684
H  -0.02878346 0.02322179 -0.02828546
H  0.00907769 -0.00942161 0.00446209
H  -0.02003311 -0.00066766 -0.02546198
H  0.01998160 -0.02537454 0.00717672
H  0.01298226 0.00273862 -0.01097258
H  -0.01012028 0.01368046 0.00656758
12
MD Step 1388 Units = [Angstroms / fs]
C  0.00559339 -0.00654182 -0.00418546
C  0.00216359 0.00261584 0.00182922
C  0.00022719 0.00352771 -0.00110129
C  0.00541104 0.00550896 -0.00237504
C  0.00034865 0.00503381 -0.00311990
C  0.00220360 -0.00357934 0.00075960
H  -0.02948984 0.02303570 -0.02720548
H  0.00862557 -0.00893101 0.00533978
H  -0.01704142 -0.00071444 -0.02476389
H  0.01895798 -0.03028229 0.00407190
H  0.01466204 -0.00461787 -0.00924568
H  -0.01189401 0.01346556 0.00724809
12
MD Step 1389 Units = [Angstroms / fs]
C  0.00586643 -0.00680913 -0.00398281
C  0.00219443 0.00274740 0.00143712
C  0.00009101 0.00325518 -0.00113960
C  0.00512958 0.00559453 -0.00183881
C  0.00052188 0.00616971 -0.00331145
C  0.00187814 -0.00358364 0.00046446
H  -0.02992174 0.02214934 -0.02606314
H  0.00769179 -0.00751541 0.00620736
H  -0.01254822 -0.00076363 -0.02402663
H  0.01842397 -0.03335472 0.00106678
H  0.01577162 -0.01122853 -0.00753219
H  -0.01242742 0.01303000 0.00791629
12
MD Step 1390 Units = [Angstroms / fs]
C  0.00605682 -0.00695818 -0.00378127
C  0.00225964 0.00278215 0.00104213
C  -0.00012098 0.00295644 -0.00118379
C  0.00474599 0.00550836 -0.00131462
C  0.00074836 0.00711243 -0.00348708
C  0.00154574 -0.00350101 0.00016277
H  -0.03002251 0.02068150 -0.02485179
H  0.00636275 -0.00531150 0.00705102
H  -0.00696608 -0.00081740 -0.02325745
H  0.01856122 -0.03428709 -0.00176376
H  0.01609040 -0.01658728 -0.00589490
H  -0.01172263 0.01236915 0.00855861
12
MD Step 1391 Units = [Angstroms / fs]
C  0.00615214 -0.00699491 -0.00358292
C  0.00235404 0.00273297 0.00064685
C  -0.00036816 0.00263528 -0.00123486
C  0.00426099 0.00523791 -0.00080942
C  0.00103421 0.00781733 -0.00364035
C  0.00122202 -0.00333365 -0.00014384
H  -0.02972093 0.01878234 -0.02355644
H  0.00475633 -0.00251100 0.00785665
H  -0.00084555 -0.00087408 -0.02244114
H  0.01949148 -0.03292699 -0.00436591
H  0.01542156 -0.02022814 -0.00439577
H  -0.00988432 0.01148478 0.00915941
12
MD Step 1392 Units = [Angstroms / fs]
C  0.00614153 -0.00692786 -0.00339024
C  0.00247015 0.00261620 0.00025374
C  -0.00060404 0.00229575 -0.00129519
C  0.00368273 0.00478764 -0.00032777
C  0.00138440 0.00825004 -0.00376548
C  0.00092593 -0.00308663 -0.00045370
H  -0.02894036 0.01661407 -0.02215629
H  0.00301088 0.00065719 0.00861121
H  0.00519519 -0.00092791 -0.02154156
H  0.02124003 -0.02932896 -0.00671847
H  0.01361186 -0.02176979 -0.00308981
H  -0.00709955 0.01038651 0.00970294
12
MD Step 1393 Units = [Angstroms / fs]
C  0.00601676 -0.00676666 -0.00320584
C  0.00259876 0.00245035 -0.00013501
C  -0.00078316 0.00194230 -0.00136806
C  0.00302919 0.00418211 0.00012885
C  0.00180055 0.00839150 -0.00385809
C  0.00067802 -0.00276764 -0.00076511
H  -0.02761055 0.01433120 -0.02062865
H  0.00127509 0.00394339 0.00930383
H  0.01055680 -0.00097001 -0.02050908
H  0.02370262 -0.02379098 -0.00884003
H  0.01058093 -0.02097913 -0.00201646
H  -0.00361531 0.00909231 0.01017510
12
MD Step 1394 Units = [Angstroms / fs]
C  0.00577341 -0.00652064 -0.00303206
C  0.00272948 0.00225488 -0.00051755
C  -0.00086774 0.00157992 -0.00145671
C  0.00232909 0.00346569 0.00056193
C  0.00227787 0.00824358 -0.00391603
C  0.00049891 -0.00238642 -0.00107652
H  -0.02567986 0.01206364 -0.01895345
H  -0.00030112 0.00709213 0.00992676
H  0.01474024 -0.00099002 -0.01929168
H  0.02663040 -0.01685061 -0.01078733
H  0.00635595 -0.01784363 -0.00118991
H  0.00028272 0.00762802 0.01056476
12
MD Step 1395 Units = [Angstroms / fs]
C  0.00541169 -0.00619794 -0.00287063
C  0.00285128 0.00204908 -0.00089237
C  -0.00083223 0.00121413 -0.00156352
C  0.00162048 0.00269778 0.00097503
C  0.00280230 0.00783338 -0.00394006
C  0.00040813 -0.00195414 -0.00138661
H  -0.02312547 0.00990541 -0.01711742
H  -0.00157539 0.00985656 0.01047593
H  0.01740390 -0.00097809 -0.01784658
H  0.02964634 -0.00922726 -0.01264199
H  0.00110202 -0.01263024 -0.00059128
H  0.00428924 0.00602632 0.01086473
12
MD Step 1396 Units = [Angstroms / fs]
C  0.00493708 -0.00580499 -0.00272246
C  0.00295310 0.00185086 -0.00125834
C  -0.00066530 0.00085084 -0.00168941
C  0.00094649 0.00194415 0.00137202
C  0.00334890 0.00721386 -0.00393399
C  0.00042313 -0.00148265 -0.00169429
H  -0.01995996 0.00790955 -0.01511706
H  -0.00242205 0.01201361 0.01095122
H  0.01838732 -0.00092662 -0.01614886
H  0.03229718 -0.00171627 -0.01448840
H  -0.00486601 -0.00590015 -0.00016690
H  0.00809647 0.00432527 0.01107228
12
MD Step 1397 Units = [Angstroms / fs]
C  0.00436032 -0.00534652 -0.00258751
C  0.00302473 0.00167559 -0.00161470
C  -0.00036918 0.00049607 -0.00183359
C  0.00034921 0.00126637 0.00175531
C  0.00388290 0.00645884 -0.00390417
C  0.00055836 -0.00098378 -0.00199875
H  -0.01623334 0.00608896 -0.01296016
H  -0.00274196 0.01338045 0.01135626
H  0.01770370 -0.00083126 -0.01419563
H  0.03413008 0.00493788 -0.01638998
H  -0.01110337 0.00154457 0.00016430
H  0.01141096 0.00256640 0.01118930
12
MD Step 1398 Units = [Angstroms / fs]
C  0.00369714 -0.00482583 -0.00246481
C  0.00305774 0.00153467 -0.00196100
C  0.00004248 0.00015560 -0.00199361
C  -0.00013642 0.00071273 0.00212452
C  0.00436366 0.00565240 -0.00385811
C  0.00082428 -0.00046889 -0.00229947
H  -0.01203087 0.00442159 -0.01066569
H  -0.00247307 0.01383208 0.01169757
H  0.01551159 -0.00069127 -0.01200577
H  0.03477069 0.01015177 -0.01837262
H  -0.01709064 0.00878329 0.00049478
H  0.01397148 0.00079254 0.01122211
12
MD Step 1399 Units = [Angstroms / fs]
C  0.00296746 -0.00424523 -0.00235255
C  0.00304654 0.00143422 -0.00229698
C  0.00054756 -0.00016538 -0.00216573
C  -0.00048696 0.00031287 0.00247624
C  0.00475080 0.00487524 -0.00380287
C  0.00122604 0.00005160 -0.00259611
H  -0.00746755 0.00285815 -0.00826237
H  -0.00160063 0.01331838 0.01198309
H  0.01207822 -0.00050916 -0.00961676
H  0.03397937 0.01356742 -0.02042035
H  -0.02231298 0.01493649 0.00090841
H  0.01556901 -0.00095467 0.01118056
12
MD Step 1400 Units = [Angstroms / fs]
C  0.00219444 -0.00360659 -0.00224828
C  0.00298929 0.00137405 -0.00262242
C  0.00111812 -0.00046257 -0.00234522
C  -0.00069208 0.00007692 0.00280464
C  0.00501076 0.00419244 -0.00374364
C  0.00176207 0.00056833 -0.00288843
H  -0.00268043 0.00133103 -0.00578637
H  -0.00016490 0.01187715 0.01221990
H  0.00774399 -0.00029008 -0.00708012
H  0.03167262 0.01506224 -0.02248261
H  -0.02634009 0.01931229 0.00146366
H  0.01606818 -0.00263731 0.01107667
12
MD Step 1401 Units = [Angstroms / fs]
C  0.00140329 -0.00291184 -0.00214916
C  0.00288844 0.00134720 -0.00293692
C  0.00172262 -0.00073272 -0.00252673
C  -0.00075364 -0.00000184 0.00310263
C  0.00512155 0.00364598 -0.00368307
C  0.00242268 0.00107316 -0.00317613
H  0.00218040 -0.00023661 -0.00327836
H  0.00173593 0.00963895 0.01241161
H  0.00289340 -0.00004098 -0.00445682
H  0.02791228 0.01471672 -0.02448816
H  -0.02888314 0.02149575 0.00218537
H  0.01542794 -0.00422352 0.01092238
12
MD Step 1402 Units = [Angstroms / fs]
C  0.00061996 -0.00216352 -0.00205219
C  0.00275076 0.00134046 -0.00323969
C  0.00232759 -0.00097363 -0.00270457
C  -0.00068330 0.00005731 0.00336301
C  0.00507480 0.00325346 -0.00362130
C  0.00318897 0.00155914 -0.00345865
H  0.00696150 -0.00192184 -0.00078033
H  0.00395025 0.00681987 0.01255576
H  -0.00206699 0.00023012 -0.00181310
H  0.02287482 0.01276129 -0.02635979
H  -0.02981587 0.02136515 0.00306600
H  0.01371661 -0.00568889 0.01072683
12
MD Step 1403 Units = [Angstroms / fs]
C  -0.00013018 -0.00136525 -0.00195450
C  0.00258662 0.00133596 -0.00352945
C  0.00289897 -0.00118416 -0.00287293
C  -0.00049975 0.00022703 0.00357936
C  0.00487508 0.00301172 -0.00355665
C  0.00403277 0.00202035 -0.00373495
H  0.01151604 -0.00379299 0.00166784
H  0.00628591 0.00370059 0.01264218
H  -0.00672594 0.00051482 0.00078319
H  0.01681511 0.00952257 -0.02802610
H  -0.02916270 0.01904975 0.00407356
H  0.01111604 -0.00701662 0.01049351
12
MD Step 1404 Units = [Angstroms / fs]
C  -0.00082369 -0.00052236 -0.00185362
C  0.00240868 0.00131371 -0.00380438
C  0.00340334 -0.00136403 -0.00302613
C  -0.00022637 0.00047543 0.00374659
C  0.00453750 0.00290275 -0.00348635
C  0.00491770 0.00245171 -0.00400335
H  0.01571380 -0.00590054 0.00403172
H  0.00853059 0.00059358 0.01265279
H  -0.01068380 0.00080495 0.00326629
H  0.01003510 0.00538045 -0.02942913
H  -0.02706691 0.01485902 0.00516184
H  0.00790991 -0.00819614 0.01021797
12
MD Step 1405 Units = [Angstroms / fs]
C  -0.00144023 0.00035759 -0.00174778
C  0.00223014 0.00125460 -0.00406225
C  0.00380960 -0.00151374 -0.00315888
C  0.00011049 0.00076845 0.00386120
C  0.00408482 0.00289957 -0.00340726
C  0.00580179 0.00284864 -0.00426152
H  0.01945065 -0.00826801 0.00628547
H  0.01047620 -0.00219577 0.01256341
H  -0.01357203 0.00109308 0.00557653
H  0.00286138 0.00073990 -0.03052851
H  -0.02375366 0.00921162 0.00627949
H  0.00445458 -0.00922046 0.00988703
12
MD Step 1406 Units = [Angstroms / fs]
C  -0.00196363 0.00126413 -0.00163610
C  0.00206308 0.00114336 -0.00430073
C  0.00409112 -0.00163433 -0.00326669
C  0.00048261 0.00107126 0.00392131
C  0.00354482 0.00297086 -0.00331636
C  0.00664111 0.00320678 -0.00450656
H  0.02265656 -0.01088332 0.00841435
H  0.01194281 -0.00440650 0.01234704
H  -0.01507905 0.00137304 0.00766506
H  -0.00436850 -0.00398517 -0.03130345
H  -0.01949861 0.00258043 0.00737635
H  0.00113587 -0.01008313 0.00947985
12
MD Step 1407 Units = [Angstroms / fs]
C  -0.00238250 0.00218341 -0.00151872
C  0.00191700 0.00097066 -0.00451767
C  0.00422851 -0.00172726 -0.00334622
C  0.00086083 0.00134900 0.00392674
C  0.00294837 0.00308363 -0.00321098
C  0.00739398 0.00352177 -0.00473523
H  0.02530087 -0.01369189 0.01041613
H  0.01279742 -0.00585054 0.01197814
H  -0.01498348 0.00164037 0.00949910
H  -0.01131462 -0.00838077 -0.03175382
H  -0.01460646 -0.00454157 0.00840713
H  -0.00168047 -0.01077582 0.00897109
12
MD Step 1408 Units = [Angstroms / fs]
C  -0.00269050 0.00309795 -0.00139684
C  0.00179806 0.00073422 -0.00471144
C  0.00421287 -0.00179417 -0.00339579
C  0.00121589 0.00156740 0.00387902
C  0.00232810 0.00320468 -0.00308894
C  0.00802479 0.00378923 -0.00494440
H  0.02739329 -0.01659324 0.01230084
H  0.01296482 -0.00642822 0.01143676
H  -0.01319202 0.00189249 0.01106675
H  -0.01764248 -0.01204073 -0.03190082
H  -0.00939898 -0.01165834 0.00933315
H  -0.00369413 -0.01128734 0.00833523
12
MD Step 1409 Units = [Angstroms / fs]
C  -0.00288593 0.00398683 -0.00127254
C  0.00170880 0.00043889 -0.00488118
C  0.00404878 -0.00183668 -0.00341564
C  0.00151982 0.00169387 0.00378142
C  0.00171762 0.00330098 -0.00294858
C  0.00850675 0.00400492 -0.00513131
H  0.02897960 -0.01944309 0.01408855
H  0.01243001 -0.00613021 0.01071165
H  -0.00977430 0.00212854 0.01237993
H  -0.02303475 -0.01457948 -0.03178690
H  -0.00420943 -0.01827752 0.01012321
H  -0.00470302 -0.01160434 0.00755123
12
MD Step 1410 Units = [Angstroms / fs]
C  -0.00297093 0.00482640 -0.00114840
C  0.00164845 0.00009569 -0.00502692
C  0.00375599 -0.00185621 -0.00340796
C  0.00174786 0.00169931 0.00363880
C  0.00115077 0.00334002 -0.00278880
C  0.00882325 0.00416505 -0.00529399
H  0.03013198 -0.02206227 0.01580523
H  0.01123362 -0.00502887 0.00980208
H  -0.00498294 0.00234883 0.01347355
H  -0.02721084 -0.01565551 -0.03147385
H  0.00062149 -0.02391513 0.01075423
H  -0.00461861 -0.01171330 0.00660630
12
MD Step 1411 Units = [Angstroms / fs]
C  -0.00295026 0.00559167 -0.00102712
C  0.00161348 -0.00027946 -0.00514958
C  0.00336903 -0.00185372 -0.00337652
C  0.00188119 0.00156117 0.00345733
C  0.00066073 0.00329047 -0.00260921
C  0.00896777 0.00426669 -0.00543135
H  0.03093520 -0.02425268 0.01747722
H  0.00946301 -0.00326324 0.00871828
H  0.00075359 0.00255371 0.01439984
H  -0.02995595 -0.01500822 -0.03103719
H  0.00475338 -0.02810599 0.01121236
H  -0.00346450 -0.01160311 0.00549818
12
MD Step 1412 Units = [Angstroms / fs]
C  -0.00282989 0.00625812 -0.00091099
C  0.00159823 -0.00066728 -0.00525091
C  0.00293383 -0.00182956 -0.00332591
C  0.00190993 0.00126751 0.00324358
C  0.00027839 0.00312397 -0.00241022
C  0.00894282 0.00430823 -0.00554331
H  0.03147130 -0.02581847 0.01912555
H  0.00724143 -0.00102161 0.00748068
H  0.00687252 0.00274241 0.01521815
H  -0.03115717 -0.01250707 -0.03055512
H  0.00786308 -0.03042718 0.01149424
H  -0.00136251 -0.01126741 0.00423571
12
MD Step 1413 Units = [Angstroms / fs]
C  -0.00261584 0.00680371 -0.00080150
C  0.00159561 -0.00104664 -0.00533333
C  0.00250182 -0.00178344 -0.00326060
C  0.00183609 0.00082145 0.00300331
C  0.00002983 0.00281836 -0.00219322
C  0.00875832 0.00428967 -0.00563072
H  0.03180591 -0.02658920 0.02076112
H  0.00471716 0.00147540 0.00611857
H  0.01274931 0.00291207 0.01598264
H  -0.03083833 -0.00820371 -0.03009159
H  0.00967531 -0.03053964 0.01160837
H  0.00148802 -0.01070630 0.00283807
12
MD Step 1414 Units = [Angstroms / fs]
C  -0.00231336 0.00721083 -0.00069906
C  0.00159765 -0.00139578 -0.00539977
C  0.00212277 -0.00171454 -0.00318414
C  0.00167492 0.00024443 0.00273991
C  -0.00006741 0.00236231 -0.00196067
C  0.00842990 0.00421286 -0.00569525
H  0.03197867 -0.02644087 0.02238206
H  0.00205345 0.00399025 0.00466818
H  0.01778577 0.00305753 0.01673135
H  -0.02918005 -0.00237003 -0.02967620
H  0.01000766 -0.02824770 0.01157526
H  0.00483266 -0.00992719 0.00133307
12
MD Step 1415 Units = [Angstroms / fs]
C  -0.00192662 0.00746775 -0.00060300
C  0.00159611 -0.00169347 -0.00545353
C  0.00183802 -0.00162183 -0.00309860
C  0.00145391 -0.00042326 0.00245302
C  -0.00000855 0.00176079 -0.00171598
C  0.00797731 0.00408166 -0.00573925
H  0.03199942 -0.02531118 0.02397350
H  -0.00058087 0.00628246 0.00317057
H  0.02149201 0.00317183 0.01748001
H  -0.02651099 0.00449905 -0.02928706
H  0.00882367 -0.02356679 0.01142548
H  0.00838299 -0.00894492 -0.00024502
12
MD Step 1416 Units = [Angstroms / fs]
C  -0.00145889 0.00756951 -0.00051166
C  0.00158307 -0.00192004 -0.00549803
C  0.00167591 -0.00150446 -0.00300456
C  0.00120878 -0.00112627 0.00213806
C  0.00019479 0.00103940 -0.00146314
C  0.00742311 0.00390176 -0.00576556
H  0.03184966 -0.02320705 0.02550967
H  -0.00302064 0.00812225 0.00166905
H  0.02354301 0.00324743 0.01822178
H  -0.02326364 0.01173309 -0.02884480
H  0.00627805 -0.01677858 0.01119457
H  0.01183533 -0.00778128 -0.00185775
12
MD Step 1417 Units = [Angstroms / fs]
C  -0.00091310 0.00751816 -0.00042271
C  0.00155170 -0.00205846 -0.00553665
C  0.00164989 -0.00136219 -0.00290141
C  0.00097726 -0.00180190 0.00178714
C  0.00051332 0.00024537 -0.00120613
C  0.00679147 0.00368052 -0.00577735
H  0.03148817 -0.02020409 0.02695753
H  -0.00511425 0.00930500 0.00020627
H  0.02380045 0.00327758 0.01893203
H  -0.01990195 0.01858151 -0.02822313
H  0.00273182 -0.00844492 0.01091551
H  0.01488763 -0.00646419 -0.00346491
12
MD Step 1418 Units = [Angstroms / fs]
C  -0.00029253 0.00732246 -0.00033340
C  0.00149710 -0.00209554 -0.00557244
C  0.00175930 -0.00119578 -0.00278788
C  0.00079241 -0.00239010 0.00139106
C  0.00090290 -0.00055657 -0.00094830
C  0.00610707 0.00342645 -0.00577789
H  0.03085863 -0.01643966 0.02828115
H  -0.00673469 0.00966719 -0.00117926
H  0.02230309 0.00325746 0.01957588
H  -0.01684176 0.02433349 -0.02727498
H  -0.00128132 0.00064179 0.01061075
H  0.01725596 -0.00502636 -0.00502705
12
MD Step 1419 Units = [Angstroms / fs]
C  0.00039846 0.00699718 -0.00024095
C  0.00141731 -0.00202319 -0.00560783
C  0.00199170 -0.00100704 -0.00266254
C  0.00067761 -0.00284255 0.00094202
C  0.00131136 -0.00129360 -0.00069185
C  0.00539382 0.00314866 -0.00577037
H  0.02989770 -0.01210145 0.02944597
H  -0.00779144 0.00910369 -0.00245716
H  0.01923640 0.00318496 0.02011585
H  -0.01438835 0.02842709 -0.02586549
H  -0.00513925 0.00957265 0.01028718
H  0.01869230 -0.00350376 -0.00650818
12
MD Step 1420 Units = [Angstroms / fs]
C  0.00115385 0.00656217 -0.00014281
C  0.00131421 -0.00183982 -0.00564431
C  0.00232588 -0.00079891 -0.00252423
C  0.00064437 -0.00312857 0.00043577
C  0.00168776 -0.00189719 -0.00043784
C  0.00467342 0.00285614 -0.00575758
H  0.02854239 -0.00741391 0.03042245
H  -0.00824208 0.00758453 -0.00360905
H  0.01489429 0.00306089 0.02051822
H  -0.01270690 0.03051753 -0.02390052
H  -0.00824428 0.01747211 0.00993630
H  0.01900429 -0.00193348 -0.00787870
12
MD Step 1421 Units = [Angstroms / fs]
C  0.00196548 0.00604128 -0.00003690
C  0.00119430 -0.00155129 -0.00568220
C  0.00273461 -0.00057512 -0.00237227
C  0.00069301 -0.00323667 -0.00012723
C  0.00199093 -0.00231441 -0.00018654
C  0.00396369 0.00255717 -0.00574175
H  0.02673609 -0.00262362 0.03118888
H  -0.00810106 0.00516779 -0.00463185
H  0.00964285 0.00288895 0.02075716
H  -0.01182698 0.03049349 -0.02134239
H  -0.01012789 0.02363694 0.00953948
H  0.01807662 -0.00035146 -0.00911838
12
MD Step 1422 Units = [Angstroms / fs]
C  0.00282287 0.00546109 0.00007827
C  0.00106887 -0.00117143 -0.00572053
C  0.00318688 -0.00033995 -0.00220667
C  0.00081514 -0.00317264 -0.00074181
C  0.00219472 -0.00251497 0.00006204
C  0.00327692 0.00225881 -0.00572424
H  0.02443349 0.00201565 0.03173319
H  -0.00744301 0.00200449 -0.00553932
H  0.00389097 0.00267543 0.02081724
H  -0.01166986 0.02845051 -0.01821125
H  -0.01051473 0.02762332 0.00907568
H  0.01589144 0.00120996 -0.01021893
12
MD Step 1423 Units = [Angstroms / fs]
C  0.00371314 0.00484957 0.00020345
C  0.00095347 -0.00072147 -0.00575706
C  0.00364957 -0.00009784 -0.00202818
C  0.00099678 -0.00295563 -0.00139898
C  0.00228891 -0.00249272 0.00030760
C  0.00261850 0.00196656 -0.00570543
H  0.02160461 0.00625848 0.03205386
H  -0.00639753 -0.00166865 -0.00636107
H  -0.00193163 0.00242880 0.02069445
H  -0.01208416 0.02464151 -0.01457609
H  -0.00933426 0.02926656 0.00852846
H  0.01254341 0.00272414 -0.01118562
12
MD Step 1424 Units = [Angstroms / fs]
C  0.00462105 0.00423444 0.00033864
C  0.00086667 -0.00022847 -0.00578864
C  0.00408877 0.00014697 -0.00183835
C  0.00122104 -0.00261389 -0.00208705
C  0.00227676 -0.00226242 0.00054928
C  0.00198639 0.00168441 -0.00568471
H  0.01823849 0.00988435 0.03215984
H  -0.00513491 -0.00555017 -0.00713854
H  -0.00739156 0.00215932 0.02039657
H  -0.01287823 0.01942429 -0.01054120
H  -0.00669027 0.02864581 0.00789002
H  0.00824374 0.00417112 -0.01203699
12
MD Step 1425 Units = [Angstroms / fs]
C  0.00552919 0.00364140 0.00048312
C  0.00082800 0.00027735 -0.00581171
C  0.00447110 0.00039067 -0.00163953
C  0.00147006 -0.00218133 -0.00279277
C  0.00217091 -0.00185439 0.00078562
C  0.00137173 0.00141501 -0.00566064
H  0.01434668 0.01271528 0.03206933
H  -0.00384398 -0.00930691 -0.00791853
H  -0.01206813 0.00187853 0.01994274
H  -0.01384378 0.01321841 -0.00623310
H  -0.00281027 0.02602085 0.00716216
H  0.00330845 0.00553735 -0.01280239
12
MD Step 1426 Units = [Angstroms / fs]
C  0.00641824 0.00309223 0.00063560
C  0.00085568 0.00076576 -0.00582289
C  0.00476541 0.00063010 -0.00143490
C  0.00172610 -0.00169501 -0.00350212
C  0.00198939 -0.00130878 0.00101461
C  0.00076074 0.00116010 -0.00563127
H  0.00996687 0.01463393 0.03180727
H  -0.00270634 -0.01261341 -0.00874545
H  -0.01557341 0.00159852 0.01936242
H  -0.01477033 0.00647580 -0.00179014
H  0.00200508 0.02176692 0.00635524
H  -0.00187091 0.00681376 -0.01351730
12
MD Step 1427 Units = [Angstroms / fs]
C  0.00726717 0.00260297 0.00079443
C  0.00096449 0.00120963 -0.00581956
C  0.00494497 0.00086284 -0.00122826
C  0.00197215 -0.00119369 -0.00420085
C  0.00175264 -0.00067109 0.00123379
C  0.00013774 0.00092093 -0.00559457
H  0.00516624 0.01560004 0.03140164
H  -0.00187235 -0.01519009 -0.00965410
H  -0.01757925 0.00133114 0.01869311
H  -0.01545273 -0.00033675 0.00264489
H  0.00742072 0.01632329 0.00548621
H  -0.00687105 0.00799292 -0.01421722
12
MD Step 1428 Units = [Angstroms / fs]
C  0.00805368 0.00218251 0.00095796
C  0.00116411 0.00158741 -0.00580023
C  0.00499055 0.00108725 -0.00102387
C  0.00219219 -0.00071684 -0.00487486
C  0.00148182 0.00001093 0.00144036
C  -0.00051129 0.00069873 -0.00554893
H  0.00004405 0.01566178 0.03087864
H  -0.00144355 -0.01683280 -0.01066461
H  -0.01785236 0.00108681 0.01797643
H  -0.01569526 -0.00674843 0.00693033
H  0.01309121 0.01016044 0.00457681
H  -0.01128727 0.00906600 -0.01493159
12
MD Step 1429 Units = [Angstroms / fs]
C  0.00875457 0.00183203 0.00112489
C  0.00145834 0.00188459 -0.00576470
C  0.00489372 0.00130245 -0.00082592
C  0.00237149 -0.00030371 -0.00551057
C  0.00119809 0.00068902 0.00163125
C  -0.00119555 0.00049491 -0.00549341
H  -0.00526776 0.01495815 0.03025756
H  -0.00146416 -0.01742943 -0.01178030
H  -0.01629421 0.00087327 0.01725216
H  -0.01531550 -0.01229524 0.01093123
H  0.01867284 0.00376292 0.00365220
H  -0.01478044 0.01002065 -0.01567909
12
MD Step 1430 Units = [Angstroms / fs]
C  0.00934640 0.00154537 0.00129461
C  0.00184504 0.00209407 -0.00571396
C  0.00465997 0.00150828 -0.00063802
C  0.00249712 0.00000823 -0.00609545
C  0.00092256 0.00131545 0.00180308
C  -0.00191712 0.00031119 -0.00542798
H  -0.01060690 0.01370881 0.02954639
H  -0.00192148 -0.01696287 -0.01298845
H  -0.01297754 0.00069448 0.01655078
H  -0.01415115 -0.01653780 0.01452664
H  0.02382900 -0.00237813 0.00273993
H  -0.01711156 0.01084044 -0.01646531
12
MD Step 1431 Units = [Angstroms / fs]
C  0.00980639 0.00131073 0.00146741
C  0.00231662 0.00221573 -0.00564999
C  0.00431058 0.00170517 -0.00046254
C  0.00255880 0.00018589 -0.00661881
C  0.00067623 0.00184379 0.00195228
C  -0.00267013 0.00014937 -0.00535342
H  -0.01578739 0.01219045 0.02873945
H  -0.00275317 -0.01550298 -0.01426318
H  -0.00816677 0.00055003 0.01588583
H  -0.01207192 -0.01909190 0.01761974
H  0.02823466 -0.00777092 0.00186905
H  -0.01815903 0.01150581 -0.01728307
12
MD Step 1432 Units = [Angstroms / fs]
C  0.01011354 0.00111323 0.00164439
C  0.00286092 0.00225542 -0.00557540
C  0.00388194 0.00189392 -0.00030016
C  0.00255016 0.00020452 -0.00707279
C  0.00047968 0.00223020 0.00207508
C  -0.00344115 0.00001118 -0.00527117
H  -0.02061065 0.01070217 0.02781793
H  -0.00385815 -0.01319196 -0.01556949
H  -0.00230923 0.00043553 0.01524830
H  -0.00899772 -0.01967488 0.02015048
H  0.03158518 -0.01193504 0.00106881
H  -0.01791895 0.01199624 -0.01811475
12
MD Step 1433 Units = [Angstroms / fs]
C  0.01025011 0.00093791 0.00182726
C  0.00346210 0.00222376 -0.00549311
C  0.00342199 0.00207546 -0.00014977
C  0.00247044 0.00005271 -0.00745351
C  0.00035194 0.00243573 0.00216781
C  -0.00421057 -0.00010200 -0.00518303
H  -0.02488036 0.00952595 0.02675363
H  -0.00510862 -0.01022690 -0.01686743
H  0.00400989 0.00034407 0.01460576
H  -0.00492177 -0.01816440 0.02210824
H  0.03361415 -0.01442769 0.00036658
H  -0.01649245 0.01229276 -0.01893580
12
MD Step 1434 Units = [Angstroms / fs]
C  0.01020310 0.00077262 0.00201784
C  0.00410151 0.00213494 -0.00540612
C  0.00298390 0.00225049 -0.00000882
C  0.00232601 -0.00026257 -0.00776174
C  0.00030838 0.00243009 0.00222709
C  -0.00495448 -0.00018929 -0.00509089
H  -0.02841910 0.00889016 0.02551503
H  -0.00636149 -0.00684255 -0.01811594
H  0.01014453 0.00026849 0.01390732
H  0.00006608 -0.01465678 0.02353966
H  0.03412227 -0.01488941 -0.00021521
H  -0.01406559 0.01238031 -0.01971852
12
MD Step 1435 Units = [Angstroms / fs]
C  0.00996566 0.00060994 0.00221759
C  0.00475842 0.00200563 -0.00531726
C  0.00261857 0.00241920 0.00012590
C  0.00213132 -0.00071271 -0.00800283
C  0.00035777 0.00219698 0.00225032
C  -0.00564656 -0.00025034 -0.00499650
H  -0.03108407 0.00894306 0.02407429
H  -0.00746839 -0.00329544 -0.01927609
H  0.01547978 0.00020374 0.01309368
H  0.00576393 -0.00950331 0.02454577
H  0.03301559 -0.01310927 -0.00066290
H  -0.01088703 0.01224949 -0.02043543
12
MD Step 1436 Units = [Angstroms / fs]
C  0.00953811 0.00044814 0.00242711
C  0.00541079 0.00185395 -0.00522903
C  0.00236763 0.00258095 0.00025737
C  0.00190855 -0.00124816 -0.00818544
C  0.00049902 0.00173996 0.00223604
C  -0.00625982 -0.00028525 -0.00490131
H  -0.03277924 0.00974019 0.02241349
H  -0.00828467 0.00015093 -0.02031367
H  0.01951595 0.00014855 0.01210947
H  0.01186015 -0.00329997 0.02526476
H  0.03034440 -0.00909877 -0.00097548
H  -0.00724655 0.01189764 -0.02106200
12
MD Step 1437 Units = [Angstroms / fs]
C  0.00892844 0.00029097 0.00264585
C  0.00603599 0.00169843 -0.00514346
C  0.00225884 0.00273417 0.00038753
C  0.00168529 -0.00180408 -0.00831920
C  0.00071892 0.00108706 0.00218426
C  -0.00676798 -0.00029450 -0.00480634
H  -0.03346228 0.01124572 0.02052885
H  -0.00867791 0.00324084 -0.02120129
H  0.02192473 0.00010593 0.01091414
H  0.01795979 0.00318256 0.02584234
H  0.02632814 -0.00315085 -0.00116675
H  -0.00345574 0.01132928 -0.02157862
12
MD Step 1438 Units = [Angstroms / fs]
C  0.00815223 0.00014664 0.00287202
C  0.00661169 0.00155688 -0.00506197
C  0.00230424 0.00287633 0.00051680
C  0.00149074 -0.00231041 -0.00841216
C  0.00099219 0.00029154 0.00209646
C  -0.00714672 -0.00027879 -0.00471212
H  -0.03314596 0.01334422 0.01843262
H  -0.00853651 0.00574218 -0.02192013
H  0.02256928 0.00008256 0.00948863
H  0.02363372 0.00911961 0.02639860
H  0.02134967 0.00414704 -0.00126452
H  0.00016973 0.01055604 -0.02197190
12
MD Step 1439 Units = [Angstroms / fs]
C  0.00723204 0.00002649 0.00310260
C  0.00711694 0.00144504 -0.00498530
C  0.00250112 0.00300402 0.00064404
C  0.00135109 -0.00270345 -0.00846871
C  0.00128473 -0.00057312 0.00197532
C  -0.00737481 -0.00023902 -0.00461869
H  -0.03189486 0.01585854 0.01615265
H  -0.00777894 0.00746435 -0.02246114
H  0.02149201 0.00008741 0.00783722
H  0.02847911 0.01377092 0.02700275
H  0.01590943 0.01197014 -0.00130595
H  0.00332759 0.00959618 -0.02223546
12
MD Step 1440 Units = [Angstroms / fs]
C  0.00619636 -0.00005652 0.00333353
C  0.00753337 0.00137497 -0.00491337
C  0.00283443 0.00311321 0.00076670
C  0.00128552 -0.00293559 -0.00848896
C  0.00155964 -0.00142397 0.00182409
C  -0.00743535 -0.00017630 -0.00452564
H  -0.02981881 0.01856929 0.01373037
H  -0.00636307 0.00827765 -0.02282560
H  0.01888199 0.00013015 0.00598521
H  0.03217453 0.01659470 0.02766449
H  0.01054621 0.01938256 -0.00133022
H  0.00574784 0.00847367 -0.02237012
12
MD Step 1441 Units = [Angstroms / fs]
C  0.00507828 -0.00008902 0.00355994
C  0.00784636 0.00135350 -0.00484535
C  0.00327988 0.00319952 0.00088120
C  0.00130389 -0.00298053 -0.00846938
C  0.00178410 -0.00218221 0.00164600
C  -0.00731720 -0.00009196 -0.00443211
H  -0.02706462 0.02123318 0.01121788
H  -0.00429472 0.00813224 -0.02302468
H  0.01503539 0.00021973 0.00397443
H  0.03451522 0.01730710 0.02834229
H  0.00574718 0.02549932 -0.00137088
H  0.00721396 0.00721679 -0.02238348
12
MD Step 1442 Units = [Angstroms / fs]
C  0.00391406 -0.00005823 0.00377638
C  0.00804616 0.00138087 -0.00477970
C  0.00380679 0.00325849 0.00098330
C  0.00140651 -0.00283353 -0.00840428
C  0.00193507 -0.00278543 0.00144376
C  -0.00701660 0.00001238 -0.00433697
H  -0.02380699 0.02359916 0.00867451
H  -0.00163345 0.00707283 -0.02307779
H  0.01031855 0.00036345 0.00185811
H  0.03542276 0.01588152 0.02896247
H  0.00187569 0.02963234 -0.00145058
H  0.00758566 0.00585641 -0.02228860
12
MD Step 1443 Units = [Angstroms / fs]
C  0.00274145 0.00004722 0.00397706
C  0.00812853 0.00145008 -0.00471435
C  0.00438036 0.00328592 0.00106838
C  0.00158547 -0.00250800 -0.00828752
C  0.00200185 -0.00319485 0.00121935
C  -0.00653870 0.00013483 -0.00423898
H  -0.02023886 0.02542247 0.00616323
H  0.00150660 0.00524405 -0.02300943
H  0.00513850 0.00056634 -0.00030379
H  0.03493304 0.01250428 0.02944052
H  -0.00086412 0.03137720 -0.00157941
H  0.00682079 0.00442385 -0.02210177
12
MD Step 1444 Units = [Angstroms / fs]
C  0.00159807 0.00023665 0.00415621
C  0.00809483 0.00154731 -0.00464710
C  0.00496343 0.00327810 0.00113168
C  0.00182685 -0.00203050 -0.00811375
C  0.00198574 -0.00339647 0.00097409
C  -0.00589860 0.00027327 -0.00413699
H  -0.01656089 0.02647777 0.00374672
H  0.00496264 0.00288238 -0.02284514
H  -0.00007916 0.00083087 -0.00244843
H  0.03317211 0.00751180 0.02969826
H  -0.00242370 0.03062664 -0.00175660
H  0.00499132 0.00294891 -0.02183935
12
MD Step 1445 Units = [Angstroms / fs]
C  0.00051960 0.00051658 0.00430833
C  0.00795149 0.00165355 -0.00457584
C  0.00551794 0.00323199 0.00116850
C  0.00211297 -0.00143582 -0.00787922
C  0.00189748 -0.00339734 0.00070884
C  -0.00512154 0.00042538 -0.00403026
H  -0.01296946 0.02657273 0.00148312
H  0.00853649 0.00029251 -0.02260711
H  -0.00490768 0.00115683 -0.00451350
H  0.03032973 0.00133077 0.02967461
H  -0.00287983 0.02752660 -0.00197393
H  0.00228770 0.00145828 -0.02151416
12
MD Step 1446 Units = [Angstroms / fs]
C  -0.00046207 0.00088985 0.00442860
C  0.00770883 0.00174742 -0.00449893
C  0.00600638 0.00314534 0.00117439
C  0.00242411 -0.00076326 -0.00758205
C  0.00175392 -0.00321970 0.00042424
C  -0.00424164 0.00058862 -0.00391865
H  -0.00964237 0.02556279 -0.00057860
H  0.01201385 -0.00218936 -0.02231061
H  -0.00893631 0.00154135 -0.00644044
H  0.02663710 -0.00556723 0.02933059
H  -0.00239471 0.02240527 -0.00221919
H  -0.00099360 -0.00002515 -0.02113208
12
MD Step 1447 Units = [Angstroms / fs]
C  -0.00132073 0.00135463 0.00451329
C  0.00737963 0.00180839 -0.00441535
C  0.00639368 0.00301673 0.00114543
C  0.00273973 -0.00005415 -0.00722235
C  0.00157511 -0.00289510 0.00012086
C  -0.00329924 0.00076011 -0.00380280
H  -0.00672259 0.02336728 -0.00240350
H  0.01518644 -0.00423876 -0.02196200
H  -0.01179141 0.00197895 -0.00817810
H  0.02235155 -0.01269443 0.02865067
H  -0.00117970 0.01570294 -0.00247903
H  -0.00448068 -0.00148182 -0.02069005
12
MD Step 1448 Units = [Angstroms / fs]
C  -0.00203758 0.00190329 0.00456015
C  0.00697753 0.00182001 -0.00432471
C  0.00664969 0.00284555 0.00107853
C  0.00303905 0.00064963 -0.00680208
C  0.00138215 -0.00245995 -0.00020064
C  -0.00233706 0.00093648 -0.00368405
H  -0.00430126 0.01998531 -0.00397513
H  0.01787288 -0.00558398 -0.02155899
H  -0.01316479 0.00246173 -0.00968697
H  0.01774747 -0.01956261 0.02764235
H  0.00053077 0.00791821 -0.00274053
H  -0.00777157 -0.00289418 -0.02017596
12
MD Step 1449 Units = [Angstroms / fs]
C  -0.00260258 0.00252151 0.00456874
C  0.00651579 0.00177226 -0.00422717
C  0.00675233 0.00263204 0.00097190
C  0.00330143 0.00130647 -0.00632508
C  0.00119599 -0.00195276 -0.00053946
C  -0.00139590 0.00111365 -0.00356429
H  -0.00240291 0.01550852 -0.00529859
H  0.01993480 -0.00603679 -0.02109266
H  -0.01284964 0.00297968 -0.01094388
H  0.01311102 -0.02569203 0.02633533
H  0.00249448 -0.00042523 -0.00299206
H  -0.01048565 -0.00424497 -0.01957095
12
MD Step 1450 Units = [Angstroms / fs]
C  -0.00301514 0.00318780 0.00454049
C  0.00600633 0.00166269 -0.00412317
C  0.00669112 0.00237722 0.00082536
C  0.00350670 0.00187603 -0.00579694
C  0.00103682 -0.00141279 -0.00089462
C  -0.00051072 0.00128679 -0.00344563
H  -0.00097714 0.01012654 -0.00640099
H  0.02128590 -0.00550822 -0.02055070
H  -0.01078034 0.00352095 -0.01194607
H  0.00873496 -0.03062070 0.02478032
H  0.00446835 -0.00879530 -0.00322345
H  -0.01231070 -0.00551585 -0.01885342
12
MD Step 1451 Units = [Angstroms / fs]
C  -0.00328356 0.00387402 0.00447854
C  0.00545935 0.00149637 -0.00401326
C  0.00647018 0.00208300 0.00064066
C  0.00363580 0.00232052 -0.00522497
C  0.00092397 -0.00087946 -0.00126496
C  0.00029210 0.00145033 -0.00333002
H  0.00009905 0.00412101 -0.00732844
H  0.02189401 -0.00400942 -0.01992086
H  -0.00706693 0.00407222 -0.01271334
H  0.00490945 -0.03392027 0.02304700
H  0.00621102 -0.01665896 -0.00342603
H  -0.01303643 -0.00668696 -0.01800364
12
MD Step 1452 Units = [Angstroms / fs]
C  -0.00342349 0.00454680 0.00438726
C  0.00488315 0.00128494 -0.00389788
C  0.00610978 0.00175230 0.00042136
C  0.00367214 0.00260719 -0.00461786
C  0.00087577 -0.00039190 -0.00164904
C  0.00099602 0.00159819 -0.00321893
H  0.00100578 -0.00215430 -0.00813934
H  0.02177734 -0.00164076 -0.01919389
H  -0.00201123 0.00461875 -0.01328666
H  0.00190461 -0.03522409 0.02121967
H  0.00748497 -0.02348901 -0.00359254
H  -0.01257000 -0.00773738 -0.01700802
12
MD Step 1453 Units = [Angstroms / fs]
C  -0.00345513 0.00517013 0.00427154
C  0.00428427 0.00104503 -0.00377724
C  0.00564535 0.00138920 0.00017254
C  0.00360365 0.00271172 -0.00398515
C  0.00090929 0.00001214 -0.00204520
C  0.00159415 0.00172421 -0.00311318
H  0.00195295 -0.00830638 -0.00889516
H  0.02099724 0.00142575 -0.01836555
H  0.00390783 0.00514440 -0.01372236
H  -0.00005770 -0.03426948 0.01938901
H  0.00806220 -0.02877876 -0.00371730
H  -0.01093427 -0.00864643 -0.01586196
12
MD Step 1454 Units = [Angstroms / fs]
C  -0.00339996 0.00570857 0.00413600
C  0.00366760 0.00079656 -0.00365128
C  0.00512337 0.00099923 -0.00010000
C  0.00342574 0.00262274 -0.00333613
C  0.00103943 0.00029862 -0.00245147
C  0.00208809 0.00182260 -0.00301286
H  0.00314600 -0.01394406 -0.00965045
H  0.01964945 0.00496632 -0.01743772
H  0.01008551 0.00563141 -0.01408253
H  -0.00084221 -0.03095096 0.01763891
H  0.00773731 -0.03207241 -0.00379657
H  -0.00825354 -0.00939525 -0.01457114
12
MD Step 1455 Units = [Angstroms / fs]
C  -0.00327763 0.00613053 0.00398430
C  0.00303664 0.00056109 -0.00351967
C  0.00459476 0.00058944 -0.00039051
C  0.00314438 0.00234615 -0.00267853
C  0.00127727 0.00044118 -0.00286552
C  0.00248620 0.00188846 -0.00291738
H  0.00475270 -0.01871973 -0.01044465
H  0.01785529 0.00872452 -0.01641860
H  0.01587242 0.00606049 -0.01442399
H  -0.00044148 -0.02537321 0.01602931
H  0.00635048 -0.03301568 -0.00382925
H  -0.00473239 -0.00996831 -0.01315131
12
MD Step 1456 Units = [Angstroms / fs]
C  -0.00310354 0.00641104 0.00381885
C  0.00239359 0.00036038 -0.00338182
C  0.00410741 0.00016845 -0.00069407
C  0.00277828 0.00190803 -0.00201708
C  0.00162756 0.00042664 -0.00328461
C  0.00280184 0.00191828 -0.00282553
H  0.00687835 -0.02236380 -0.01129740
H  0.01575336 0.01242844 -0.01532233
H  0.02066720 0.00641145 -0.01478882
H  0.00099335 -0.01788440 0.01457902
H  0.00382042 -0.03142459 -0.00381779
H  -0.00063309 -0.01035459 -0.01162715
12
MD Step 1457 Units = [Angstroms / fs]
C  -0.00288771 0.00653350 0.00364061
C  0.00173972 0.00021511 -0.00323696
C  0.00369948 -0.00025384 -0.00100701
C  0.00235891 0.00135411 -0.00135261
C  0.00208569 0.00026081 -0.00370558
C  0.00305182 0.00191025 -0.00273570
H  0.00955378 -0.02470635 -0.01220790
H  0.01349171 0.01580624 -0.01416817
H  0.02399732 0.00666439 -0.01519917
H  0.00314924 -0.00906896 0.01325498
H  0.00018192 -0.02735858 -0.00376920
H  0.00374569 -0.01054835 -0.01003051
12
MD Step 1458 Units = [Angstroms / fs]
C  -0.00263476 0.00649041 0.00344942
C  0.00107565 0.00014380 -0.00308422
C  0.00339531 -0.00066671 -0.00132691
C  0.00192737 0.00074495 -0.00068216
C  0.00263509 -0.00002744 -0.00412478
C  0.00325508 0.00186456 -0.00264592
H  0.01273642 -0.02568424 -0.01315775
H  0.01121975 0.01860115 -0.01297916
H  0.02556971 0.00680136 -0.01565704
H  0.00558663 0.00031269 0.01197464
H  -0.00438359 -0.02117201 -0.00369588
H  0.00808764 -0.01054948 -0.00839835
12
MD Step 1459 Units = [Angstroms / fs]
C  -0.00234487 0.00628297 0.00324424
C  0.00040204 0.00016160 -0.00292276
C  0.00320432 -0.00105931 -0.00165239
C  0.00152835 0.00014734 -0.00000041
C  0.00324642 -0.00038644 -0.00453813
C  0.00343157 0.00178341 -0.00255404
H  0.01632127 -0.02533564 -0.01411589
H  0.00907914 0.02058707 -0.01178046
H  0.02528474 0.00680797 -0.01614823
H  0.00781116 0.00943038 0.01062339
H  -0.00954061 -0.01351276 -0.00361574
H  0.01207605 -0.01036354 -0.00677048
12
MD Step 1460 Units = [Angstroms / fs]
C  -0.00201519 0.00592029 0.00302363
C  -0.00027960 0.00027919 -0.00275186
C  0.00312233 -0.00142140 -0.00198267
C  0.00120301 -0.00037600 0.00069815
C  0.00387955 -0.00074796 -0.00494127
C  0.00360110 0.00167087 -0.00245787
H  0.02015712 -0.02378634 -0.01504420
H  0.00719326 0.02158540 -0.01059709
H  0.02321947 0.00667464 -0.01664827
H  0.00936218 0.01750942 0.00908265
H  -0.01482797 -0.00524815 -0.00355122
H  0.01541092 -0.01000144 -0.00518717
12
MD Step 1461 Units = [Angstroms / fs]
C  -0.00164137 0.00541810 0.00278606
C  -0.00096588 0.00050156 -0.00257118
C  0.00313436 -0.00174394 -0.00231721
C  0.00098264 -0.00077520 0.00141688
C  0.00448863 -0.00103873 -0.00532978
C  0.00378212 0.00153253 -0.00235537
H  0.02406361 -0.02123219 -0.01590253
H  0.00565513 0.02148264 -0.00945135
H  0.01959275 0.00639730 -0.01712854
H  0.00989057 0.02393874 0.00725846
H  -0.01972374 0.00267378 -0.00352709
H  0.01782770 -0.00947869 -0.00368628
12
MD Step 1462 Units = [Angstroms / fs]
C  -0.00121896 0.00479756 0.00253017
C  -0.00165038 0.00082683 -0.00238088
C  0.00321776 -0.00201960 -0.00265541
C  0.00088528 -0.00101850 0.00215556
C  0.00502894 -0.00119392 -0.00569947
C  0.00399012 0.00137496 -0.00224480
H  0.02784659 -0.01792132 -0.01665289
H  0.00451522 0.02024664 -0.00835995
H  0.01472527 0.00597745 -0.01756114
H  0.00920385 0.02833409 0.00510114
H  -0.02373079 0.00938814 -0.00356734
H  0.01911847 -0.00881419 -0.00230018
12
MD Step 1463 Units = [Angstroms / fs]
C  -0.00074453 0.00408415 0.00225499
C  -0.00232274 0.00124556 -0.00218188
C  0.00334498 -0.00224300 -0.00299639
C  0.00091540 -0.00109321 0.00290997
C  0.00546341 -0.00116828 -0.00604667
C  0.00423593 0.00120513 -0.00212501
H  0.03131056 -0.01413773 -0.01726232
H  0.00377126 0.01793806 -0.00733144
H  0.00900367 0.00542199 -0.01792233
H  0.00727188 0.03054891 0.00261122
H  -0.02645622 0.01424980 -0.00369189
H  0.01915492 -0.00802841 -0.00105241
12
MD Step 1464 Units = [Angstroms / fs]
C  -0.00021651 0.00330653 0.00196004
C  -0.00296812 0.00174062 -0.00197592
C  0.00348568 -0.00241075 -0.00333896
C  0.00106601 -0.00100330 0.00367248
C  0.00576690 -0.00094165 -0.00636848
C  0.00452390 0.00102975 -0.00199566
H  0.03426858 -0.01018651 -0.01770500
H  0.00336337 0.01471291 -0.00636448
H  0.00285255 0.00474279 -0.01819453
H  0.00420219 0.03064417 -0.00016656
H  -0.02766139 0.01690428 -0.00391420
H  0.01791022 -0.00714115 0.00004543
12
MD Step 1465 Units = [Angstroms / fs]
C  0.00036419 0.00249542 0.00164539
C  -0.00356746 0.00228807 -0.00176561
C  0.00360821 -0.00252133 -0.00368154
C  0.00132179 -0.00076537 0.00443313
C  0.00592745 -0.00051851 -0.00666280
C  0.00485054 0.00085473 -0.00185736
H  0.03655064 -0.00637955 -0.01796351
H  0.00317733 0.01081277 -0.00544759
H  -0.00328609 0.00395627 -0.01836735
H  0.00020074 0.02883790 -0.00315589
H  -0.02727324 0.01728613 -0.00424019
H  0.01547480 -0.00616919 0.00099579
12
MD Step 1466 Units = [Angstroms / fs]
C  0.00099373 0.00168227 0.00131173
C  -0.00409865 0.00285901 -0.00155421
C  0.00368088 -0.00257485 -0.00402212
C  0.00166218 -0.00040450 0.00518086
C  0.00594498 0.00007687 -0.00692833
C  0.00520404 0.00068472 -0.00171176
H  0.03801157 -0.00301986 -0.01802963
H  0.00305762 0.00654180 -0.00456089
H  -0.00896931 0.00308290 -0.01843809
H  -0.00446707 0.02545339 -0.00626262
H  -0.02536399 0.01556559 -0.00466869
H  0.01206014 -0.00512444 0.00181548
12
MD Step 1467 Units = [Angstroms / fs]
C  0.00166495 0.00089754 0.00096039
C  -0.00453835 0.00342226 -0.00134540
C  0.00367323 -0.00257267 -0.00435825
C  0.00206366 0.00004912 0.00590436
C  0.00582863 0.00080688 -0.00716437
C  0.00556504 0.00052296 -0.00156138
H  0.03853927 -0.00038299 -0.01790458
H  0.00282894 0.00223310 -0.00367951
H  -0.01376994 0.00214642 -0.01841182
H  -0.00950709 0.02087744 -0.00938622
H  -0.02211456 0.01207501 -0.00519272
H  0.00798544 -0.00401333 0.00253371
12
MD Step 1468 Units = [Angstroms / fs]
C  0.00236706 0.00016864 0.00059334
C  -0.00486446 0.00394746 -0.00114282
C  0.00355782 -0.00251705 -0.00468704
C  0.00250130 0.00056243 0.00659270
C  0.00559402 0.00162652 -0.00737069
C  0.00590890 0.00037130 -0.00140932
H  0.03806346 0.00130553 -0.01759862
H  0.00232237 -0.00178968 -0.00277813
H  -0.01729828 0.00117264 -0.01830107
H  -0.01461640 0.01553236 -0.01242790
H  -0.01777695 0.00724077 -0.00580123
H  0.00364583 -0.00283785 0.00318767
12
MD Step 1469 Units = [Angstroms / fs]
C  0.00308549 -0.00048249 0.00021311
C  -0.00505842 0.00440781 -0.00094974
C  0.00331267 -0.00241060 -0.00500517
C  0.00294966 0.00110071 0.00723574
C  0.00526110 0.00248782 -0.00754731
C  0.00620908 0.00023042 -0.00125878
H  0.03656395 0.00189557 -0.01712974
H  0.00140064 -0.00524802 -0.00183552
H  -0.01923195 0.00018743 -0.01812480
H  -0.01949486 0.00985964 -0.01529587
H  -0.01264445 0.00153360 -0.00648061
H  -0.00053416 -0.00159820 0.00381648
12
MD Step 1470 Units = [Angstroms / fs]
C  0.00380192 -0.00104175 -0.00017738
C  -0.00510713 0.00478214 -0.00076872
C  0.00292444 -0.00225583 -0.00530904
C  0.00338340 0.00162833 0.00782433
C  0.00485274 0.00334246 -0.00769436
C  0.00644104 0.00010023 -0.00111263
H  0.03407718 0.00133759 -0.01652133
H  -0.00002283 -0.00793515 -0.00083807
H  -0.01935421 -0.00078600 -0.01790650
H  -0.02385199 0.00431039 -0.01790912
H  -0.00703287 -0.00456082 -0.00721585
H  -0.00415305 -0.00029628 0.00445491
12
MD Step 1471 Units = [Angstroms / fs]
C  0.00449467 -0.00150479 -0.00057498
C  -0.00500401 0.00505603 -0.00060144
C  0.00239196 -0.00205468 -0.00559500
C  0.00377799 0.00210936 0.00835051
C  0.00439405 0.00414315 -0.00781201
C  0.00658571 -0.00001970 -0.00097300
H  0.03069845 -0.00029832 -0.01579898
H  -0.00197396 -0.00973013 0.00021824
H  -0.01759645 -0.00173045 -0.01767093
H  -0.02741338 -0.00066350 -0.02020081
H  -0.00127086 -0.01055565 -0.00799140
H  -0.00688010 0.00106094 0.00512817
12
MD Step 1472 Units = [Angstroms / fs]
C  0.00513956 -0.00187783 -0.00097667
C  -0.00474938 0.00522186 -0.00044869
C  0.00172924 -0.00180809 -0.00585968
C  0.00411071 0.00250874 0.00880784
C  0.00391204 0.00484428 -0.00790040
C  0.00663189 -0.00012984 -0.00084110
H  0.02657823 -0.00281657 -0.01498671
H  -0.00441773 -0.01059945 0.00132776
H  -0.01407480 -0.00263771 -0.01743975
H  -0.02993073 -0.00462432 -0.02212220
H  0.00430474 -0.01596876 -0.00879169
H  -0.00848922 0.00245923 0.00584896
12
MD Step 1473 Units = [Angstroms / fs]
C  0.00571123 -0.00217676 -0.00137975
C  -0.00434998 0.00527819 -0.00031041
C  0.00096688 -0.00151594 -0.00610042
C  0.00436210 0.00279444 0.00919173
C  0.00343526 0.00540250 -0.00795955
C  0.00657724 -0.00023047 -0.00071716
H  0.02191133 -0.00590908 -0.01410371
H  -0.00726521 -0.01058908 0.00247635
H  -0.00910676 -0.00351002 -0.01722679
H  -0.03119775 -0.00717533 -0.02364707
H  0.00935339 -0.02032845 -0.00960176
H  -0.00887442 0.00387672 0.00661709
12
MD Step 1474 Units = [Angstroms / fs]
C  0.00618491 -0.00242468 -0.00178209
C  -0.00381825 0.00522883 -0.00018590
C  0.00015065 -0.00117720 -0.00631555
C  0.00451794 0.00294094 0.00949979
C  0.00299291 0.00577797 -0.00798939
C  0.00642786 -0.00032154 -0.00060064
H  0.01691992 -0.00918888 -0.01316226
H  -0.01038517 -0.00981084 0.00364348
H  -0.00319448 -0.00435892 -0.01703414
H  -0.03107298 -0.00800310 -0.02477556
H  0.01354107 -0.02318701 -0.01040810
H  -0.00804800 0.00528496 0.00742109
12
MD Step 1475 Units = [Angstroms / fs]
C  0.00653836 -0.00264790 -0.00218206
C  -0.00317125 0.00508169 -0.00007398
C  -0.00066309 -0.00079053 -0.00650460
C  0.00457135 0.00293397 0.00973200
C  0.00261316 0.00593661 -0.00798970
C  0.00619697 -0.00040268 -0.00049038
H  0.01183265 -0.01223968 -0.01216758
H  -0.01361705 -0.00842678 0.00480462
H  0.00303102 -0.00520093 -0.01685066
H  -0.02950643 -0.00693346 -0.02553534
H  0.01656115 -0.02414895 -0.01119993
H  -0.00612587 0.00665127 0.00824116
12
MD Step 1476 Units = [Angstroms / fs]
C  0.00675369 -0.00287153 -0.00257850
C  -0.00242963 0.00484783 0.00002687
C  -0.00141463 -0.00035516 -0.00666815
C  0.00452459 0.00277561 0.00989048
C  0.00232025 0.00585400 -0.00795999
C  0.00590315 -0.00047316 -0.00038492
H  0.00686392 -0.01467139 -0.01111968
H  -0.01678376 -0.00663380 0.00593350
H  0.00889666 -0.00605108 -0.01665379
H  -0.02656353 -0.00399069 -0.02597736
H  0.01816931 -0.02291809 -0.01197089
H  -0.00330625 0.00794142 0.00905252
12
MD Step 1477 Units = [Angstroms / fs]
C  0.00681885 -0.00311552 -0.00297045
C  -0.00161660 0.00454068 0.00011832
C  -0.00204906 0.00012815 -0.00680755
C  0.00438974 0.00248798 0.00997867
C  0.00213059 0.00552052 -0.00789952
C  0.00556848 -0.00053189 -0.00028270
H  0.00219654 -0.01616940 -0.01001628
H  -0.01970310 -0.00464954 0.00700421
H  0.01378501 -0.00691633 -0.01641434
H  -0.02243635 0.00055995 -0.02616472
H  0.01823110 -0.01936130 -0.01272067
H  0.00015339 0.00912222 0.00982852
12
MD Step 1478 Units = [Angstroms / fs]
C  0.00672851 -0.00339200 -0.00335697
C  -0.00075697 0.00417535 0.00020209
C  -0.00252323 0.00065630 -0.00692439
C  0.00418752 0.00211371 0.01000007
C  0.00204846 0.00494675 -0.00780726
C  0.00521694 -0.00057742 -0.00018230
H  -0.00202962 -0.01652797 -0.00885607
H  -0.02219826 -0.00269919 0.00799299
H  0.01721765 -0.00779109 -0.01610276
H  -0.01743289 0.00620994 -0.02615572
H  0.01677239 -0.01357623 -0.01345583
H  0.00395790 0.01016375 0.01054327
12
MD Step 1479 Units = [Angstroms / fs]
C  0.00648436 -0.00370427 -0.00373693
C  0.00012384 0.00376797 0.00027977
C  -0.00281005 0.00122339 -0.00702015
C  0.00394424 0.00171156 0.00995690
C  0.00206292 0.00416729 -0.00768205
C  0.00487306 -0.00060801 -0.00008252
H  -0.00572240 -0.01566356 -0.00764117
H  -0.02410758 -0.00100217 0.00887974
H  0.01890554 -0.00865619 -0.01569513
H  -0.01194091 0.01226175 -0.02598623
H  0.01401444 -0.00593902 -0.01418858
H  0.00779367 0.01104103 0.01117363
12
MD Step 1480 Units = [Angstroms / fs]
C  0.00609487 -0.00404725 -0.00410895
C  0.00100087 0.00333486 0.00035277
C  -0.00289964 0.00182060 -0.00709580
C  0.00368731 0.00134757 0.00984914
C  0.00214771 0.00324045 -0.00752292
C  0.00456066 -0.00062177 0.00001745
H  -0.00883653 -0.01360996 -0.00637840
H  -0.02529431 0.00024224 0.00964943
H  0.01876046 -0.00948118 -0.01517716
H  -0.00637295 0.01793517 -0.02565828
H  0.01037181 0.00289726 -0.01493289
H  0.01134620 0.01173525 0.01170075
12
MD Step 1481 Units = [Angstroms / fs]
C  0.00557467 -0.00440892 -0.00447138
C  0.00185063 0.00289149 0.00042212
C  -0.00279782 0.00243656 -0.00715175
C  0.00344071 0.00108408 0.00967466
C  0.00226512 0.00224239 -0.00732961
C  0.00430168 -0.00061690 0.00011795
H  -0.01136895 -0.01050091 -0.00507942
H  -0.02565644 0.00087101 0.01029323
H  0.01687484 -0.01022870 -0.01454582
H  -0.00110712 0.02249847 -0.02514014
H  0.00639987 0.01207220 -0.01569843
H  0.01431765 0.01223462 0.01211120
12
MD Step 1482 Units = [Angstroms / fs]
C  0.00494362 -0.00477220 -0.00482238
C  0.00265226 0.00245116 0.00048845
C  -0.00252321 0.00305786 -0.00718780
C  0.00322171 0.00096979 0.00943001
C  0.00237351 0.00125617 -0.00710304
C  0.00411479 -0.00059205 0.00021882
H  -0.01335221 -0.00654700 -0.00375982
H  -0.02513595 0.00077491 0.01080920
H  0.01348364 -0.01085940 -0.01380889
H  0.00355968 0.02538481 -0.02437777
H  0.00269904 0.02064872 -0.01648448
H  0.01644582 0.01253475 0.01239777
12
MD Step 1483 Units = [Angstroms / fs]
C  0.00422581 -0.00511684 -0.00516000
C  0.00338847 0.00202360 0.00055185
C  -0.00210392 0.00366987 -0.00720325
C  0.00303954 0.00103366 0.00911189
C  0.00243602 0.00035874 -0.00684554
C  0.00401380 -0.00054661 0.00031934
H  -0.01484760 -0.00201207 -0.00243793
H  -0.02372633 -0.00008470 0.01120251
H  0.00892213 -0.01133615 -0.01298337
H  0.00743584 0.02626188 -0.02331245
H  -0.00019575 0.02776911 -0.01727651
H  0.01752553 0.01263853 0.01255986
12
MD Step 1484 Units = [Angstroms / fs]
C  0.00344844 -0.00542101 -0.00548224
C  0.00404630 0.00161364 0.00061191
C  -0.00157465 0.00425756 -0.00719694
C  0.00289592 0.00128352 0.00871841
C  0.00242754 -0.00039000 -0.00656074
C  0.00400598 -0.00048088 0.00041830
H  -0.01593849 0.00280800 -0.00113325
H  -0.02147646 -0.00166293 0.01148468
H  0.00358862 -0.01162729 -0.01209340
H  0.01043560 0.02504464 -0.02189751
H  -0.00190365 0.03278701 -0.01804708
H  0.01743129 0.01255546 0.01260344
12
MD Step 1485 Units = [Angstroms / fs]
C  0.00264071 -0.00566274 -0.00578712
C  0.00461740 0.00122048 0.00066775
C  -0.00097433 0.00480629 -0.00716737
C  0.00278682 0.00170849 0.00824983
C  0.00233792 -0.00095328 -0.00625312
C  0.00409048 -0.00039613 0.00051407
H  -0.01672446 0.00760339 0.00013494
H  -0.01848910 -0.00382660 0.01167202
H  -0.00208432 -0.01170867 -0.01116837
H  0.01256323 0.02186289 -0.02010928
H  -0.00223964 0.03533865 -0.01876071
H  0.01613848 0.01230012 0.01254017
12
MD Step 1486 Units = [Angstroms / fs]
C  0.00183263 -0.00582104 -0.00607275
C  0.00509789 0.00083780 0.00071820
C  -0.00034437 0.00530261 -0.00711272
C  0.00270455 0.00228341 0.00770883
C  0.00217113 -0.00131770 -0.00592742
C  0.00425725 -0.00029441 0.00060472
H  -0.01731538 0.01206657 0.00134893
H  -0.01491288 -0.00636151 0.01178318
H  -0.00765110 -0.01156505 -0.01024121
H  0.01389015 0.01700613 -0.01795095
H  -0.00120689 0.03534530 -0.01938056
H  0.01373787 0.01189003 0.01238587
12
MD Step 1487 Units = [Angstroms / fs]
C  0.00105382 -0.00587710 -0.00633738
C  0.00548760 0.00045496 0.00076196
C  0.00027292 0.00573482 -0.00703095
C  0.00263962 0.00297345 0.00710028
C  0.00194183 -0.00148938 -0.00558815
C  0.00448699 -0.00017821 0.00068828
H  -0.01782492 0.01590830 0.00249387
H  -0.01092822 -0.00899300 0.01183634
H  -0.01267050 -0.01119090 -0.00934680
H  0.01453308 0.01086690 -0.01545112
H  0.00104393 0.03296534 -0.01987447
H  0.01043772 0.01134318 0.01215812
12
MD Step 1488 Units = [Angstroms / fs]
C  0.00033213 -0.00581557 -0.00657945
C  0.00578915 0.00005911 0.00079779
C  0.00083601 0.00609345 -0.00691988
C  0.00258200 0.00373797 0.00643084
C  0.00167107 -0.00148839 -0.00523922
C  0.00475252 -0.00005016 0.00076292
H  -0.01836259 0.01887526 0.00355877
H  -0.00672917 -0.01141803 0.01184656
H  -0.01672373 -0.01059088 -0.00852025
H  0.01463707 0.00389524 -0.01265978
H  0.00426625 0.02852518 -0.02021906
H  0.00654875 0.01067569 0.01187358
12
MD Step 1489 Units = [Angstroms / fs]
C  -0.00030775 -0.00562603 -0.00679764
C  0.00600677 -0.00036213 0.00082465
C  0.00130629 0.00637143 -0.00677737
C  0.00252187 0.00453325 0.00570859
C  0.00138257 -0.00134344 -0.00488377
C  0.00502148 0.00008728 0.00082716
H  -0.01902351 0.02076996 0.00453723
H  -0.00250438 -0.01334303 0.01182394
H  -0.01943772 -0.00977957 -0.00779463
H  0.01436467 -0.00343213 -0.00964358
H  0.00816336 0.02245388 -0.02040161
H  0.00245132 0.00990032 0.01154553
12
MD Step 1490 Units = [Angstroms / fs]
C  -0.00084585 -0.00530459 -0.00699086
C  0.00614539 -0.00081798 0.00084175
C  0.00165094 0.00656404 -0.00660162
C  0.00244981 0.00531419 0.00494273
C  0.00110020 -0.00108791 -0.00452421
C  0.00526015 0.00023190 0.00088004
H  -0.01987611 0.02147210 0.00542765
H  0.00157941 -0.01452018 0.01177294
H  -0.02051618 -0.00878025 -0.00719787
H  0.01388986 -0.01063036 -0.00648179
H  0.01242034 0.01523447 -0.02042057
H  -0.00145086 0.00902628 0.01118222
12
MD Step 1491 Units = [Angstroms / fs]
C  -0.00126831 -0.00485538 -0.00715828
C  0.00621003 -0.00131256 0.00084855
C  0.00184633 0.00666865 -0.00639146
C  0.00235689 0.00603562 0.00414331
C  0.00084658 -0.00075751 -0.00416220
C  0.00543756 0.00038169 0.00092112
H  -0.02094883 0.02095824 0.00623250
H  0.00538895 -0.01477515 0.01169292
H  -0.01977807 -0.00762208 -0.00674900
H  0.01339475 -0.01721868 -0.00326254
H  0.01672219 0.00737486 -0.02028538
H  -0.00478164 0.00806034 0.01078652
12
MD Step 1492 Units = [Angstroms / fs]
C  -0.00156859 -0.00429155 -0.00729920
C  0.00620542 -0.00184370 0.00084469
C  0.00188172 0.00668418 -0.00614683
C  0.00223465 0.00665356 0.00332097
C  0.00064262 -0.00038913 -0.00379871
C  0.00552915 0.00053471 0.00095043
H  -0.02221852 0.01931473 0.00695661
H  0.00883021 -0.01402225 0.01157955
H  -0.01719793 -0.00633567 -0.00645401
H  0.01306601 -0.02273299 -0.00007888
H  0.02076186 -0.00060614 -0.02001638
H  -0.00723731 0.00700879 0.01035673
12
MD Step 1493 Units = [Angstroms / fs]
C  -0.00174797 -0.00363515 -0.00741289
C  0.00613608 -0.00240290 0.00082984
C  0.00176208 0.00661052 -0.00586905
C  0.00207540 0.00712709 0.00248659
C  0.00050747 -0.00002039 -0.00343401
C  0.00551910 0.00068878 0.00096832
H  -0.02360396 0.01673820 0.00760455
H  0.01184881 -0.01226659 0.01142664
H  -0.01293749 -0.00494764 -0.00630243
H  0.01308809 -0.02674541 0.00297667
H  0.02424343 -0.00818473 -0.01964493
H  -0.00861724 0.00587965 0.00988843
12
MD Step 1494 Units = [Angstroms / fs]
C  -0.00181522 -0.00291582 -0.00749844
C  0.00600634 -0.00297603 0.00080367
C  0.00150920 0.00644799 -0.00556111
C  0.00187293 0.00742114 0.00165072
C  0.00045853 0.00031087 -0.00306769
C  0.00540124 0.00084140 0.00097532
H  -0.02496846 0.01351937 0.00817756
H  0.01442664 -0.00959582 0.01122795
H  -0.00735479 -0.00347554 -0.00626582
H  0.01363014 -0.02889587 0.00581982
H  0.02688556 -0.01483809 -0.01921352
H  -0.00883661 0.00468421 0.00937645
12
MD Step 1495 Units = [Angstroms / fs]
C  -0.00178525 -0.00216799 -0.00755461
C  0.00582050 -0.00354456 0.00076577
C  0.00115989 0.00619717 -0.00522753
C  0.00162395 0.00751036 0.00082270
C  0.00051107 0.00056763 -0.00269864
C  0.00517863 0.00098964 0.00097202
H  -0.02613329 0.01000996 0.00867103
H  0.01657647 -0.00616535 0.01097868
H  -0.00097910 -0.00192518 -0.00629939
H  0.01482438 -0.02893689 0.00838492
H  0.02842965 -0.02005902 -0.01877523
H  -0.00792256 0.00343792 0.00881681
12
MD Step 1496 Units = [Angstroms / fs]
C  -0.00167683 -0.00142723 -0.00757973
C  0.00558284 -0.00408706 0.00071561
C  0.00076112 0.00585901 -0.00487404
C  0.00133018 0.00738371 0.00000973
C  0.00067723 0.00071624 -0.00232522
C  0.00486212 0.00113024 0.00095889
H  -0.02690095 0.00657790 0.00907333
H  0.01833586 -0.00218097 0.01067651
H  0.00555068 -0.00029201 -0.00634724
H  0.01673645 -0.02678684 0.01063645
H  0.02865639 -0.02338680 -0.01839121
H  -0.00599886 0.00216021 0.00820793
12
MD Step 1497 Units = [Angstroms / fs]
C  -0.00150983 -0.00072630 -0.00757190
C  0.00529752 -0.00458067 0.00065256
C  0.00036294 0.00543553 -0.00450697
C  0.00100063 0.00704855 -0.00078402
C  0.00096416 0.00073045 -0.00194561
C  0.00446856 0.00125980 0.00093631
H  -0.02708371 0.00355975 0.00936663
H  0.01976124 0.00211867 0.01032216
H  0.01157413 0.00143339 -0.00635011
H  0.01933267 -0.02257819 0.01257832
H  0.02741223 -0.02445946 -0.01812467
H  -0.00326474 0.00087371 0.00755139
12
MD Step 1498 Units = [Angstroms / fs]
C  -0.00130259 -0.00009190 -0.00752915
C  0.00496848 -0.00500253 0.00057596
C  0.00001098 0.00493059 -0.00413249
C  0.00065343 0.00653269 -0.00155775
C  0.00137143 0.00059717 -0.00155862
C  0.00401890 0.00137506 0.00090445
H  -0.02653104 0.00122065 0.00952959
H  0.02092234 0.00647846 0.00991954
H  0.01650238 0.00325746 -0.00625410
H  0.02245486 -0.01668109 0.01425618
H  0.02464356 -0.02308485 -0.01803026
H  0.00002730 -0.00039681 0.00685203
12
MD Step 1499 Units = [Angstroms / fs]
C  -0.00106984 0.00045733 -0.00744981
C  0.00459930 -0.00533110 0.00048512
C  -0.00025972 0.00435060 -0.00375607
C  0.00031596 0.00588277 -0.00231348
C  0.00188834 0.00032260 -0.00116476
C  0.00353665 0.00147322 0.00086332
H  -0.02514999 -0.00027084 0.00954113
H  0.02189681 0.01064229 0.00947566
H  0.01989318 0.00517610 -0.00601778
H  0.02581600 -0.00968272 0.01574887
H  0.02043116 -0.01931686 -0.01813897
H  0.00359198 -0.00162581 0.00611771
12
MD Step 1500 Units = [Angstroms / fs]
C  -0.00082164 0.00091156 -0.00733279
C  0.00419329 -0.00554743 0.00037943
C  -0.00042808 0.00370484 -0.00338203
C  0.00002253 0.00515831 -0.00305460
C  0.00249207 -0.00006356 -0.00076747
C  0.00304644 0.00155221 0.00081274
H  -0.02291506 -0.00085073 0.00938431
H  0.02276443 0.01436814 0.00900008
H  0.02149209 0.00717022 -0.00561646
H  0.02902715 -0.00231504 0.01714904
H  0.01501173 -0.01350935 -0.01844167
H  0.00712929 -0.00278813 0.00535883
12
MD Step 1501 Units = [Angstroms / fs]
C  -0.00056312 0.00126915 -0.00717781
C  0.00375368 -0.00563638 0.00025842
C  -0.00048740 0.00300529 -0.00301342
C  -0.00019028 0.00442248 -0.00378397
C  0.00314796 -0.00050825 -0.00037398
C  0.00257286 0.00161095 0.00075234
H  -0.01986777 -0.00055275 0.00904934
H  0.02360032 0.01744363 0.00850417
H  0.02123727 0.00920520 -0.00504298
H  0.03165480 0.00465664 0.01853819
H  0.00877213 -0.00631538 -0.01887715
H  0.01034106 -0.00386020 0.00458767
12
MD Step 1502 Units = [Angstroms / fs]
C  -0.00029507 0.00153544 -0.00698557
C  0.00328415 -0.00558785 0.00012183
C  -0.00044357 0.00226598 -0.00265214
C  -0.00028956 0.00373217 -0.00450223
C  0.00381262 -0.00094153 0.00000468
C  0.00213935 0.00164946 0.00068163
H  -0.01610842 0.00050795 0.00853541
H  0.02446687 0.01970205 0.00799995
H  0.01923622 0.01123373 -0.00430584
H  0.03329447 0.01055348 0.01996510
H  0.00220834 0.00138905 -0.01933184
H  0.01294749 -0.00482114 0.00381755
12
MD Step 1503 Units = [Angstroms / fs]
C  -0.00001487 0.00172114 -0.00675771
C  0.00278954 -0.00539792 -0.00003027
C  -0.00031220 0.00150222 -0.00229912
C  -0.00025138 0.00313021 -0.00520690
C  0.00443955 -0.00128841 0.00035496
C  0.00176693 0.00166892 0.00060004
H  -0.01178368 0.00215507 0.00785121
H  0.02540452 0.02103793 0.00749868
H  0.01572815 0.01320069 -0.00342588
H  0.03363827 0.01487684 0.02143508
H  -0.00414555 0.00864797 -0.01965488
H  0.01470517 -0.00565379 0.00306182
12
MD Step 1504 Units = [Angstroms / fs]
C  0.00028241 0.00184092 -0.00649677
C  0.00227670 -0.00506973 -0.00019739
C  -0.00011550 0.00072962 -0.00195460
C  -0.00006407 0.00264153 -0.00589259
C  0.00498564 -0.00148283 0.00066308
C  0.00147268 0.00167158 0.00050701
H  -0.00707311 0.00417109 0.00701452
H  0.02642232 0.02141993 0.00700921
H  0.01104417 0.01504816 -0.00243258
H  0.03251703 0.01735353 0.02291255
H  -0.00979922 0.01459389 -0.01968579
H  0.01542734 -0.00634556 0.00233275
12
MD Step 1505 Units = [Angstroms / fs]
C  0.00060295 0.00191207 -0.00620611
C  0.00175529 -0.00461392 -0.00037855
C  0.00012023 -0.00003659 -0.00161835
C  0.00027116 0.00227348 -0.00655198
C  0.00541680 -0.00147898 0.00091743
C  0.00126818 0.00166064 0.00040216
H  -0.00217660 0.00631477 0.00605106
H  0.02749007 0.02089775 0.00653637
H  0.00557322 0.01671996 -0.00136083
H  0.02990990 0.01793144 0.02433332
H  -0.01437403 0.01858715 -0.01928540
H  0.01500524 -0.00688893 0.00164022
12
MD Step 1506 Units = [Angstroms / fs]
C  0.00095317 0.00195344 -0.00588971
C  0.00123822 -0.00404823 -0.00057215
C  0.00036655 -0.00078224 -0.00128986
C  0.00074166 0.00201891 -0.00717699
C  0.00571106 -0.00125691 0.00111051
C  0.00115783 0.00163997 0.00028537
H  0.00269700 0.00833618 0.00499297
H  0.02853466 0.01959993 0.00607978
H  -0.00026400 0.01816512 -0.00024829
H  0.02592675 0.01674071 0.02562068
H  -0.01763959 0.02028689 -0.01835969
H  0.01342799 -0.00728154 0.00099051
12
MD Step 1507 Units = [Angstroms / fs]
C  0.00133887 0.00198445 -0.00555204
C  0.00074160 -0.00339628 -0.00077607
C  0.00059429 -0.00149462 -0.00096848
C  0.00132590 0.00186034 -0.00775997
C  0.00585897 -0.00082186 0.00123963
C  0.00113776 0.00161384 0.00015690
H  0.00734030 0.00999010 0.00387696
H  0.02944280 0.01772053 0.00563341
H  -0.00603420 0.01934051 0.00086655
H  0.02077642 0.01404147 0.02669978
H  -0.01951562 0.01964729 -0.01687028
H  0.01079587 -0.00752550 0.00038540
12
MD Step 1508 Units = [Angstroms / fs]
C  0.00176434 0.00202404 -0.00519786
C  0.00028390 -0.00268548 -0.00098766
C  0.00077475 -0.00216273 -0.00065358
C  0.00199616 0.00177395 -0.00829439
C  0.00586198 -0.00019915 0.00130657
C  0.00119552 0.00158657 0.00001747
H  0.01155816 0.01104975 0.00274192
H  0.03007147 0.01549543 0.00518616
H  -0.01130753 0.02021301 0.00194611
H  0.01473308 0.01017491 0.02750784
H  -0.02004868 0.01686131 -0.01483180
H  0.00732176 -0.00762623 -0.00017814
12
MD Step 1509 Units = [Angstroms / fs]
C  0.00223146 0.00208944 -0.00483196
C  -0.00011541 -0.00194445 -0.00120396
C  0.00088107 -0.00277745 -0.00034463
C  0.00272066 0.00173247 -0.00877525
C  0.00572990 0.00057249 0.00131665
C  0.00131107 0.00156208 -0.00013178
H  0.01517966 0.01132203 0.00162608
H  0.03026530 0.01317179 0.00472352
H  -0.01567478 0.02076114 0.00295552
H  0.00810873 0.00552645 0.02799992
H  -0.01937800 0.01228454 -0.01230130
H  0.00331632 -0.00759089 -0.00070744
12
MD Step 1510 Units = [Angstroms / fs]
C  0.00273873 0.00219468 -0.00445892
C  -0.00043777 -0.00120038 -0.00142189
C  0.00089002 -0.00333153 -0.00004139
C  0.00346528 0.00170709 -0.00919930
C  0.00547841 0.00144707 0.00127749
C  0.00145910 0.00154355 -0.00028935
H  0.01807156 0.01066510 0.00056348
H  0.02987788 0.01097668 0.00422988
H  -0.01876993 0.02097628 0.00386478
H  0.00123412 0.00050226 0.02815167
H  -0.01770291 0.00636544 -0.00936528
H  -0.00084384 -0.00742695 -0.00121268
12
MD Step 1511 Units = [Angstroms / fs]
C  0.00328038 0.00234891 -0.00408276
C  -0.00066739 -0.00047682 -0.00163847
C  0.00078450 -0.00381944 0.00025588
C  0.00419472 0.00166848 -0.00956510
C  0.00512721 0.00237579 0.00119809
C  0.00161236 0.00153312 -0.00045358
H  0.02015257 0.00900751 -0.00041998
H  0.02879282 0.00909076 0.00369119
H  -0.02030016 0.02086280 0.00465151
H  -0.00555320 -0.00448386 0.02796042
H  -0.01525838 -0.00040515 -0.00612839
H  -0.00476073 -0.00714128 -0.00170494
12
MD Step 1512 Units = [Angstroms / fs]
C  0.00384557 0.00255481 -0.00370660
C  -0.00079289 0.00020766 -0.00185105
C  0.00055651 -0.00423703 0.00054620
C  0.00487357 0.00158741 -0.00987300
C  0.00469872 0.00330972 0.00108812
C  0.00174539 0.00153169 -0.00062277
H  0.02140578 0.00636593 -0.00131037
H  0.02694018 0.00763153 0.00309714
H  -0.02008275 0.02043652 0.00530399
H  -0.01191739 -0.00901904 0.02744563
H  -0.01230014 -0.00752356 -0.00270558
H  -0.00806401 -0.00674008 -0.00219403
12
MD Step 1513 Units = [Angstroms / fs]
C  0.00441824 0.00280739 -0.00333250
C  -0.00080832 0.00083999 -0.00205740
C  0.00021029 -0.00458095 0.00082764
C  0.00546757 0.00143552 -0.01012526
C  0.00421748 0.00420112 0.00095749
C  0.00183779 0.00153886 -0.00079534
H  0.02188612 0.00285714 -0.00210855
H  0.02430580 0.00664740 0.00244270
H  -0.01808315 0.01972072 0.00582405
H  -0.01753388 -0.01270106 0.02664871
H  -0.00909768 -0.01448717 0.00078270
H  -0.01045459 -0.00622955 -0.00268670
12
MD Step 1514 Units = [Angstroms / fs]
C  0.00497748 0.00309371 -0.00296132
C  -0.00071356 0.00141228 -0.00225579
C  -0.00023537 -0.00484794 0.00109727
C  0.00594526 0.00118659 -0.01032589
C  0.00370976 0.00500397 0.00081620
C  0.00187643 0.00155309 -0.00096995
H  0.02171875 -0.00130113 -0.00283086
H  0.02093281 0.00612126 0.00172872
H  -0.01444417 0.01874013 0.00622856
H  -0.02210404 -0.01515543 0.02563173
H  -0.00593139 -0.02080040 0.00421356
H  -0.01173467 -0.00561692 -0.00318559
12
MD Step 1515 Units = [Angstroms / fs]
C  0.00549906 0.00339384 -0.00259290
C  -0.00051420 0.00192102 -0.00244500
C  -0.00074650 -0.00503409 0.00135119
C  0.00628029 0.00081892 -0.01048044
C  0.00320315 0.00567460 0.00067406
C  0.00185636 0.00157190 -0.00114552
H  0.02108621 -0.00580463 -0.00350702
H  0.01691665 0.00598051 0.00096176
H  -0.00949337 0.01751385 0.00654884
H  -0.02537796 -0.01606446 0.02447314
H  -0.00308972 -0.02598085 0.00746471
H  -0.01182068 -0.00491145 -0.00368908
12
MD Step 1516 Units = [Angstroms / fs]
C  0.00595758 0.00368312 -0.00222644
C  -0.00022095 0.00236610 -0.00262426
C  -0.00127618 -0.00513432 0.00158491
C  0.00645419 0.00031876 -0.01059535
C  0.00272584 0.00617279 0.00054044
C  0.00178036 0.00159216 -0.00132123
H  0.02020488 -0.01029298 -0.00417497
H  0.01239591 0.00611016 0.00015325
H  -0.00371839 0.01604999 0.00682692
H  -0.02718518 -0.01520978 0.02325893
H  -0.00086142 -0.02957359 0.01041959
H  -0.01074034 -0.00412510 -0.00419180
12
MD Step 1517 Units = [Angstroms / fs]
C  0.00632929 0.00393545 -0.00186108
C  0.00015120 0.00274984 -0.00279314
C  -0.00176936 -0.00514242 0.00179384
C  0.00645925 -0.00031539 -0.01067680
C  0.00230508 0.00646409 0.00042363
C  0.00165782 0.00161053 -0.00149652
H  0.01929476 -0.01439184 -0.00487374
H  0.00754104 0.00636641 -0.00068154
H  0.00229151 0.01434424 0.00710932
H  -0.02746882 -0.01252398 0.02206800
H  0.00048187 -0.03117998 0.01297589
H  -0.00861823 -0.00327257 -0.00468567
12
MD Step 1518 Units = [Angstroms / fs]
C  0.00659473 0.00412688 -0.00149643
C  0.00058389 0.00307614 -0.00295157
C  -0.00216983 -0.00505173 0.00197400
C  0.00630064 -0.00106863 -0.01072922
C  0.00196459 0.00652358 0.00032991
C  0.00150298 0.00162384 -0.00167101
H  0.01854914 -0.01775879 -0.00563602
H  0.00254249 0.00658944 -0.00152485
H  0.00792746 0.01238390 0.00743941
H  -0.02631293 -0.00813874 0.02095280
H  0.00071671 -0.03050459 0.01505846
H  -0.00565543 -0.00237102 -0.00516102
12
MD Step 1519 Units = [Angstroms / fs]
C  0.00674081 0.00423881 -0.00113307
C  0.00105647 0.00334993 -0.00309966
C  -0.00242736 -0.00485634 0.00212255
C  0.00599671 -0.00190745 -0.01075373
C  0.00172088 0.00634076 0.00026237
C  0.00133339 0.00162957 -0.00184449
H  0.01811073 -0.02012332 -0.00648218
H  -0.00240095 0.00661504 -0.00235764
H  0.01264686 0.01015625 0.00785052
H  -0.02395003 -0.00240990 0.01991995
H  -0.00028796 -0.02741710 0.01663469
H  -0.00210779 -0.00143940 -0.00560774
12
MD Step 1520 Units = [Angstroms / fs]
C  0.00676188 0.00426004 -0.00077272
C  0.00154717 0.00357662 -0.00323769
C  -0.00250358 -0.00455263 0.00223818
C  0.00557674 -0.00278100 -0.01074715
C  0.00157900 0.00592462 0.00021979
C  0.00116836 0.00162615 -0.00201687
H  0.01805850 -0.02131347 -0.00741726
H  -0.00709391 0.00628580 -0.00316105
H  0.01604194 0.00765825 0.00836153
H  -0.02073813 0.00410004 0.01891825
H  -0.00252050 -0.02201591 0.01772839
H  0.00173453 -0.00049766 -0.00601618
12
MD Step 1521 Units = [Angstroms / fs]
C  0.00665988 0.00418759 -0.00041823
C  0.00203439 0.00376172 -0.00336599
C  -0.00237520 -0.00414062 0.00232119
C  0.00507623 -0.00362657 -0.01070220
C  0.00152901 0.00530688 0.00019619
C  0.00102771 0.00161328 -0.00218813
H  0.01840592 -0.02126602 -0.00843090
H  -0.01135642 0.00546258 -0.00391778
H  0.01787729 0.00490417 0.00897572
H  -0.01710707 0.01069046 0.01784128
H  -0.00578696 -0.01466990 0.01842522
H  0.00556545 0.00043406 -0.00637795
12
MD Step 1522 Units = [Angstroms / fs]
C  0.00644349 0.00402636 -0.00007335
C  0.00249809 0.00391029 -0.00348488
C  -0.00203459 -0.00362486 0.00237328
C  0.00453082 -0.00437863 -0.01060899
C  0.00154514 0.00454128 0.00018149
C  0.00093066 0.00159192 -0.00235822
H  0.01910821 -0.02002197 -0.00949983
H  -0.01503652 0.00403710 -0.00461361
H  0.01809417 0.00192900 0.00968251
H  -0.01348679 0.01663067 0.01654708
H  -0.00970328 -0.00601152 0.01886332
H  0.00907998 0.00133622 -0.00668641
12
MD Step 1523 Units = [Angstroms / fs]
C  0.00612698 0.00378788 0.00025761
C  0.00292124 0.00402632 -0.00359451
C  -0.00148830 -0.00301479 0.00239729
C  0.00397075 -0.00497870 -0.01045755
C  0.00158880 0.00369753 0.00016354
C  0.00089463 0.00156419 -0.00252702
H  0.02007485 -0.01771181 -0.01059176
H  -0.01802288 0.00194549 -0.00523897
H  0.01678945 -0.00121259 0.01046107
H  -0.01023904 0.02127769 0.01488954
H  -0.01373565 0.00313439 0.01920776
H  0.01199149 0.00219075 -0.00693719
12
MD Step 1524 Units = [Angstroms / fs]
C  0.00572869 0.00348891 0.00057011
C  0.00329117 0.00411190 -0.00369478
C  -0.00075451 -0.00232442 0.00239672
C  0.00341744 -0.00538339 -0.01024037
C  0.00161546 0.00285094 0.00013089
C  0.00093389 0.00153294 -0.00269423
H  0.02118368 -0.01453599 -0.01166957
H  -0.02025616 -0.00081817 -0.00579031
H  0.01418150 -0.00445046 0.01128445
H  -0.00761204 0.02416920 0.01275069
H  -0.01728715 0.01187665 0.01961504
H  0.01405040 0.00298178 -0.00712840
12
MD Step 1525 Units = [Angstroms / fs]
C  0.00526966 0.00314977 0.00085973
C  0.00360050 0.00416646 -0.00378526
C  0.00013962 -0.00157160 0.00237542
C  0.00288269 -0.00556861 -0.00995412
C  0.00158350 0.00207038 0.00007541
C  0.00105804 0.00150126 -0.00285930
H  0.02229392 -0.01074485 -0.01269518
H  -0.02173682 -0.00419075 -0.00627101
H  0.01057405 -0.00770447 0.01212340
H  -0.00572659 0.02506930 0.01006355
H  -0.01980654 0.01940336 0.02019990
H  0.01506506 0.00369644 -0.00726078
12
MD Step 1526 Units = [Angstroms / fs]
C  0.00477239 0.00279305 0.00112236
C  0.00384761 0.00418630 -0.00386514
C  0.00116037 -0.00077701 0.00233725
C  0.00237015 -0.00552974 -0.00960024
C  0.00146201 0.00140857 -0.00000619
C  0.00127031 0.00147192 -0.00302140
H  0.02325731 -0.00662017 -0.01363261
H  -0.02252650 -0.00803459 -0.00669149
H  0.00632487 -0.01089005 0.01294933
H  -0.00458904 0.02396495 0.00682040
H  -0.02088359 0.02510180 0.02101609
H  0.01492361 0.00432556 -0.00733761
12
MD Step 1527 Units = [Angstroms / fs]
C  0.00425969 0.00244235 0.00135441
C  0.00403621 0.00416455 -0.00393325
C  0.00226927 0.00003707 0.00228588
C  0.00187784 -0.00527890 -0.00918451
C  0.00123522 0.00089700 -0.00011232
C  0.00156602 0.00144696 -0.00317945
H  0.02392723 -0.00245877 -0.01445052
H  -0.02274107 -0.01214124 -0.00706822
H  0.00182137 -0.01392298 0.01373651
H  -0.00411935 0.02102792 0.00306793
H  -0.02030238 0.02862053 0.02205556
H  0.01361395 0.00486402 -0.00736435
12
MD Step 1528 Units = [Angstroms / fs]
C  0.00375374 0.00212109 0.00155293
C  0.00417420 0.00409196 -0.00398823
C  0.00342464 0.00084795 0.00222457
C  0.00140087 -0.00484096 -0.00871596
C  0.00090286 0.00054615 -0.00023770
C  0.00193167 0.00142738 -0.00333214
H  0.02416675 0.00144298 -0.01512397
H  -0.02253478 -0.01624639 -0.00742161
H  -0.00253806 -0.01672343 0.01446356
H  -0.00418180 0.01656294 -0.00110514
H  -0.01804478 0.02986886 0.02326240
H  0.01123669 0.00531073 -0.00734798
12
MD Step 1529 Units = [Angstroms / fs]
C  0.00327507 0.00185132 0.00171571
C  0.00427187 0.00395838 -0.00402870
C  0.00458298 0.00163379 0.00215607
C  0.00093340 -0.00424969 -0.00820574
C  0.00047741 0.00034924 -0.00037495
C  0.00234495 0.00141312 -0.00347805
H  0.02385640 0.00480536 -0.01563589
H  -0.02207778 -0.02005565 -0.00777301
H  -0.00636051 -0.01921960 0.01511458
H  -0.00461051 0.01095878 -0.00558231
H  -0.01425667 0.02897173 0.02455315
H  0.00800571 0.00566796 -0.00729616
12
MD Step 1530 Units = [Angstroms / fs]
C  0.00284164 0.00165225 0.00184136
C  0.00433989 0.00375482 -0.00405349
C  0.00570068 0.00237461 0.00208249
C  0.00047001 -0.00354469 -0.00766613
C  -0.00001991 0.00028743 -0.00051609
C  0.00277616 0.00140316 -0.00361578
H  0.02290248 0.00738387 -0.01597800
H  -0.02153133 -0.02327741 -0.00814141
H  -0.00927683 -0.02135123 0.01567995
H  -0.00522672 0.00465091 -0.01023174
H  -0.00919791 0.02620676 0.02583588
H  0.00423202 0.00594024 -0.00721628
12
MD Step 1531 Units = [Angstroms / fs]
C  0.00246789 0.00153852 0.00192931
C  0.00438749 0.00347553 -0.00406182
C  0.00673628 0.00305322 0.00200521
C  0.00000630 -0.00276927 -0.00710985
C  -0.00056301 0.00033465 -0.00065363
C  0.00319098 0.00139572 -0.00374403
H  0.02124593 0.00899065 -0.01615116
H  -0.02102585 -0.02565690 -0.00854063
H  -0.01096521 -0.02307295 0.01615677
H  -0.00584864 -0.00190290 -0.01491557
H  -0.00319463 0.02194544 0.02702408
H  0.00029063 0.00613277 -0.00711459
12
MD Step 1532 Units = [Angstroms / fs]
C  0.00216381 0.00151838 0.00197980
C  0.00442127 0.00311969 -0.00405346
C  0.00765333 0.00365583 0.00192495
C  -0.00046099 -0.00196903 -0.00654955
C  -0.00112384 0.00046112 -0.00078113
C  0.00355422 0.00138860 -0.00386169
H  0.01887124 0.00951745 -0.01616483
H  -0.02064632 -0.02700471 -0.00897746
H  -0.01118182 -0.02435699 0.01654873
H  -0.00629647 -0.00823770 -0.01949672
H  0.00339638 0.01660981 0.02804475
H  -0.00342501 0.00624995 -0.00699571
12
MD Step 1533 Units = [Angstroms / fs]
C  0.00193428 0.00159188 0.00199376
C  0.00444472 0.00269244 -0.00402872
C  0.00842389 0.00417233 0.00184178
C  -0.00093393 -0.00119056 -0.00599746
C  -0.00167408 0.00063539 -0.00089341
C  0.00383387 0.00137941 -0.00396789
H  0.01581368 0.00895676 -0.01603537
H  -0.02042667 -0.02721517 -0.00945114
H  -0.00979690 -0.02519428 0.01686499
H  -0.00639557 -0.01389325 -0.02384461
H  0.01020939 0.01064647 0.02884217
H  -0.00655236 0.00629439 -0.00686250
12
MD Step 1534 Units = [Angstroms / fs]
C  0.00177865 0.00174981 0.00197256
C  0.00445840 0.00220489 -0.00398843
C  0.00903197 0.00459620 0.00175535
C  -0.00141343 -0.00047985 -0.00546488
C  -0.00218602 0.00082538 -0.00098664
C  0.00400456 0.00136581 -0.00406198
H  0.01216291 0.00741523 -0.01578313
H  -0.02035263 -0.02627269 -0.00995410
H  -0.00683000 -0.02559280 0.01711770
H  -0.00598108 -0.01842908 -0.02784162
H  0.01688079 0.00451414 0.02937934
H  -0.00880276 0.00626648 -0.00671631
12
MD Step 1535 Units = [Angstroms / fs]
C  0.00169095 0.00197365 0.00191777
C  0.00446058 0.00167350 -0.00393378
C  0.00947609 0.00492394 0.00166531
C  -0.00189888 0.00012004 -0.00496163
C  -0.00263290 0.00099869 -0.00105832
C  0.00404988 0.00134564 -0.00414354
H  0.00806049 0.00511340 -0.01542868
H  -0.02037042 -0.02424728 -0.01047350
H  -0.00247389 -0.02557255 0.01731813
H  -0.00490677 -0.02144905 -0.03139152
H  0.02305464 -0.00132183 0.02963869
H  -0.00999023 0.00616478 -0.00655754
12
MD Step 1536 Units = [Angstroms / fs]
C  0.00166065 0.00223711 0.00183087
C  0.00444809 0.00111895 -0.00386617
C  0.00976993 0.00515427 0.00157162
C  -0.00238733 0.00057258 -0.00449513
C  -0.00298933 0.00112297 -0.00110737
C  0.00396322 0.00131701 -0.00421227
H  0.00369024 0.00236723 -0.01498888
H  -0.02039814 -0.02128260 -0.01099314
H  0.00290517 -0.02515777 0.01747211
H  -0.00306033 -0.02263936 -0.03442989
H  0.02838861 -0.00639512 0.02962267
H  -0.01004285 0.00598683 -0.00638622
12
MD Step 1537 Units = [Angstroms / fs]
C  0.00167404 0.00250907 0.00171297
C  0.00441707 0.00056472 -0.00378712
C  0.00994025 0.00528722 0.00147503
C  -0.00287223 0.00085228 -0.00406957
C  -0.00323200 0.00116692 -0.00113416
C  0.00374736 0.00127840 -0.00426802
H  -0.00073829 -0.00044849 -0.01447395
H  -0.02033730 -0.01758012 -0.01149546
H  0.00879929 -0.02436858 0.01757586
H  -0.00038563 -0.02181907 -0.03693515
H  0.03256536 -0.01025189 0.02935434
H  -0.00899840 0.00573016 -0.00620250
12
MD Step 1538 Units = [Angstroms / fs]
C  0.00171596 0.00275758 0.00156481
C  0.00436367 0.00003571 -0.00369809
C  0.01002215 0.00532356 0.00137719
C  -0.00334163 0.00094961 -0.00368518
C  -0.00334125 0.00110236 -0.00114059
C  0.00341312 0.00122872 -0.00431070
H  -0.00501076 -0.00294896 -0.01388634
H  -0.02008295 -0.01338222 -0.01196320
H  0.01462225 -0.02321517 0.01761401
H  0.00309089 -0.01899491 -0.03893605
H  0.03531343 -0.01247898 0.02887685
H  -0.00698889 0.00539325 -0.00600707
12
MD Step 1539 Units = [Angstroms / fs]
C  0.00177160 0.00295407 0.00138677
C  0.00428439 -0.00044303 -0.00360044
C  0.01005265 0.00526465 0.00128067
C  -0.00377674 0.00087481 -0.00333821
C  -0.00330350 0.00090788 -0.00112987
C  0.00297768 0.00116734 -0.00434024
H  -0.00892963 -0.00479042 -0.01322181
H  -0.01953195 -0.00895592 -0.01238086
H  0.01979190 -0.02169712 0.01756070
H  0.00723653 -0.01440328 -0.04051074
H  0.03643875 -0.01275106 0.02824996
H  -0.00421960 0.00497615 -0.00580124
12
MD Step 1540 Units = [Angstroms / fs]
C  0.00182804 0.00307675 0.00117915
C  0.00417638 -0.00084753 -0.00349532
C  0.01006419 0.00511280 0.00118852
C  -0.00415140 0.00065883 -0.00302190
C  -0.00311420 0.00057390 -0.00110604
C  0.00246276 0.00109422 -0.00435660
H  -0.01233228 -0.00571245 -0.01247220
H  -0.01858963 -0.00457727 -0.01273568
H  0.02381148 -0.01980807 0.01738379
H  0.01180213 -0.00851750 -0.04177327
H  0.03586311 -0.01089506 0.02754181
H  -0.00094727 0.00448094 -0.00558702
12
MD Step 1541 Units = [Angstroms / fs]
C  0.00187531 0.00311268 0.00094242
C  0.00403763 -0.00115603 -0.00338371
C  0.01007979 0.00487194 0.00110382
C  -0.00443341 0.00034985 -0.00272841
C  -0.00278072 0.00010812 -0.00107296
C  0.00189308 0.00100990 -0.00435972
H  -0.01510298 -0.00556381 -0.01162902
H  -0.01717559 -0.00051579 -0.01301845
H  0.02633017 -0.01754397 0.01705094
H  0.01643556 -0.00200356 -0.04284804
H  0.03365937 -0.00695922 0.02681490
H  0.00254024 0.00391181 -0.00536707
12
MD Step 1542 Units = [Angstroms / fs]
C  0.00190685 0.00305831 0.00067747
C  0.00386716 -0.00135025 -0.00326636
C  0.01011061 0.00454818 0.00102913
C  -0.00458800 0.00000559 -0.00245119
C  -0.00232369 -0.00046059 -0.00103295
C  0.00129498 0.00091557 -0.00434946
H  -0.01717760 -0.00430950 -0.01068677
H  -0.01522919 0.00298207 -0.01322401
H  0.02717178 -0.01491139 0.01653569
H  0.02072288 0.00437524 -0.04383885
H  0.03006823 -0.00126279 0.02610815
H  0.00594206 0.00327506 -0.00514448
12
MD Step 1543 Units = [Angstroms / fs]
C  0.00191955 0.00291867 0.00038577
C  0.00366525 -0.00141667 -0.00314378
C  0.01015614 0.00415013 0.00096610
C  -0.00458287 -0.00031689 -0.00218697
C  -0.00177580 -0.00108227 -0.00098559
C  0.00069520 0.00081300 -0.00432567
H  -0.01854219 -0.00202194 -0.00964528
H  -0.01271531 0.00571129 -0.01335139
H  0.02633190 -0.01193323 0.01582207
H  0.02424994 0.00988257 -0.04480358
H  0.02548180 0.00560252 0.02542057
H  0.00896110 0.00257890 -0.00492270
12
MD Step 1544 Units = [Angstroms / fs]
C  0.00191340 0.00270583 0.00006944
C  0.00343383 -0.00134800 -0.00301630
C  0.01020605 0.00368880 0.00091531
C  -0.00439340 -0.00057080 -0.00193658
C  -0.00117739 -0.00169138 -0.00092713
C  0.00011963 0.00070449 -0.00428813
H  -0.01922717 0.00113783 -0.00851077
H  -0.00963024 0.00752789 -0.01340365
H  0.02395270 -0.00865058 0.01490680
H  0.02666751 0.01392541 -0.04574339
H  0.02038966 0.01283846 0.02470395
H  0.01132114 0.00183315 -0.00470526
12
MD Step 1545 Units = [Angstroms / fs]
C  0.00189100 0.00243694 -0.00026881
C  0.00317682 -0.00114452 -0.00288412
C  0.01024288 0.00317706 0.00087624
C  -0.00400652 -0.00072588 -0.00170440
C  -0.00057010 -0.00221734 -0.00085104
C  -0.00040807 0.00059282 -0.00423660
H  -0.01929960 0.00494309 -0.00729586
H  -0.00600716 0.00836809 -0.01338711
H  0.02028764 -0.00512114 0.01379954
H  0.02774078 0.01612961 -0.04660930
H  0.01529872 0.01956673 0.02386989
H  0.01278548 0.00104890 -0.00449560
12
MD Step 1546 Units = [Angstroms / fs]
C  0.00185701 0.00213253 -0.00062574
C  0.00290052 -0.00081511 -0.00274734
C  0.01024464 0.00262903 0.00084739
C  -0.00342228 -0.00077016 -0.00149695
C  0.00000981 -0.00259711 -0.00074965
C  -0.00086806 0.00048121 -0.00417092
H  -0.01885496 0.00912382 -0.00601875
H  -0.00192011 0.00826304 -0.01331007
H  0.01566603 -0.00141560 0.01252172
H  0.02737160 0.01636061 -0.04732085
H  0.01065111 0.02498080 0.02281051
H  0.01317773 0.00023807 -0.00429673
12
MD Step 1547 Units = [Angstroms / fs]
C  0.00181768 0.00181486 -0.00099776
C  0.00261377 -0.00037759 -0.00260617
C  0.01018709 0.00205936 0.00082650
C  -0.00265315 -0.00070789 -0.00132108
C  0.00053611 -0.00278573 -0.00061617
C  -0.00124608 0.00037324 -0.00409101
H  -0.01800960 0.01338653 -0.00470191
H  0.00251510 0.00734467 -0.01318102
H  0.01046339 0.00238672 0.01110456
H  0.02559319 0.01469737 -0.04778849
H  0.00676534 0.02847476 0.02142510
H  0.01240346 -0.00058700 -0.00411108
12
MD Step 1548 Units = [Angstroms / fs]
C  0.00178026 0.00150670 -0.00138101
C  0.00232780 0.00014210 -0.00246097
C  0.01004535 0.00148249 0.00081070
C  -0.00172185 -0.00055541 -0.00118270
C  0.00099438 -0.00276193 -0.00044645
C  -0.00153508 0.00027291 -0.00399697
H  -0.01689374 0.01743140 -0.00337068
H  0.00714467 0.00583801 -0.01300659
H  0.00507852 0.00620220 0.00958710
H  0.02254619 0.01138030 -0.04793246
H  0.00381373 0.02971335 0.01964288
H  0.01046963 -0.00141386 -0.00394013
12
MD Step 1549 Units = [Angstroms / fs]
C  0.00175256 0.00123016 -0.00177158
C  0.00205566 0.00071190 -0.00231245
C  0.00979522 0.00091215 0.00079675
C  -0.00065866 -0.00033660 -0.00108585
C  0.00138095 -0.00252812 -0.00023978
C  -0.00173630 0.00018452 -0.00388910
H  -0.01564457 0.02096782 -0.00205154
H  0.01178580 0.00403826 -0.01278982
H  -0.00008440 0.00994685 0.00801397
H  0.01844796 0.00675484 -0.04769488
H  0.00183321 0.02863517 0.01743512
H  0.00749673 -0.00223014 -0.00378437
12
MD Step 1550 Units = [Angstroms / fs]
C  0.00174229 0.00100555 -0.00216560
C  0.00181123 0.00129670 -0.00216165
C  0.00941449 0.00036084 0.00078119
C  0.00050108 -0.00007921 -0.00103242
C  0.00170039 -0.00210629 0.00000118
C  -0.00185946 0.00011264 -0.00376795
H  -0.01439860 0.02373000 -0.00077041
H  0.01624090 0.00227458 -0.01252914
H  -0.00463268 0.01354020 0.00643306
H  0.01356436 0.00122473 -0.04704540
H  0.00075620 0.02540708 0.01481574
H  0.00371802 -0.00302345 -0.00364318
12
MD Step 1551 Units = [Angstroms / fs]
C  0.00175633 0.00085012 -0.00255942
C  0.00160801 0.00186202 -0.00200998
C  0.00888441 -0.00016058 0.00076064
C  0.00171892 0.00018756 -0.00102215
C  0.00196249 -0.00153217 0.00027103
C  -0.00192164 0.00006187 -0.00363427
H  -0.01328228 0.02549403 0.00044923
H  0.02031498 0.00086703 -0.01221839
H  -0.00820478 0.01690922 0.00489258
H  0.00818857 -0.00477983 -0.04598257
H  0.00044621 0.02035778 0.01183404
H  -0.00053786 -0.00378111 -0.00351496
12
MD Step 1552 Units = [Angstroms / fs]
C  0.00179977 0.00077663 -0.00294975
C  0.00145771 0.00237743 -0.00185906
C  0.00819177 -0.00064320 0.00073205
C  0.00295472 0.00043448 -0.00105263
C  0.00217987 -0.00084961 0.00056258
C  -0.00194478 0.00003653 -0.00348898
H  -0.01240052 0.02609657 0.00158820
H  0.02383363 0.00008524 -0.01184811
H  -0.01049605 0.01999230 0.00343720
H  0.00262755 -0.01082043 -0.04453319
H  0.00072809 0.01391468 0.00856457
H  -0.00488132 -0.00448988 -0.00339739
12
MD Step 1553 Units = [Angstroms / fs]
C  0.00187489 0.00079188 -0.00333378
C  0.00136907 0.00281919 -0.00171056
C  0.00733150 -0.00108021 0.00069312
C  0.00416773 0.00063283 -0.00111950
C  0.00236629 -0.00010631 0.00086754
C  -0.00195228 0.00004028 -0.00333315
H  -0.01182354 0.02545382 0.00263328
H  0.02665832 0.00011698 -0.01140750
H  -0.01129150 0.02274292 0.00210319
H  -0.00280643 -0.01646007 -0.04275113
H  0.00140852 0.00655647 0.00509767
H  -0.00890812 -0.00513574 -0.00328776
12
MD Step 1554 Units = [Angstroms / fs]
C  0.00198014 0.00089545 -0.00370926
C  0.00134702 0.00317171 -0.00156603
C  0.00630952 -0.00146689 0.00064269
C  0.00531759 0.00075489 -0.00121641
C  0.00253584 0.00064898 0.00117708
C  -0.00196531 0.00007574 -0.00316787
H  -0.01157375 0.02357771 0.00357822
H  0.02869694 0.00105163 -0.01088669
H  -0.01050241 0.02513171 0.00091298
H  -0.00780262 -0.02127041 -0.04071597
H  0.00228747 -0.00121607 0.00153240
H  -0.01224882 -0.00570413 -0.00318332
12
MD Step 1555 Units = [Angstroms / fs]
C  0.00210939 0.00107889 -0.00407453
C  0.00139224 0.00342759 -0.00142673
C  0.00514539 -0.00180030 0.00058115
C  0.00636561 0.00077469 -0.00133515
C  0.00270261 0.00136797 0.00148218
C  -0.00199971 0.00014412 -0.00299429
H  -0.01161580 0.02058459 0.00442365
H  0.02990839 0.00287866 -0.01027880
H  -0.00819897 0.02714563 -0.00012980
H  -0.01206128 -0.02484300 -0.03853063
H  0.00316307 -0.00889544 -0.00202831
H  -0.01461137 -0.00618051 -0.00308162
12
MD Step 1556 Units = [Angstroms / fs]
C  0.00225178 0.00132603 -0.00442835
C  0.00150111 0.00358685 -0.00129351
C  0.00387345 -0.00207856 0.00051058
C  0.00727652 0.00066954 -0.00146596
C  0.00288070 0.00200392 0.00177380
C  -0.00206398 0.00024501 -0.00281348
H  -0.01185349 0.01669190 0.00517571
H  0.03030172 0.00549823 -0.00958126
H  -0.00462735 0.02878337 -0.00104297
H  -0.01530955 -0.02681032 -0.03631626
H  0.00383362 -0.01597607 -0.00548130
H  -0.01580916 -0.00655128 -0.00298066
12
MD Step 1557 Units = [Angstroms / fs]
C  0.00239239 0.00161425 -0.00476975
C  0.00166604 0.00365547 -0.00116682
C  0.00254183 -0.00229987 0.00043465
C  0.00802079 0.00042276 -0.00159822
C  0.00308416 0.00251259 0.00204318
C  -0.00215867 0.00037626 -0.00262646
H  -0.01213676 0.01219986 0.00584336
H  0.02993130 0.00873876 -0.00879651
H  -0.00019920 0.03004743 -0.00186454
H  -0.01732614 -0.02688063 -0.03420211
H  0.00410024 -0.02196435 -0.00872709
H  -0.01577165 -0.00680481 -0.00287904
12
MD Step 1558 Units = [Angstroms / fs]
C  0.00251385 0.00191702 -0.00509773
C  0.00187585 0.00364378 -0.00104665
C  0.00120857 -0.00246161 0.00035807
C  0.00857752 0.00002761 -0.00172175
C  0.00332671 0.00285400 0.00228212
C  -0.00227699 0.00053407 -0.00243416
H  -0.01227944 0.00745930 0.00643499
H  0.02888970 0.01237696 -0.00793201
H  0.00455251 0.03093505 -0.00264680
H  -0.01797386 -0.02488625 -0.03230842
H  0.00377370 -0.02639777 -0.01167555
H  -0.01453943 -0.00693233 -0.00277596
12
MD Step 1559 Units = [Angstroms / fs]
C  0.00259862 0.00220701 -0.00541102
C  0.00211642 0.00356500 -0.00093268
C  -0.00006462 -0.00255967 0.00028571
C  0.00893729 -0.00050828 -0.00182866
C  0.00362075 0.00299528 0.00248370
C  -0.00240619 0.00071329 -0.00223741
H  -0.01208544 0.00283052 0.00695517
H  0.02729959 0.01615704 -0.00699976
H  0.00904626 0.03143177 -0.00344642
H  -0.01723430 -0.02083784 -0.03072270
H  0.00268875 -0.02887964 -0.01425411
H  -0.01224837 -0.00692855 -0.00267118
12
MD Step 1560 Units = [Angstroms / fs]
C  0.00263148 0.00245934 -0.00570792
C  0.00237132 0.00343399 -0.00082430
C  -0.00121959 -0.00258853 0.00022174
C  0.00910402 -0.00115917 -0.00191549
C  0.00397563 0.00291492 0.00264300
C  -0.00252928 0.00090777 -0.00203693
H  -0.01137798 -0.00135864 0.00740262
H  0.02530574 0.01980793 -0.00601551
H  0.01273755 0.03151031 -0.00431341
H  -0.01523324 -0.01496864 -0.02947345
H  0.00072796 -0.02913151 -0.01641820
H  -0.00910863 -0.00679197 -0.00256492
12
MD Step 1561 Units = [Angstroms / fs]
C  0.00260178 0.00265415 -0.00598629
C  0.00262250 0.00326629 -0.00072070
C  -0.00220834 -0.00254203 0.00016880
C  0.00909499 -0.00188009 -0.00198488
C  0.00439506 0.00260795 0.00275803
C  -0.00262674 0.00111100 -0.00183334
H  -0.01002526 -0.00484718 0.00776972
H  0.02306686 0.02305850 -0.00499778
H  0.01519546 0.03113568 -0.00528176
H  -0.01224307 -0.00774708 -0.02850989
H  -0.00214607 -0.02705788 -0.01816177
H  -0.00538268 -0.00652488 -0.00245783
12
MD Step 1562 Units = [Angstroms / fs]
C  0.00250485 0.00277817 -0.00624364
C  0.00285122 0.00307726 -0.00062098
C  -0.00299729 -0.00241472 0.00012762
C  0.00893804 -0.00260976 -0.00204596
C  0.00487418 0.00209064 0.00283023
C  -0.00267799 0.00131658 -0.00162717
H  -0.00795762 -0.00746234 0.00804380
H  0.02074721 0.02565205 -0.00396668
H  0.01615243 0.03027438 -0.00636443
H  -0.00865280 0.00016008 -0.02769782
H  -0.00585651 -0.02280681 -0.01952347
H  -0.00136502 -0.00613319 -0.00235085
12
MD Step 1563 Units = [Angstroms / fs]
C  0.00234251 0.00282517 -0.00647737
C  0.00303907 0.00288130 -0.00052426
C  -0.00356881 -0.00220336 0.00009707
C  0.00866652 -0.00327791 -0.00211296
C  0.00539724 0.00140276 0.00286441
C  -0.00266263 0.00151884 -0.00141891
H  -0.00517373 -0.00912631 0.00820952
H  0.01850689 0.02736124 -0.00294245
H  0.01552015 0.02890428 -0.00755318
H  -0.00490767 0.00797633 -0.02683835
H  -0.01018831 -0.01680070 -0.02058361
H  0.00263604 -0.00562604 -0.00224516
12
MD Step 1564 Units = [Angstroms / fs]
C  0.00212264 0.00279546 -0.00668498
C  0.00316931 0.00269099 -0.00042976
C  -0.00392026 -0.00190812 0.00007452
C  0.00831320 -0.00381535 -0.00220213
C  0.00593723 0.00060524 0.00286756
C  -0.00256156 0.00171314 -0.00120906
H  -0.00173709 -0.00985077 0.00825158
H  0.01649048 0.02800435 -0.00194390
H  0.01337574 0.02702197 -0.00882221
H  -0.00143411 0.01493630 -0.02570661
H  -0.01478955 -0.00971174 -0.02144912
H  0.00631546 -0.00501535 -0.00214207
12
MD Step 1565 Units = [Angstroms / fs]
C  0.00185812 0.00269485 -0.00686428
C  0.00322827 0.00251604 -0.00033696
C  -0.00406167 -0.00153342 0.00005634
C  0.00790500 -0.00416396 -0.00232807
C  0.00645832 -0.00022758 0.00284703
C  -0.00235812 0.00189603 -0.00099811
H  0.00223439 -0.00972340 0.00815722
H  0.01481365 0.02746264 -0.00098655
H  0.00992979 0.02464628 -0.01013378
H  0.00142699 0.02040384 -0.02409850
H  -0.01920787 -0.00237225 -0.02222880
H  0.00938881 -0.00431514 -0.00204288
12
MD Step 1566 Units = [Angstroms / fs]
C  0.00156549 0.00253344 -0.00701355
C  0.00320699 0.00236223 -0.00024567
C  -0.00401285 -0.00108805 0.00003844
C  0.00746025 -0.00428382 -0.00250065
C  0.00692106 -0.00101945 0.00280847
C  -0.00203940 0.00206516 -0.00078668
H  0.00658193 -0.00889103 0.00791813
H  0.01354903 0.02569720 -0.00008087
H  0.00548864 0.02181806 -0.01144412
H  0.00346023 0.02395390 -0.02186978
H  -0.02295877 0.00436264 -0.02300708
H  0.01161130 -0.00354067 -0.00194875
12
MD Step 1567 Units = [Angstroms / fs]
C  0.00126341 0.00232440 -0.00713166
C  0.00310248 0.00223046 -0.00015617
C  -0.00380082 -0.00058488 0.00001670
C  0.00698849 -0.00415599 -0.00272346
C  0.00728882 -0.00170429 0.00275444
C  -0.00159774 0.00221893 -0.00057548
H  0.01111997 -0.00754271 0.00753150
H  0.01271331 0.02276198 0.00076916
H  0.00041964 0.01859758 -0.01270835
H  0.00458289 0.02540161 -0.01895666
H  -0.02560730 0.00975910 -0.02382574
H  0.01279884 -0.00270719 -0.00186048
12
MD Step 1568 Units = [Angstroms / fs]
C  0.00097134 0.00208300 -0.00721805
C  0.00291864 0.00211631 -0.00006921
C  -0.00345782 -0.00004009 -0.00001273
C  0.00649247 -0.00378143 -0.00299378
C  0.00753344 -0.00223500 0.00268413
C  -0.00103241 0.00235611 -0.00036537
H  0.01564898 -0.00589442 0.00700048
H  0.01225914 0.01880891 0.00156673
H  -0.00487633 0.01506084 -0.01388422
H  0.00482632 0.02478370 -0.01537603
H  -0.02683759 0.01331086 -0.02467995
H  0.01284988 -0.00182853 -0.00177822
12
MD Step 1569 Units = [Angstroms / fs]
C  0.00070827 0.00182569 -0.00727281
C  0.00266637 0.00201039 0.00001402
C  -0.00301972 0.00052781 -0.00005329
C  0.00597079 -0.00317745 -0.00330382
C  0.00763851 -0.00258696 0.00259410
C  -0.00035101 0.00247529 -0.00015734
H  0.01996693 -0.00417538 0.00633408
H  0.01207527 0.01408123 0.00232174
H  -0.00998563 0.01129565 -0.01493474
H  0.00430473 0.02231130 -0.01121134
H  -0.02649058 0.01478207 -0.02552749
H  0.01176464 -0.00091553 -0.00170116
12
MD Step 1570 Units = [Angstroms / fs]
C  0.00049160 0.00156931 -0.00729654
C  0.00236259 0.00189954 0.00009202
C  -0.00252473 0.00109909 -0.00010784
C  0.00542057 -0.00237350 -0.00364225
C  0.00759978 -0.00275644 0.00247964
C  0.00042969 0.00257448 0.00004748
H  0.02387981 -0.00261517 0.00554661
H  0.01199752 0.00889315 0.00304900
H  -0.01449859 0.00739755 -0.01583010
H  0.00318362 0.01831538 -0.00659260
H  -0.02456544 0.01418941 -0.02630526
H  0.00965674 0.00002527 -0.00162721
12
MD Step 1571 Units = [Angstroms / fs]
C  0.00033610 0.00133008 -0.00729034
C  0.00202842 0.00176900 0.00016325
C  -0.00201193 0.00165409 -0.00017862
C  0.00483928 -0.00140739 -0.00399565
C  0.00742337 -0.00275598 0.00233603
C  0.00128392 0.00265087 0.00024781
H  0.02721196 -0.00143025 0.00465658
H  0.01183000 0.00359739 0.00376538
H  -0.01802665 0.00346538 -0.01654918
H  0.00165492 0.01319957 -0.00167740
H  -0.02119399 0.01174632 -0.02694604
H  0.00675164 0.00099210 -0.00155280
12
MD Step 1572 Units = [Angstroms / fs]
C  0.00025296 0.00112253 -0.00725566
C  0.00168658 0.00160494 0.00022633
C  -0.00151936 0.00217439 -0.00026716
C  0.00422571 -0.00032258 -0.00434960
C  0.00712306 -0.00260880 0.00215945
C  0.00217853 0.00270074 0.00044233
H  0.02981677 -0.00080857 0.00368512
H  0.01137339 -0.00145394 0.00448646
H  -0.02022396 -0.00040403 -0.01708082
H  -0.00007888 0.00740676 0.00336363
H  -0.01660337 0.00779647 -0.02739094
H  0.00336833 0.00198726 -0.00147280
12
MD Step 1573 Units = [Angstroms / fs]
C  0.00024893 0.00095805 -0.00719414
C  0.00135876 0.00139695 0.00028031
C  -0.00108136 0.00264410 -0.00037422
C  0.00358033 0.00083368 -0.00468935
C  0.00671764 -0.00234409 0.00194750
C  0.00307586 0.00271959 0.00062963
H  0.03158765 -0.00089206 0.00265392
H  0.01045406 -0.00594779 0.00522355
H  -0.02081641 -0.00412239 -0.01742471
H  -0.00181317 0.00139872 0.00835671
H  -0.01108046 0.00275657 -0.02759655
H  -0.00011568 0.00301523 -0.00138082
12
MD Step 1574 Units = [Angstroms / fs]
C  0.00032561 0.00084339 -0.00710739
C  0.00106331 0.00113986 0.00032481
C  -0.00072516 0.00305087 -0.00049980
C  0.00290518 0.00201151 -0.00500025
C  0.00622901 -0.00199374 0.00169932
C  0.00393762 0.00270254 0.00080835
H  0.03246813 -0.00175797 0.00158256
H  0.00894802 -0.00964079 0.00598170
H  -0.01963801 -0.00761736 -0.01759141
H  -0.00334500 -0.00435582 0.01313157
H  -0.00494508 -0.00292343 -0.02753786
H  -0.00331083 0.00407969 -0.00126973
12
MD Step 1575 Units = [Angstroms / fs]
C  0.00047910 0.00077915 -0.00699679
C  0.00081376 0.00083461 0.00036002
C  -0.00046727 0.00338680 -0.00064319
C  0.00220365 0.00315960 -0.00526819
C  0.00568096 -0.00159050 0.00141556
C  0.00472884 0.00264468 0.00097723
H  0.03245910 -0.00340197 0.00048579
H  0.00679538 -0.01237721 0.00675909
H  -0.01667025 -0.01083935 -0.01760103
H  -0.00447576 -0.00939112 0.01752722
H  0.00146653 -0.00878284 -0.02720868
H  -0.00586432 0.00518046 -0.00113250
12
MD Step 1576 Units = [Angstroms / fs]
C  0.00070012 0.00075883 -0.00686330
C  0.00061817 0.00048817 0.00038665
C  -0.00031016 0.00364872 -0.00080322
C  0.00148032 0.00422682 -0.00548016
C  0.00509859 -0.00116722 0.00109825
C  0.00542130 0.00254166 0.00113514
H  0.03162067 -0.00572746 -0.00062874
H  0.00400399 -0.01409376 0.00754775
H  -0.01207453 -0.01376568 -0.01747993
H  -0.00501605 -0.01325930 0.02139924
H  0.00781044 -0.01436075 -0.02662122
H  -0.00750159 0.00631107 -0.00096302
12
MD Step 1577 Units = [Angstroms / fs]
C  0.00097476 0.00076875 -0.00670737
C  0.00047938 0.00011268 0.00040578
C  -0.00024074 0.00383792 -0.00097863
C  0.00074118 0.00516485 -0.00562510
C  0.00450796 -0.00075650 0.00075076
C  0.00599570 0.00239003 0.00128120
H  0.03006677 -0.00854592 -0.00176172
H  0.00064404 -0.01481332 0.00833512
H  -0.00620435 -0.01639940 -0.01725570
H  -0.00479594 -0.01555652 0.02463014
H  0.01374043 -0.01920164 -0.02580554
H  -0.00805302 0.00745756 -0.00075691
12
MD Step 1578 Units = [Angstroms / fs]
C  0.00128586 0.00078910 -0.00652896
C  0.00039566 -0.00027583 0.00041870
C  -0.00023137 0.00395917 -0.00116847
C  -0.00000553 0.00593220 -0.00569507
C  0.00393561 -0.00039022 0.00037773
C  0.00644234 0.00218769 0.00141474
H  0.02795187 -0.01159171 -0.00292157
H  -0.00316316 -0.01463178 0.00910605
H  0.00041525 -0.01876176 -0.01695140
H  -0.00368299 -0.01596465 0.02714292
H  0.01891506 -0.02286333 -0.02480879
H  -0.00746335 0.00859884 -0.00051200
12
MD Step 1579 Units = [Angstroms / fs]
C  0.00161482 0.00079629 -0.00632775
C  0.00036166 -0.00065886 0.00042673
C  -0.00024404 0.00401923 -0.00137248
C  -0.00074801 0.00649933 -0.00568661
C  0.00340750 -0.00009835 -0.00001507
C  0.00676071 0.00193412 0.00153530
H  0.02545164 -0.01455136 -0.00412192
H  -0.00725885 -0.01370199 0.00984480
H  0.00714529 -0.02087933 -0.01658069
H  -0.00160809 -0.01430693 0.02891598
H  0.02301151 -0.02493444 -0.02369343
H  -0.00578584 0.00970817 -0.00022850
12
MD Step 1580 Units = [Angstroms / fs]
C  0.00194351 0.00076607 -0.00610347
C  0.00036939 -0.00101666 0.00043108
C  -0.00023695 0.00402515 -0.00159117
C  -0.00146904 0.00685417 -0.00560179
C  0.00294707 0.00009344 -0.00042105
C  0.00695811 0.00163063 0.00164263
H  0.02274116 -0.01710282 -0.00537765
H  -0.01146046 -0.01221755 0.01053672
H  0.01331906 -0.02277007 -0.01614566
H  0.00140452 -0.01060818 0.02999425
H  0.02575022 -0.02506680 -0.02253294
H  -0.00316608 0.01075541 0.00009106
12
MD Step 1581 Units = [Angstroms / fs]
C  0.00225598 0.00067692 -0.00585625
C  0.00040914 -0.00132940 0.00043278
C  -0.00017192 0.00398306 -0.00182567
C  -0.00214459 0.00700639 -0.00544844
C  0.00257231 0.00016756 -0.00083333
C  0.00704803 0.00128042 0.00173657
H  0.01997526 -0.01895706 -0.00670040
H  -0.01557395 -0.01039796 0.01116966
H  0.01833686 -0.02443291 -0.01563812
H  0.00521177 -0.00513961 0.03049006
H  0.02693126 -0.02302522 -0.02140337
H  0.00017915 0.01170935 0.00044214
12
MD Step 1582 Units = [Angstroms / fs]
C  0.00253959 0.00051290 -0.00558689
C  0.00047031 -0.00157804 0.00043258
C  -0.00002065 0.00389752 -0.00207737
C  -0.00274349 0.00698819 -0.00523910
C  0.00229218 0.00011930 -0.00124581
C  0.00704843 0.00088863 0.00181706
H  0.01727453 -0.01989337 -0.00809476
H  -0.01940498 -0.00847495 0.01173494
H  0.02174511 -0.02584470 -0.01504387
H  0.00954309 0.00157607 0.03056850
H  0.02647797 -0.01874944 -0.02037003
H  0.00398358 0.01254000 0.00081870
12
MD Step 1583 Units = [Angstroms / fs]
C  0.00278547 0.00026548 -0.00529708
C  0.00054219 -0.00174523 0.00043094
C  0.00023156 0.00377163 -0.00234736
C  -0.00322934 0.00685025 -0.00498872
C  0.00210337 -0.00003846 -0.00165439
C  0.00698026 0.00046226 0.00188401
H  0.01471871 -0.01978193 -0.00955612
H  -0.02276926 -0.00667908 0.01222801
H  0.02328241 -0.02696461 -0.01434811
H  0.01401948 0.00881700 0.03041723
H  0.02447620 -0.01241326 -0.01947060
H  0.00795166 0.01322034 0.00121362
12
MD Step 1584 Units = [Angstroms / fs]
C  0.00298842 -0.00006581 -0.00498934
C  0.00061482 -0.00181621 0.00042802
C  0.00058519 0.00360757 -0.00263608
C  -0.00356461 0.00665297 -0.00471158
C  0.00198876 -0.00027278 -0.00205819
C  0.00686610 0.00000988 0.00193730
H  0.01234699 -0.01859165 -0.01107035
H  -0.02550304 -0.00522546 0.01264876
H  0.02288762 -0.02774347 -0.01354033
H  0.01820265 0.01576959 0.03020857
H  0.02119150 -0.00445647 -0.01869947
H  0.01177684 0.01372791 0.00161924
12
MD Step 1585 Units = [Angstroms / fs]
C  0.00314649 -0.00047385 -0.00466697
C  0.00067981 -0.00177996 0.00042367
C  0.00102811 0.00340735 -0.00294301
C  -0.00371620 0.00645530 -0.00441861
C  0.00191907 -0.00053232 -0.00246013
C  0.00672891 -0.00045873 0.00197674
H  0.01016319 -0.01638474 -0.01261522
H  -0.02747401 -0.00429753 0.01300130
H  0.02067783 -0.02813419 -0.01261747
H  0.02166377 0.02166386 0.03006650
H  0.01704864 0.00443534 -0.01800011
H  0.01515883 0.01404582 0.00202789
12
MD Step 1586 Units = [Angstroms / fs]
C  0.00326025 -0.00094510 -0.00433376
C  0.00073120 -0.00163040 0.00041753
C  0.00153859 0.00317339 -0.00326662
C  -0.00366086 0.00630454 -0.00411601
C  0.00185791 -0.00075414 -0.00286643
C  0.00659074 -0.00093306 0.00200205
H  0.00814348 -0.01330245 -0.01416284
H  -0.02859228 -0.00402901 0.01329331
H  0.01690955 -0.02810019 -0.01158496
H  0.02405167 0.02589542 0.03004958
H  0.01256926 0.01341416 -0.01727153
H  0.01782139 0.01416360 0.00243240
12
MD Step 1587 Units = [Angstroms / fs]
C  0.00333220 -0.00146114 -0.00399380
C  0.00076627 -0.00136780 0.00040906
C  0.00208845 0.00290888 -0.00360442
C  -0.00338874 0.00623009 -0.00380527
C  0.00176914 -0.00087434 -0.00328493
C  0.00647120 -0.00140241 0.00201285
H  0.00624443 -0.00954655 -0.01568248
H  -0.02882023 -0.00448551 0.01353456
H  0.01193673 -0.02762071 -0.01045635
H  0.02514059 0.02809977 0.03015320
H  0.00828194 0.02160125 -0.01638938
H  0.01953188 0.01407740 0.00282670
12
MD Step 1588 Units = [Angstroms / fs]
C  0.00336626 -0.00200024 -0.00365121
C  0.00078597 -0.00099992 0.00039779
C  0.00264576 0.00261802 -0.00395309
C  -0.00290447 0.00624204 -0.00348446
C  0.00162418 -0.00083958 -0.00372282
C  0.00638581 -0.00185630 0.00200875
H  0.00441035 -0.00536008 -0.01714338
H  -0.02817890 -0.00564905 0.01373494
H  0.00617420 -0.02669290 -0.00925203
H  0.02484732 0.02816672 0.03032621
H  0.00463258 0.02822936 -0.01523504
H  0.02012262 0.01378970 0.00320637
12
MD Step 1589 Units = [Angstroms / fs]
C  0.00336733 -0.00253882 -0.00330990
C  0.00079498 -0.00054262 0.00038339
C  0.00317682 0.00230598 -0.00430871
C  -0.00222578 0.00633373 -0.00314992
C  0.00140695 -0.00061570 -0.00418459
C  0.00634426 -0.00228474 0.00198928
H  0.00257939 -0.00100941 -0.01851708
H  -0.02674854 -0.00740999 0.01390185
H  0.00006978 -0.02533192 -0.00799754
H  0.02322020 0.02620683 0.03049315
H  0.00192290 0.03275180 -0.01372224
H  0.01951240 0.01330816 0.00356915
12
MD Step 1590 Units = [Angstroms / fs]
C  0.00334099 -0.00305283 -0.00297346
C  0.00080114 -0.00001947 0.00036590
C  0.00364766 0.00197888 -0.00466688
C  -0.00138081 0.00648633 -0.00279769
C  0.00111529 -0.00019147 -0.00467092
C  0.00634890 -0.00267830 0.00195396
H  0.00068877 0.00323232 -0.01977938
H  -0.02466152 -0.00957087 0.01403785
H  -0.00591592 -0.02356987 -0.00672197
H  0.02041142 0.02249363 0.03057417
H  0.00029024 0.03489158 -0.01181245
H  0.01772464 0.01264365 0.00391523
12
MD Step 1591 Units = [Angstroms / fs]
C  0.00329320 -0.00351910 -0.00264491
C  0.00081422 0.00053979 0.00034582
C  0.00402513 0.00164371 -0.00502293
C  -0.00040501 0.00667348 -0.00242462
C  0.00075924 0.00042275 -0.00517867
C  0.00639393 -0.00302802 0.00190234
H  -0.00132050 0.00710107 -0.02091179
H  -0.02208738 -0.01186481 0.01413885
H  -0.01132591 -0.02145417 -0.00545623
H  0.01664479 0.01740435 0.03049878
H  -0.00027594 0.03463051 -0.00951656
H  0.01489672 0.01180771 0.00424722
12
MD Step 1592 Units = [Angstroms / fs]
C  0.00322998 -0.00391663 -0.00232670
C  0.00084439 0.00110191 0.00032413
C  0.00427826 0.00130811 -0.00537210
C  0.00066159 0.00686495 -0.00202881
C  0.00035762 0.00119947 -0.00570162
C  0.00646555 -0.00332526 0.00183402
H  -0.00349854 0.01035825 -0.02190243
H  -0.01921228 -0.01398709 0.01419369
H  -0.01572413 -0.01904542 -0.00423117
H  0.01218817 0.01137289 0.03021341
H  0.00010309 0.03215858 -0.00688626
H  0.01127559 0.01081001 0.00456955
12
MD Step 1593 Units = [Angstroms / fs]
C  0.00315693 -0.00422805 -0.00202061
C  0.00090051 0.00163352 0.00030215
C  0.00438006 0.00098013 -0.00570973
C  0.00177656 0.00702906 -0.00160994
C  -0.00006577 0.00209968 -0.00623156
C  0.00654353 -0.00356155 0.00174871
H  -0.00588081 0.01280828 -0.02274631
H  -0.01621665 -0.01563481 0.01418533
H  -0.01871850 -0.01641425 -0.00307529
H  0.00733378 0.00485902 0.02968430
H  0.00123630 0.02781004 -0.00400088
H  0.00719628 0.00965658 0.00488757
12
MD Step 1594 Units = [Angstroms / fs]
C  0.00307866 -0.00444114 -0.00172779
C  0.00098875 0.00210449 0.00028132
C  0.00431007 0.00066782 -0.00603157
C  0.00289665 0.00713388 -0.00116926
C  -0.00048533 0.00307781 -0.00675925
C  0.00660399 -0.00372874 0.00164628
H  -0.00848136 0.01431700 -0.02344473
H  -0.01325561 -0.01654654 0.01409349
H  -0.01999286 -0.01363649 -0.00201203
H  0.00238626 -0.00166848 0.02889794
H  0.00289644 0.02200606 -0.00095471
H  0.00304471 0.00834954 0.00520618
12
MD Step 1595 Units = [Angstroms / fs]
C  0.00299812 -0.00455019 -0.00144889
C  0.00111179 0.00249072 0.00026295
C  0.00405764 0.00037858 -0.00633401
C  0.00397896 0.00714790 -0.00070963
C  -0.00087576 0.00408535 -0.00727514
C  0.00662293 -0.00381921 0.00152682
H  -0.01128555 0.01482897 -0.02400363
H  -0.01044563 -0.01653391 0.01389803
H  -0.01934781 -0.01078645 -0.00105685
H  -0.00234478 -0.00774087 0.02786054
H  0.00484237 0.01521355 0.00215270
H  -0.00078936 0.00688866 0.00552857
12
MD Step 1596 Units = [Angstroms / fs]
C  0.00291592 -0.00455699 -0.00118426
C  0.00126860 0.00277582 0.00024790
C  0.00362548 0.00011848 -0.00661436
C  0.00498216 0.00704060 -0.00023551
C  -0.00121331 0.00507304 -0.00776973
C  0.00657977 -0.00382649 0.00139068
H  -0.01424364 0.01438006 -0.02443073
H  -0.00785875 -0.01550002 0.01358234
H  -0.01674509 -0.00792843 -0.00021460
H  -0.00655173 -0.01289757 0.02659716
H  0.00683103 0.00792068 0.00522283
H  -0.00395980 0.00527436 0.00585523
12
MD Step 1597 Units = [Angstroms / fs]
C  0.00282987 -0.00447114 -0.00093426
C  0.00145487 0.00295169 0.00023641
C  0.00303267 -0.00010840 -0.00687099
C  0.00586789 0.00678353 0.00024705
C  -0.00147622 0.00599212 -0.00823382
C  0.00646019 -0.00374581 0.00123845
H  -0.01726690 0.01310093 -0.02473193
H  -0.00552366 -0.01344349 0.01313607
H  -0.01234427 -0.00510845 0.00052160
H  -0.00993985 -0.01670080 0.02515047
H  0.00862269 0.00062462 0.00816211
H  -0.00620267 0.00351127 0.00618363
12
MD Step 1598 Units = [Angstroms / fs]
C  0.00273486 -0.00430915 -0.00069955
C  0.00166361 0.00301800 0.00022802
C  0.00231559 -0.00030034 -0.00710328
C  0.00660261 0.00635246 0.00073065
C  -0.00164486 0.00679512 -0.00865869
C  0.00625780 -0.00357476 0.00107089
H  -0.02022882 0.01120750 -0.02490740
H  -0.00343157 -0.01045076 0.01255669
H  -0.00651648 -0.00234884 0.00116925
H  -0.01224608 -0.01876285 0.02357808
H  0.00998350 -0.00617575 0.01088498
H  -0.00735946 0.00161129 0.00650842
12
MD Step 1599 Units = [Angstroms / fs]
C  0.00262339 -0.00409254 -0.00048134
C  0.00188602 0.00298108 0.00022156
C  0.00152601 -0.00045784 -0.00731135
C  0.00716021 0.00573097 0.00120687
C  -0.00170185 0.00743690 -0.00903633
C  0.00597434 -0.00331370 0.00088886
H  -0.02297270 0.00897734 -0.02494879
H  -0.00154433 -0.00668096 0.01185000
H  0.00017870 0.00035154 0.00175246
H  -0.01326784 -0.01879001 0.02194722
H  0.01068949 -0.01198954 0.01331728
H  -0.00738332 -0.00040461 0.00682227
12
MD Step 1600 Units = [Angstroms / fs]
C  0.00248657 -0.00384500 -0.00028146
C  0.00211218 0.00285256 0.00021522
C  0.00072572 -0.00058286 -0.00749555
C  0.00752493 0.00491515 0.00166709
C  -0.00163239 0.00787641 -0.00935985
C  0.00561893 -0.00296599 0.00069325
H  -0.02532606 0.00671452 -0.02483819
H  0.00019716 -0.00234775 0.01102974
H  0.00705753 0.00301019 0.00229590
H  -0.01289986 -0.01664091 0.02032579
H  0.01053567 -0.01635398 0.01540101
H  -0.00633119 -0.00250612 0.00711696
12
MD Step 1601 Units = [Angstroms / fs]
C  0.00231564 -0.00358913 -0.00010223
C  0.00233154 0.00264792 0.00020670
C  -0.00002145 -0.00067768 -0.00765600
C  0.00769420 0.00391874 0.00210350
C  -0.00142529 0.00807986 -0.00962408
C  0.00520657 -0.00253791 0.00048488
H  -0.02711974 0.00470947 -0.02454981
H  0.00186535 0.00229874 0.01011661
H  0.01340722 0.00564870 0.00281836
H  -0.01117138 -0.01238785 0.01876989
H  0.00935352 -0.01887098 0.01710054
H  -0.00434671 -0.00465469 0.00738440
12
MD Step 1602 Units = [Angstroms / fs]
C  0.00210373 -0.00334356 0.00005383
C  0.00253339 0.00238515 0.00019337
C  -0.00065804 -0.00074381 -0.00779219
C  0.00768013 0.00277671 0.00251033
C  -0.00107478 0.00802527 -0.00982612
C  0.00475643 -0.00203832 0.00026448
H  -0.02820838 0.00320215 -0.02405393
H  0.00353951 0.00698861 0.00913699
H  0.01858888 0.00827941 0.00332807
H  -0.00826992 -0.00636018 0.01731042
H  0.00703783 -0.01926250 0.01840892
H  -0.00163927 -0.00680556 0.00761769
12
MD Step 1603 Units = [Angstroms / fs]
C  0.00184725 -0.00312092 0.00018445
C  0.00270708 0.00208361 0.00017241
C  -0.00113999 -0.00078125 -0.00790285
C  0.00750877 0.00154534 0.00288467
C  -0.00058302 0.00770794 -0.00996585
C  0.00429027 -0.00147808 0.00003264
H  -0.02848798 0.00235545 -0.02332220
H  0.00530015 0.01144762 0.00812125
H  0.02212163 0.01089585 0.00382128
H  -0.00453668 0.00085623 0.01594329
H  0.00358078 -0.01743825 0.01935167
H  0.00153707 -0.00891014 0.00781179
12
MD Step 1604 Units = [Angstroms / fs]
C  0.00154699 -0.00292698 0.00028799
C  0.00284242 0.00176288 0.00014096
C  -0.00144046 -0.00078857 -0.00798610
C  0.00721623 0.00029715 0.00322674
C  0.00003726 0.00714544 -0.01004581
C  0.00383097 -0.00086939 -0.00021015
H  -0.02790736 0.00224280 -0.02233301
H  0.00722353 0.01541242 0.00710190
H  0.02372931 0.01346966 0.00428403
H  -0.00042489 0.00847983 0.01462840
H  -0.00089529 -0.01355828 0.01998440
H  0.00490279 -0.01091857 0.00796403
12
MD Step 1605 Units = [Angstroms / fs]
C  0.00120850 -0.00276091 0.00036381
C  0.00293010 0.00144157 0.00009632
C  -0.00155030 -0.00076349 -0.00803976
C  0.00684256 -0.00088865 0.00353910
C  0.00076105 0.00637975 -0.01007043
C  0.00340133 -0.00022504 -0.00046347
H  -0.02647237 0.00284933 -0.02107574
H  0.00937563 0.01864679 0.00611124
H  0.02334614 0.01595388 0.00469619
H  0.00357288 0.01564982 0.01329971
H  -0.00611931 -0.00806267 0.02038171
H  0.00817030 -0.01278219 0.00807436
12
MD Step 1606 Units = [Angstroms / fs]
C  0.00084188 -0.00261629 0.00041241
C  0.00296231 0.00113600 0.00003616
C  -0.00147601 -0.00070384 -0.00806170
C  0.00642490 -0.00193808 0.00382530
C  0.00155152 0.00547449 -0.01004462
C  0.00302297 0.00044228 -0.00072696
H  -0.02424323 0.00408327 -0.01955312
H  0.01180506 0.02095958 0.00517860
H  0.02109057 0.01829015 0.00503592
H  0.00700803 0.02156738 0.01188351
H  -0.01168184 -0.00164212 0.02061843
H  0.01106040 -0.01445587 0.00814532
12
MD Step 1607 Units = [Angstroms / fs]
C  0.00046115 -0.00248256 0.00043545
C  0.00293361 0.00085876 -0.00004131
C  -0.00123634 -0.00060846 -0.00805016
C  0.00599215 -0.00279274 0.00408830
C  0.00236344 0.00450657 -0.00997209
C  0.00271507 0.00112050 -0.00100023
H  -0.02132727 0.00579281 -0.01778187
H  0.01453468 0.02222396 0.00432707
H  0.01722300 0.02041693 0.00528358
H  0.00954414 0.02561901 0.01031835
H  -0.01708117 0.00485941 0.02074874
H  0.01331933 -0.01590013 0.00818180
12
MD Step 1608 Units = [Angstroms / fs]
C  0.00008328 -0.00234641 0.00043570
C  0.00284183 0.00061728 -0.00013705
C  -0.00085879 -0.00047788 -0.00800393
C  0.00556246 -0.00341602 0.00432941
C  0.00314897 0.00355393 -0.00985422
C  0.00249304 0.00179852 -0.00128280
H  -0.01786902 0.00778435 -0.01579170
H  0.01755257 0.02239559 0.00357019
H  0.01210136 0.02227647 0.00542441
H  0.01099200 0.02744779 0.00856933
H  -0.02179835 0.01058941 0.02079166
H  0.01473718 -0.01708303 0.00819039
12
MD Step 1609 Units = [Angstroms / fs]
C  -0.00027290 -0.00219310 0.00041680
C  0.00268900 0.00041272 -0.00025102
C  -0.00037673 -0.00031457 -0.00792248
C  0.00514370 -0.00379424 0.00454786
C  0.00386432 0.00268312 -0.00968987
C  0.00236699 0.00246631 -0.00157405
H  -0.01403964 0.00983975 -0.01362340
H  0.02080400 0.02152570 0.00290908
H  0.00614367 0.02381967 0.00544992
H  0.01130881 0.02696293 0.00663322
H  -0.02538015 0.01483449 0.02072888
H  0.01516779 -0.01798128 0.00817835
12
MD Step 1610 Units = [Angstroms / fs]
C  -0.00058784 -0.00200752 0.00038309
C  0.00248201 0.00023961 -0.00038203
C  0.00017277 -0.00012294 -0.00780594
C  0.00473581 -0.00393377 0.00474111
C  0.00447522 0.00194066 -0.00947622
C  0.00234023 0.00311488 -0.00187314
H  -0.01002649 0.01173145 -0.01132624
H  0.02418658 0.01976439 0.00233079
H  -0.00019968 0.02500899 0.00535852
H  0.01057200 0.02430150 0.00453539
H  -0.02750466 0.01712483 0.02051494
H  0.01454809 -0.01858053 0.00815206
12
MD Step 1611 Units = [Angstroms / fs]
C  -0.00084243 -0.00177510 0.00033931
C  0.00223276 0.00008650 -0.00052786
C  0.00075039 0.00009100 -0.00765513
C  0.00433381 -0.00385627 0.00490546
C  0.00495970 0.00134996 -0.00921008
C  0.00240800 0.00373600 -0.00217886
H  -0.00602288 0.01323626 -0.00895482
H  0.02755136 0.01734990 0.00180889
H  -0.00646538 0.02581997 0.00515561
H  0.00894283 0.01976746 0.00232200
H  -0.02801284 0.01727107 0.02009420
H  0.01291328 -0.01887423 0.00811521
12
MD Step 1612 Units = [Angstroms / fs]
C  -0.00101921 -0.00148267 0.00029033
C  0.00195759 -0.00006213 -0.00068540
C  0.00131581 0.00031990 -0.00747148
C  0.00393044 -0.00359377 0.00503664
C  0.00530814 0.00091345 -0.00888918
C  0.00255700 0.00432183 -0.00248959
H  -0.00221745 0.01414861 -0.00656557
H  0.03071180 0.01458258 0.00130637
H  -0.01219245 0.02624203 0.00485329
H  0.00663241 0.01377085 0.00005129
H  -0.02690433 0.01533919 0.01941711
H  0.01040313 -0.01886137 0.00806683
12
MD Step 1613 Units = [Angstroms / fs]
C  -0.00110360 -0.00111946 0.00024081
C  0.00167604 -0.00022307 -0.00085114
C  0.00182912 0.00055552 -0.00725700
C  0.00351794 -0.00318478 0.00513039
C  0.00552131 0.00061782 -0.00851296
C  0.00276596 0.00486452 -0.00280321
H  0.00121746 0.01429474 -0.00421253
H  0.03346084 0.01178707 0.00078099
H  -0.01693838 0.02627888 0.00446986
H  0.00387647 0.00678025 -0.00221370
H  -0.02430875 0.01158890 0.01845120
H  0.00725480 -0.01854337 0.00799977
12
MD Step 1614 Units = [Angstroms / fs]
C  -0.00108515 -0.00067818 0.00019478
C  0.00140890 -0.00041125 -0.00102159
C  0.00225265 0.00078907 -0.00701419
C  0.00308894 -0.00267168 0.00518273
C  0.00560766 0.00043977 -0.00808286
C  0.00300749 0.00535581 -0.00311708
H  0.00413892 0.01354830 -0.00194269
H  0.03559363 0.00926946 0.00019172
H  -0.02030103 0.02594835 0.00402861
H  0.00092015 -0.00070790 -0.00441018
H  -0.02044788 0.00640405 0.01718556
H  0.00378014 -0.01792124 0.00790003
12
MD Step 1615 Units = [Angstroms / fs]
C  -0.00095872 -0.00015631 0.00015531
C  0.00117619 -0.00063695 -0.00119386
C  0.00255376 0.00101161 -0.00674585
C  0.00263684 -0.00209917 0.00519020
C  0.00558086 0.00035089 -0.00760225
C  0.00325096 0.00578683 -0.00342815
H  0.00644718 0.01184679 0.00020898
H  0.03693173 0.00727877 -0.00049497
H  -0.02194955 0.02528115 0.00355587
H  -0.00198969 -0.00818629 -0.00647891
H  -0.01560115 0.00023458 0.01563072
H  0.00032935 -0.01699398 0.00774758
12
MD Step 1616 Units = [Angstroms / fs]
C  -0.00072548 0.00044262 0.00012409
C  0.00099515 -0.00090396 -0.00136590
C  0.00270832 0.00121460 -0.00645490
C  0.00215574 -0.00151319 0.00514996
C  0.00545802 0.00032086 -0.00707616
C  0.00346614 0.00614813 -0.00373315
H  0.00809858 0.00920692 0.00222412
H  0.03734401 0.00598024 -0.00130038
H  -0.02166470 0.02431786 0.00307771
H  -0.00460801 -0.01514656 -0.00836651
H  -0.01008055 -0.00644246 0.01381604
H  -0.00275278 -0.01575906 0.00751840
12
MD Step 1617 Units = [Angstroms / fs]
C  -0.00039342 0.00110814 0.00010118
C  0.00087885 -0.00120899 -0.00153675
C  0.00270473 0.00139048 -0.00614400
C  0.00164060 -0.00095995 0.00505994
C  0.00525867 0.00031922 -0.00651101
C  0.00362654 0.00643000 -0.00402880
H  0.00911454 0.00573517 0.00410392
H  0.03676020 0.00544389 -0.00223134
H  -0.01938337 0.02310339 0.00261550
H  -0.00669526 -0.02108946 -0.01002764
H  -0.00421587 -0.01314418 0.01178686
H  -0.00516934 -0.01421484 0.00718770
12
MD Step 1618 Units = [Angstroms / fs]
C  0.00002288 0.00182249 0.00008503
C  0.00083537 -0.00154230 -0.00170647
C  0.00254731 0.00153346 -0.00581519
C  0.00108755 -0.00048421 0.00491906
C  0.00500434 0.00031606 -0.00591442
C  0.00371210 0.00662305 -0.00431213
H  0.00958312 0.00162932 0.00586939
H  0.03517596 0.00564771 -0.00328029
H  -0.01523689 0.02167957 0.00218086
H  -0.00802503 -0.02554296 -0.01142781
H  0.00165263 -0.01939129 0.00960197
H  -0.00670437 -0.01236434 0.00673344
12
MD Step 1619 Units = [Angstroms / fs]
C  0.00050330 0.00256143 0.00007275
C  0.00086762 -0.00188899 -0.00187596
C  0.00225803 0.00164022 -0.00546952
C  0.00049492 -0.00012642 0.00472745
C  0.00471828 0.00028232 -0.00529496
C  0.00371063 0.00671887 -0.00458066
H  0.00965062 -0.00283271 0.00755796
H  0.03265001 0.00649115 -0.00442731
H  -0.00956746 0.02007722 0.00177133
H  -0.00839909 -0.02809474 -0.01254674
H  0.00717866 -0.02471337 0.00733140
H  -0.00724131 -0.01021892 0.00613944
12
MD Step 1620 Units = [Angstroms / fs]
C  0.00102419 0.00329604 0.00006064
C  0.00097362 -0.00223070 -0.00204673
C  0.00187528 0.00171043 -0.00510692
C  -0.00013514 0.00008154 0.00448681
C  0.00442504 0.00019026 -0.00466204
C  0.00361803 0.00671074 -0.00483254
H  0.00950272 -0.00731780 0.00921650
H  0.02929595 0.00781365 -0.00564314
H  -0.00290915 0.01831055 0.00136859
H  -0.00767189 -0.02844197 -0.01338177
H  0.01201655 -0.02865741 0.00505391
H  -0.00676625 -0.00780097 0.00539750
12
MD Step 1621 Units = [Angstroms / fs]
C  0.00156091 0.00399552 0.00004498
C  0.00114700 -0.00254728 -0.00222066
C  0.00144920 0.00174670 -0.00472641
C  -0.00079436 0.00012182 0.00420057
C  0.00414932 0.00001472 -0.00402549
C  0.00343751 0.00659426 -0.00506659
H  0.00933798 -0.01147362 0.01089199
H  0.02527126 0.00941403 -0.00689251
H  0.00407220 0.01637658 0.00094060
H  -0.00578306 -0.02645425 -0.01395000
H  0.01583575 -0.03080682 0.00285263
H  -0.00535898 -0.00514495 0.00450834
12
MD Step 1622 Units = [Angstroms / fs]
C  0.00209054 0.00463044 0.00002282
C  0.00137774 -0.00281817 -0.00239975
C  0.00103434 0.00175394 -0.00432653
C  -0.00146599 -0.00000408 0.00387385
C  0.00391389 -0.00026443 -0.00339502
C  0.00317832 0.00636792 -0.00528227
H  0.00933917 -0.01496951 0.01262199
H  0.02076576 0.01106788 -0.00813719
H  0.01067083 0.01426075 0.00044784
H  -0.00279157 -0.02223532 -0.01428709
H  0.01834748 -0.03081645 0.00080779
H  -0.00317649 -0.00229691 0.00348147
12
MD Step 1623 Units = [Angstroms / fs]
C  0.00259407 0.00517573 -0.00000747
C  0.00165282 -0.00302350 -0.00258596
C  0.00068150 0.00173831 -0.00390609
C  -0.00212334 -0.00027195 0.00351296
C  0.00373624 -0.00065834 -0.00277929
C  0.00285418 0.00603340 -0.00547956
H  0.00964841 -0.01753400 0.01442733
H  0.01599041 0.01254232 -0.00933875
H  0.01624264 0.01194703 -0.00014814
H  0.00110081 -0.01615989 -0.01444142
H  0.01934537 -0.02846506 -0.00101427
H  -0.00043358 0.00068741 0.00233425
12
MD Step 1624 Units = [Angstroms / fs]
C  0.00305792 0.00561293 -0.00004583
C  0.00195713 -0.00314498 -0.00278106
C  0.00043077 0.00170588 -0.00346483
C  -0.00273037 -0.00063575 0.00312470
C  0.00362438 -0.00116446 -0.00218484
C  0.00248194 0.00559586 -0.00565892
H  0.01035122 -0.01898221 0.01630852
H  0.01116641 0.01360878 -0.01046083
H  0.02029019 0.00942883 -0.00087630
H  0.00555089 -0.00885958 -0.01446409
H  0.01875521 -0.02371914 -0.00257475
H  0.00261629 0.00374500 0.00109048
12
MD Step 1625 Units = [Angstroms / fs]
C  0.00347424 0.00593137 -0.00009063
C  0.00227441 -0.00316659 -0.00298645
C  0.00030756 0.00166163 -0.00300380
C  -0.00324489 -0.00103374 0.00271531
C  0.00357295 -0.00176202 -0.00161494
C  0.00208033 0.00506386 -0.00582110
H  0.01147116 -0.01922915 0.01824621
H  0.00651391 0.01405518 -0.01147131
H  0.02251220 0.00671696 -0.00175047
H  0.01010970 -0.00114554 -0.01439724
H  0.01668082 -0.01679164 -0.00387521
H  0.00569860 0.00680856 -0.00022124
12
MD Step 1626 Units = [Angstroms / fs]
C  0.00384060 0.00612825 -0.00013892
C  0.00258844 -0.00307543 -0.00320309
C  0.00032169 0.00160872 -0.00252556
C  -0.00362435 -0.00139903 0.00228980
C  0.00356124 -0.00241002 -0.00106905
C  0.00166888 0.00444914 -0.00596715
H  0.01297381 -0.01828940 0.02020504
H  0.00223905 0.01369895 -0.01234439
H  0.02281288 0.00384242 -0.00276756
H  0.01428899 0.00612049 -0.01426535
H  0.01342566 -0.00816991 -0.00496378
H  0.00853398 0.00980949 -0.00156929
12
MD Step 1627 Units = [Angstroms / fs]
C  0.00415892 0.00620789 -0.00018689
C  0.00288451 -0.00286267 -0.00343128
C  0.00046916 0.00154839 -0.00203394
C  -0.00383246 -0.00167136 0.00185168
C  0.00355483 -0.00304965 -0.00054322
C  0.00126696 0.00376611 -0.00609825
H  0.01477717 -0.01626628 0.02213929
H  -0.00148113 0.01240207 -0.01306264
H  0.02127933 0.00085422 -0.00390918
H  0.01764095 0.01216971 -0.01407267
H  0.00947081 0.00141171 -0.00592944
H  0.01085433 0.01268107 -0.00292111
12
MD Step 1628 Units = [Angstroms / fs]
C  0.00443426 0.00618060 -0.00023037
C  0.00315098 -0.00252469 -0.00367056
C  0.00073514 0.00148010 -0.00153376
C  -0.00384479 -0.00180662 0.00140322
C  0.00351144 -0.00361181 -0.00003156
C  0.00089252 0.00303110 -0.00621560
H  0.01676469 -0.01333510 0.02399896
H  -0.00451578 0.01008787 -0.01361892
H  0.01814195 -0.00218580 -0.00514540
H  0.01982703 0.01644057 -0.01380746
H  0.00540374 0.01106373 -0.00688287
H  0.01242006 0.01536165 -0.00424548
12
MD Step 1629 Units = [Angstroms / fs]
C  0.00467363 0.00606135 -0.00026525
C  0.00338093 -0.00206442 -0.00391958
C  0.00109716 0.00140198 -0.00103039
C  -0.00365189 -0.00178157 0.00094601
C  0.00338951 -0.00402834 0.00047161
C  0.00056081 0.00226146 -0.00632033
H  0.01879828 -0.00972466 0.02573523
H  -0.00679743 0.00675800 -0.01401770
H  0.01373182 -0.00520909 -0.00643921
H  0.02065679 0.01863446 -0.01345021
H  0.00181373 0.01987973 -0.00792918
H  0.01303949 0.01779778 -0.00551519
12
MD Step 1630 Units = [Angstroms / fs]
C  0.00488489 0.00586850 -0.00028782
C  0.00357335 -0.00149240 -0.00417602
C  0.00152786 0.00131130 -0.00052946
C  -0.00325942 -0.00159350 0.00048160
C  0.00315699 -0.00424361 0.00096978
C  0.00028274 0.00147462 -0.00641326
H  0.02072985 -0.00569935 0.02730490
H  -0.00833558 0.00250627 -0.01427541
H  0.00844404 -0.00814566 -0.00775050
H  0.02009211 0.01871011 -0.01298217
H  -0.00081287 0.02708043 -0.00914241
H  0.01258993 0.01994684 -0.00670997
12
MD Step 1631 Units = [Angstroms / fs]
C  0.00507601 0.00562268 -0.00029506
C  0.00373373 -0.00082732 -0.00443675
C  0.00199691 0.00120505 -0.00003656
C  -0.00268604 -0.00125653 0.00001186
C  0.00279726 -0.00422289 0.00146312
C  0.00006338 0.00068737 -0.00649472
H  0.02241092 -0.00154285 0.02867366
H  -0.00922204 -0.00247564 -0.01441914
H  0.00271016 -0.01092819 -0.00903927
H  0.01822483 0.01683582 -0.01239140
H  -0.00216411 0.03211974 -0.01055096
H  0.01103810 0.02177868 -0.00781928
12
MD Step 1632 Units = [Angstroms / fs]
C  0.00525438 0.00534564 -0.00028476
C  0.00387338 -0.00009563 -0.00469795
C  0.00247241 0.00108036 0.00044290
C  -0.00196028 -0.00079650 -0.00046084
C  0.00231087 -0.00395550 0.00194852
C  -0.00009938 -0.00008461 -0.00656443
H  0.02370099 0.00245702 0.02981832
H  -0.00962367 -0.00790487 -0.01448356
H  -0.00302143 -0.01349482 -0.01026814
H  0.01524219 0.01332582 -0.01167552
H  -0.00212450 0.03472814 -0.01213727
H  0.00845582 0.02327541 -0.00884433
12
MD Step 1633 Units = [Angstroms / fs]
C  0.00542626 0.00505916 -0.00025570
C  0.00400766 0.00067006 -0.00495555
C  0.00292202 0.00093507 0.00090387
C  -0.00111739 -0.00024640 -0.00093362
C  0.00171351 -0.00345304 0.00242049
C  -0.00021520 -0.00082689 -0.00662138
H  0.02447527 0.00602380 0.03072813
H  -0.00976101 -0.01342917 -0.01450642
H  -0.00830107 -0.01579141 -0.01140434
H  0.01139264 0.00858180 -0.01084197
H  -0.00075311 0.03489604 -0.01384856
H  0.00502524 0.02442917 -0.00979868
12
MD Step 1634 Units = [Angstroms / fs]
C  0.00559635 0.00478364 -0.00020765
C  0.00415316 0.00143372 -0.00520558
C  0.00331423 0.00076813 0.00134178
C  -0.00019667 0.00035708 -0.00140319
C  0.00103184 -0.00274453 0.00287236
C  -0.00030070 -0.00152611 -0.00666393
H  0.02463277 0.00890935 0.03140507
H  -0.00987531 -0.01866245 -0.01452326
H  -0.01269431 -0.01777348 -0.01242154
H  0.00695933 0.00305012 -0.00990678
H  0.00176267 0.03281960 -0.01561221
H  0.00102897 0.02523795 -0.01070662
12
MD Step 1635 Units = [Angstroms / fs]
C  0.00576725 0.00453658 -0.00014133
C  0.00432452 0.00215930 -0.00544457
C  0.00362012 0.00058001 0.00175269
C  0.00076057 0.00097552 -0.00186585
C  0.00029886 -0.00187072 0.00329735
C  -0.00037742 -0.00216971 -0.00669007
H  0.02410482 0.01091309 0.03186294
H  -0.01019091 -0.02322820 -0.01456267
H  -0.01580419 -0.01940840 -0.01330166
H  0.00224285 -0.00280438 -0.00889304
H  0.00515720 0.02883571 -0.01735009
H  -0.00317708 0.02570053 -0.01159934
12
MD Step 1636 Units = [Angstroms / fs]
C  0.00593892 0.00433082 -0.00005825
C  0.00453160 0.00281416 -0.00566979
C  0.00381600 0.00037304 0.00213343
C  0.00171248 0.00156986 -0.00231759
C  -0.00044996 -0.00087916 0.00368927
C  -0.00046869 -0.00274570 -0.00669776
H  0.02286365 0.01190270 0.03212492
H  -0.01088150 -0.02680231 -0.01464316
H  -0.01730270 -0.02067748 -0.01403644
H  -0.00244861 -0.00851194 -0.00782948
H  0.00912725 0.02336562 -0.01898885
H  -0.00720526 0.02581221 -0.01250936
12
MD Step 1637 Units = [Angstroms / fs]
C  0.00610827 0.00417293 0.00003956
C  0.00477772 0.00337189 -0.00587938
C  0.00388677 0.00015162 0.00248171
C  0.00261797 0.00210097 -0.00275405
C  -0.00117942 0.00017934 0.00404285
C  -0.00059605 -0.00324261 -0.00668537
H  0.02092989 0.01183381 0.03221936
H  -0.01204779 -0.02914687 -0.01477208
H  -0.01697149 -0.02157735 -0.01462833
H  -0.00680566 -0.01360585 -0.00674918
H  0.01335857 0.01687555 -0.02046610
H  -0.01068469 0.02556276 -0.01346452
12
MD Step 1638 Units = [Angstroms / fs]
C  0.00626882 0.00406202 0.00015004
C  0.00505913 0.00381395 -0.00607224
C  0.00382960 -0.00007793 0.00279615
C  0.00343805 0.00253046 -0.00317056
C  -0.00185616 0.00125283 0.00435383
C  -0.00077586 -0.00364985 -0.00665195
H  0.01837683 0.01076405 0.03217403
H  -0.01370968 -0.03012945 -0.01494661
H  -0.01474703 -0.02211954 -0.01508975
H  -0.01052516 -0.01763211 -0.00568813
H  0.01754016 0.00985414 -0.02173348
H  -0.01330689 0.02493749 -0.01448295
12
MD Step 1639 Units = [Angstroms / fs]
C  0.00641088 0.00398935 0.00027152
C  0.00536567 0.00413022 -0.00624788
C  0.00365711 -0.00030766 0.00307607
C  0.00413748 0.00282219 -0.00356230
C  -0.00244951 0.00228938 0.00461901
C  -0.00101695 -0.00395827 -0.00659746
H  0.01532936 0.00885629 0.03200961
H  -0.01581196 -0.02972692 -0.01515613
H  -0.01075874 -0.02232739 -0.01544007
H  -0.01332320 -0.02016809 -0.00468314
H  0.02137055 0.00280182 -0.02275821
H  -0.01485922 0.02392094 -0.01557017
12
MD Step 1640 Units = [Angstroms / fs]
C  0.00652204 0.00393932 0.00040318
C  0.00568230 0.00431858 -0.00640624
C  0.00339865 -0.00052872 0.00332115
C  0.00468703 0.00294508 -0.00392449
C  -0.00293186 0.00323784 0.00483622
C  -0.00131960 -0.00416089 -0.00652273
H  0.01195596 0.00636679 0.03173396
H  -0.01823894 -0.02801684 -0.01538518
H  -0.00534480 -0.02223015 -0.01570018
H  -0.01495737 -0.02085591 -0.00376878
H  0.02456136 -0.00377523 -0.02352428
H  -0.01524157 0.02250194 -0.01671866
12
MD Step 1641 Units = [Angstroms / fs]
C  0.00658829 0.00389166 0.00054530
C  0.00599086 0.00438384 -0.00654747
C  0.00309856 -0.00073218 0.00353093
C  0.00506632 0.00287734 -0.00425280
C  -0.00327906 0.00404889 0.00500447
C  -0.00167584 -0.00425355 -0.00642928
H  0.00845373 0.00361713 0.03133876
H  -0.02083297 -0.02516110 -0.01561634
H  0.00096849 -0.02185550 -0.01588557
H  -0.01525913 -0.01945272 -0.00297298
H  0.02684291 -0.00937423 -0.02403384
H  -0.01446606 0.02067855 -0.01790983
12
MD Step 1642 Units = [Angstroms / fs]
C  0.00659550 0.00382468 0.00069919
C  0.00627186 0.00433660 -0.00667179
C  0.00281096 -0.00090985 0.00370437
C  0.00526687 0.00261171 -0.00454382
C  -0.00347109 0.00467690 0.00512411
C  -0.00207073 -0.00423543 -0.00631905
H  0.00502821 0.00095364 0.03079995
H  -0.02341252 -0.02138691 -0.01583258
H  0.00752889 -0.02122292 -0.01600007
H  -0.01417265 -0.01589271 -0.00231205
H  0.02797592 -0.01351616 -0.02430833
H  -0.01264397 0.01846153 -0.01911713
12
MD Step 1643 Units = [Angstroms / fs]
C  0.00653102 0.00371876 0.00086687
C  0.00650591 0.00419199 -0.00677939
C  0.00259203 -0.00105489 0.00383958
C  0.00529464 0.00216060 -0.00479546
C  -0.00349332 0.00508317 0.00519690
C  -0.00248414 -0.00410919 -0.00619418
H  0.00187159 -0.00129782 0.03008214
H  -0.02578772 -0.01696824 -0.01601897
H  0.01365155 -0.02034058 -0.01603277
H  -0.01178968 -0.01034552 -0.00178631
H  0.02777201 -0.01578391 -0.02438832
H  -0.00996555 0.01587605 -0.02030990
12
MD Step 1644 Units = [Angstroms / fs]
C  0.00638515 0.00355952 0.00105047
C  0.00667492 0.00396874 -0.00687038
C  0.00249152 -0.00116201 0.00393400
C  0.00517077 0.00155874 -0.00500724
C  -0.00333850 0.00524083 0.00522593
C  -0.00289253 -0.00388080 -0.00605675
H  -0.00085658 -0.00287239 0.02914591
H  -0.02777254 -0.01220919 -0.01616381
H  0.01872074 -0.01920702 -0.01595946
H  -0.00836522 -0.00324659 -0.00137850
H  0.02612298 -0.01588059 -0.02433000
H  -0.00667771 0.01296159 -0.02145685
12
MD Step 1645 Units = [Angstroms / fs]
C  0.00615218 0.00333979 0.00125161
C  0.00676288 0.00368822 -0.00694475
C  0.00254585 -0.00122742 0.00398483
C  0.00492951 0.00086165 -0.00518014
C  -0.00300911 0.00514069 0.00521497
C  -0.00327063 -0.00355919 -0.00590863
H  -0.00304286 -0.00359425 0.02795613
H  -0.02919446 -0.00742896 -0.01625926
H  0.02227296 -0.01781663 -0.01574817
H  -0.00429959 0.00472515 -0.00105654
H  0.02303426 -0.01370210 -0.02419628
H  -0.00306295 0.00977059 -0.02252902
12
MD Step 1646 Units = [Angstroms / fs]
C  0.00583091 0.00306028 0.00147086
C  0.00675658 0.00337352 -0.00700235
C  0.00277426 -0.00124868 0.00398961
C  0.00461312 0.00013873 -0.00531609
C  -0.00251946 0.00479667 0.00516749
C  -0.00359281 -0.00315552 -0.00575140
H  -0.00462619 -0.00338866 0.02648918
H  -0.02990258 -0.00294703 -0.01630174
H  0.02404300 -0.01616652 -0.01536679
H  -0.00008266 0.01273239 -0.00078069
H  0.01865258 -0.00940498 -0.02404195
H  0.00057943 0.00636610 -0.02350213
12
MD Step 1647 Units = [Angstroms / fs]
C  0.00542468 0.00272903 0.00170737
C  0.00664612 0.00304839 -0.00704285
C  0.00317839 -0.00122460 0.00394675
C  0.00426475 -0.00053768 -0.00541727
C  -0.00189641 0.00424841 0.00508524
C  -0.00383428 -0.00268253 -0.00558627
H  -0.00559719 -0.00227911 0.02473784
H  -0.02977543 0.00093370 -0.01629201
H  0.02396927 -0.01426218 -0.01479011
H  0.00378792 0.01991214 -0.00051318
H  0.01327427 -0.00344067 -0.02389532
H  0.00395029 0.00281892 -0.02435816
12
MD Step 1648 Units = [Angstroms / fs]
C  0.00494103 0.00235996 0.00195883
C  0.00642551 0.00273574 -0.00706578
C  0.00374435 -0.00115521 0.00385587
C  0.00392160 -0.00110411 -0.00548545
C  -0.00117766 0.00355859 0.00496705
C  -0.00397233 -0.00215370 -0.00541409
H  -0.00599253 -0.00037383 0.02271320
H  -0.02872893 0.00394702 -0.01623499
H  0.02216777 -0.01212034 -0.01400462
H  0.00688980 0.02551761 -0.00022670
H  0.00732278 0.00347244 -0.02374261
H  0.00676754 -0.00079583 -0.02508650
12
MD Step 1649 Units = [Angstroms / fs]
C  0.00439114 0.00197112 0.00222152
C  0.00609323 0.00245571 -0.00707046
C  0.00444615 -0.00104184 0.00371787
C  0.00361022 -0.00151506 -0.00552159
C  -0.00040761 0.00280439 0.00480842
C  -0.00398764 -0.00158251 -0.00523528
H  -0.00588647 0.00215316 0.02044417
H  -0.02672459 0.00588758 -0.01613920
H  0.01889034 -0.00976901 -0.01301052
H  0.00893516 0.02902608 0.00009108
H  0.00129384 0.01044926 -0.02352291
H  0.00878440 -0.00440269 -0.02568447
12
MD Step 1650 Units = [Angstroms / fs]
C  0.00378918 0.00158286 0.00249053
C  0.00565267 0.00222345 -0.00705612
C  0.00524923 -0.00088714 0.00353489
C  0.00334512 -0.00174721 -0.00552591
C  0.00036853 0.00206462 0.00460234
C  -0.00386592 -0.00098185 -0.00504991
H  -0.00538168 0.00508201 0.01797520
H  -0.02377680 0.00663713 -0.01601579
H  0.01448119 -0.00724574 -0.01182149
H  0.00979262 0.03018638 0.00043775
H  -0.00431956 0.01658926 -0.02313824
H  0.00981017 -0.00793015 -0.02615703
12
MD Step 1651 Units = [Angstroms / fs]
C  0.00315164 0.00121634 0.00276005
C  0.00511247 0.00204695 -0.00702193
C  0.00611347 -0.00069501 0.00331009
C  0.00313017 -0.00179860 -0.00549810
C  0.00111056 0.00140673 0.00434114
C  -0.00359976 -0.00036346 -0.00485772
H  -0.00460038 0.00816550 0.01536308
H  -0.01995773 0.00618882 -0.01587688
H  0.00934039 -0.00459501 -0.01046316
H  0.00947481 0.02900654 0.00079993
H  -0.00910042 0.02113226 -0.02247649
H  0.00973277 -0.01131493 -0.02651556
12
MD Step 1652 Units = [Angstroms / fs]
C  0.00249667 0.00089216 0.00302367
C  0.00448644 0.00192542 -0.00696714
C  0.00699545 -0.00047039 0.00304748
C  0.00296155 -0.00168456 -0.00543766
C  0.00178735 0.00087742 0.00401856
C  -0.00319037 0.00026238 -0.00465828
H  -0.00367631 0.01114529 0.01267326
H  -0.01539766 0.00466274 -0.01573354
H  0.00389708 -0.00186581 -0.00897117
H  0.00810531 0.02570196 0.00115830
H  -0.01275834 0.02356987 -0.02143838
H  0.00854028 -0.01450539 -0.02677535
12
MD Step 1653 Units = [Angstroms / fs]
C  0.00184330 0.00062939 0.00327470
C  0.00379306 0.00184892 -0.00689126
C  0.00785012 -0.00021905 0.00275175
C  0.00283097 -0.00143255 -0.00534422
C  0.00237846 0.00049928 0.00363140
C  -0.00264887 0.00088695 -0.00445125
H  -0.00274711 0.01376657 0.00997571
H  -0.01027910 0.00230558 -0.01559350
H  -0.00140943 0.00089058 -0.00738907
H  0.00588046 0.02063071 0.00149210
H  -0.01514732 0.02368650 -0.01995883
H  0.00633642 -0.01746304 -0.02695184
12
MD Step 1654 Units = [Angstroms / fs]
C  0.00121062 0.00044457 0.00350649
C  0.00305446 0.00179962 -0.00679420
C  0.00863219 0.00005270 0.00242806
C  0.00272814 -0.00107738 -0.00521772
C  0.00287341 0.00027290 0.00318026
C  -0.00199666 0.00150292 -0.00423666
H  -0.00194655 0.01579247 0.00734053
H  -0.00482417 -0.00053047 -0.01545922
H  -0.00614472 0.00362233 -0.00576624
H  0.00303693 0.01423570 0.00178229
H  -0.01625436 0.02153524 -0.01801674
H  0.00334351 -0.02016142 -0.02705611
12
MD Step 1655 Units = [Angstroms / fs]
C  0.00061677 0.00035074 0.00371281
C  0.00229496 0.00175478 -0.00667635
C  0.00929775 0.00033822 0.00208190
C  0.00264228 -0.00065776 -0.00505850
C  0.00326972 0.00018214 0.00266926
C  -0.00126416 0.00210379 -0.00401521
H  -0.00139589 0.01701935 0.00483292
H  0.00072370 -0.00342922 -0.01532686
H  -0.00989564 0.00627905 -0.00415535
H  -0.00017058 0.00700316 0.00201322
H  -0.01617093 0.01737493 -0.01563387
H  -0.00011221 -0.02258192 -0.02709044
12
MD Step 1656 Units = [Angstroms / fs]
C  0.00007777 0.00035631 0.00388830
C  0.00153944 0.00169082 -0.00653858
C  0.00980637 0.00063060 0.00171881
C  0.00256277 -0.00021416 -0.00486733
C  0.00357067 0.00020025 0.00210538
C  -0.00048812 0.00268325 -0.00378854
H  -0.00119395 0.01729382 0.00250766
H  0.00612099 -0.00596545 -0.01518644
H  -0.01229295 0.00881402 -0.00260894
H  -0.00348202 -0.00056213 0.00217340
H  -0.01506020 0.01159818 -0.01286669
H  -0.00363455 -0.02470789 -0.02704547
12
MD Step 1657 Units = [Angstroms / fs]
C  -0.00039370 0.00046389 0.00402892
C  0.00081168 0.00158752 -0.00638215
C  0.01012400 0.00092279 0.00134407
C  0.00247923 0.00021241 -0.00464546
C  0.00378340 0.00029500 0.00149756
C  0.00029245 0.00323441 -0.00355914
H  -0.00140621 0.01653054 0.00040335
H  0.01114472 -0.00776156 -0.01502345
H  -0.01304309 0.01118689 -0.00117466
H  -0.00663804 -0.00794980 0.00225571
H  -0.01312934 0.00467068 -0.00979633
H  -0.00680634 -0.02651859 -0.02689984
12
MD Step 1658 Units = [Angstroms / fs]
C  -0.00078940 0.00066920 0.00413236
C  0.00013300 0.00143147 -0.00620858
C  0.01022671 0.00120752 0.00096221
C  0.00238145 0.00058116 -0.00439459
C  0.00391782 0.00043216 0.00085600
C  0.00104066 0.00374934 -0.00333022
H  -0.00205425 0.01472865 -0.00146261
H  0.01560924 -0.00853369 -0.01482117
H  -0.01196914 0.01336642 0.00011080
H  -0.00938352 -0.01465193 0.00225741
H  -0.01061036 -0.00290991 -0.00651964
H  -0.00924403 -0.02798558 -0.02662304
12
MD Step 1659 Units = [Angstroms / fs]
C  -0.00110638 0.00096025 0.00419834
C  -0.00047875 0.00121792 -0.00601941
C  0.01010461 0.00147742 0.00057651
C  0.00225949 0.00085258 -0.00411693
C  0.00398601 0.00057750 0.00019166
C  0.00172582 0.00421891 -0.00310524
H  -0.00310784 0.01198273 -0.00309720
H  0.01937695 -0.00811879 -0.01456350
H  -0.00905500 0.01533245 0.00122826
H  -0.01147262 -0.02017424 0.00218016
H  -0.00774945 -0.01063692 -0.00314282
H  -0.01064622 -0.02907254 -0.02618061
12
MD Step 1660 Units = [Angstroms / fs]
C  -0.00134723 0.00131739 0.00422861
C  -0.00100973 0.00095103 -0.00581612
C  0.00976521 0.00172531 0.00018857
C  0.00210426 0.00099018 -0.00381520
C  0.00400219 0.00069763 -0.00048405
C  0.00232609 0.00463307 -0.00288746
H  -0.00448246 0.00848389 -0.00453160
H  0.02236274 -0.00648087 -0.01423725
H  -0.00448119 0.01707590 0.00218141
H  -0.01267926 -0.02405754 0.00203006
H  -0.00480202 -0.01800542 0.00022297
H  -0.01082644 -0.02973891 -0.02554056
12
MD Step 1661 Units = [Angstroms / fs]
C  -0.00151952 0.00171436 0.00422668
C  -0.00145040 0.00064267 -0.00559993
C  0.00923466 0.00194465 -0.00020188
C  0.00190878 0.00096361 -0.00349262
C  0.00398274 0.00076053 -0.00115946
C  0.00282953 0.00498145 -0.00267951
H  -0.00604465 0.00450715 -0.00581694
H  0.02453287 -0.00369984 -0.01383383
H  0.00136340 0.01859594 0.00299869
H  -0.01281595 -0.02591543 0.00181727
H  -0.00203005 -0.02451863 0.00346502
H  -0.00972604 -0.02994578 -0.02467920
12
MD Step 1662 Units = [Angstroms / fs]
C  -0.00163452 0.00212039 0.00419715
C  -0.00179548 0.00031050 -0.00537183
C  0.00855591 0.00213025 -0.00059664
C  0.00167020 0.00075319 -0.00315287
C  0.00394605 0.00073618 -0.00182297
C  0.00323370 0.00525415 -0.00248312
H  -0.00762616 0.00038461 -0.00701597
H  0.02590026 0.00004994 -0.01335013
H  0.00790767 0.01989464 0.00372951
H  -0.01176169 -0.02548936 0.00155532
H  0.00030251 -0.02969783 0.00647323
H  -0.00740853 -0.02966228 -0.02358539
12
MD Step 1663 Units = [Angstroms / fs]
C  -0.00170524 0.00250324 0.00414488
C  -0.00204387 -0.00002417 -0.00513249
C  0.00778335 0.00227904 -0.00099836
C  0.00139234 0.00035530 -0.00279993
C  0.00391176 0.00059808 -0.00246353
C  0.00354416 0.00544253 -0.00229898
H  -0.00904498 -0.00353239 -0.00819230
H  0.02651792 0.00452490 -0.01278862
H  0.01446580 0.02097060 0.00443486
H  -0.00949562 -0.02271439 0.00125951
H  0.00194057 -0.03310314 0.00914661
H  -0.00404119 -0.02887087 -0.02226257
12
MD Step 1664 Units = [Angstroms / fs]
C  -0.00174424 0.00283254 0.00407414
C  -0.00219839 -0.00033837 -0.00488233
C  0.00697490 0.00239055 -0.00140945
C  0.00108788 -0.00021268 -0.00243789
C  0.00389921 0.00032590 -0.00307141
C  0.00377260 0.00553996 -0.00212686
H  -0.01012957 -0.00691524 -0.00939959
H  0.02647196 0.00943638 -0.01215703
H  0.02033458 0.02181422 0.00517415
H  -0.00612753 -0.01777785 0.00094477
H  0.00265862 -0.03437047 0.01140295
H  0.00012935 -0.02757066 -0.02072887
12
MD Step 1665 Units = [Angstroms / fs]
C  -0.00176162 0.00308276 0.00398793
C  -0.00226555 -0.00060904 -0.00462153
C  0.00618358 0.00246688 -0.00183107
C  0.00077935 -0.00091019 -0.00207070
C  0.00392467 -0.00009042 -0.00363926
C  0.00393484 0.00554245 -0.00196569
H  -0.01074087 -0.00949569 -0.01067312
H  0.02587491 0.01447135 -0.01146772
H  0.02489632 0.02240662 0.00599248
H  -0.00191186 -0.01114482 0.00062329
H  0.00229348 -0.03326541 0.01319132
H  0.00480202 -0.02577875 -0.01901582
12
MD Step 1666 Units = [Angstroms / fs]
C  -0.00176366 0.00323526 0.00388766
C  -0.00225515 -0.00081424 -0.00435008
C  0.00545074 0.00251228 -0.00226247
C  0.00049768 -0.00167600 -0.00170203
C  0.00399775 -0.00064585 -0.00416320
C  0.00404930 0.00544908 -0.00181374
H  -0.01078818 -0.01109230 -0.01202553
H  0.02485947 0.01930984 -0.01073692
H  0.02770040 0.02272261 0.00691208
H  0.00276752 -0.00352633 0.00030299
H  0.00078587 -0.02974696 0.01450470
H  0.00964348 -0.02353005 -0.01716630
12
MD Step 1667 Units = [Angstroms / fs]
C  -0.00175221 0.00327932 0.00377312
C  -0.00217974 -0.00093410 -0.00406784
C  0.00480249 0.00253223 -0.00270082
C  0.00027816 -0.00243607 -0.00133521
C  0.00411770 -0.00131610 -0.00464358
C  0.00413561 0.00526228 -0.00166882
H  -0.01023629 -0.01162242 -0.01344700
H  0.02357207 0.02364040 -0.00998371
H  0.02850588 0.02273649 0.00792990
H  0.00744632 0.00421667 -0.00001257
H  -0.00177895 -0.02402313 0.01538782
H  0.01430709 -0.02087586 -0.01523206
12
MD Step 1668 Units = [Angstroms / fs]
C  -0.00172487 0.00321195 0.00364278
C  -0.00205383 -0.00095174 -0.00377459
C  0.00424938 0.00253244 -0.00314151
C  0.00015452 -0.00311505 -0.00097326
C  0.00427103 -0.00205614 -0.00508482
C  0.00421357 0.00498784 -0.00152841
H  -0.00910457 -0.01110046 -0.01490892
H  0.02216541 0.02717539 -0.00922892
H  0.02728280 0.02242807 0.00902100
H  0.01165278 0.01121359 -0.00032258
H  -0.00514801 -0.01657315 0.01593440
H  0.01844962 -0.01788165 -0.01327090
12
MD Step 1669 Units = [Angstroms / fs]
C  -0.00167574 0.00303712 0.00349424
C  -0.00189285 -0.00085419 -0.00347019
C  0.00378864 0.00251802 -0.00357874
C  0.00015296 -0.00364815 -0.00061910
C  0.00443199 -0.00280327 -0.00549417
C  0.00430205 0.00463464 -0.00138980
H  -0.00745992 -0.00962613 -0.01636960
H  0.02078890 0.02966784 -0.00849353
H  0.02418266 0.02178719 0.01014528
H  0.01498371 0.01672679 -0.00062656
H  -0.00891238 -0.00811324 0.01627048
H  0.02174799 -0.01462397 -0.01134334
12
MD Step 1670 Units = [Angstroms / fs]
C  -0.00159654 0.00276450 0.00332462
C  -0.00171178 -0.00063368 -0.00315467
C  0.00340747 0.00249286 -0.00400613
C  0.00028783 -0.00398963 -0.00027558
C  0.00456664 -0.00348524 -0.00587955
C  0.00441775 0.00421407 -0.00125033
H  -0.00540654 -0.00736730 -0.01778040
H  0.01957634 0.03093027 -0.00779673
H  0.01949428 0.02081591 0.01125515
H  0.01716052 0.02025385 -0.00092224
H  -0.01256152 0.00049964 0.01652677
H  0.02391810 -0.01118614 -0.00950853
12
MD Step 1671 Units = [Angstroms / fs]
C  -0.00147774 0.00240819 0.00313101
C  -0.00152354 -0.00028891 -0.00282847
C  0.00308638 0.00245931 -0.00441734
C  0.00056012 -0.00411614 0.00005440
C  0.00463979 -0.00403153 -0.00624715
C  0.00457365 0.00373913 -0.00110767
H  -0.00307500 -0.00454151 -0.01909131
H  0.01863107 0.03085443 -0.00715354
H  0.01359905 0.01952856 0.01230211
H  0.01805251 0.02156633 -0.00120457
H  -0.01557010 0.00840499 0.01680883
H  0.02473714 -0.00765271 -0.00781915
12
MD Step 1672 Units = [Angstroms / fs]
C  -0.00130972 0.00198563 0.00291076
C  -0.00133736 0.00017366 -0.00249260
C  0.00280183 0.00241814 -0.00480647
C  0.00095856 -0.00402525 0.00036801
C  0.00462243 -0.00438461 -0.00659974
C  0.00477718 0.00322334 -0.00096019
H  -0.00061190 -0.00139850 -0.02025550
H  0.01801008 0.02942890 -0.00657232
H  0.00693395 0.01795070 0.01324177
H  0.01766830 0.02068979 -0.00146598
H  -0.01749102 0.01487609 0.01717587
H  0.02406895 -0.00410256 -0.00631527
12
MD Step 1673 Units = [Angstroms / fs]
C  -0.00108368 0.00151657 0.00266169
C  -0.00115736 0.00073908 -0.00214886
C  0.00252809 0.00236863 -0.00516830
C  0.00146225 -0.00373099 0.00066254
C  0.00449749 -0.00450766 -0.00693622
C  0.00502832 0.00267955 -0.00080742
H  0.00182921 0.00179549 -0.02123270
H  0.01771035 0.02675001 -0.00605247
H  -0.00003519 0.01611745 0.01403698
H  0.01612727 0.01784785 -0.00169746
H  -0.01802512 0.01941634 0.01763501
H  0.02188953 -0.00060157 -0.00501793
12
MD Step 1674 Units = [Angstroms / fs]
C  -0.00079251 0.00102211 0.00238224
C  -0.00098176 0.00138400 -0.00179989
C  0.00223848 0.00230883 -0.00549854
C  0.00204380 -0.00325866 0.00093548
C  0.00426209 -0.00438712 -0.00725232
C  0.00531812 0.00211905 -0.00065043
H  0.00409608 0.00477217 -0.02199164
H  0.01766177 0.02302083 -0.00558322
H  -0.00683254 0.01407201 0.01465998
H  0.01362467 0.01339691 -0.00188982
H  -0.01704989 0.02179393 0.01814997
H  0.01830711 0.00280371 -0.00392352
12
MD Step 1675 Units = [Angstroms / fs]
C  -0.00043146 0.00052375 0.00207160
C  -0.00080307 0.00207794 -0.00144918
C  0.00190637 0.00223578 -0.00579389
C  0.00267208 -0.00264035 0.00118457
C  0.00392647 -0.00403074 -0.00754195
C  0.00562818 0.00155092 -0.00049212
H  0.00604592 0.00727578 -0.02251170
H  0.01773058 0.01853518 -0.00514387
H  -0.01298759 0.01186402 0.01509369
H  0.01040096 0.00777011 -0.00203467
H  -0.01460821 0.02202053 0.01865795
H  0.01356935 0.00608934 -0.00300081
12
MD Step 1676 Units = [Angstroms / fs]
C  0.00000126 0.00004208 0.00172976
C  -0.00060939 0.00278578 -0.00110091
C  0.00150649 0.00214600 -0.00605217
C  0.00331429 -0.00191192 0.00140780
C  0.00351077 -0.00346280 -0.00779859
C  0.00593169 0.00098205 -0.00033712
H  0.00755413 0.00907894 -0.02278391
H  0.01773538 0.01364661 -0.00470596
H  -0.01805241 0.00954776 0.01533270
H  0.00671988 0.00143837 -0.00212513
H  -0.01087200 0.02029681 0.01908731
H  0.00805112 0.00925233 -0.00219231
12
MD Step 1677 Units = [Angstroms / fs]
C  0.00050385 -0.00040457 0.00135760
C  -0.00038672 0.00347103 -0.00075955
C  0.00101673 0.00203592 -0.00627237
C  0.00393741 -0.00111124 0.00160338
C  0.00304119 -0.00271886 -0.00801627
C  0.00619617 0.00041768 -0.00019132
H  0.00852417 0.01000054 -0.02281115
H  0.01747383 0.00872722 -0.00423710
H  -0.02162588 0.00717934 0.01538367
H  0.00285546 -0.00511204 -0.00215620
H  -0.00609863 0.01695015 0.01937107
H  0.00221987 0.01230354 -0.00142079
12
MD Step 1678 Units = [Angstroms / fs]
C  0.00107041 -0.00080194 0.00095684
C  -0.00012168 0.00409925 -0.00042953
C  0.00042092 0.00190257 -0.00645458
C  0.00450914 -0.00027744 0.00176976
C  0.00254658 -0.00184124 -0.00819022
C  0.00638761 -0.00013755 -0.00006105
H  0.00889799 0.00992493 -0.02260726
H  0.01675466 0.00412437 -0.00370570
H  -0.02338801 0.00481269 0.01526480
H  -0.00091493 -0.01139091 -0.00212495
H  -0.00059319 0.01238201 0.01945517
H  -0.00341781 0.01525666 -0.00060031
12
MD Step 1679 Units = [Angstroms / fs]
C  0.00169053 -0.00114143 0.00052992
C  0.00019584 0.00464103 -0.00011484
C  -0.00028763 0.00174437 -0.00659989
C  0.00499878 0.00054954 0.00190564
C  0.00205606 -0.00087597 -0.00831704
C  0.00647532 -0.00067860 0.00004784
H  0.00866589 0.00882017 -0.02219507
H  0.01542758 0.00012383 -0.00308548
H  -0.02314361 0.00249420 0.01500355
H  -0.00431499 -0.01691137 -0.00203072
H  0.00531775 0.00703180 0.01930214
H  -0.00837833 0.01811632 0.00035051
12
MD Step 1680 Units = [Angstroms / fs]
C  0.00234912 -0.00142139 0.00007985
C  0.00057078 0.00507389 0.00018134
C  -0.00110243 0.00156186 -0.00671002
C  0.00537815 0.00132971 0.00201000
C  0.00159757 0.00012909 -0.00839476
C  0.00643629 -0.00119919 0.00013096
H  0.00787344 0.00675100 -0.02160309
H  0.01340475 -0.00307426 -0.00235894
H  -0.02086882 0.00025686 0.01463207
H  -0.00707575 -0.02120102 -0.00187526
H  0.01130115 0.00135663 0.01889213
H  -0.01225876 0.02086923 0.00149619
12
MD Step 1681 Units = [Angstroms / fs]
C  0.00302663 -0.00164765 -0.00039010
C  0.00100204 0.00538298 0.00045672
C  -0.00200080 0.00135842 -0.00678678
C  0.00562294 0.00202464 0.00208213
C  0.00119729 0.00112522 -0.00842278
C  0.00625811 -0.00169152 0.00018591
H  0.00662279 0.00388205 -0.02086128
H  0.01067039 -0.00536456 -0.00151902
H  -0.01674764 -0.00188441 0.01418020
H  -0.00894765 -0.02382373 -0.00166270
H  0.01702513 -0.00417847 0.01822294
H  -0.01477837 0.02348060 0.00287586
12
MD Step 1682 Units = [Angstroms / fs]
C  0.00369993 -0.00183280 -0.00087675
C  0.00148261 0.00556091 0.00071000
C  -0.00294314 0.00114047 -0.00683146
C  0.00571466 0.00260052 0.00212171
C  0.00087937 0.00206363 -0.00840188
C  0.00594018 -0.00214654 0.00021251
H  0.00506616 0.00046681 -0.01999675
H  0.00727905 -0.00673281 -0.00056916
H  -0.01118172 -0.00393384 0.01366741
H  -0.00972139 -0.02441788 -0.00139932
H  0.02216384 -0.00910665 0.01730961
H  -0.01579782 0.02589659 0.00449983
12
MD Step 1683 Units = [Angstroms / fs]
C  0.00434376 -0.00199429 -0.00137720
C  0.00200036 0.00560680 0.00094079
C  -0.00387549 0.00091722 -0.00684430
C  0.00564304 0.00303271 0.00212875
C  0.00066556 0.00289658 -0.00833421
C  0.00549301 -0.00255463 0.00021262
H  0.00339083 -0.00317826 -0.01903032
H  0.00334557 -0.00724349 0.00047799
H  -0.00475995 -0.00591077 0.01309601
H  -0.00925823 -0.02275198 -0.00109268
H  0.02640495 -0.01296907 0.01618407
H  -0.01531707 0.02805095 0.00635115
12
MD Step 1684 Units = [Angstroms / fs]
C  0.00493263 -0.00215148 -0.00188902
C  0.00253935 0.00552516 0.00114943
C  -0.00473558 0.00069975 -0.00682425
C  0.00540879 0.00331130 0.00210358
C  0.00057453 0.00357939 -0.00822326
C  0.00493644 -0.00290653 0.00018976
H  0.00179747 -0.00671170 -0.01797492
H  -0.00096930 -0.00702355 0.00160252
H  0.00181476 -0.00784054 0.01244848
H  -0.00752590 -0.01879033 -0.00075016
H  0.02946413 -0.01533558 0.01489381
H  -0.01345759 0.02987364 0.00839060
12
MD Step 1685 Units = [Angstroms / fs]
C  0.00544295 -0.00232231 -0.00241021
C  0.00308115 0.00532482 0.00133689
C  -0.00546134 0.00049974 -0.00676926
C  0.00502570 0.00344611 0.00204662
C  0.00062026 0.00407379 -0.00807365
C  0.00429720 -0.00319413 0.00014856
H  0.00047561 -0.00980975 -0.01683619
H  -0.00547419 -0.00624571 0.00277953
H  0.00782753 -0.00974311 0.01169060
H  -0.00463018 -0.01275079 -0.00037705
H  0.03110970 -0.01584224 0.01349850
H  -0.01043675 0.03129907 0.01056322
12
MD Step 1686 Units = [Angstroms / fs]
C  0.00585490 -0.00252033 -0.00293902
C  0.00360613 0.00501800 0.00150458
C  -0.00599954 0.00032817 -0.00667691
C  0.00452122 0.00346897 0.00195837
C  0.00080971 0.00435279 -0.00789070
C  0.00360651 -0.00341110 0.00009429
H  -0.00041868 -0.01220522 -0.01561492
H  -0.00996128 -0.00511322 0.00398119
H  0.01265655 -0.01162307 0.01077986
H  -0.00082797 -0.00512810 0.00002522
H  0.03119710 -0.01424699 0.01206320
H  -0.00654077 0.03227266 0.01280501
12
MD Step 1687 Units = [Angstroms / fs]
C  0.00615378 -0.00275260 -0.00347371
C  0.00409460 0.00461963 0.00165418
C  -0.00631250 0.00019423 -0.00654522
C  0.00393427 0.00343123 0.00183922
C  0.00113988 0.00440634 -0.00767958
C  0.00289803 -0.00355333 0.00003244
H  -0.00077892 -0.01371514 -0.01431041
H  -0.01421895 -0.00384636 0.00517879
H  0.01585350 -0.01346475 0.00967625
H  0.00349091 0.00334106 0.00045953
H  0.02970763 -0.01049693 0.01064723
H  -0.00210025 0.03275535 0.01504885
12
MD Step 1688 Units = [Angstroms / fs]
C  0.00633075 -0.00301886 -0.00401235
C  0.00452791 0.00414676 0.00178749
C  -0.00638137 0.00010468 -0.00637342
C  0.00331049 0.00339588 0.00168965
C  0.00159544 0.00424640 -0.00744425
C  0.00220623 -0.00361905 -0.00003157
H  -0.00055595 -0.01425357 -0.01292372
H  -0.01804307 -0.00266974 0.00634447
H  0.01718298 -0.01523324 0.00835186
H  0.00785668 0.01177744 0.00093186
H  0.02677928 -0.00478915 0.00929019
H  0.00253047 0.03272621 0.01722924
12
MD Step 1689 Units = [Angstroms / fs]
C  0.00638282 -0.00331183 -0.00455266
C  0.00488943 0.00361796 0.00190629
C  -0.00620597 0.00006355 -0.00616227
C  0.00269564 0.00342601 0.00151035
C  0.00214802 0.00390922 -0.00718642
C  0.00156502 -0.00360887 -0.00009272
H  0.00024241 -0.01383031 -0.01146001
H  -0.02124811 -0.00179904 0.00745303
H  0.01662001 -0.01688010 0.00679674
H  0.01179566 0.01930173 0.00144827
H  0.02271376 0.00240193 0.00799903
H  0.00699094 0.03218361 0.01928627
12
MD Step 1690 Units = [Angstroms / fs]
C  0.00631243 -0.00361834 -0.00509195
C  0.00516553 0.00305234 0.00201213
C  -0.00580227 0.00007225 -0.00591415
C  0.00212927 0.00357315 0.00130252
C  0.00275834 0.00345261 -0.00690505
C  0.00100661 -0.00352569 -0.00014655
H  0.00155780 -0.01253916 -0.00992958
H  -0.02367834 -0.00142595 0.00848369
H  0.01431791 -0.01835094 0.00502044
H  0.01490680 0.02517763 0.00201140
H  0.01794772 0.01035610 0.00674199
H  0.01093155 0.03114527 0.02116892
12
MD Step 1691 Units = [Angstroms / fs]
C  0.00612671 -0.00392094 -0.00562716
C  0.00534660 0.00246844 0.00210620
C  -0.00519873 0.00012967 -0.00563278
C  0.00164043 0.00386905 0.00106801
C  0.00338123 0.00294769 -0.00659679
C  0.00056007 -0.00337445 -0.00018951
H  0.00329113 -0.01054051 -0.00834786
H  -0.02521953 -0.00170076 0.00942175
H  0.01056297 -0.01959254 0.00305004
H  0.01691598 0.02891244 0.00261791
H  0.01298819 0.01820511 0.00545395
H  0.01403187 0.02964708 0.02283794
12
MD Step 1692 Units = [Angstroms / fs]
C  0.00583676 -0.00419955 -0.00615494
C  0.00542788 0.00188262 0.00218914
C  -0.00443266 0.00023252 -0.00532291
C  0.00124627 0.00432271 0.00080937
C  0.00397224 0.00246690 -0.00625731
C  0.00024974 -0.00316186 -0.00021912
H  0.00531353 -0.00804246 -0.00673444
H  -0.02580988 -0.00271334 0.01026009
H  0.00572980 -0.02055817 0.00092642
H  0.01769630 0.03029327 0.00325790
H  0.00832856 0.02507586 0.00405331
H  0.01602243 0.02774056 0.02426841
12
MD Step 1693 Units = [Angstroms / fs]
C  0.00545680 -0.00443299 -0.00667177
C  0.00541011 0.00130749 0.00226096
C  -0.00354723 0.00037563 -0.00498991
C  0.00095323 0.00492235 0.00052966
C  0.00449383 0.00207177 -0.00588307
C  0.00009317 -0.00289590 -0.00023425
H  0.00747683 -0.00528287 -0.00511174
H  -0.02544850 -0.00447530 0.01099991
H  0.00024510 -0.02121079 -0.00129991
H  0.01725721 0.02936428 0.00391607
H  0.00437104 0.03023563 0.00246441
H  0.01671005 0.02548846 0.02545150
12
MD Step 1694 Units = [Angstroms / fs]
C  0.00500341 -0.00460038 -0.00717408
C  0.00529969 0.00075043 0.00232102
C  -0.00258923 0.00055235 -0.00463950
C  0.00075961 0.00564020 0.00023228
C  0.00491926 0.00180429 -0.00547283
C  0.00009894 -0.00258516 -0.00023516
H  0.00962339 -0.00251310 -0.00350338
H  -0.02419861 -0.00690731 0.01165058
H  -0.00543859 -0.02152480 -0.00357259
H  0.01571493 0.02636868 0.00457410
H  0.00137793 0.03319498 0.00063696
H  0.01600459 0.02295850 0.02639492
12
MD Step 1695 Units = [Angstroms / fs]
C  0.00449477 -0.00468230 -0.00765838
C  0.00510824 0.00021295 0.00236815
C  -0.00160731 0.00075495 -0.00427748
C  0.00065833 0.00643814 -0.00007930
C  0.00523359 0.00168371 -0.00502836
C  0.00026474 -0.00223809 -0.00022348
H  0.01159521 0.00001700 -0.00193255
H  -0.02218351 -0.00983689 0.01222801
H  -0.01086156 -0.02148694 -0.00583266
H  0.01325819 0.02168220 0.00521308
H  -0.00053981 0.03374512 -0.00144365
H  0.01394224 0.02021576 0.02712111
12
MD Step 1696 Units = [Angstroms / fs]
C  0.00394982 -0.00466196 -0.00812133
C  0.00485150 -0.00030901 0.00240084
C  -0.00065034 0.00097513 -0.00390956
C  0.00063909 0.00727249 -0.00040167
C  0.00543224 0.00170842 -0.00455434
C  0.00057632 -0.00186218 -0.00020187
H  0.01324333 0.00207421 -0.00042036
H  -0.01957405 -0.01301018 0.01275186
H  -0.01557274 -0.02109677 -0.00802168
H  0.01011889 0.01575640 0.00581557
H  -0.00140372 0.03193516 -0.00375664
H  0.01069800 0.01731512 0.02766282
12
MD Step 1697 Units = [Angstroms / fs]
C  0.00338723 -0.00452644 -0.00855990
C  0.00454771 -0.00082351 0.00241759
C  0.00023438 0.00120449 -0.00354113
C  0.00068970 0.00809739 -0.00073165
C  0.00551843 0.00186072 -0.00405761
C  0.00100782 -0.00146342 -0.00017345
H  0.01443777 0.00345823 0.00101555
H  -0.01656917 -0.01611881 0.01324179
H  -0.01914799 -0.02036693 -0.01008497
H  0.00655191 0.00907931 0.00636702
H  -0.00133331 0.02801336 -0.00625349
H  0.00658023 0.01429569 0.02805631
12
MD Step 1698 Units = [Angstroms / fs]
C  0.00282430 -0.00426798 -0.00897142
C  0.00421565 -0.00134016 0.00241714
C  0.00100360 0.00143486 -0.00317703
C  0.00079662 0.00886686 -0.00106628
C  0.00550055 0.00211251 -0.00354623
C  0.00152401 -0.00104615 -0.00014120
H  0.01507837 0.00401963 0.00236220
H  -0.01337285 -0.01883779 0.01371383
H  -0.02121546 -0.01932267 -0.01197557
H  0.00282347 0.00215259 0.00685674
H  -0.00051022 0.02235958 -0.00886838
H  0.00200291 0.01117941 0.02833332
12
MD Step 1699 Units = [Angstroms / fs]
C  0.00227581 -0.00388532 -0.00935360
C  0.00387289 -0.00186729 0.00239879
C  0.00162138 0.00165862 -0.00282117
C  0.00094503 0.00953590 -0.00140294
C  0.00539016 0.00243003 -0.00302871
C  0.00208424 -0.00061338 -0.00010728
H  0.01510560 0.00367847 0.00361173
H  -0.01017189 -0.02086750 0.01417756
H  -0.02149079 -0.01800004 -0.01365878
H  -0.00079480 -0.00452050 0.00727861
H  0.00085029 0.01542809 -0.01152781
H  -0.00256239 0.00797461 0.02851384
12
MD Step 1700 Units = [Angstroms / fs]
C  0.00175301 -0.00338488 -0.00970457
C  0.00353442 -0.00240935 0.00236250
C  0.00206304 0.00186868 -0.00247623
C  0.00111885 0.01006132 -0.00173933
C  0.00520087 0.00277721 -0.00251338
C  0.00264723 -0.00016761 -0.00007269
H  0.01450994 0.00244102 0.00476105
H  -0.00711898 -0.02197073 0.01463477
H  -0.01982034 -0.01644210 -0.01511676
H  -0.00402998 -0.01044357 0.00763176
H  0.00251804 0.00770801 -0.01415778
H  -0.00664664 0.00468367 0.02860194
12
MD Step 1701 Units = [Angstroms / fs]
C  0.00126286 -0.00278145 -0.01002270
C  0.00321187 -0.00296528 0.00230885
C  0.00231906 0.00205834 -0.00214339
C  0.00130104 0.01040273 -0.00207355
C  0.00494785 0.00311766 -0.00200807
C  0.00317595 0.00028828 -0.00003713
H  0.01333699 0.00041010 0.00581023
H  -0.00432305 -0.02199797 0.01507994
H  -0.01622562 -0.01469285 -0.01635174
H  -0.00661461 -0.01513977 0.00792111
H  0.00425783 -0.00029919 -0.01668851
H  -0.00984239 0.00131246 0.02858556
12
MD Step 1702 Units = [Angstroms / fs]
C  0.00080802 -0.00209799 -0.01030653
C  0.00291330 -0.00352790 0.00223893
C  0.00239811 0.00222094 -0.00182226
C  0.00147446 0.01052457 -0.00240412
C  0.00464781 0.00341568 -0.00151987
C  0.00364134 0.00075019 0.00000071
H  0.01168612 -0.00221543 0.00675992
H  -0.00184714 -0.02089796 0.01550185
H  -0.01093528 -0.01278993 -0.01738617
H  -0.00830014 -0.01817575 0.00815759
H  0.00583412 -0.00809114 -0.01905761
H  -0.01184962 -0.00212160 0.02844036
12
MD Step 1703 Units = [Angstroms / fs]
C  0.00038742 -0.00136426 -0.01055444
C  0.00264342 -0.00408441 0.00215415
C  0.00232755 0.00234967 -0.00151122
C  0.00162368 0.01039924 -0.00272996
C  0.00431898 0.00363688 -0.00105501
C  0.00402433 0.00121236 0.00004273
H  0.00970091 -0.00515587 0.00760823
H  0.00028793 -0.01871444 0.01588606
H  -0.00438882 -0.01075801 -0.01825831
H  -0.00888025 -0.01920183 0.00835742
H  0.00701392 -0.01517215 -0.02121254
H  -0.01250061 -0.00558504 0.02813601
12
MD Step 1704 Units = [Angstroms / fs]
C  -0.00000243 -0.00061433 -0.01076459
C  0.00240393 -0.00461753 0.00205603
C  0.00215064 0.00243763 -0.00120811
C  0.00173760 0.01001173 -0.00305027
C  0.00398098 0.00374915 -0.00061866
C  0.00431616 0.00166735 0.00009091
H  0.00755188 -0.00808032 0.00834787
H  0.00209665 -0.01557339 0.01621746
H  0.00280002 -0.00860580 -0.01901326
H  -0.00822435 -0.01800828 0.00853977
H  0.00757204 -0.02106475 -0.02311347
H  -0.01176323 -0.00902819 0.02764307
12
MD Step 1705 Units = [Angstroms / fs]
C  -0.00036566 0.00011683 -0.01093475
C  0.00219396 -0.00510706 0.00194604
C  0.00192034 0.00247825 -0.00091109
C  0.00181257 0.00936470 -0.00336417
C  0.00365402 0.00372433 -0.00021466
C  0.00451728 0.00210641 0.00014688
H  0.00541445 -0.01064703 0.00896467
H  0.00362072 -0.01166511 0.01648242
H  0.00992036 -0.00632852 -0.01969158
H  -0.00631647 -0.01458878 0.00872205
H  0.00730191 -0.02533228 -0.02473659
H  -0.00972726 -0.01238849 0.02693882
12
MD Step 1706 Units = [Angstroms / fs]
C  -0.00070529 0.00079684 -0.01106242
C  0.00201046 -0.00553139 0.00182540
C  0.00169097 0.00246630 -0.00061944
C  0.00185506 0.00848272 -0.00367026
C  0.00335737 0.00354119 0.00015477
C  0.00463555 0.00252015 0.00021166
H  0.00344652 -0.01254638 0.00943812
H  0.00492147 -0.00722536 0.01667054
H  0.01626619 -0.00391568 -0.02031891
H  -0.00328837 -0.00919193 0.00891309
H  0.00603515 -0.02761733 -0.02607744
H  -0.00658115 -0.01559577 0.02601121
12
MD Step 1707 Units = [Angstroms / fs]
C  -0.00102181 0.00139903 -0.01114502
C  0.00184847 -0.00586897 0.00169508
C  0.00150997 0.00239876 -0.00033405
C  0.00188261 0.00741333 -0.00396607
C  0.00310697 0.00318962 0.00048923
C  0.00468424 0.00289925 0.00028547
H  0.00177023 -0.01353797 0.00974378
H  0.00607312 -0.00251749 0.01677572
H  0.02123705 -0.00136154 -0.02090026
H  0.00056907 -0.00233474 0.00910573
H  0.00367025 -0.02769623 -0.02715276
H  -0.00258596 -0.01857807 0.02486082
12
MD Step 1708 Units = [Angstroms / fs]
C  -0.00131234 0.00190439 -0.01118023
C  0.00170148 -0.00609943 0.00155568
C  0.00141180 0.00227567 -0.00005734
C  0.00192188 0.00622331 -0.00424770
C  0.00291232 0.00267538 0.00079005
C  0.00468025 0.00323524 0.00036770
H  0.00046124 -0.01347508 0.00985707
H  0.00715710 0.00218373 0.01679676
H  0.02441194 0.00132580 -0.02142027
H  0.00482968 0.00524279 0.00927167
H  0.00020734 -0.02554100 -0.02799848
H  0.00194903 -0.02126674 0.02350121
12
MD Step 1709 Units = [Angstroms / fs]
C  -0.00157062 0.00230238 -0.01116632
C  0.00156184 -0.00620473 0.00140749
C  0.00141515 0.00210027 0.00020713
C  0.00200381 0.00498985 -0.00450988
C  0.00277347 0.00202396 0.00105974
C  0.00464261 0.00352112 0.00045690
H  -0.00045407 -0.01231366 0.00975733
H  0.00825660 0.00660739 0.01673752
H  0.02558203 0.00411955 -0.02184868
H  0.00899311 0.01268317 0.00936181
H  -0.00422030 -0.02137009 -0.02866195
H  0.00668733 -0.02360072 0.02195819
12
MD Step 1710 Units = [Angstroms / fs]
C  -0.00178741 0.00259053 -0.01110240
C  0.00142135 -0.00617010 0.00125050
C  0.00152340 0.00187874 0.00045527
C  0.00215695 0.00378892 -0.00474660
C  0.00267934 0.00128139 0.00130095
C  0.00459125 0.00375183 0.00055087
H  -0.00099453 -0.01010771 0.00943126
H  0.00945071 0.01050193 0.01660654
H  0.02474390 0.00697446 -0.02214832
H  0.01256900 0.01915215 0.00931334
H  -0.00933144 -0.01566245 -0.02918812
H  0.01128319 -0.02552981 0.02026826
12
MD Step 1711 Units = [Angstroms / fs]
C  -0.00195145 0.00277340 -0.01098858
C  0.00127206 -0.00598517 0.00108448
C  0.00172718 0.00161945 0.00068312
C  0.00240115 0.00268413 -0.00495206
C  0.00260843 0.00051044 0.00151515
C  0.00454592 0.00392461 0.00064674
H  -0.00121599 -0.00699497 0.00887516
H  0.01080752 0.01365178 0.01641612
H  0.02206571 0.00983116 -0.02228293
H  0.01515844 0.02397185 0.00906182
H  -0.01471253 -0.00911441 -0.02960321
H  0.01539844 -0.02701717 0.01847639
12
MD Step 1712 Units = [Angstroms / fs]
C  -0.00205047 0.00286114 -0.01082605
C  0.00110720 -0.00564520 0.00090914
C  0.00200782 0.00133214 0.00088723
C  0.00274358 0.00171937 -0.00512171
C  0.00253245 -0.00021801 0.00170164
C  0.00452494 0.00403901 0.00074115
H  -0.00120148 -0.00317816 0.00809588
H  0.01237582 0.01589525 0.01618074
H  0.01784244 0.01262208 -0.02222318
H  0.01650833 0.02670777 0.00855393
H  -0.01986849 -0.00253753 -0.02990203
H  0.01872028 -0.02804112 0.01663305
12
MD Step 1713 Units = [Angstroms / fs]
C  -0.00207224 0.00286811 -0.01061701
C  0.00092234 -0.00515226 0.00072429
C  0.00234055 0.00102712 0.00106497
C  0.00317795 0.00091665 -0.00525296
C  0.00242221 -0.00083627 0.00185727
C  0.00454379 0.00409684 0.00083047
H  -0.00105168 0.00109463 0.00711066
H  0.01417576 0.01714225 0.01591467
H  0.01245313 0.01527746 -0.02195023
H  0.01652749 0.02719315 0.00775683
H  -0.02429915 0.00327792 -0.03004507
H  0.02098177 -0.02859601 0.01479024
12
MD Step 1714 Units = [Angstroms / fs]
C  -0.00200546 0.00281153 -0.01036456
C  0.00071640 -0.00451624 0.00053012
C  0.00269701 0.00071467 0.00121463
C  0.00368644 0.00027829 -0.00534532
C  0.00225387 -0.00129047 0.00197718
C  0.00461338 0.00410182 0.00091123
H  -0.00087649 0.00554807 0.00594617
H  0.01618982 0.01738883 0.01562912
H  0.00632662 0.01773010 -0.02145748
H  0.01526963 0.02549998 0.00666187
H  -0.02757925 0.00769217 -0.02996739
H  0.02198518 -0.02869179 0.01299646
12
MD Step 1715 Units = [Angstroms / fs]
C  -0.00184062 0.00271046 -0.01007256
C  0.00049252 -0.00375523 0.00032741
C  0.00304699 0.00040459 0.00133549
C  0.00424300 -0.00020844 -0.00540025
C  0.00201364 -0.00154733 0.00205608
C  0.00473822 0.00405911 0.00098051
H  -0.00078796 0.00989591 0.00463689
H  0.01835613 0.01672421 0.01532911
H  -0.00008276 0.01991892 -0.02075092
H  0.01289777 0.02188093 0.00528320
H  -0.02941810 0.01029981 -0.02959564
H  0.02162659 -0.02835174 0.01129089
12
MD Step 1716 Units = [Angstroms / fs]
C  -0.00157067 0.00258469 -0.00974545
C  0.00025843 -0.00289506 0.00011776
C  0.00335964 0.00010581 0.00142783
C  0.00481690 -0.00056626 -0.00542070
C  0.00169957 -0.00159579 0.00208968
C  0.00491482 0.00397462 0.00103648
H  -0.00089381 0.01385645 0.00322304
H  0.02056692 0.01532635 0.01501087
H  -0.00631257 0.02179154 -0.01984883
H  0.00964534 0.01670679 0.00365342
H  -0.02968472 0.01095227 -0.02886618
H  0.01991710 -0.02760822 0.00969751
12
MD Step 1717 Units = [Angstroms / fs]
C  -0.00119165 0.00245367 -0.00938796
C  0.00002611 -0.00196762 -0.00009633
C  0.00360453 -0.00017386 0.00149288
C  0.00537558 -0.00082376 -0.00541062
C  0.00132069 -0.00144433 0.00207571
C  0.00513082 0.00385427 0.00107879
H  -0.00129091 0.01716847 0.00174785
H  0.02267440 0.01344373 0.01466067
H  -0.01190705 0.02330645 -0.01878099
H  0.00578406 0.01041523 0.00181845
H  -0.02839950 0.00972810 -0.02773837
H  0.01699469 -0.02649675 0.00822050
12
MD Step 1718 Units = [Angstroms / fs]
C  -0.00070330 0.00233517 -0.00900487
C  -0.00018930 -0.00100826 -0.00031149
C  0.00375298 -0.00042800 0.00153279
C  0.00588670 -0.00101255 -0.00537456
C  0.00089433 -0.00111604 0.00201426
C  0.00536531 0.00370330 0.00110870
H  -0.00205802 0.01960876 0.00025420
H  0.02450462 0.01136468 0.01425547
H  -0.01643467 0.02443495 -0.01758709
H  0.00160218 0.00347668 -0.00016689
H  -0.02570427 0.00687533 -0.02620048
H  0.01312039 -0.02504977 0.00684243
12
MD Step 1719 Units = [Angstroms / fs]
C  -0.00010969 0.00224376 -0.00860071
C  -0.00037121 -0.00005256 -0.00052377
C  0.00378010 -0.00065177 0.00155046
C  0.00631937 -0.00116568 -0.00531741
C  0.00044282 -0.00064343 0.00190774
C  0.00559076 0.00352572 0.00112900
H  -0.00324733 0.02101163 -0.00121952
H  0.02587792 0.00937940 0.01376591
H  -0.01951283 0.02516291 -0.01631415
H  -0.00260804 -0.00362478 -0.00224213
H  -0.02182547 0.00274985 -0.02426949
H  0.00865496 -0.02329189 0.00552641
12
MD Step 1720 Units = [Angstroms / fs]
C  0.00058028 0.00218916 -0.00817931
C  -0.00050355 0.00086688 -0.00072901
C  0.00366750 -0.00084201 0.00154921
C  0.00664492 -0.00131677 -0.00524429
C  -0.00000926 -0.00006420 0.00176049
C  0.00577623 0.00332416 0.00114353
H  -0.00487520 0.02128879 -0.00264388
H  0.02663214 0.00774233 0.01316077
H  -0.02084204 0.02549146 -0.01501200
H  -0.00655701 -0.01040116 -0.00434354
H  -0.01704152 -0.00223451 -0.02198740
H  0.00401764 -0.02123823 0.00422246
12
MD Step 1721 Units = [Angstroms / fs]
C  0.00135243 0.00217471 -0.00774359
C  -0.00057274 0.00172296 -0.00092325
C  0.00340676 -0.00099704 0.00153233
C  0.00683757 -0.00149940 -0.00516038
C  -0.00043715 0.00058147 0.00157840
C  0.00589154 0.00310004 0.00115640
H  -0.00691339 0.02044648 -0.00400279
H  0.02664381 0.00664247 0.01241212
H  -0.02024810 0.02543591 -0.01372672
H  -0.00996312 -0.01636838 -0.00640622
H  -0.01165955 -0.00763926 -0.01941656
H  -0.00036616 -0.01889683 0.00287667
12
MD Step 1722 Units = [Angstroms / fs]
C  0.00218713 0.00219643 -0.00729522
C  -0.00056909 0.00249557 -0.00110317
C  0.00300300 -0.00111625 0.00150244
C  0.00687528 -0.00174603 -0.00507083
C  -0.00081696 0.00125246 0.00136862
C  0.00591130 0.00285410 0.00117127
H  -0.00928288 0.01859480 -0.00529643
H  0.02584321 0.00618630 0.01149987
H  -0.01772501 0.02502177 -0.01249237
H  -0.01256088 -0.02105975 -0.00836702
H  -0.00600146 -0.01301946 -0.01663583
H  -0.00411714 -0.01627408 0.00144124
12
MD Step 1723 Units = [Angstroms / fs]
C  0.00305967 0.00224308 -0.00683469
C  -0.00048757 0.00317197 -0.00126634
C  0.00247738 -0.00119941 0.00146079
C  0.00674103 -0.00208593 -0.00498047
C  -0.00112616 0.00190750 0.00113931
C  0.00581804 0.00258712 0.00119067
H  -0.01185298 0.01594441 -0.00654180
H  0.02422122 0.00639435 0.01041489
H  -0.01346587 0.02427810 -0.01132252
H  -0.01411580 -0.02405197 -0.01016894
H  -0.00039655 -0.01793284 -0.01373749
H  -0.00694392 -0.01338153 -0.00011735
12
MD Step 1724 Units = [Angstroms / fs]
C  0.00394120 0.00229746 -0.00636145
C  -0.00032797 0.00374629 -0.00141134
C  0.00186744 -0.00124578 0.00140682
C  0.00642468 -0.00254172 -0.00489335
C  -0.00134371 0.00250575 0.00089954
C  0.00560389 0.00230052 0.00121561
H  -0.01444808 0.01278734 -0.00776996
H  0.02182826 0.00720879 0.00916035
H  -0.00786673 0.02322940 -0.01020443
H  -0.01444808 -0.02500843 -0.01176748
H  0.00482391 -0.02194627 -0.01082454
H  -0.00866737 -0.01024170 -0.00181342
12
MD Step 1725 Units = [Angstroms / fs]
C  0.00480036 0.00233895 -0.00587449
C  -0.00009453 0.00421837 -0.00153782
C  0.00122429 -0.00125349 0.00133809
C  0.00592531 -0.00312454 -0.00481217
C  -0.00145033 0.00300766 0.00065900
C  0.00527075 0.00199689 0.00124553
H  -0.01686266 0.00946304 -0.00901984
H  0.01876720 0.00850781 0.00775139
H  -0.00149215 0.02188901 -0.00909851
H  -0.01346416 -0.02373860 -0.01313845
H  0.00933494 -0.02464649 -0.00800697
H  -0.00922623 -0.00689128 -0.00364120
12
MD Step 1726 Units = [Angstroms / fs]
C  0.00560544 0.00234682 -0.00537292
C  0.00020473 0.00459260 -0.00164635
C  0.00060666 -0.00121930 0.00125082
C  0.00525356 -0.00382868 -0.00473770
C  -0.00142937 0.00337686 0.00042761
C  0.00482924 0.00168014 0.00127837
H  -0.01888309 0.00631495 -0.01033013
H  0.01518297 0.01012256 0.00621371
H  0.00499700 0.02025707 -0.00794483
H  -0.01119007 -0.02026333 -0.01428509
H  0.01283408 -0.02566138 -0.00539532
H  -0.00866773 -0.00338146 -0.00557701
12
MD Step 1727 Units = [Angstroms / fs]
C  0.00632676 0.00230363 -0.00485665
C  0.00055879 0.00487666 -0.00173829
C  0.00007301 -0.00113914 0.00114083
C  0.00443306 -0.00462728 -0.00466850
C  -0.00126857 0.00358316 0.00021466
C  0.00429688 0.00135559 0.00131098
H  -0.02031232 0.00364670 -0.01173083
H  0.01125090 0.01185374 0.00458141
H  0.01093894 0.01832457 -0.00667554
H  -0.00779533 -0.01486501 -0.01524147
H  0.01506910 -0.02469599 -0.00309011
H  -0.00712904 0.00022430 -0.00758344
12
MD Step 1728 Units = [Angstroms / fs]
C  0.00693887 0.00219787 -0.00432686
C  0.00095442 0.00508055 -0.00181564
C  -0.00032623 -0.00100906 0.00100474
C  0.00349990 -0.00547158 -0.00460113
C  -0.00096294 0.00360676 0.00002762
C  0.00369624 0.00102981 0.00133937
H  -0.02099261 0.00168683 -0.01323695
H  0.00716534 0.01348652 0.00289455
H  0.01576521 0.01608210 -0.00522968
H  -0.00359367 -0.00809566 -0.01606869
H  0.01587751 -0.02158331 -0.00116679
H  -0.00481538 0.00385398 -0.00961425
12
MD Step 1729 Units = [Angstroms / fs]
C  0.00742212 0.00202549 -0.00378618
C  0.00137696 0.00521583 -0.00188087
C  -0.00055441 -0.00082661 0.00084086
C  0.00249949 -0.00629517 -0.00453114
C  -0.00051825 0.00344318 -0.00012930
C  0.00305304 0.00071040 0.00135914
H  -0.02082194 0.00056816 -0.01484542
H  0.00312857 0.01480380 0.00119661
H  0.01907000 0.01353005 -0.00356578
H  0.00098861 -0.00072314 -0.01684283
H  0.01523192 -0.01634240 0.00034203
H  -0.00197877 0.00743118 -0.01161904
12
MD Step 1730 Units = [Angstroms / fs]
C  0.00776367 0.00179011 -0.00323859
C  0.00181115 0.00529489 -0.00193666
C  -0.00059132 -0.00059186 0.00064982
C  0.00148110 -0.00702339 -0.00445437
C  0.00004589 0.00310731 -0.00025648
C  0.00239467 0.00040567 0.00136571
H  -0.01976199 0.00032316 -0.01653567
H  -0.00066024 0.01559899 -0.00046836
H  0.02064182 0.01068632 -0.00166909
H  0.00547453 0.00638301 -0.01763714
H  0.01327755 -0.00922667 0.00146180
H  0.00110083 0.01087926 -0.01354734
12
MD Step 1731 Units = [Angstroms / fs]
C  0.00795759 0.00150217 -0.00268911
C  0.00224212 0.00533017 -0.00198577
C  -0.00043298 -0.00030814 0.00043445
C  0.00049143 -0.00758540 -0.00436835
C  0.00069507 0.00263478 -0.00035944
C  0.00174888 0.00012428 0.00135472
H  -0.01783776 0.00089271 -0.01827300
H  -0.00401686 0.01568922 -0.00205875
H  0.02045869 0.00758942 0.00044762
H  0.00941255 0.01239712 -0.01850462
H  0.01034331 -0.00073906 0.00228170
H  0.00413219 0.01412517 -0.01535210
12
MD Step 1732 Units = [Angstroms / fs]
C  0.00800456 0.00117749 -0.00214335
C  0.00265636 0.00533331 -0.00203070
C  -0.00008930 0.00001787 0.00019952
C  -0.00043092 -0.00792534 -0.00427310
C  0.00138242 0.00207904 -0.00044803
C  0.00114255 -0.00012532 0.00132221
H  -0.01513100 0.00214286 -0.02001354
H  -0.00678516 0.01493030 -0.00353880
H  0.01865832 0.00429696 0.00274809
H  0.01244443 0.01666986 -0.01946716
H  0.00691090 0.00840577 0.00294459
H  0.00682869 0.01710286 -0.01699257
12
MD Step 1733 Units = [Angstroms / fs]
C  0.00791113 0.00083557 -0.00160706
C  0.00304298 0.00531391 -0.00207350
C  0.00041891 0.00037656 -0.00004894
C  -0.00125849 -0.00800937 -0.00417114
C  0.00205455 0.00150381 -0.00053441
C  0.00060044 -0.00033552 0.00126502
H  -0.01177004 0.00388486 -0.02170953
H  -0.00885119 0.01323295 -0.00488223
H  0.01549797 0.00088117 0.00517917
H  0.01434591 0.01880946 -0.02051431
H  0.00354089 0.01737543 0.00362041
H  0.00892520 0.01975640 -0.01843693
12
MD Step 1734 Units = [Angstroms / fs]
C  0.00768886 0.00049805 -0.00108576
C  0.00339476 0.00527831 -0.00211538
C  0.00106292 0.00075601 -0.00030414
C  -0.00197529 -0.00782734 -0.00406684
C  0.00265962 0.00097258 -0.00063010
C  0.00014365 -0.00050012 0.00118097
H  -0.00791839 0.00589448 -0.02331406
H  -0.01015694 0.01057932 -0.00607568
H  0.01131556 -0.00257661 0.00767778
H  0.01503462 0.01869834 -0.02161037
H  0.00077390 0.02534921 0.00447045
H  0.01019726 0.02204275 -0.01966436
12
MD Step 1735 Units = [Angstroms / fs]
C  0.00735342 0.00018732 -0.00058439
C  0.00370909 0.00522834 -0.00215660
C  0.00180841 0.00114288 -0.00055903
C  -0.00257497 -0.00739026 -0.00396551
C  0.00315503 0.00053835 -0.00074339
C  -0.00021213 -0.00061496 0.00106913
H  -0.00376360 0.00792908 -0.02478504
H  -0.01071090 0.00703643 -0.00712115
H  0.00649827 -0.00599115 0.01017687
H  0.01455175 0.01645723 -0.02270554
H  -0.00096195 0.03164466 0.00561442
H  0.01048274 0.02393370 -0.02066660
12
MD Step 1736 Units = [Angstroms / fs]
C  0.00692367 -0.00007456 -0.00010716
C  0.00398830 0.00516057 -0.00219629
C  0.00261723 0.00152324 -0.00080669
C  -0.00305810 -0.00672529 -0.00387247
C  0.00351232 0.00023660 -0.00087771
C  -0.00045841 -0.00067822 0.00092992
H  0.00049344 0.00974232 -0.02608816
H  -0.01059206 0.00276255 -0.00803671
H  0.00145970 -0.00927758 0.01261014
H  0.01303074 0.01238272 -0.02374690
H  -0.00140967 0.03580490 0.00711113
H  0.00970411 0.02541655 -0.02144833
12
MD Step 1737 Units = [Angstroms / fs]
C  0.00642068 -0.00026695 0.00034264
C  0.00423925 0.00506631 -0.00223262
C  0.00344872 0.00188342 -0.00104061
C  -0.00342949 -0.00587065 -0.00379242
C  0.00371849 0.00008284 -0.00103157
C  -0.00059550 -0.00069048 0.00076503
H  0.00464918 0.01109780 -0.02719910
H  -0.00994421 -0.00199784 -0.00885459
H  -0.00337707 -0.01235495 0.01491571
H  0.01066521 0.00688288 -0.02468667
H  -0.00049652 0.03762861 0.00895653
H  0.00788733 0.02649303 -0.02202600
12
MD Step 1738 Units = [Angstroms / fs]
C  0.00586658 -0.00037164 0.00076271
C  0.00447205 0.00493269 -0.00226311
C  0.00426107 0.00221073 -0.00125492
C  -0.00369635 -0.00487128 -0.00372903
C  0.00377413 0.00007447 -0.00119952
C  -0.00063334 -0.00065446 0.00057722
H  0.00850894 0.01178287 -0.02810491
H  -0.00895935 -0.00693283 -0.00961650
H  -0.00759474 -0.01514942 0.01703933
H  0.00768361 0.00042585 -0.02548724
H  0.00169031 0.03714868 0.01109548
H  0.00517164 0.02717600 -0.02242480
12
MD Step 1739 Units = [Angstroms / fs]
C  0.00528330 -0.00037402 0.00115172
C  0.00469804 0.00474471 -0.00228515
C  0.00501304 0.00249410 -0.00144468
C  -0.00386723 -0.00377596 -0.00368484
C  0.00369006 0.00019489 -0.00137361
C  -0.00059117 -0.00057449 0.00036986
H  0.01190024 0.01162427 -0.02880448
H  -0.00785216 -0.01169464 -0.01036690
H  -0.01080021 -0.01759758 0.01893747
H  0.00433276 -0.00649413 -0.02612366
H  0.00494769 0.03458082 0.01343989
H  0.00180452 0.02748445 -0.02267391
12
MD Step 1740 Units = [Angstroms / fs]
C  0.00469100 -0.00026449 0.00150925
C  0.00492758 0.00448795 -0.00229651
C  0.00566638 0.00272468 -0.00160614
C  -0.00395168 -0.00263542 -0.00366120
C  0.00348375 0.00041836 -0.00154483
C  -0.00049564 -0.00045592 0.00014647
H  0.01468775 0.01050559 -0.02930777
H  -0.00683025 -0.01593909 -0.01114549
H  -0.01265043 -0.01964999 0.02058057
H  0.00086884 -0.01337590 -0.02658475
H  0.00900202 0.03026498 0.01588642
H  -0.00188135 0.02743790 -0.02280094
12
MD Step 1741 Units = [Angstroms / fs]
C  0.00410655 -0.00003986 0.00183559
C  0.00516797 0.00415134 -0.00229588
C  0.00618907 0.00289620 -0.00173700
C  -0.00396033 -0.00150115 -0.00365827
C  0.00317660 0.00071392 -0.00170423
C  -0.00037765 -0.00030448 -0.00008981
H  0.01678873 0.00838566 -0.02963334
H  -0.00606673 -0.01936526 -0.01198085
H  -0.01288747 -0.02127435 0.02195581
H  -0.00244708 -0.01972218 -0.02687365
H  0.01354550 0.02461577 0.01833001
H  -0.00550757 0.02705186 -0.02282681
12
MD Step 1742 Units = [Angstroms / fs]
C  0.00354213 0.00029532 0.00213136
C  0.00542206 0.00372938 -0.00228313
C  0.00655925 0.00300520 -0.00183658
C  -0.00390501 -0.00042426 -0.00367499
C  0.00279210 0.00104820 -0.00184353
C  -0.00026837 -0.00012597 -0.00033650
H  0.01818623 0.00531462 -0.02980397
H  -0.00568051 -0.02174755 -0.01288647
H  -0.01138065 -0.02245740 0.02306870
H  -0.00535324 -0.02504937 -0.02700809
H  0.01825976 0.01808816 0.02067257
H  -0.00869912 0.02633563 -0.02276254
12
MD Step 1743 Units = [Angstroms / fs]
C  0.00300434 0.00072799 0.00239711
C  0.00568785 0.00322337 -0.00225935
C  0.00676906 0.00305087 -0.00190577
C  -0.00379848 0.00054619 -0.00370911
C  0.00235498 0.00138695 -0.00195554
C  -0.00019528 0.00007390 -0.00059199
H  0.01893594 0.00144313 -0.02984065
H  -0.00572741 -0.02295501 -0.01385984
H  -0.00816788 -0.02320406 0.02394174
H  -0.00759490 -0.02890357 -0.02702032
H  0.02282890 0.01115770 0.02282790
H  -0.01113289 0.02529324 -0.02260863
12
MD Step 1744 Units = [Angstroms / fs]
C  0.00249424 0.00123680 0.00263278
C  0.00595877 0.00264166 -0.00222669
C  0.00682736 0.00303462 -0.00194669
C  -0.00365364 0.00136577 -0.00375726
C  0.00189079 0.00169587 -0.00203430
C  -0.00017905 0.00028944 -0.00085535
H  0.01916278 -0.00298046 -0.02975588
H  -0.00620155 -0.02295640 -0.01488427
H  -0.00348298 -0.02353295 0.02460944
H  -0.00893974 -0.03088897 -0.02695569
H  0.02694619 0.00431026 0.02472441
H  -0.01257561 0.02392681 -0.02235709
12
MD Step 1745 Units = [Angstroms / fs]
C  0.00200843 0.00179350 0.00283727
C  0.00622462 0.00199893 -0.00218806
C  0.00675993 0.00295932 -0.00196202
C  -0.00348175 0.00199855 -0.00381522
C  0.00142559 0.00194110 -0.00207530
C  -0.00023189 0.00051476 -0.00112615
H  0.01904519 -0.00762843 -0.02954800
H  -0.00704429 -0.02181347 -0.01593243
H  0.00224616 -0.02346880 0.02510956
H  -0.00920311 -0.03071156 -0.02686860
H  0.03031934 -0.00196547 0.02630728
H  -0.01290491 0.02224106 -0.02199514
12
MD Step 1746 Units = [Angstroms / fs]
C  0.00154102 0.00236562 0.00300831
C  0.00647279 0.00131499 -0.00214674
C  0.00660641 0.00282852 -0.00195422
C  -0.00328991 0.00242202 -0.00387855
C  0.00098535 0.00209014 -0.00207565
C  -0.00035719 0.00074371 -0.00140412
H  0.01878838 -0.01212716 -0.02919860
H  -0.00815715 -0.01966644 -0.01697065
H  0.00843848 -0.02303380 0.02547263
H  -0.00828269 -0.02823536 -0.02681448
H  0.03267884 -0.00719019 0.02754095
H  -0.01211267 0.02024739 -0.02150948
12
MD Step 1747 Units = [Angstroms / fs]
C  0.00108619 0.00291999 0.00314259
C  0.00668933 0.00061325 -0.00210609
C  0.00641415 0.00264586 -0.00192481
C  -0.00307814 0.00263197 -0.00394349
C  0.00059487 0.00211363 -0.00203436
C  -0.00055047 0.00096986 -0.00168889
H  0.01859189 -0.01610089 -0.02867406
H  -0.00941524 -0.01671631 -0.01796303
H  0.01443728 -0.02224139 0.02571292
H  -0.00619623 -0.02353936 -0.02683747
H  0.03379282 -0.01091803 0.02841207
H  -0.01029404 0.01796660 -0.02089002
12
MD Step 1748 Units = [Angstroms / fs]
C  0.00064049 0.00342637 0.00323624
C  0.00686000 -0.00008064 -0.00206920
C  0.00623018 0.00241494 -0.00187408
C  -0.00283718 0.00264592 -0.00400814
C  0.00027584 0.00198844 -0.00195258
C  -0.00080081 0.00118668 -0.00197974
H  0.01861885 -0.01921711 -0.02793138
H  -0.01067953 -0.01320700 -0.01887498
H  0.01960763 -0.02109501 0.02582445
H  -0.00310998 -0.01695478 -0.02695553
H  0.03349014 -0.01277762 0.02893203
H  -0.00762805 0.01542983 -0.02013253
12
MD Step 1749 Units = [Angstroms / fs]
C  0.00020457 0.00386053 0.00328554
C  0.00697103 -0.00074011 -0.00203873
C  0.00609379 0.00213961 -0.00180125
C  -0.00254823 0.00250282 -0.00407352
C  0.00004440 0.00170221 -0.00183369
C  -0.00109260 0.00138782 -0.00227550
H  0.01897382 -0.02122414 -0.02692659
H  -0.01180699 -0.00940877 -0.01967586
H  0.02342822 -0.01959231 0.02578316
H  0.00065771 -0.00905922 -0.02714752
H  0.03169004 -0.01253048 0.02913724
H  -0.00435527 0.01267795 -0.01924002
12
MD Step 1750 Units = [Angstroms / fs]
C  -0.00021630 0.00420610 0.00328759
C  0.00700976 -0.00133884 -0.00201674
C  0.00603116 0.00182446 -0.00170505
C  -0.00218558 0.00225817 -0.00414386
C  -0.00009156 0.00125847 -0.00168303
C  -0.00140707 0.00156743 -0.00257449
H  0.01969323 -0.02197441 -0.02562367
H  -0.01265919 -0.00560309 -0.02034106
H  0.02555454 -0.01773276 0.02555441
H  0.00466872 -0.00061390 -0.02734822
H  0.02843212 -0.01013807 0.02908490
H  -0.00075610 0.00976000 -0.01822309
12
MD Step 1751 Units = [Angstroms / fs]
C  -0.00061254 0.00445514 0.00324092
C  0.00696520 -0.00185188 -0.00200458
C  0.00605344 0.00147527 -0.00158441
C  -0.00172192 0.00197488 -0.00422607
C  -0.00013427 0.00068102 -0.00150710
C  -0.00172370 0.00172043 -0.00287450
H  0.02074783 -0.02143124 -0.02400167
H  -0.01310979 -0.00206763 -0.02085336
H  0.02584268 -0.01552522 0.02510266
H  0.00843177 0.00754892 -0.02745558
H  0.02389617 -0.00581773 0.02884254
H  0.00286857 0.00673095 -0.01709946
12
MD Step 1752 Units = [Angstroms / fs]
C  -0.00097143 0.00460765 0.00314574
C  0.00682864 -0.00225689 -0.00200286
C  0.00615763 0.00109918 -0.00143908
C  -0.00113498 0.00171250 -0.00432814
C  -0.00009630 0.00001500 -0.00131230
C  -0.00202132 0.00184283 -0.00317286
H  0.02205409 -0.01966161 -0.02205884
H  -0.01305215 0.00093991 -0.02120383
H  0.02433716 -0.01299290 0.02440011
H  0.01148601 0.01465857 -0.02734967
H  0.01839968 -0.00006057 0.02847236
H  0.00621482 0.00364923 -0.01589290
12
MD Step 1753 Units = [Angstroms / fs]
C  -0.00127852 0.00467032 0.00300403
C  0.00659432 -0.00253557 -0.00201144
C  0.00632933 0.00070456 -0.00126995
C  -0.00041321 0.00151787 -0.00445718
C  0.00000155 -0.00067676 -0.00110358
C  -0.00227927 0.00193189 -0.00346650
H  0.02348983 -0.01681980 -0.01981375
H  -0.01240728 0.00320023 -0.02139207
H  0.02123579 -0.01017460 0.02343254
H  0.01347576 0.02011898 -0.02691722
H  0.01236559 0.00641114 0.02801458
H  0.00899265 0.00057399 -0.01463164
12
MD Step 1754 Units = [Angstroms / fs]
C  -0.00151901 0.00465505 0.00281940
C  0.00626015 -0.00267530 -0.00202946
C  0.00654612 0.00030064 -0.00107920
C  0.00044116 0.00141989 -0.00461773
C  0.00013452 -0.00132264 -0.00088353
C  -0.00247868 0.00198619 -0.00375213
H  0.02491014 -0.01312724 -0.01730396
H  -0.01113232 0.00455318 -0.02142572
H  0.01684675 -0.00712302 0.02220179
H  0.01419521 0.02357220 -0.02607338
H  0.00626380 0.01274958 0.02747641
H  0.01094411 -0.00243789 -0.01334623
12
MD Step 1755 Units = [Angstroms / fs]
C  -0.00167899 0.00457749 0.00259679
C  0.00582840 -0.00267079 -0.00205551
C  0.00678063 -0.00010293 -0.00087017
C  0.00141224 0.00142874 -0.00481077
C  0.00027906 -0.00185409 -0.00065227
C  -0.00260389 0.00200579 -0.00402642
H  0.02616125 -0.00885264 -0.01458311
H  -0.00922858 0.00491878 -0.02131891
H  0.01154889 -0.00390134 0.02072581
H  0.01359602 0.02490543 -0.02477444
H  0.00054116 0.01812451 0.02683159
H  0.01186379 -0.00533481 -0.01206692
12
MD Step 1756 Units = [Angstroms / fs]
C  -0.00174633 0.00445589 0.00234221
C  0.00530623 -0.00252560 -0.00208782
C  0.00700290 -0.00049647 -0.00064722
C  0.00247308 0.00153867 -0.00503369
C  0.00041717 -0.00221692 -0.00040822
C  -0.00264416 0.00199224 -0.00428630
H  0.02709149 -0.00429408 -0.01171732
H  -0.00674748 0.00431485 -0.02108960
H  0.00576061 -0.00057943 0.01903723
H  0.01176559 0.02421508 -0.02302009
H  -0.00443972 0.02186040 0.02603093
H  0.01162121 -0.00807342 -0.01082035
12
MD Step 1757 Units = [Angstroms / fs]
C  -0.00171136 0.00430997 0.00206240
C  0.00470588 -0.00225277 -0.00212459
C  0.00718204 -0.00087060 -0.00041554
C  0.00358933 0.00173230 -0.00528085
C  0.00053888 -0.00237864 -0.00014944
C  -0.00259539 0.00194857 -0.00452925
H  0.02755977 0.00023668 -0.00878120
H  -0.00379232 0.00286588 -0.02075606
H  -0.00008242 0.00276964 0.01718140
H  0.00889064 0.02175115 -0.02084791
H  -0.00843691 0.02352699 0.02501900
H  0.01018274 -0.01062089 -0.00962622
12
MD Step 1758 Units = [Angstroms / fs]
C  -0.00156736 0.00415998 0.00176444
C  0.00404427 -0.00187448 -0.00216427
C  0.00728746 -0.00121654 -0.00018099
C  0.00472298 0.00198497 -0.00554445
C  0.00064228 -0.00233037 0.00012518
C  -0.00246150 0.00187922 -0.00475358
H  0.02744241 0.00442912 -0.00585349
H  -0.00051371 0.00079787 -0.02033294
H  -0.00554394 0.00607281 0.01521402
H  0.00522016 0.01786208 -0.01832439
H  -0.01133643 0.02296568 0.02375020
H  0.00762847 -0.01295576 -0.00849418
12
MD Step 1759 Units = [Angstroms / fs]
C  -0.00131104 0.00402557 0.00145542
C  0.00334209 -0.00142016 -0.00220590
C  0.00729005 -0.00152634 0.00005010
C  0.00583522 0.00226797 -0.00581527
C  0.00073195 -0.00208428 0.00041514
C  -0.00225493 0.00178978 -0.00495866
H  0.02663949 0.00798985 -0.00301217
H  0.00290195 -0.00158369 -0.01982808
H  -0.01020295 0.00925996 0.01319844
H  0.00103584 0.01295195 -0.01553592
H  -0.01313662 0.02026103 0.02219934
H  0.00415788 -0.01506685 -0.00742205
12
MD Step 1760 Units = [Angstroms / fs]
C  -0.00094289 0.00392442 0.00114195
C  0.00262225 -0.00092342 -0.00224921
C  0.00716371 -0.00179311 0.00027117
C  0.00688838 0.00255073 -0.00608333
C  0.00081648 -0.00166839 0.00071808
C  -0.00199591 0.00168657 -0.00514487
H  0.02508122 0.01066140 -0.00032867
H  0.00625040 -0.00393093 -0.01924085
H  -0.01367352 0.01226705 0.01120194
H  -0.00336766 0.00745271 -0.01258176
H  -0.01392104 0.01568169 0.02036534
H  0.00007912 -0.01695011 -0.00639595
12
MD Step 1761 Units = [Angstroms / fs]
C  -0.00046763 0.00387051 0.00082965
C  0.00190808 -0.00041823 -0.00229461
C  0.00688758 -0.00201129 0.00047583
C  0.00784720 0.00280192 -0.00633826
C  0.00090618 -0.00112100 0.00102995
C  -0.00171027 0.00157601 -0.00531346
H  0.02273470 0.01224439 0.00213860
H  0.00933078 -0.00589949 -0.01856270
H  -0.01563248 0.01503954 0.00929044
H  -0.00769424 0.00180894 -0.00956918
H  -0.01383051 0.00961641 0.01826983
H  -0.00422045 -0.01860402 -0.00539296
12
MD Step 1762 Units = [Angstroms / fs]
C  0.00010547 0.00387214 0.00052268
C  0.00122153 0.00006485 -0.00234300
C  0.00644894 -0.00217686 0.00065841
C  0.00867953 0.00299007 -0.00656954
C  0.00101139 -0.00048605 0.00134535
C  -0.00142603 0.00146398 -0.00546616
H  0.01961049 0.01262216 0.00435122
H  0.01196652 -0.00719354 -0.01777979
H  -0.01585584 0.01753542 0.00752138
H  -0.01165339 -0.00353063 -0.00660990
H  -0.01304080 0.00252119 0.01595318
H  -0.00831928 -0.02002486 -0.00438577
12
MD Step 1763 Units = [Angstroms / fs]
C  0.00076232 0.00393002 0.00022316
C  0.00058164 0.00050160 -0.00239547
C  0.00584664 -0.00228732 0.00081460
C  0.00935695 0.00308417 -0.00676674
C  0.00114166 0.00019011 0.00165790
C  -0.00116940 0.00135528 -0.00560473
H  0.01576788 0.01178405 0.00629670
H  0.01402198 -0.00760075 -0.01687692
H  -0.01426070 0.01972701 0.00593505
H  -0.01496686 -0.00812137 -0.00381661
H  -0.01174781 -0.00511653 0.01347020
H  -0.01181418 -0.02120342 -0.00334848
12
MD Step 1764 Units = [Angstroms / fs]
C  0.00148404 0.00403583 -0.00006899
C  0.00000356 0.00087580 -0.00245293
C  0.00509410 -0.00234157 0.00094218
C  0.00985570 0.00305480 -0.00691991
C  0.00130545 0.00086075 0.00196053
C  -0.00096106 0.00125328 -0.00573048
H  0.01131703 0.00984148 0.00799202
H  0.01541239 -0.00701160 -0.01584160
H  -0.01094298 0.02160014 0.00454609
H  -0.01737901 -0.01153758 -0.00129780
H  -0.01015956 -0.01279863 0.01088641
H  -0.01436941 -0.02212413 -0.00226192
12
MD Step 1765 Units = [Angstroms / fs]
C  0.00224744 0.00417202 -0.00035606
C  -0.00050187 0.00117949 -0.00251592
C  0.00422100 -0.00233933 0.00104146
C  0.01015785 0.00287635 -0.00702015
C  0.00151049 0.00147992 0.00224566
C  -0.00081358 0.00115985 -0.00584401
H  0.00641647 0.00702982 0.00948264
H  0.01610673 -0.00542207 -0.01466734
H  -0.00619725 0.02314986 0.00333784
H  -0.01867374 -0.01340001 0.00085021
H  -0.00849227 -0.02002782 0.00827515
H  -0.01575262 -0.02276684 -0.00111730
12
MD Step 1766 Units = [Angstroms / fs]
C  0.00302586 0.00431313 -0.00064200
C  -0.00092805 0.00141220 -0.00258439
C  0.00327215 -0.00228041 0.00111530
C  0.01025316 0.00253055 -0.00706054
C  0.00176411 0.00200347 0.00250542
C  -0.00073027 0.00107548 -0.00594508
H  0.00126452 0.00369074 0.01083612
H  0.01612466 -0.00292336 -0.01335559
H  -0.00050426 0.02437324 0.00226233
H  -0.01869911 -0.01341925 0.00255475
H  -0.00696748 -0.02631739 0.00571473
H  -0.01585250 -0.02311041 0.00008249
12
MD Step 1767 Units = [Angstroms / fs]
C  0.00379055 0.00442870 -0.00093154
C  -0.00127229 0.00157947 -0.00265771
C  0.00230333 -0.00216394 0.00116853
C  0.01014104 0.00201119 -0.00703725
C  0.00207351 0.00239050 0.00273191
C  -0.00070543 0.00099962 -0.00603264
H  -0.00391512 0.00023442 0.01213073
H  0.01552958 0.00031630 -0.01191622
H  0.00552077 0.02526160 0.00124775
H  -0.01739702 -0.01145286 0.00378051
H  -0.00580652 -0.03120631 0.00328475
H  -0.01467826 -0.02313685 0.00132376
12
MD Step 1768 Units = [Angstroms / fs]
C  0.00451236 0.00448750 -0.00122904
C  -0.00153523 0.00169130 -0.00273465
C  0.00137422 -0.00198800 0.00120682
C  0.00983236 0.00132909 -0.00695061
C  0.00244538 0.00260555 0.00291760
C  -0.00072574 0.00093104 -0.00610499
H  -0.00889215 -0.00291290 0.01344141
H  0.01442017 0.00407236 -0.01036703
H  0.01121289 0.02579544 0.00021245
H  -0.01483070 -0.00756481 0.00454216
H  -0.00521869 -0.03428602 0.00106052
H  -0.01234566 -0.02283497 0.00258449
12
MD Step 1769 Units = [Angstroms / fs]
C  0.00516362 0.00446190 -0.00153750
C  -0.00172031 0.00176070 -0.00281352
C  0.00054040 -0.00174978 0.00123540
C  0.00934997 0.00051564 -0.00680569
C  0.00288466 0.00262213 0.00305600
C  -0.00077210 0.00086828 -0.00616003
H  -0.01344991 -0.00536505 0.01482644
H  0.01292163 0.00808393 -0.00873236
H  0.01595559 0.02594483 -0.00091837
H  -0.01119877 -0.00206652 0.00491046
H  -0.00538017 -0.03524234 -0.00089499
H  -0.00905543 -0.02220283 0.00383742
12
MD Step 1770 Units = [Angstroms / fs]
C  0.00571979 0.00433165 -0.00185782
C  -0.00183320 0.00180249 -0.00289223
C  -0.00015373 -0.00144643 0.00125791
C  0.00872735 -0.00037722 -0.00661189
C  0.00339228 0.00242704 0.00314252
C  -0.00082162 0.00081007 -0.00619548
H  -0.01740364 -0.00682362 0.01631820
H  0.01117757 0.01207142 -0.00704146
H  0.01926654 0.02567536 -0.00219814
H  -0.00682502 0.00448478 0.00500671
H  -0.00640291 -0.03391014 -0.00254124
H  -0.00506993 -0.02124884 0.00505324
12
MD Step 1771 Units = [Angstroms / fs]
C  0.00616082 0.00408608 -0.00218856
C  -0.00188125 0.00183237 -0.00296850
C  -0.00067935 -0.00107625 0.00127580
C  0.00800490 -0.00128178 -0.00638145
C  0.00396215 0.00202492 0.00317530
C  -0.00084934 0.00075574 -0.00620907
H  -0.02061394 -0.00710790 0.01791974
H  0.00934241 0.01575222 -0.00532656
H  0.02085082 0.02495739 -0.00365060
H  -0.00211908 0.01134605 0.00498366
H  -0.00829761 -0.03033005 -0.00387013
H  -0.00069114 -0.01999183 0.00620334
12
MD Step 1772 Units = [Angstroms / fs]
C  0.00647205 0.00372467 -0.00252618
C  -0.00187293 0.00186609 -0.00303995
C  -0.00102432 -0.00063990 0.00128834
C  0.00722470 -0.00212394 -0.00612722
C  0.00457825 0.00144126 0.00315582
C  -0.00082977 0.00070552 -0.00619875
H  -0.02299396 -0.00616408 0.01960716
H  0.00757344 0.01885548 -0.00362081
H  0.02061450 0.02377488 -0.00526881
H  0.00248511 0.01770109 0.00499691
H  -0.01094113 -0.02478765 -0.00491219
H  0.00375867 -0.01846022 0.00726206
12
MD Step 1773 Units = [Angstroms / fs]
C  0.00664457 0.00325612 -0.00286558
C  -0.00181722 0.00191851 -0.00310426
C  -0.00119169 -0.00014130 0.00129296
C  0.00642502 -0.00283443 -0.00586027
C  0.00521316 0.00072208 0.00308884
C  -0.00073820 0.00066076 -0.00616284
H  -0.02451047 -0.00405630 0.02133593
H  0.00602195 0.02113779 -0.00195591
H  0.01864520 0.02213129 -0.00701998
H  0.00659611 0.02279621 0.00517561
H  -0.01406333 -0.01781208 -0.00573490
H  0.00795426 -0.01669070 0.00820840
12
MD Step 1774 Units = [Angstroms / fs]
C  0.00667521 0.00269652 -0.00320080
C  -0.00172274 0.00200250 -0.00315941
C  -0.00119670 0.00041199 0.00128597
C  0.00563620 -0.00335878 -0.00558826
C  0.00582931 -0.00007094 0.00298157
C  -0.00055202 0.00062391 -0.00610017
H  -0.02518016 -0.00094617 0.02304906
H  0.00482248 0.02240052 -0.00035963
H  0.01517381 0.02005134 -0.00885342
H  0.00991776 0.02605777 0.00560188
H  -0.01726705 -0.01011948 -0.00643109
H  0.01158453 -0.01472637 0.00902746
12
MD Step 1775 Units = [Angstroms / fs]
C  0.00656633 0.00206717 -0.00352560
C  -0.00159691 0.00212752 -0.00320379
C  -0.00106336 0.00100892 0.00126314
C  0.00487887 -0.00366315 -0.00531490
C  0.00638329 -0.00086928 0.00284208
C  -0.00025215 0.00059826 -0.00601026
H  -0.02506319 0.00293233 0.02468512
H  0.00408008 0.02250895 0.00114680
H  0.01053165 0.01757957 -0.01070872
H  0.01227534 0.02715979 0.00630401
H  -0.02008448 -0.00250669 -0.00709943
H  0.01437111 -0.01261422 0.00971129
12
MD Step 1776 Units = [Angstroms / fs]
C  0.00632535 0.00139261 -0.00383406
C  -0.00144492 0.00229816 -0.00323649
C  -0.00082163 0.00163544 0.00122017
C  0.00416441 -0.00373538 -0.00504041
C  0.00683235 -0.00160824 0.00267763
C  0.00017520 0.00058746 -0.00589337
H  -0.02425569 0.00729734 0.02618500
H  0.00385664 0.02141141 0.00255103
H  0.00511300 0.01477690 -0.01252265
H  0.01361422 0.02603253 0.00726255
H  -0.02205725 0.00427741 -0.00782324
H  0.01608965 -0.01040194 0.01025938
12
MD Step 1777 Units = [Angstroms / fs]
C  0.00596430 0.00069886 -0.00412089
C  -0.00126884 0.00251268 -0.00325732
C  -0.00050522 0.00227527 0.00115303
C  0.00349689 -0.00358222 -0.00476256
C  0.00714109 -0.00223606 0.00249338
C  0.00073661 0.00059488 -0.00575055
H  -0.02288235 0.01184027 0.02749690
H  0.00415832 0.01915475 0.00385108
H  -0.00065340 0.01171675 -0.01423431
H  0.01397952 0.02282556 0.00842380
H  -0.02281586 0.00964402 -0.00865479
H  0.01659339 -0.00813393 0.01067834
12
MD Step 1778 Units = [Angstroms / fs]
C  0.00549931 0.00001219 -0.00438171
C  -0.00106716 0.00276225 -0.00326691
C  -0.00015002 0.00291075 0.00105811
C  0.00287542 -0.00322475 -0.00447779
C  0.00728617 -0.00271923 0.00229186
C  0.00142961 0.00062285 -0.00558357
H  -0.02108949 0.01624322 0.02857990
H  0.00492769 0.01589134 0.00505536
H  -0.00632449 0.00848121 -0.01578860
H  0.01348811 0.01784933 0.00971484
H  -0.02213449 0.01323013 -0.00960955
H  0.01583629 -0.00584694 0.01098066
12
MD Step 1779 Units = [Angstroms / fs]
C  0.00494996 -0.00064202 -0.00461323
C  -0.00083487 0.00303108 -0.00326655
C  0.00020707 0.00352369 0.00093241
C  0.00229624 -0.00269377 -0.00418212
C  0.00725817 -0.00304315 0.00207330
C  0.00224120 0.00067200 -0.00539477
H  -0.01903827 0.02019391 0.02940629
H  0.00604391 0.01187281 0.00618079
H  -0.01145870 0.00515744 -0.01713891
H  0.01230240 0.01151663 0.01105616
H  -0.01994920 0.01490895 -0.01067017
H  0.01389085 -0.00356628 0.01118226
12
MD Step 1780 Units = [Angstroms / fs]
C  0.00433848 -0.00124018 -0.00481325
C  -0.00056440 0.00329781 -0.00325792
C  0.00052956 0.00409632 0.00077361
C  0.00175411 -0.00202605 -0.00387170
C  0.00706075 -0.00320931 0.00183632
C  0.00314742 0.00074082 -0.00518679
H  -0.01689714 0.02340009 0.02996295
H  0.00733367 0.00742828 0.00724904
H  -0.01563228 0.00183389 -0.01824931
H  0.01061079 0.00429676 0.01237021
H  -0.01634332 0.01475727 -0.01179634
H  0.01095407 -0.00130345 0.01129926
12
MD Step 1781 Units = [Angstroms / fs]
C  0.00368877 -0.00176163 -0.00498076
C  -0.00024736 0.00353800 -0.00324269
C  0.00078318 0.00461210 0.00058030
C  0.00124309 -0.00126191 -0.00354312
C  0.00670808 -0.00323082 0.00157884
C  0.00411440 0.00082547 -0.00496224
H  -0.01483246 0.02560517 0.03025180
H  0.00859234 0.00292847 0.00828165
H  -0.01846126 -0.00140426 -0.01909685
H  0.00861551 -0.00331467 0.01358623
H  -0.01151358 0.01300226 -0.01293608
H  0.00733613 0.00094330 0.01134426
12
MD Step 1782 Units = [Angstroms / fs]
C  0.00302504 -0.00218985 -0.00511586
C  0.00012339 0.00372732 -0.00322222
C  0.00093863 0.00505670 0.00035216
C  0.00075682 -0.00044377 -0.00319349
C  0.00622190 -0.00312796 0.00129871
C  0.00510102 0.00092006 -0.00472343
H  -0.01299642 0.02660633 0.03028910
H  0.00961192 -0.00125813 0.00929505
H  -0.01963259 -0.00448066 -0.01967359
H  0.00652642 -0.01081304 0.01464280
H  -0.00573209 0.00996761 -0.01403514
H  0.00342948 0.00318534 0.01132331
12
MD Step 1783 Units = [Angstroms / fs]
C  0.00237022 -0.00251394 -0.00521958
C  0.00055154 0.00384472 -0.00319720
C  0.00097499 0.00541878 0.00009008
C  0.00028855 0.00038477 -0.00282052
C  0.00562893 -0.00292479 0.00099421
C  0.00606291 0.00101716 -0.00447216
H  -0.01151216 0.02627447 0.03010306
H  0.01020985 -0.00480831 0.01029703
H  -0.01894480 -0.00733409 -0.01998809
H  0.00455782 -0.01769561 0.01548913
H  0.00068568 0.00603119 -0.01504331
H  -0.00033825 0.00543716 0.01123444
12
MD Step 1784 Units = [Angstroms / fs]
C  0.00174420 -0.00273009 -0.00529359
C  0.00103580 0.00387492 -0.00316762
C  0.00088375 0.00569069 -0.00020371
C  -0.00016873 0.00117997 -0.00242264
C  0.00495903 -0.00264697 0.00066425
C  0.00695705 0.00110855 -0.00420976
H  -0.01045724 0.02457385 0.02972950
H  0.01025248 -0.00747791 0.01128521
H  -0.01635337 -0.00992400 -0.02006507
H  0.00292502 -0.02347304 0.01608631
H  0.00740323 0.00159753 -0.01591798
H  -0.00355859 0.00770889 0.01106821
12
MD Step 1785 Units = [Angstroms / fs]
C  0.00116210 -0.00284272 -0.00533973
C  0.00156922 0.00380988 -0.00313278
C  0.00067212 0.00586877 -0.00052588
C  -0.00062186 0.00189953 -0.00199912
C  0.00424394 -0.00232073 0.00030850
C  0.00774610 0.00118597 -0.00393715
H  -0.00984839 0.02157694 0.02920539
H  0.00966899 -0.00912112 0.01224790
H  -0.01200949 -0.01223339 -0.01994253
H  0.00183711 -0.02768875 0.01640898
H  0.01407640 -0.00291739 -0.01662582
H  -0.00589278 0.00999983 0.01081021
12
MD Step 1786 Units = [Angstroms / fs]
C  0.00063310 -0.00286491 -0.00535948
C  0.00213936 0.00364901 -0.00309154
C  0.00036467 0.00595323 -0.00087237
C  -0.00107658 0.00250537 -0.00155038
C  0.00351642 -0.00197241 -0.00007267
C  0.00840152 0.00124173 -0.00365510
H  -0.00963192 0.01746908 0.02856113
H  0.00845459 -0.00969432 0.01316659
H  -0.00627629 -0.01426673 -0.01966588
H  0.00148280 -0.02995159 0.01644754
H  0.02036172 -0.00709427 -0.01714357
H  -0.00710817 0.01229469 0.01044481
12
MD Step 1787 Units = [Angstroms / fs]
C  0.00016008 -0.00281757 -0.00535336
C  0.00272932 0.00339860 -0.00304257
C  0.00000175 0.00594732 -0.00123896
C  -0.00153580 0.00296765 -0.00107818
C  0.00280949 -0.00162820 -0.00047805
C  0.00890513 0.00126916 -0.00336448
H  -0.00968421 0.01253822 0.02781313
H  0.00666498 -0.00924768 0.01401936
H  0.00029222 -0.01604208 -0.01927991
H  0.00200705 -0.02998379 0.01621017
H  0.02592425 -0.01051796 -0.01745860
H  -0.00709562 0.01456328 0.00995893
12
MD Step 1788 Units = [Angstroms / fs]
C  -0.00025960 -0.00272740 -0.00532063
C  0.00331903 0.00307061 -0.00298459
C  -0.00036555 0.00585627 -0.00162192
C  -0.00199733 0.00326978 -0.00058578
C  0.00215518 -0.00131341 -0.00090566
C  0.00924917 0.00126287 -0.00306638
H  -0.00982517 0.00714797 0.02695882
H  0.00440512 -0.00790917 0.01478424
H  0.00701513 -0.01757930 -0.01882083
H  0.00347972 -0.02767934 0.01572367
H  0.03044977 -0.01279071 -0.01756949
H  -0.00586841 0.01676316 0.00934505
12
MD Step 1789 Units = [Angstroms / fs]
C  -0.00063231 -0.00262375 -0.00525924
C  0.00388673 0.00268132 -0.00291661
C  -0.00068326 0.00568603 -0.00201844
C  -0.00245135 0.00341313 -0.00007788
C  0.00158275 -0.00105080 -0.00135265
C  0.00943520 0.00121892 -0.00276230
H  -0.00984372 0.00169697 0.02597600
H  0.00181598 -0.00586586 0.01544215
H  0.01318138 -0.01888817 -0.01831082
H  0.00586177 -0.02315877 0.01503169
H  0.03366485 -0.01355718 -0.01748650
H  -0.00354737 0.01884416 0.00860299
12
MD Step 1790 Units = [Angstroms / fs]
C  -0.00096564 -0.00253490 -0.00516619
C  0.00441037 0.00225006 -0.00283809
C  -0.00090321 0.00544251 -0.00242665
C  -0.00287868 0.00341968 0.00043976
C  0.00111609 -0.00085779 -0.00181532
C  0.00947247 0.00113497 -0.00245411
H  -0.00953048 -0.00342799 0.02482716
H  -0.00093856 -0.00334562 0.01597899
H  0.01815557 -0.01996117 -0.01775694
H  0.00898071 -0.01679841 0.01418958
H  0.03536632 -0.01254459 -0.01723114
H  -0.00033879 0.02075329 0.00774045
12
MD Step 1791 Units = [Angstroms / fs]
C  -0.00126602 -0.00248477 -0.00503819
C  0.00486865 0.00179805 -0.00274903
C  -0.00099003 0.00513129 -0.00284546
C  -0.00325089 0.00333083 0.00096095
C  0.00077070 -0.00074242 -0.00228933
C  0.00937613 0.00101038 -0.00214407
H  -0.00871008 -0.00789543 0.02346775
H  -0.00368340 -0.00060071 0.01638707
H  0.02146457 -0.02077324 -0.01715420
H  0.01252921 -0.00921213 0.01325640
H  0.03545690 -0.00961655 -0.01683413
H  0.00348951 0.02243940 0.00677254
12
MD Step 1792 Units = [Angstroms / fs]
C  -0.00153677 -0.00249044 -0.00487243
C  0.00524205 0.00134739 -0.00265001
C  -0.00092516 0.00475783 -0.00327412
C  -0.00353305 0.00320146 0.00147983
C  0.00055075 -0.00069893 -0.00276997
C  0.00916561 0.00084626 -0.00183474
H  -0.00726586 -0.01146099 0.02185615
H  -0.00624254 0.00210699 0.01666582
H  0.02284531 -0.02128800 -0.01649128
H  0.01609645 -0.00117591 0.01228622
H  0.03397842 -0.00483065 -0.01633103
H  0.00763052 0.02385682 0.00572069
12
MD Step 1793 Units = [Angstroms / fs]
C  -0.00177728 -0.00256098 -0.00466728
C  0.00551360 0.00092005 -0.00254221
C  -0.00070722 0.00432797 -0.00371173
C  -0.00368898 0.00309022 0.00199140
C  0.00044755 -0.00070459 -0.00325272
C  0.00886333 0.00064543 -0.00152895
H  -0.00515250 -0.01398324 0.01996266
H  -0.00844871 0.00452024 0.01682190
H  0.02224966 -0.02146720 -0.01575636
H  0.01922994 0.00649197 0.01132128
H  0.03112915 0.00151936 -0.01575589
H  0.01175779 0.02496817 0.00461126
12
MD Step 1794 Units = [Angstroms / fs]
C  -0.00198304 -0.00269747 -0.00442271
C  0.00566965 0.00053671 -0.00242733
C  -0.00034978 0.00384837 -0.00415701
C  -0.00368751 0.00304903 0.00249179
C  0.00044037 -0.00071953 -0.00373376
C  0.00849345 0.00041223 -0.00122972
H  -0.00239646 -0.01542411 0.01777569
H  -0.01015317 0.00640173 0.01686863
H  0.01981636 -0.02127971 -0.01494171
H  0.02151189 0.01306154 0.01038918
H  0.02725198 0.00890035 -0.01513439
H  0.01554332 0.02574631 0.00347387
12
MD Step 1795 Units = [Angstroms / fs]
C  -0.00214649 -0.00289392 -0.00414047
C  0.00570066 0.00021536 -0.00230752
C  0.00012229 0.00332667 -0.00460804
C  -0.00350793 0.00311474 0.00297823
C  0.00050011 -0.00069106 -0.00421040
C  0.00808071 0.00015232 -0.00094013
H  0.00091311 -0.01583771 0.01530434
H  -0.01123626 0.00755141 0.01682463
H  0.01582637 -0.02070774 -0.01404601
H  0.02262652 0.01799409 0.00950424
H  0.02278823 0.01659197 -0.01447910
H  0.01867528 0.02617567 0.00233945
12
MD Step 1796 Units = [Angstroms / fs]
C  -0.00225818 -0.00313855 -0.00382402
C  0.00560201 -0.00003031 -0.00218514
C  0.00067646 0.00277153 -0.00506234
C  -0.00314312 0.00330513 0.00344867
C  0.00059510 -0.00056228 -0.00468110
C  0.00764912 -0.00012777 -0.00066318
H  0.00463862 -0.01535309 0.01257790
H  -0.01161854 0.00782598 0.01671134
H  0.01065672 -0.01974979 -0.01307507
H  0.02239990 0.02099230 0.00867131
H  0.01820595 0.02379140 -0.01378899
H  0.02087733 0.02625274 0.00123812
12
MD Step 1797 Units = [Angstroms / fs]
C  -0.00230800 -0.00341527 -0.00347821
C  0.00537474 -0.00019265 -0.00206251
C  0.00127564 0.00219239 -0.00551682
C  -0.00259969 0.00361937 0.00390153
C  0.00069715 -0.00028263 -0.00514512
C  0.00722031 -0.00042086 -0.00040165
H  0.00860954 -0.01415532 0.00964322
H  -0.01127141 0.00715870 0.01654967
H  0.00474192 -0.01842086 -0.01204124
H  0.02080632 0.02199597 0.00789018
H  0.01392333 0.02974397 -0.01305359
H  0.02193051 0.02598573 0.00019663
12
MD Step 1798 Units = [Angstroms / fs]
C  -0.00228625 -0.00370497 -0.00310902
C  0.00502605 -0.00027150 -0.00194155
C  0.00188044 0.00159925 -0.00596795
C  -0.00189606 0.00404156 0.00433534
C  0.00078613 0.00018259 -0.00560198
C  0.00681169 -0.00071939 -0.00015780
H  0.01263680 -0.01246778 0.00656092
H  -0.01022499 0.00557596 0.01635571
H  -0.00145426 -0.01675114 -0.01096231
H  0.01794830 0.02114007 0.00715895
H  0.01025049 0.03386054 -0.01225998
H  0.02169693 0.02539289 -0.00076433
12
MD Step 1799 Units = [Angstroms / fs]
C  -0.00218447 -0.00398661 -0.00272320
C  0.00456946 -0.00027502 -0.00182347
C  0.00245075 0.00100239 -0.00641180
C  -0.00105933 0.00454530 0.00474865
C  0.00085180 0.00084673 -0.00605085
C  0.00643464 -0.00101539 0.00006678
H  0.01652513 -0.01053670 0.00340108
H  -0.00857060 0.00320550 0.01613641
H  -0.00745848 -0.01478413 -0.00986023
H  0.01402372 0.01869826 0.00647603
H  0.00736339 0.03578895 -0.01139955
H  0.02014238 0.02449937 -0.00163261
12
MD Step 1800 Units = [Angstroms / fs]
C  -0.00199612 -0.00423831 -0.00232787
C  0.00402419 -0.00021941 -0.00170844
C  0.00294703 0.00041217 -0.00684415
C  -0.00012223 0.00509806 0.00513989
C  0.00089298 0.00170096 -0.00649023
C  0.00609293 -0.00130037 0.00027134
H  0.02008367 -0.00861709 0.00023872
H  -0.00645528 0.00027135 0.01588626
H  -0.01280356 -0.01257443 -0.00875969
H  0.00929238 0.01503018 0.00584088
H  0.00530944 0.03542840 -0.01047221
H  0.01735277 0.02333276 -0.00240641
12
MD Step 1801 Units = [Angstroms / fs]
C  -0.00171716 -0.00443842 -0.00193017
C  0.00341397 -0.00012723 -0.00159552
C  0.00333180 -0.00016128 -0.00726060
C  0.00087945 0.00566430 0.00550736
C  0.00091521 0.00271742 -0.00691780
C  0.00578219 -0.00156519 0.00045604
H  0.02313586 -0.00695892 -0.00285095
H  -0.00406753 -0.00292707 0.01558608
H  -0.01704584 -0.01018525 -0.00768648
H  0.00404927 0.01054212 0.00525400
H  0.00403383 0.03289772 -0.00948736
H  0.01353810 0.02191808 -0.00309459
12
MD Step 1802 Units = [Angstroms / fs]
C  -0.00134654 -0.00456676 -0.00153687
C  0.00276517 -0.00002463 -0.00148279
C  0.00357172 -0.00070828 -0.00765672
C  0.00190862 0.00620749 0.00584921
C  0.00092779 0.00385426 -0.00733053
C  0.00549048 -0.00179990 0.00062182
H  0.02552945 -0.00579160 -0.00579779
H  -0.00161587 -0.00605039 0.01520472
H  -0.01978937 -0.00768507 -0.00666557
H  -0.00139347 0.00566216 0.00471654
H  0.00341238 0.02848026 -0.00846248
H  0.00901899 0.02027354 -0.00371519
12
MD Step 1803 Units = [Angstroms / fs]
C  -0.00088690 -0.00460615 -0.00115394
C  0.00210473 0.00006227 -0.00136773
C  0.00364045 -0.00121997 -0.00802828
C  0.00292811 0.00669117 0.00616352
C  0.00094149 0.00506097 -0.00772481
C  0.00520044 -0.00199394 0.00077007
H  0.02714725 -0.00530572 -0.00854242
H  0.00069621 -0.00876289 0.01470381
H  -0.02072045 -0.00514302 -0.00571865
H  -0.00671770 0.00082623 0.00422974
H  0.00328095 0.02256666 -0.00742055
H  0.00419419 0.01840834 -0.00429199
12
MD Step 1804 Units = [Angstroms / fs]
C  -0.00034512 -0.00454418 -0.00078605
C  0.00145804 0.00011086 -0.00124768
C  0.00352238 -0.00168873 -0.00837148
C  0.00390169 0.00707964 0.00644824
C  0.00096688 0.00628274 -0.00809666
C  0.00489256 -0.00213666 0.00090231
H  0.02791822 -0.00563213 -0.01104201
H  0.00269367 -0.01077539 0.01404423
H  -0.01965204 -0.00262304 -0.00486157
H  -0.01160722 -0.00353092 0.00379441
H  0.00345639 0.01560868 -0.00638749
H  -0.00050659 0.01632369 -0.00484995
12
MD Step 1805 Units = [Angstroms / fs]
C  0.00026711 -0.00437507 -0.00043623
C  0.00084740 0.00010477 -0.00112047
C  0.00321660 -0.00210856 -0.00868319
C  0.00479505 0.00733874 0.00670135
C  0.00101374 0.00746368 -0.00844183
C  0.00454887 -0.00221810 0.00101974
H  0.02782724 -0.00682048 -0.01327533
H  0.00424736 -0.01187866 0.01319303
H  -0.01657178 -0.00017748 -0.00410199
H  -0.01575696 -0.00698644 0.00341032
H  0.00374892 0.00808799 -0.00539007
H  -0.00467588 0.01401688 -0.00541043
12
MD Step 1806 Units = [Angstroms / fs]
C  0.00093310 -0.00410122 -0.00010562
C  0.00029104 0.00003535 -0.00098474
C  0.00274014 -0.00247530 -0.00896115
C  0.00557726 0.00743735 0.00692085
C  0.00109092 0.00854893 -0.00875600
C  0.00415625 -0.00223001 0.00112295
H  0.02692115 -0.00882129 -0.01524559
H  0.00528304 -0.01196201 0.01212896
H  -0.01168051 0.00215810 -0.00343829
H  -0.01888750 -0.00914850 0.00307580
H  0.00396826 0.00049761 -0.00445443
H  -0.00797636 0.01148705 -0.00598754
12
MD Step 1807 Units = [Angstroms / fs]
C  0.00163144 -0.00373397 0.00020654
C  -0.00019729 -0.00009814 -0.00084029
C  0.00212888 -0.00278658 -0.00920391
C  0.00622281 0.00734991 0.00710488
C  0.00120664 0.00948621 -0.00903484
C  0.00370870 -0.00216683 0.00121176
H  0.02530817 -0.01147770 -0.01697969
H  0.00578209 -0.01101614 0.01084580
H  -0.00540370 0.00436653 -0.00286045
H  -0.02076781 -0.00968865 0.00278762
H  0.00392669 -0.00667005 -0.00360479
H  -0.01017443 0.00874113 -0.00658630
12
MD Step 1808 Units = [Angstroms / fs]
C  0.00233704 -0.00329315 0.00050245
C  -0.00060818 -0.00028943 -0.00068807
C  0.00143510 -0.00304128 -0.00941069
C  0.00671405 0.00706031 0.00725174
C  0.00136883 0.01022726 -0.00927423
C  0.00320814 -0.00202636 0.00128524
H  0.02314870 -0.01453219 -0.01852300
H  0.00577587 -0.00912363 0.00935310
H  0.00163908 0.00644567 -0.00235333
H  -0.02124602 -0.00838903 0.00254144
H  0.00344239 -0.01293545 -0.00286230
H  -0.01115532 0.00579810 -0.00720272
12
MD Step 1809 Units = [Angstroms / fs]
C  0.00302279 -0.00280510 0.00078509
C  -0.00093628 -0.00052671 -0.00053008
C  0.00072123 -0.00323868 -0.00958099
C  0.00704391 0.00656654 0.00735984
C  0.00158506 0.01072976 -0.00947045
C  0.00266402 -0.00181015 0.00134186
H  0.02063765 -0.01765134 -0.01993007
H  0.00533647 -0.00644182 0.00767502
H  0.00870984 0.00840028 -0.00190163
H  -0.02028364 -0.00519905 0.00233316
H  0.00234629 -0.01785171 -0.00224363
H  -0.01092070 0.00269078 -0.00782552
12
MD Step 1810 Units = [Angstroms / fs]
C  0.00366172 -0.00229941 0.00105729
C  -0.00117983 -0.00079432 -0.00036920
C  0.00005106 -0.00337757 -0.00971426
C  0.00721786 0.00588504 0.00742762
C  0.00186196 0.01096011 -0.00962040
C  0.00209195 -0.00152336 0.00137969
H  0.01798081 -0.02046617 -0.02125310
H  0.00456651 -0.00318320 0.00584781
H  0.01505933 0.01023208 -0.00149480
H  -0.01798308 -0.00028707 0.00216114
H  0.00049528 -0.02103726 -0.00175936
H  -0.00957389 -0.00053487 -0.00843858
12
MD Step 1811 Units = [Angstroms / fs]
C  0.00422922 -0.00180496 0.00132090
C  -0.00134029 -0.00107425 -0.00020896
C  -0.00051942 -0.00345567 -0.00980962
C  0.00725408 0.00505283 0.00745342
C  0.00220379 0.01089726 -0.00972184
C  0.00151210 -0.00117429 0.00139667
H  0.01537005 -0.02262081 -0.02253121
H  0.00358942 0.00040366 0.00391678
H  0.02003800 0.01193176 -0.00113035
H  -0.01459500 0.00593494 0.00202874
H  -0.00220668 -0.02222337 -0.00141245
H  -0.00729866 -0.00382214 -0.00902362
12
MD Step 1812 Units = [Angstroms / fs]
C  0.00470497 -0.00134620 0.00157628
C  -0.00142186 -0.00134743 -0.00005330
C  -0.00094898 -0.00346966 -0.00986588
C  0.00718120 0.00412571 0.00743532
C  0.00261021 0.01053704 -0.00977354
C  0.00094745 -0.00077365 0.00139082
H  0.01296250 -0.02381898 -0.02378316
H  0.00254086 0.00405117 0.00193300
H  0.02318130 0.01347599 -0.00081429
H  -0.01049503 0.01283516 0.00194621
H  -0.00578037 -0.02131108 -0.00119758
H  -0.00433672 -0.00710700 -0.00956255
12
MD Step 1813 Units = [Angstroms / fs]
C  0.00507419 -0.00094034 0.00182208
C  -0.00143107 -0.00159474 0.00009366
C  -0.00121461 -0.00341581 -0.00988163
C  0.00703356 0.00317174 0.00737126
C  0.00307359 0.00989611 -0.00977531
C  0.00042243 -0.00033363 0.00136047
H  0.01086729 -0.02385860 -0.02500510
H  0.00156103 0.00748795 -0.00004985
H  0.02425114 0.01482994 -0.00055910
H  -0.00612917 0.01964201 0.00193056
H  -0.01014159 -0.01842350 -0.00110183
H  -0.00096691 -0.01032182 -0.01003933
12
MD Step 1814 Units = [Angstroms / fs]
C  0.00532820 -0.00059602 0.00205553
C  -0.00137622 -0.00179790 0.00022780
C  -0.00131129 -0.00329089 -0.00985554
C  0.00684509 0.00226116 0.00725921
C  0.00357687 0.00901338 -0.00972777
C  -0.00003834 0.00013303 0.00130435
H  0.00914110 -0.02264918 -0.02617324
H  0.00078712 0.01045349 -0.00197884
H  0.02323255 0.01595353 -0.00038032
H  -0.00194094 0.02556576 0.00200289
H  -0.01508004 -0.01393093 -0.00110749
H  0.00251315 -0.01339889 -0.01044131
12
MD Step 1815 Units = [Angstroms / fs]
C  0.00546432 -0.00031337 0.00227293
C  -0.00126674 -0.00194042 0.00034531
C  -0.00124914 -0.00309320 -0.00978660
C  0.00664381 0.00145565 0.00709764
C  0.00409297 0.00794762 -0.00963207
C  -0.00041119 0.00061394 0.00122173
H  0.00779114 -0.02021175 -0.02724981
H  0.00034495 0.01271358 -0.00380529
H  0.02029844 0.01680844 -0.00029309
H  0.00169813 0.02992713 0.00218367
H  -0.02025941 -0.00842767 -0.00119640
H  0.00580378 -0.01627390 -0.01076018
12
MD Step 1816 Units = [Angstroms / fs]
C  0.00548542 -0.00008516 0.00247021
C  -0.00111225 -0.00200871 0.00044291
C  -0.00104955 -0.00282326 -0.00967426
C  0.00644834 0.00080015 0.00688587
C  0.00458670 0.00677026 -0.00948949
C  -0.00067451 0.00109776 0.00111250
H  0.00678309 -0.01666584 -0.02819044
H  0.00033917 0.01407744 -0.00548856
H  0.01576062 0.01736399 -0.00030945
H  0.00453484 0.03225473 0.00248775
H  -0.02524771 -0.00265233 -0.00135448
H  0.00861996 -0.01888910 -0.01099251
12
MD Step 1817 Units = [Angstroms / fs]
C  0.00539913 0.00010150 0.00264351
C  -0.00092158 -0.00199347 0.00051817
C  -0.00074144 -0.00248417 -0.00951851
C  0.00626713 0.00031898 0.00662441
C  0.00501918 0.00555509 -0.00930118
C  -0.00081018 0.00157466 0.00097721
H  0.00605096 -0.01220919 -0.02895100
H  0.00084205 0.01441638 -0.00699987
H  0.01002204 0.01760068 -0.00043688
H  0.00644875 0.03232836 0.00292079
H  -0.02957627 0.00263327 -0.00157470
H  0.01070972 -0.02119628 -0.01113994
12
MD Step 1818 Units = [Angstroms / fs]
C  0.00521708 0.00026338 0.00278957
C  -0.00070168 -0.00189104 0.00056980
C  -0.00035829 -0.00208165 -0.00931993
C  0.00609985 0.00001654 0.00631501
C  0.00535371 0.00436740 -0.00906817
C  -0.00080519 0.00203661 0.00081703
H  0.00550678 -0.00709558 -0.02949319
H  0.00188176 0.01368215 -0.00832574
H  0.00353865 0.01751167 -0.00067770
H  0.00743919 0.03016829 0.00347813
H  -0.03281312 0.00677179 -0.00185713
H  0.01187493 -0.02315920 -0.01120893
12
MD Step 1819 Units = [Angstroms / fs]
C  0.00495415 0.00041938 0.00290606
C  -0.00045661 -0.00170468 0.00059781
C  0.00006390 -0.00162375 -0.00907959
C  0.00593997 -0.00011909 0.00596049
C  0.00556125 0.00325603 -0.00879150
C  -0.00065356 0.00247739 0.00063371
H  0.00504913 -0.00161420 -0.02978839
H  0.00343230 0.01192118 -0.00947011
H  -0.00320722 0.01710292 -0.00102905
H  0.00759674 0.02598889 0.00414588
H  -0.03462907 0.00930621 -0.00220649
H  0.01199373 -0.02475496 -0.01120994
12
MD Step 1820 Units = [Angstroms / fs]
C  0.00462771 0.00058923 0.00299167
C  -0.00018700 -0.00144513 0.00060355
C  0.00048798 -0.00112051 -0.00879906
C  0.00577729 -0.00011144 0.00556457
C  0.00562399 0.00224999 -0.00847255
C  -0.00035800 0.00289239 0.00042946
H  0.00457015 0.00392840 -0.02981998
H  0.00540802 0.00928030 -0.01045422
H  -0.00972487 0.01639259 -0.00148323
H  0.00707180 0.02013995 0.00490331
H  -0.03483824 0.01002088 -0.00262839
H  0.01104143 -0.02597366 -0.01115599
12
MD Step 1821 Units = [Angstroms / fs]
C  0.00425691 0.00079221 0.00304621
C  0.00011000 -0.00113024 0.00058953
C  0.00087676 -0.00058348 -0.00848033
C  0.00559998 0.00000866 0.00513155
C  0.00553645 0.00135966 -0.00811323
C  0.00006882 0.00327813 0.00020676
H  0.00396170 0.00922432 -0.02958441
H  0.00766593 0.00599922 -0.01131369
H  -0.01552947 0.01541006 -0.00202823
H  0.00604833 0.01305352 0.00572560
H  -0.03340642 0.00892889 -0.00312607
H  0.00910477 -0.02681606 -0.01106063
12
MD Step 1822 Units = [Angstroms / fs]
C  0.00386181 0.00104607 0.00307059
C  0.00043989 -0.00078342 0.00055893
C  0.00119434 -0.00002532 -0.00812584
C  0.00539579 0.00020627 0.00466609
C  0.00530440 0.00058087 -0.00771608
C  0.00060418 0.00363171 -0.00003185
H  0.00312134 0.01397988 -0.02909115
H  0.01001747 0.00238814 -0.01209274
H  -0.02015858 0.01419465 -0.00264845
H  0.00472595 0.00520500 0.00658616
H  -0.03043316 0.00622441 -0.00369856
H  0.00638369 -0.02728909 -0.01093559
12
MD Step 1823 Units = [Angstroms / fs]
C  0.00346246 0.00136581 0.00306668
C  0.00080931 -0.00043095 0.00051511
C  0.00140811 0.00054078 -0.00773835
C  0.00515270 0.00044440 0.00417303
C  0.00494256 -0.00010009 -0.00728431
C  0.00121655 0.00395007 -0.00028392
H  0.00195906 0.01793241 -0.02836167
H  0.01224926 -0.00120778 -0.01283661
H  -0.02319647 0.01279353 -0.00332579
H  0.00330974 -0.00291088 0.00745844
H  -0.02612011 0.00222380 -0.00434037
H  0.00317582 -0.02740043 -0.01078869
12
MD Step 1824 Units = [Angstroms / fs]
C  0.00307793 0.00176224 0.00303713
C  0.00122417 -0.00009888 0.00046094
C  0.00149168 0.00110159 -0.00732091
C  0.00485915 0.00068512 0.00365725
C  0.00447221 -0.00070202 -0.00682169
C  0.00186839 0.00422939 -0.00054727
H  0.00040528 0.02086935 -0.02742704
H  0.01414936 -0.00445055 -0.01358382
H  -0.02430967 0.01125839 -0.00404145
H  0.00200516 -0.01079383 0.00831733
H  -0.02073797 -0.00268675 -0.00504216
H  -0.00015686 -0.02715365 -0.01062251
12
MD Step 1825 Units = [Angstroms / fs]
C  0.00272509 0.00224042 0.00298507
C  0.00168767 0.00019018 0.00039838
C  0.00142877 0.00164456 -0.00687666
C  0.00450423 0.00089046 0.00312357
C  0.00391912 -0.00124567 -0.00633243
C  0.00252005 0.00446476 -0.00082000
H  -0.00157997 0.02264906 -0.02632413
H  0.01553383 -0.00704991 -0.01436014
H  -0.02329362 0.00964051 -0.00477827
H  0.00101496 -0.01794797 0.00914029
H  -0.01459955 -0.00808878 -0.00579196
H  -0.00323439 -0.02654573 -0.01043439
12
MD Step 1826 Units = [Angstroms / fs]
C  0.00241750 0.00279811 0.00291372
C  0.00219882 0.00041933 0.00032824
C  0.00121742 0.00215848 -0.00640866
C  0.00407803 0.00102348 0.00257669
C  0.00331213 -0.00175183 -0.00582107
C  0.00313391 0.00465014 -0.00110040
H  -0.00399735 0.02322097 -0.02509029
H  0.01626797 -0.00879411 -0.01517552
H  -0.02012366 0.00798463 -0.00552352
H  0.00053446 -0.02389532 0.00990867
H  -0.00804166 -0.01355388 -0.00657637
H  -0.00570917 -0.02556778 -0.01021763
12
MD Step 1827 Units = [Angstroms / fs]
C  0.00216445 0.00342456 0.00282584
C  0.00275177 0.00057880 0.00025018
C  0.00087357 0.00263420 -0.00591970
C  0.00357243 0.00105023 0.00202097
C  0.00268220 -0.00224049 -0.00529238
C  0.00367810 0.00477874 -0.00138683
H  -0.00680004 0.02264045 -0.02375698
H  0.01627885 -0.00956652 -0.01602425
H  -0.01499671 0.00632284 -0.00627126
H  0.00074224 -0.02819974 0.01060913
H  -0.00141403 -0.01865529 -0.00738170
H  -0.00730940 -0.02420904 -0.00996370
12
MD Step 1828 Units = [Angstroms / fs]
C  0.00197029 0.00410021 0.00272333
C  0.00333580 0.00066603 0.00016293
C  0.00043221 0.00306498 -0.00541219
C  0.00298241 0.00094289 0.00146042
C  0.00206168 -0.00273042 -0.00475126
C  0.00412885 0.00484362 -0.00167755
H  -0.00988956 0.02107273 -0.02234363
H  0.01555819 -0.00934767 -0.01688778
H  -0.00834498 0.00467089 -0.00702331
H  0.00178333 -0.03050583 0.01123524
H  0.00492843 -0.02297485 -0.00819506
H  -0.00786759 -0.02246239 -0.00966470
12
MD Step 1829 Units = [Angstroms / fs]
C  0.00183449 0.00479759 0.00260682
C  0.00393610 0.00068509 0.00006463
C  -0.00005493 0.00344649 -0.00488830
C  0.00230808 0.00068426 0.00089848
C  0.00148339 -0.00323873 -0.00420260
C  0.00447149 0.00483845 -0.00197059
H  -0.01311828 0.01878128 -0.02085312
H  0.01415730 -0.00820592 -0.01773886
H  -0.00080576 0.00302894 -0.00778768
H  0.00374426 -0.03059250 0.01178842
H  0.01063472 -0.02611181 -0.00900544
H  -0.00733089 -0.02032997 -0.00931550
12
MD Step 1830 Units = [Angstroms / fs]
C  0.00175222 0.00548369 0.00247565
C  0.00453477 0.00064552 -0.00004681
C  -0.00052573 0.00377628 -0.00435019
C  0.00155697 0.00027276 0.00033812
C  0.00097915 -0.00377997 -0.00365114
C  0.00469998 0.00475821 -0.00226373
H  -0.01630019 0.01609908 -0.01927081
H  0.01217692 -0.00628156 -0.01854621
H  0.00685630 0.00138747 -0.00857458
H  0.00662251 -0.02843295 0.01227751
H  0.01537348 -0.02769975 -0.00980501
H  -0.00575518 -0.01782716 -0.00891510
12
MD Step 1831 Units = [Angstroms / fs]
C  0.00171578 0.00612332 0.00232810
C  0.00511214 0.00056103 -0.00017342
C  -0.00091669 0.00405288 -0.00380041
C  0.00074626 -0.00027344 -0.00021806
C  0.00057739 -0.00436414 -0.00310132
C  0.00481578 0.00459983 -0.00255442
H  -0.01922947 0.01338639 -0.01756771
H  0.00975509 -0.00376869 -0.01927849
H  0.01386034 -0.00026319 -0.00939106
H  0.01029797 -0.02424288 0.01271586
H  0.01885904 -0.02743629 -0.01059027
H  -0.00328836 -0.01498437 -0.00846721
12
MD Step 1832 Units = [Angstroms / fs]
C  0.00171631 0.00668301 0.00216198
C  0.00564790 0.00044834 -0.00031690
C  -0.00117239 0.00427488 -0.00324222
C  -0.00009632 -0.00091523 -0.00076735
C  0.00029982 -0.00499376 -0.00255708
C  0.00482619 0.00436267 -0.00283996
H  -0.02170378 0.01098329 -0.01570751
H  0.00705506 -0.00089782 -0.01990766
H  0.01952477 -0.00192341 -0.01023615
H  0.01451860 -0.01849294 0.01311569
H  0.02088898 -0.02512705 -0.01136281
H  -0.00014860 -0.01184687 -0.00798002
12
MD Step 1833 Units = [Angstroms / fs]
C  0.00174558 0.00713452 0.00197532
C  0.00612215 0.00032614 -0.00047841
C  -0.00125279 0.00444031 -0.00267969
C  -0.00093366 -0.00159591 -0.00130649
C  0.00015743 -0.00566004 -0.00202185
C  0.00474281 0.00404885 -0.00311751
H  -0.02354780 0.00916694 -0.01365557
H  0.00425423 0.00207977 -0.02041124
H  0.02335627 -0.00357828 -0.01109857
H  0.01891236 -0.01186612 0.01348103
H  0.02138835 -0.02073941 -0.01212877
H  0.00339770 -0.00847294 -0.00746566
12
MD Step 1834 Units = [Angstroms / fs]
C  0.00179738 0.00745728 0.00176704
C  0.00651638 0.00021405 -0.00065850
C  -0.00113676 0.00454644 -0.00211756
C  -0.00172300 -0.00224938 -0.00183119
C  0.00014705 -0.00633927 -0.00149868
C  0.00458023 0.00366341 -0.00338425
H  -0.02463219 0.00812207 -0.01138748
H  0.00153401 0.00490607 -0.02077392
H  0.02509318 -0.00519713 -0.01195745
H  0.02303082 -0.00515894 0.01380163
H  0.02044865 -0.01445253 -0.01289622
H  0.00705584 -0.00493128 -0.00693921
12
MD Step 1835 Units = [Angstroms / fs]
C  0.00186830 0.00763955 0.00153741
C  0.00681429 0.00013173 -0.00085695
C  -0.00082187 0.00459004 -0.00156094
C  -0.00242162 -0.00281098 -0.00233609
C  0.00024972 -0.00699118 -0.00099048
C  0.00435497 0.00321423 -0.00363749
H  -0.02488494 0.00792841 -0.00889519
H  -0.00093005 0.00733030 -0.02098847
H  0.02470240 -0.00673760 -0.01278556
H  0.02641712 0.00085042 0.01405110
H  0.01834395 -0.00668334 -0.01367014
H  0.01052032 -0.00129779 -0.00641780
12
MD Step 1836 Units = [Angstroms / fs]
C  0.00195787 0.00767825 0.00128822
C  0.00700265 0.00009760 -0.00107282
C  -0.00032154 0.00456796 -0.00101487
C  -0.00299295 -0.00322805 -0.00281508
C  0.00043242 -0.00756083 -0.00050056
C  0.00408450 0.00271176 -0.00387477
H  -0.02429422 0.00856406 -0.00618959
H  -0.00297882 0.00912400 -0.02105598
H  0.02234339 -0.00815205 -0.01355353
H  0.02867929 0.00552755 0.01419028
H  0.01550799 0.00193272 -0.01444587
H  0.01349110 0.00234791 -0.00591943
12
MD Step 1837 Units = [Angstroms / fs]
C  0.00206805 0.00757802 0.00102267
C  0.00707225 0.00012741 -0.00130440
C  0.00033891 0.00447770 -0.00048405
C  -0.00341114 -0.00346693 -0.00326200
C  0.00065349 -0.00798478 -0.00003296
C  0.00378633 0.00216848 -0.00409401
H  -0.02290434 0.00992007 -0.00329982
H  -0.00448139 0.01009852 -0.02098544
H  0.01831801 -0.00939399 -0.01423397
H  0.02954713 0.00846451 0.01417505
H  0.01246851 0.01061547 -0.01520364
H  0.01569048 0.00592642 -0.00546181
12
MD Step 1838 Units = [Angstroms / fs]
C  0.00220255 0.00734977 0.00074513
C  0.00701879 0.00023253 -0.00154937
C  0.00112607 0.00431797 0.00002749
C  -0.00366321 -0.00351513 -0.00367140
C  0.00087034 -0.00820076 0.00040739
C  0.00347677 0.00159818 -0.00429359
H  -0.02080719 0.01182067 -0.00027021
H  -0.00534786 0.01012448 -0.02079235
H  0.01302189 -0.01042293 -0.01480445
H  0.02889885 0.00950398 0.01396525
H  0.00975345 0.01855606 -0.01590674
H  0.01688221 0.00936285 -0.00506086
12
MD Step 1839 Units = [Angstroms / fs]
C  0.00236589 0.00700929 0.00046071
C  0.00684378 0.00041815 -0.00180498
C  0.00200136 0.00408911 0.00051642
C  -0.00374853 -0.00337931 -0.00403914
C  0.00104727 -0.00815799 0.00081501
C  0.00316953 0.00101520 -0.00447246
H  -0.01813176 0.01404432 0.00284407
H  -0.00554181 0.00915147 -0.02049633
H  0.00690572 -0.01120730 -0.01524958
H  0.02675645 0.00871283 0.01353202
H  0.00779779 0.02504353 -0.01650521
H  0.01689360 0.01259141 -0.00472921
12
MD Step 1840 Units = [Angstroms / fs]
C  0.00256260 0.00657594 0.00017493
C  0.00655518 0.00068173 -0.00206831
C  0.00292307 0.00379328 0.00098024
C  -0.00367669 -0.00308090 -0.00436272
C  0.00116073 -0.00782519 0.00118450
C  0.00287406 0.00043366 -0.00463024
H  -0.01503358 0.01634294 0.00598172
H  -0.00508983 0.00722405 -0.02011771
H  0.00044850 -0.01172583 -0.01556210
H  0.02326014 0.00632751 0.01286167
H  0.00688002 0.02956434 -0.01694404
H  0.01563925 0.01555961 -0.00447444
12
MD Step 1841 Units = [Angstroms / fs]
C  0.00279656 0.00607159 -0.00010667
C  0.00616748 0.00101224 -0.00233662
C  0.00384775 0.00343457 0.00141723
C  -0.00346462 -0.00265122 -0.00464123
C  0.00120090 -0.00719441 0.00151134
C  0.00259393 -0.00013310 -0.00476735
H  -0.01168481 0.01845861 0.00907979
H  -0.00408473 0.00448886 -0.01967364
H  -0.00586016 -0.01196802 -0.01574362
H  0.01863477 0.00269448 0.01195648
H  0.00710228 0.03185045 -0.01717289
H  0.01314282 0.01823114 -0.00429759
12
MD Step 1842 Units = [Angstroms / fs]
C  0.00307042 0.00551956 -0.00037887
C  0.00570110 0.00139051 -0.00260761
C  0.00473130 0.00301895 0.00182647
C  -0.00313413 -0.00212736 -0.00487524
C  0.00117002 -0.00628020 0.00179241
C  0.00232577 -0.00067278 -0.00488498
H  -0.00826478 0.02013832 0.01207793
H  -0.00267963 0.00118794 -0.01917444
H  -0.01153378 -0.01193410 -0.01580500
H  0.01315906 -0.00177918 0.01083345
H  0.00840943 0.03187417 -0.01715411
H  0.00955098 0.02058638 -0.00419223
12
MD Step 1843 Units = [Angstroms / fs]
C  0.00338502 0.00494361 -0.00063701
C  0.00518088 0.00179096 -0.00287971
C  0.00553038 0.00255408 0.00220781
C  -0.00270997 -0.00154932 -0.00506655
C  0.00107887 -0.00511584 0.00202629
C  0.00205909 -0.00117415 -0.00498505
H  -0.00495026 0.02114827 0.01492231
H  -0.00107164 -0.00236405 -0.01862139
H  -0.01610487 -0.01163483 -0.01576638
H  0.00714278 -0.00665937 0.00952227
H  0.01063027 0.02980607 -0.01686731
H  0.00513287 0.02261966 -0.00414442
12
MD Step 1844 Units = [Angstroms / fs]
C  0.00373890 0.00436671 -0.00087733
C  0.00463402 0.00218460 -0.00315203
C  0.00620455 0.00204913 0.00256176
C  -0.00221865 -0.00095819 -0.00521795
C  0.00094291 -0.00374821 0.00221324
C  0.00177761 -0.00162676 -0.00507007
H  -0.00190451 0.02128909 0.01756934
H  0.00052280 -0.00581673 -0.01800654
H  -0.01914859 -0.01109089 -0.01565644
H  0.00091228 -0.01150444 0.00806347
H  0.01352267 0.02595879 -0.01631026
H  0.00026021 0.02433352 -0.00413406
12
MD Step 1845 Units = [Angstroms / fs]
C  0.00412758 0.00380953 -0.00109715
C  0.00408754 0.00254267 -0.00342429
C  0.00671943 0.00151439 0.00288941
C  -0.00168766 -0.00039515 -0.00533307
C  0.00077926 -0.00223299 0.00235492
C  0.00146195 -0.00202065 -0.00514285
H  0.00073547 0.02041256 0.01998891
H  0.00189648 -0.00882848 -0.01731500
H  -0.02031816 -0.01033147 -0.01551013
H  -0.00519813 -0.01587581 0.00650677
H  0.01681071 0.02073482 -0.01549762
H  -0.00463219 0.02573130 -0.00413733
12
MD Step 1846 Units = [Angstroms / fs]
C  0.00454284 0.00328893 -0.00129509
C  0.00356602 0.00284018 -0.00369649
C  0.00705083 0.00096093 0.00319202
C  -0.00114481 0.00009941 -0.00541620
C  0.00060475 -0.00063082 0.00245416
C  0.00109331 -0.00234615 -0.00520617
H  0.00287306 0.01843944 0.02216674
H  0.00287778 -0.01110920 -0.01652895
H  -0.01939218 -0.00939168 -0.01536408
H  -0.01085350 -0.01934625 0.00490952
H  0.02020941 0.01458759 -0.01445875
H  -0.00909968 0.02681052 -0.00413007
12
MD Step 1847 Units = [Angstroms / fs]
C  0.00497200 0.00281628 -0.00147111
C  0.00308989 0.00305862 -0.00396860
C  0.00718941 0.00040009 0.00347057
C  -0.00061724 0.00048712 -0.00547217
C  0.00043507 0.00099541 0.00251469
C  0.00065733 -0.00259404 -0.00526242
H  0.00446591 0.01537592 0.02410511
H  0.00334957 -0.01245266 -0.01563233
H  -0.01632738 -0.00830850 -0.01524934
H  -0.01572874 -0.02151279 0.00333449
H  0.02343835 0.00799713 -0.01323572
H  -0.01274393 0.02755910 -0.00409107
12
MD Step 1848 Units = [Angstroms / fs]
C  0.00539749 0.00239630 -0.00162639
C  0.00267449 0.00318748 -0.00424028
C  0.00714459 -0.00015697 0.00372500
C  -0.00012988 0.00073355 -0.00550599
C  0.00028464 0.00258244 0.00254098
C  0.00014712 -0.00275602 -0.00531335
H  0.00553654 0.01132498 0.02582106
H  0.00325793 -0.01275368 -0.01461489
H  -0.01130303 -0.00711584 -0.01518187
H  -0.01952705 -0.02202014 0.00184581
H  0.02622818 0.00145650 -0.01188175
H  -0.01526019 0.02795572 -0.00400472
12
MD Step 1849 Units = [Angstroms / fs]
C  0.00579697 0.00202662 -0.00176298
C  0.00232981 0.00322439 -0.00451068
C  0.00694615 -0.00069964 0.00395358
C  0.00029699 0.00081146 -0.00552243
C  0.00016684 0.00406819 0.00253816
C  -0.00043502 -0.00282561 -0.00535988
H  0.00617559 0.00648804 0.02734181
H  0.00261122 -0.01200960 -0.01347483
H  -0.00473771 -0.00584015 -0.01515320
H  -0.02200882 -0.02059854 0.00050249
H  0.02832447 -0.00453751 -0.01046008
H  -0.01646666 0.02797389 -0.00386251
12
MD Step 1850 Units = [Angstroms / fs]
C  0.00614436 0.00169833 -0.00188326
C  0.00206080 0.00317426 -0.00477840
C  0.00664207 -0.00121800 0.00415244
C  0.00065075 0.00070505 -0.00552532
C  0.00009412 0.00539342 0.00251192
C  -0.00107760 -0.00279900 -0.00540205
H  0.00653468 0.00115304 0.02869764
H  0.00147191 -0.01030972 -0.01221977
H  0.00273868 -0.00449828 -0.01512455
H  -0.02302998 -0.01711515 -0.00065107
H  0.02949346 -0.00949653 -0.00904217
H  -0.01631331 0.02758811 -0.00366318
12
MD Step 1851 Units = [Angstroms / fs]
C  0.00641177 0.00139778 -0.00198931
C  0.00186791 0.00304788 -0.00504153
C  0.00629226 -0.00170271 0.00431575
C  0.00092961 0.00041478 -0.00551662
C  0.00007784 0.00650425 0.00246833
C  -0.00176119 -0.00267574 -0.00543908
H  0.00680766 -0.00433186 0.02991370
H  -0.00005533 -0.00781775 -0.01086616
H  0.01036244 -0.00309890 -0.01502802
H  -0.02258223 -0.01163050 -0.00159620
H  0.02953304 -0.01296311 -0.00770426
H  -0.01487280 0.02678009 -0.00341188
12
MD Step 1852 Units = [Angstroms / fs]
C  0.00657215 0.00110922 -0.00208239
C  0.00174769 0.00286031 -0.00529772
C  0.00595920 -0.00214468 0.00443645
C  0.00114453 -0.00003887 -0.00549578
C  0.00012727 0.00735571 0.00241340
C  -0.00246044 -0.00245913 -0.00546951
H  0.00720267 -0.00959600 0.03100286
H  -0.00183633 -0.00475214 -0.00943793
H  0.01734896 -0.00164724 -0.01477617
H  -0.02082142 -0.00444193 -0.00234956
H  0.02829129 -0.01454940 -0.00652100
H  -0.01232001 0.02554360 -0.00311876
12
MD Step 1853 Units = [Angstroms / fs]
C  0.00660230 0.00081776 -0.00216259
C  0.00169325 0.00262936 -0.00554431
C  0.00569823 -0.00253481 0.00450756
C  0.00131882 -0.00061450 -0.00545934
C  0.00024800 0.00791659 0.00235237
C  -0.00314626 -0.00215615 -0.00549138
H  0.00791076 -0.01428842 0.03196164
H  -0.00371909 -0.00136714 -0.00796448
H  0.02301128 -0.00015113 -0.01427784
H  -0.01806729 0.00390885 -0.00296695
H  0.02569234 -0.01399340 -0.00555514
H  -0.00890690 0.02388725 -0.00279740
12
MD Step 1854 Units = [Angstroms / fs]
C  0.00648547 0.00051213 -0.00222888
C  0.00169481 0.00237440 -0.00577847
C  0.00554987 -0.00286403 0.00452348
C  0.00148449 -0.00125330 -0.00540152
C  0.00043971 0.00817496 0.00228867
C  -0.00378787 -0.00177693 -0.00550242
H  0.00907785 -0.01811625 0.03277033
H  -0.00554402 0.00206413 -0.00647858
H  0.02685198 0.00137416 -0.01345542
H  -0.01476410 0.01268213 -0.00353711
H  0.02176543 -0.01122611 -0.00484394
H  -0.00493771 0.02183533 -0.00246330
12
MD Step 1855 Units = [Angstroms / fs]
C  0.00621320 0.00018647 -0.00227941
C  0.00174021 0.00211530 -0.00599727
C  0.00553611 -0.00312370 0.00448101
C  0.00167573 -0.00188709 -0.00531545
C  0.00069415 0.00814284 0.00222276
C  -0.00435434 -0.00133405 -0.00550027
H  0.01078593 -0.02087211 0.03339701
H  -0.00715296 0.00526518 -0.00501426
H  0.02860813 0.00290423 -0.01225826
H  -0.01140634 0.02104063 -0.00416528
H  0.01666854 -0.00643163 -0.00438500
H  -0.00074702 0.01942706 -0.00213267
12
MD Step 1856 Units = [Angstroms / fs]
C  0.00578606 -0.00015898 -0.00231200
C  0.00181554 0.00187147 -0.00619790
C  0.00566051 -0.00330626 0.00437979
C  0.00192164 -0.00244903 -0.00519500
C  0.00099425 0.00785802 0.00215142
C  -0.00481598 -0.00084165 -0.00548263
H  0.01304605 -0.02244715 0.03380412
H  -0.00839794 0.00797146 -0.00360452
H  0.02824826 0.00440706 -0.01066915
H  -0.00845007 0.02818059 -0.00495087
H  0.01069502 -0.00007356 -0.00412681
H  0.00331926 0.01671487 -0.00182140
12
MD Step 1857 Units = [Angstroms / fs]
C  0.00521344 -0.00051813 -0.00232468
C  0.00190607 0.00166079 -0.00637778
C  0.00591117 -0.00340602 0.00422219
C  0.00224026 -0.00288379 -0.00503642
C  0.00131510 0.00738088 0.00206773
C  -0.00514539 -0.00031454 -0.00544743
H  0.01580209 -0.02283030 0.03395558
H  -0.00915046 0.00994710 -0.00227903
H  0.02593534 0.00584669 -0.00870389
H  -0.00623825 0.03345488 -0.00596660
H  0.00425330 0.00713697 -0.00396985
H  0.00692151 0.01376177 -0.00154414
12
MD Step 1858 Units = [Angstroms / fs]
C  0.00451252 -0.00088010 -0.00231619
C  0.00199734 0.00149838 -0.00653475
C  0.00626471 -0.00341977 0.00401281
C  0.00263587 -0.00315433 -0.00483921
C  0.00162722 0.00678588 0.00196222
C  -0.00531875 0.00023255 -0.00539296
H  0.01894219 -0.02209739 0.03382304
H  -0.00931190 0.01100387 -0.00106167
H  0.02197527 0.00718739 -0.00640610
H  -0.00496080 0.03645328 -0.00724608
H  -0.00218190 0.01433888 -0.00378121
H  0.00974499 0.01063808 -0.00131351
12
MD Step 1859 Units = [Angstroms / fs]
C  0.00370680 -0.00123056 -0.00228623
C  0.00207645 0.00139507 -0.00666727
C  0.00669019 -0.00334718 0.00375787
C  0.00309974 -0.00324404 -0.00460623
C  0.00190129 0.00614931 0.00182495
C  -0.00531736 0.00078565 -0.00531796
H  0.02231368 -0.02039477 0.03339032
H  -0.00882455 0.01102183 0.00003175
H  0.01676707 0.00839724 -0.00384017
H  -0.00465414 0.03702505 -0.00878222
H  -0.00813701 0.02066343 -0.00342034
H  0.01152132 0.00741722 -0.00113914
12
MD Step 1860 Units = [Angstroms / fs]
C  0.00282446 -0.00155306 -0.00223567
C  0.00213345 0.00135581 -0.00677460
C  0.00715211 -0.00319084 0.00346470
C  0.00361322 -0.00315487 -0.00434296
C  0.00211296 0.00553701 0.00164772
C  -0.00512949 0.00133212 -0.00522171
H  0.02573848 -0.01792154 0.03265591
H  -0.00768206 0.00996935 0.00099535
H  0.01076349 0.00945050 -0.00108440
H  -0.00522947 0.03525186 -0.01053435
H  -0.01320688 0.02537888 -0.00276756
H  0.01205379 0.00417072 -0.00102683
12
MD Step 1861 Units = [Angstroms / fs]
C  0.00189671 -0.00183023 -0.00216657
C  0.00216242 0.00137847 -0.00685682
C  0.00761252 -0.00295608 0.00314124
C  0.00415177 -0.00290317 -0.00405657
C  0.00224630 0.00499568 0.00142581
C  -0.00475254 0.00186103 -0.00510411
H  0.02902689 -0.01491277 0.03163376
H  -0.00593671 0.00791799 0.00183384
H  0.00444396 0.01032903 0.00177464
H  -0.00651302 0.03139335 -0.01243967
H  -0.01710329 0.02799342 -0.00174587
H  0.01124484 0.00096288 -0.00097772
12
MD Step 1862 Units = [Angstroms / fs]
C  0.00095622 -0.00204470 -0.00208210
C  0.00216215 0.00145326 -0.00691483
C  0.00803239 -0.00265062 0.00279582
C  0.00468856 -0.00251511 -0.00375492
C  0.00229510 0.00454959 0.00115872
C  -0.00419496 0.00236349 -0.00496567
H  0.03198946 -0.01162449 0.03035279
H  -0.00370076 0.00504687 0.00256161
H  -0.00170338 0.01102284 0.00464654
H  -0.00828407 0.02582776 -0.01442457
H  -0.01967468 0.02829354 -0.00033017
H  0.00912132 -0.00215404 -0.00098790
12
MD Step 1863 Units = [Angstroms / fs]
C  0.00003551 -0.00217991 -0.00198644
C  0.00213602 0.00156334 -0.00695015
C  0.00837273 -0.00228411 0.00243679
C  0.00519705 -0.00202287 -0.00344590
C  0.00226204 0.00420242 0.00084986
C  -0.00347748 0.00283271 -0.00480748
H  0.03444723 -0.00831993 0.02885535
H  -0.00113943 0.00163180 0.00320006
H  -0.00719571 0.01153035 0.00744094
H  -0.01030337 0.01900272 -0.01641360
H  -0.02089882 0.02632239 0.00145623
H  0.00585029 -0.00514274 -0.00104843
12
MD Step 1864 Units = [Angstroms / fs]
C  -0.00083444 -0.00222092 -0.00188456
C  0.00209114 0.00168681 -0.00696456
C  0.00859598 -0.00186770 0.00207234
C  0.00565255 -0.00146202 -0.00313696
C  0.00215676 0.00394203 0.00050555
C  -0.00263281 0.00326377 -0.00463115
H  0.03624111 -0.00525574 0.02719461
H  0.00154521 -0.00198235 0.00377334
H  -0.01157217 0.01185821 0.01007194
H  -0.01233057 0.01140183 -0.01833534
H  -0.02085838 0.02232201 0.00355309
H  0.00173728 -0.00798062 -0.00114622
12
MD Step 1865 Units = [Angstroms / fs]
C  -0.00162562 -0.00215531 -0.00178194
C  0.00203685 0.00179966 -0.00695976
C  0.00866811 -0.00141352 0.00170999
C  0.00603294 -0.00087009 -0.00283493
C  0.00199350 0.00374611 0.00013397
C  -0.00170352 0.00365305 -0.00443861
H  0.03724105 -0.00266667 0.02543075
H  0.00413728 -0.00542296 0.00430361
H  -0.01441863 0.01202065 0.01246377
H  -0.01413316 0.00352547 -0.02012598
H  -0.01971089 0.01666632 0.00587718
H  -0.00279857 -0.01065577 -0.00126558
12
MD Step 1866 Units = [Angstroms / fs]
C  -0.00231435 -0.00197436 -0.00168411
C  0.00198280 0.00187934 -0.00693706
C  0.00856167 -0.00093411 0.00135606
C  0.00631890 -0.00028573 -0.00254590
C  0.00178915 0.00358705 -0.00025587
C  -0.00073800 0.00399743 -0.00423197
H  0.03735493 -0.00074820 0.02362585
H  0.00643293 -0.00833668 0.00480692
H  -0.01540453 0.01203796 0.01455815
H  -0.01549050 -0.00411927 -0.02173144
H  -0.01766202 0.00980378 0.00833453
H  -0.00727222 -0.01316017 -0.00139023
12
MD Step 1867 Units = [Angstroms / fs]
C  -0.00288230 -0.00167442 -0.00159621
C  0.00193725 0.00190785 -0.00689713
C  0.00825991 -0.00044187 0.00101498
C  0.00649413 0.00025192 -0.00227512
C  0.00156197 0.00343528 -0.00065471
C  0.00021480 0.00429345 -0.00401330
H  0.03653669 0.00036277 0.02183722
H  0.00826362 -0.01043248 0.00529069
H  -0.01433131 0.01193345 0.01632262
H  -0.01619693 -0.01102675 -0.02310930
H  -0.01494611 0.00221765 0.01082922
H  -0.01119551 -0.01548221 -0.00150532
12
MD Step 1868 Units = [Angstroms / fs]
C  -0.00331730 -0.00125831 -0.00152234
C  0.00190574 0.00187405 -0.00683996
C  0.00776115 0.00005168 0.00068869
C  0.00654557 0.00070433 -0.00202689
C  0.00133094 0.00326129 -0.00105354
C  0.00111073 0.00453674 -0.00378452
H  0.03479214 0.00060680 0.02010997
H  0.00951253 -0.01151233 0.00575339
H  -0.01118522 0.01172884 0.01775799
H  -0.01606709 -0.01670632 -0.02423093
H  -0.01181435 -0.00559701 0.01326892
H  -0.01414137 -0.01760111 -0.00159914
12
MD Step 1869 Units = [Angstroms / fs]
C  -0.00361360 -0.00073646 -0.00146500
C  0.00189048 0.00177454 -0.00676500
C  0.00708246 0.00053656 0.00037629
C  0.00646407 0.00103576 -0.00180433
C  0.00111563 0.00303660 -0.00144374
C  0.00191474 0.00472178 -0.00354731
H  0.03218073 0.00001650 0.01846963
H  0.01012187 -0.01148523 0.00618594
H  -0.00617978 0.01143867 0.01890143
H  -0.01494625 -0.02070841 -0.02508406
H  -0.00852853 -0.01314478 0.01556832
H  -0.01579543 -0.01948515 -0.00166394
12
MD Step 1870 Units = [Angstroms / fs]
C  -0.00377153 -0.00012739 -0.00142461
C  0.00189029 0.00161337 -0.00667127
C  0.00626071 0.00100494 0.00007432
C  0.00624550 0.00121680 -0.00160918
C  0.00093620 0.00273436 -0.00181733
C  0.00260334 0.00484220 -0.00330314
H  0.02881173 -0.00127802 0.01691670
H  0.01009180 -0.01036553 0.00657443
H  0.00023201 0.01106525 0.01982229
H  -0.01272720 -0.02266785 -0.02567497
H  -0.00535697 -0.01993725 0.01765164
H  -0.01598539 -0.02109405 -0.00169605
12
MD Step 1871 Units = [Angstroms / fs]
C  -0.00379658 0.00054292 -0.00139937
C  0.00190100 0.00140089 -0.00655759
C  0.00534995 0.00145138 -0.00022224
C  0.00589220 0.00122948 -0.00144169
C  0.00081323 0.00233005 -0.00216718
C  0.00316505 0.00489136 -0.00305330
H  0.02483434 -0.00305717 0.01542483
H  0.00947320 -0.00825959 0.00690304
H  0.00739186 0.01059646 0.02060919
H  -0.00937290 -0.02236396 -0.02602893
H  -0.00256885 -0.02550359 0.01945569
H  -0.01468611 -0.02238415 -0.00169542
12
MD Step 1872 Units = [Angstroms / fs]
C  -0.00369807 0.00124287 -0.00138551
C  0.00191611 0.00115221 -0.00642280
C  0.00441459 0.00187267 -0.00051847
C  0.00541463 0.00107293 -0.00130077
C  0.00076700 0.00180290 -0.00248742
C  0.00359928 0.00486317 -0.00279901
H  0.02042269 -0.00503482 0.01394394
H  0.00835735 -0.00534663 0.00715674
H  0.01451988 0.01000811 0.02135075
H  -0.00494137 -0.01978749 -0.02618694
H  -0.00042282 -0.02941123 0.02093383
H  -0.01200512 -0.02331459 -0.00166472
12
MD Step 1873 Units = [Angstroms / fs]
C  -0.00348747 0.00193812 -0.00137793
C  0.00192748 0.00088561 -0.00626589
C  0.00351992 0.00226713 -0.00081798
C  0.00483252 0.00076794 -0.00118457
C  0.00081593 0.00113847 -0.00277384
C  0.00391427 0.00475292 -0.00254150
H  0.01575840 -0.00689373 0.01240831
H  0.00686497 -0.00185812 0.00732337
H  0.02083118 0.00927087 0.02211571
H  0.00039516 -0.01519369 -0.02619736
H  0.00085374 -0.03130162 0.02206104
H  -0.00815683 -0.02385283 -0.00160849
12
MD Step 1874 Units = [Angstroms / fs]
C  -0.00317703 0.00259492 -0.00137108
C  0.00192604 0.00062117 -0.00608615
C  0.00272243 0.00263370 -0.00112181
C  0.00417480 0.00035815 -0.00109144
C  0.00097394 0.00033233 -0.00302445
C  0.00412476 0.00455797 -0.00228209
H  0.01101391 -0.00832689 0.01074799
H  0.00513625 0.00194111 0.00739497
H  0.02565423 0.00835954 0.02293892
H  0.00634663 -0.00911406 -0.02610320
H  0.00109600 -0.03094179 0.02283854
H  -0.00343330 -0.02397856 -0.00153236
12
MD Step 1875 Units = [Angstroms / fs]
C  -0.00277854 0.00318339 -0.00135992
C  0.00190240 0.00037971 -0.00588325
C  0.00206265 0.00297104 -0.00142813
C  0.00347780 -0.00009398 -0.00102092
C  0.00124697 -0.00060543 -0.00323971
C  0.00424996 0.00427835 -0.00202219
H  0.00633935 -0.00907644 0.00890096
H  0.00332204 0.00576949 0.00736861
H  0.02851866 0.00726142 0.02381747
H  0.01252525 -0.00230565 -0.02592848
H  0.00024069 -0.02828441 0.02329600
H  0.00182286 -0.02368583 -0.00144246
12
MD Step 1876 Units = [Angstroms / fs]
C  -0.00230271 0.00367993 -0.00134077
C  0.00184749 0.00018181 -0.00565737
C  0.00156195 0.00327696 -0.00173275
C  0.00278154 -0.00051650 -0.00097443
C  0.00162957 -0.00164651 -0.00342237
C  0.00431189 0.00391704 -0.00176334
H  0.00185466 -0.00896258 0.00682329
H  0.00157606 0.00934361 0.00724662
H  0.02919438 0.00598090 0.02471640
H  0.01849035 0.00436197 -0.02566919
H  -0.00163710 -0.02351984 0.02348808
H  0.00724109 -0.02298373 -0.00134507
12
MD Step 1877 Units = [Angstroms / fs]
C  -0.00175901 0.00406855 -0.00131175
C  0.00175321 0.00004686 -0.00540920
C  0.00122319 0.00354827 -0.00203003
C  0.00212494 -0.00084019 -0.00095523
C  0.00210270 -0.00274317 -0.00357673
C  0.00433402 0.00348013 -0.00150709
H  -0.00235307 -0.00789855 0.00449543
H  0.00004706 0.01239292 0.00703645
H  0.02768290 0.00453959 0.02558044
H  0.02380889 0.01005422 -0.02529325
H  -0.00430419 -0.01709626 0.02348398
H  0.01244154 -0.02189610 -0.00124637
12
MD Step 1878 Units = [Angstroms / fs]
C  -0.00115579 0.00434111 -0.00127297
C  0.00161317 -0.00000804 -0.00513997
C  0.00103406 0.00378096 -0.00231395
C  0.00154125 -0.00101006 -0.00096771
C  0.00263440 -0.00383127 -0.00370730
C  0.00434023 0.00297672 -0.00125499
H  -0.00622818 -0.00589170 0.00192399
H  -0.00112990 0.01467592 0.00675005
H  0.02417653 0.00297294 0.02634708
H  0.02811533 0.01410805 -0.02474986
H  -0.00738234 -0.00968685 0.02335106
H  0.01705188 -0.02046039 -0.00115226
12
MD Step 1879 Units = [Angstroms / fs]
C  -0.00050069 0.00449673 -0.00122628
C  0.00142350 0.00003052 -0.00485141
C  0.00097124 0.00397068 -0.00257889
C  0.00105484 -0.00099254 -0.00101615
C  0.00318365 -0.00483803 -0.00381746
C  0.00435354 0.00241850 -0.00100851
H  -0.00974260 -0.00303372 -0.00086026
H  -0.00184378 0.01599870 0.00640275
H  0.01900537 0.00132516 0.02695742
H  0.03115451 0.01611787 -0.02398422
H  -0.01039994 -0.00209919 0.02313762
H  0.02072489 -0.01872567 -0.00106814
12
MD Step 1880 Units = [Angstroms / fs]
C  0.00019894 0.00454064 -0.00117503
C  0.00118382 0.00017054 -0.00454563
C  0.00100429 0.00411319 -0.00282019
C  0.00068006 -0.00077734 -0.00110368
C  0.00370696 -0.00569269 -0.00390844
C  0.00439466 0.00181919 -0.00076898
H  -0.01289101 0.00051533 -0.00380686
H  -0.00201927 0.01623532 0.00601148
H  0.01258773 -0.00035563 0.02736349
H  0.03279906 0.01595540 -0.02295186
H  -0.01287258 0.00485382 0.02286139
H  0.02315971 -0.01674963 -0.00099863
12
MD Step 1881 Units = [Angstroms / fs]
C  0.00093565 0.00448295 -0.00112355
C  0.00089808 0.00041294 -0.00422492
C  0.00109863 0.00420484 -0.00303441
C  0.00042198 -0.00037461 -0.00123157
C  0.00416548 -0.00633725 -0.00397922
C  0.00448011 0.00119372 -0.00053759
H  -0.01568618 0.00454531 -0.00685131
H  -0.00162857 0.01534780 0.00559247
H  0.00539203 -0.00202127 0.02753240
H  0.03304278 0.01373466 -0.02162802
H  -0.01438827 0.01048359 0.02250830
H  0.02412748 -0.01459417 -0.00094704
12
MD Step 1882 Units = [Angstroms / fs]
C  0.00170154 0.00433737 -0.00107680
C  0.00057524 0.00075018 -0.00389156
C  0.00121749 0.00424289 -0.00321942
C  0.00027807 0.00019029 -0.00139909
C  0.00453043 -0.00673380 -0.00402715
C  0.00461992 0.00055735 -0.00031537
H  -0.01815482 0.00881404 -0.00992094
H  -0.00070096 0.01340118 0.00515869
H  -0.00208881 -0.00362625 0.02744820
H  0.03197870 0.00974855 -0.02001098
H  -0.01467106 0.01431782 0.02204112
H  0.02350061 -0.01231962 -0.00091482
12
MD Step 1883 Units = [Angstroms / fs]
C  0.00248801 0.00412001 -0.00103989
C  0.00022947 0.00116566 -0.00354760
C  0.00132316 0.00422570 -0.00337443
C  0.00024026 0.00088227 -0.00160367
C  0.00478566 -0.00686723 -0.00404902
C  0.00481553 -0.00007525 -0.00010331
H  -0.02033397 0.01306400 -0.01294045
H  0.00067338 0.01056817 0.00471742
H  -0.00935390 -0.00512941 0.02711252
H  0.02977229 0.00440232 -0.01812070
H  -0.01360736 0.01613535 0.02141343
H  0.02128093 -0.00997812 -0.00090086
12
MD Step 1884 Units = [Angstroms / fs]
C  0.00328560 0.00384821 -0.00101777
C  -0.00012034 0.00163443 -0.00319470
C  0.00137810 0.00415288 -0.00349998
C  0.00029655 0.00166103 -0.00184135
C  0.00492712 -0.00674334 -0.00404206
C  0.00505812 -0.00069085 0.00009763
H  -0.02226750 0.01703809 -0.01583708
H  0.00234802 0.00711874 0.00426881
H  -0.01590765 -0.00649527 0.02654463
H  0.02663758 -0.00183974 -0.01599506
H  -0.01123617 0.01594803 0.02058306
H  0.01761957 -0.00760765 -0.00090082
12
MD Step 1885 Units = [Angstroms / fs]
C  0.00408383 0.00353944 -0.00101486
C  -0.00045194 0.00212532 -0.00283411
C  0.00134629 0.00402537 -0.00359793
C  0.00043206 0.00248408 -0.00210709
C  0.00496052 -0.00638446 -0.00400465
C  0.00532832 -0.00127809 0.00028646
H  -0.02400223 0.02049512 -0.01854544
H  0.00413496 0.00339291 0.00380590
H  -0.02127593 -0.00769529 0.02578081
H  0.02281993 -0.00848964 -0.01368584
H  -0.00771637 0.01395066 0.01952129
H  0.01281963 -0.00522845 -0.00090686
12
MD Step 1886 Units = [Angstroms / fs]
C  0.00487103 0.00320993 -0.00103471
C  -0.00074167 0.00260416 -0.00246680
C  0.00119534 0.00384548 -0.00367133
C  0.00062962 0.00330844 -0.00239505
C  0.00489828 -0.00582429 -0.00393656
C  0.00559783 -0.00182765 0.00046214
H  -0.02558291 0.02322601 -0.02101202
H  0.00582775 -0.00024011 0.00331639
H  -0.02503120 -0.00870940 0.02487241
H  0.01858572 -0.01505521 -0.01125525
H  -0.00328718 0.01046224 0.01821696
H  0.00731481 -0.00284363 -0.00090781
12
MD Step 1887 Units = [Angstroms / fs]
C  0.00563414 0.00287334 -0.00107973
C  -0.00096686 0.00303766 -0.00209363
C  0.00089975 0.00361700 -0.00372412
C  0.00086992 0.00409153 -0.00269881
C  0.00475695 -0.00510343 -0.00383894
C  0.00583288 -0.00233187 0.00062365
H  -0.02704577 0.02507035 -0.02319920
H  0.00722879 -0.00342862 0.00278571
H  -0.02683008 -0.00952749 0.02388149
H  0.01421688 -0.02105006 -0.00877327
H  0.00176633 0.00587540 0.01667680
H  0.00162299 -0.00044466 -0.00089005
12
MD Step 1888 Units = [Angstroms / fs]
C  0.00635845 0.00253941 -0.00115088
C  -0.00110800 0.00339695 -0.00171566
C  0.00044502 0.00334522 -0.00376060
C  0.00113185 0.00479179 -0.00301151
C  0.00455536 -0.00426623 -0.00371415
C  0.00599919 -0.00278413 0.00077004
H  -0.02841064 0.02593232 -0.02508833
H  0.00817501 -0.00588132 0.00220075
H  -0.02646267 -0.01015036 0.02287294
H  0.01000679 -0.02600126 -0.00631518
H  0.00713762 0.00062082 0.01492375
H  -0.00371812 0.00197969 -0.00083902
12
MD Step 1889 Units = [Angstroms / fs]
C  0.00702739 0.00221289 -0.00124765
C  -0.00115044 0.00366024 -0.00133429
C  -0.00016779 0.00303693 -0.00378455
C  0.00139296 0.00536971 -0.00332602
C  0.00431358 -0.00335882 -0.00356561
C  0.00606716 -0.00317822 0.00090063
H  -0.02967253 0.02579309 -0.02668089
H  0.00855674 -0.00739794 0.00155309
H  -0.02390616 -0.01058927 0.02190275
H  0.00625327 -0.02946188 -0.00395828
H  0.01251304 -0.00485366 0.01299474
H  -0.00821986 0.00443350 -0.00074106
12
MD Step 1890 Units = [Angstroms / fs]
C  0.00762240 0.00189304 -0.00136810
C  -0.00108528 0.00381408 -0.00095143
C  -0.00091851 0.00270018 -0.00379811
C  0.00163080 0.00578961 -0.00363528
C  0.00405242 -0.00242795 -0.00339761
C  0.00601619 -0.00350787 0.00101511
H  -0.03079457 0.02471640 -0.02799730
H  0.00832698 -0.00788338 0.00084101
H  -0.01936694 -0.01086335 0.02100390
H  0.00324413 -0.03103483 -0.00177690
H  0.01757958 -0.01009414 0.01093874
H  -0.01150053 0.00690621 -0.00058522
12
MD Step 1891 Units = [Angstroms / fs]
C  0.00812320 0.00157394 -0.00150918
C  -0.00090960 0.00385343 -0.00056948
C  -0.00176691 0.00234403 -0.00380088
C  0.00182507 0.00602286 -0.00393285
C  0.00379313 -0.00152016 -0.00321525
C  0.00583718 -0.00376671 0.00111359
H  -0.03170463 0.02284392 -0.02907268
H  0.00750104 -0.00734616 0.00007015
H  -0.01329171 -0.01099471 0.02017348
H  0.00123144 -0.03041207 0.00016521
H  0.02203040 -0.01464840 0.00881478
H  -0.01332128 0.00936948 -0.00036460
12
MD Step 1892 Units = [Angstroms / fs]
C  0.00850843 0.00124579 -0.00166731
C  -0.00062612 0.00378075 -0.00019120
C  -0.00265562 0.00197802 -0.00378935
C  0.00196079 0.00605219 -0.00421372
C  0.00355694 -0.00068063 -0.00302428
C  0.00553291 -0.00394865 0.00119673
H  -0.03229809 0.02037906 -0.02995026
H  0.00614909 -0.00588550 -0.00074719
H  -0.00633113 -0.01100243 0.01936633
H  0.00039344 -0.02742838 0.00182468
H  0.02557285 -0.01807718 0.00668959
H  -0.01359659 0.01177881 -0.00007702
12
MD Step 1893 Units = [Angstroms / fs]
C  0.00875702 0.00089696 -0.00183894
C  -0.00024258 0.00360458 0.00018043
C  -0.00351727 0.00161183 -0.00375734
C  0.00203211 0.00587668 -0.00447507
C  0.00336401 0.00004873 -0.00283084
C  0.00511684 -0.00404842 0.00126562
H  -0.03244799 0.01756071 -0.03067333
H  0.00438479 -0.00367241 -0.00159347
H  0.00074565 -0.01089738 0.01849931
H  0.00078904 -0.02212084 0.00318878
H  0.02794324 -0.01997571 0.00463353
H  -0.01238317 0.01407857 0.00027508
12
MD Step 1894 Units = [Angstroms / fs]
C  0.00884994 0.00051652 -0.00202119
C  0.00022884 0.00333810 0.00054235
C  -0.00428415 0.00125490 -0.00369718
C  0.00204550 0.00551577 -0.00471695
C  0.00323167 0.00063242 -0.00264099
C  0.00461085 -0.00406219 0.00132178
H  -0.03202154 0.01463154 -0.03127791
H  0.00235288 -0.00092953 -0.00244773
H  0.00716802 -0.01068004 0.01746692
H  0.00231728 -0.01477571 0.00428243
H  0.02893093 -0.02001050 0.00271411
H  -0.00985553 0.01620850 0.00068515
12
MD Step 1895 Units = [Angstroms / fs]
C  0.00877229 0.00009646 -0.00221226
C  0.00077213 0.00299772 0.00089163
C  -0.00489795 0.00091638 -0.00360155
C  0.00202099 0.00501038 -0.00494226
C  0.00317185 0.00104583 -0.00245995
C  0.00404265 -0.00398803 0.00136706
H  -0.03090005 0.01180721 -0.03178749
H  0.00021741 0.00208752 -0.00328743
H  0.01228055 -0.01034209 0.01616370
H  0.00470029 -0.00593859 0.00516744
H  0.02841137 -0.01797206 0.00098653
H  -0.00627675 0.01811007 0.00114349
12
MD Step 1896 Units = [Angstroms / fs]
C  0.00851522 -0.00036652 -0.00241152
C  0.00136804 0.00260197 0.00122555
C  -0.00531682 0.00060497 -0.00346512
C  0.00199010 0.00441942 -0.00515594
C  0.00318818 0.00128031 -0.00229120
C  0.00344348 -0.00382614 0.00140349
H  -0.02899801 0.00925249 -0.03221110
H  -0.00184864 0.00510659 -0.00409007
H  0.01562794 -0.00987088 0.01450628
H  0.00750620 0.00363099 0.00593150
H  0.02638266 -0.01383663 -0.00051780
H  -0.00197033 0.01973151 0.00163822
12
MD Step 1897 Units = [Angstroms / fs]
C  0.00807733 -0.00087027 -0.00261943
C  0.00199463 0.00217055 0.00154172
C  -0.00551851 0.00032881 -0.00328567
C  0.00199014 0.00381177 -0.00536341
C  0.00327350 0.00134764 -0.00213557
C  0.00284625 -0.00357885 0.00143324
H  -0.02627734 0.00706786 -0.03254462
H  -0.00367301 0.00785395 -0.00483468
H  0.01699090 -0.00925486 0.01244841
H  0.01021546 0.01306145 0.00666833
H  0.02299435 -0.00781967 -0.00180160
H  0.00270368 0.02103142 0.00215622
12
MD Step 1898 Units = [Angstroms / fs]
C  0.00746543 -0.00140736 -0.00283722
C  0.00262809 0.00172335 0.00183819
C  -0.00549953 0.00009516 -0.00306443
C  0.00205635 0.00325538 -0.00556889
C  0.00340924 0.00128170 -0.00199084
C  0.00228397 -0.00325053 0.00145846
H  -0.02275454 0.00528704 -0.03277436
H  -0.00509371 0.01006923 -0.00550313
H  0.01637553 -0.00848787 0.00998619
H  0.01231501 0.02150382 0.00745547
H  0.01855371 -0.00039671 -0.00290660
H  0.00736868 0.02198106 0.00268399
12
MD Step 1899 Units = [Angstroms / fs]
C  0.00669446 -0.00196582 -0.00306646
C  0.00324379 0.00127931 0.00211346
C  -0.00527204 -0.00009006 -0.00280565
C  0.00221438 0.00280686 -0.00577401
C  0.00356743 0.00113567 -0.00185205
C  0.00178852 -0.00284736 0.00148119
H  -0.01850047 0.00388324 -0.03288183
H  -0.00596953 0.01152214 -0.00608134
H  0.01397191 -0.00757135 0.00715472
H  0.01339040 0.02825958 0.00833750
H  0.01349819 0.00773068 -0.00390862
H  0.01164926 0.02256558 0.00320846
12
MD Step 1900 Units = [Angstroms / fs]
C  0.00578675 -0.00253042 -0.00330868
C  0.00381765 0.00085511 0.00236659
C  -0.00485973 -0.00022267 -0.00251589
C  0.00247557 0.00250452 -0.00597744
C  0.00371539 0.00097421 -0.00171271
C  0.00138930 -0.00237719 0.00150327
H  -0.01363439 0.00278067 -0.03284829
H  -0.00619180 0.01203170 -0.00656030
H  0.01010180 -0.00651453 0.00401977
H  0.01318741 0.03286566 0.00932009
H  0.00833386 0.01572880 -0.00490217
H  0.01518968 0.02278450 0.00371771
12
MD Step 1901 Units = [Angstroms / fs]
C  0.00477082 -0.00308386 -0.00356503
C  0.00432779 0.00046351 0.00259721
C  -0.00429412 -0.00030055 -0.00220323
C  0.00283591 0.00236603 -0.00617530
C  0.00382202 0.00086236 -0.00156657
C  0.00111155 -0.00184938 0.00152621
H  -0.00831430 0.00186817 -0.03265863
H  -0.00569717 0.01148739 -0.00693676
H  0.00517029 -0.00533335 0.00066798
H  0.01162991 0.03512044 0.01037477
H  0.00355470 0.02276569 -0.00597854
H  0.01767557 0.02265136 0.00420182
12
MD Step 1902 Units = [Angstroms / fs]
C  0.00367979 -0.00360802 -0.00383602
C  0.00475620 0.00011169 0.00280546
C  -0.00361182 -0.00032376 -0.00187653
C  0.00327840 0.00239027 -0.00636207
C  0.00386362 0.00085446 -0.00140928
C  0.00097440 -0.00127453 0.00155111
H  -0.00272567 0.00101254 -0.03230395
H  -0.00447940 0.00986968 -0.00721322
H  -0.00037131 -0.00404890 -0.00280174
H  0.00879970 0.03505901 0.01145041
H  -0.00043322 0.02814524 -0.00720517
H  0.01886021 0.02219213 0.00465353
12
MD Step 1903 Units = [Angstroms / fs]
C  0.00254964 -0.00408486 -0.00412137
C  0.00509033 -0.00020005 0.00299194
C  -0.00285256 -0.00029442 -0.00154504
C  0.00377699 0.00256149 -0.00653166
C  0.00382745 0.00098629 -0.00123937
C  0.00098847 -0.00066425 0.00157859
H  0.00293033 0.00007084 -0.03178312
H  -0.00259767 0.00726501 -0.00739718
H  -0.00605068 -0.00268589 -0.00628506
H  0.00489544 0.03289948 0.01248603
H  -0.00336108 0.03140169 -0.00861299
H  0.01859426 0.02144232 0.00506894
12
MD Step 1904 Units = [Angstroms / fs]
C  0.00141737 -0.00449730 -0.00441993
C  0.00532395 -0.00047881 0.00315751
C  -0.00205799 -0.00021653 -0.00121795
C  0.00430079 0.00285385 -0.00667822
C  0.00371241 0.00127226 -0.00105838
C  0.00115367 -0.00003063 0.00160874
H  0.00844868 -0.00109834 -0.03110331
H  -0.00017784 0.00386965 -0.00749929
H  -0.01139150 -0.00127149 -0.00967752
H  0.00018825 0.02898374 0.01342142
H  -0.00511117 0.03233420 -0.01019490
H  0.01685479 0.02044244 0.00544780
12
MD Step 1905 Units = [Angstroms / fs]
C  0.00031912 -0.00483001 -0.00472970
C  0.00545741 -0.00073829 0.00330309
C  -0.00127045 -0.00009561 -0.00090419
C  0.00481751 0.00323529 -0.00679663
C  0.00352725 0.00170703 -0.00087026
C  0.00145756 0.00061423 0.00164117
H  0.01363264 -0.00262379 -0.03027952
H  0.00259587 -0.00002278 -0.00753086
H  -0.01592792 0.00016573 -0.01287927
H  -0.00501453 0.02372782 0.01420403
H  -0.00570065 0.03098619 -0.01191292
H  0.01376601 0.01923246 0.00579328
12
MD Step 1906 Units = [Angstroms / fs]
C  -0.00071177 -0.00507016 -0.00504786
C  0.00549677 -0.00099667 0.00342942
C  -0.00053145 0.00006166 -0.00061199
C  0.00529574 0.00367014 -0.00688277
C  0.00328745 0.00227000 -0.00068042
C  0.00187514 0.00125880 0.00167504
H  0.01830659 -0.00460982 -0.02933339
H  0.00549934 -0.00405121 -0.00750110
H  -0.01922267 0.00159686 -0.01580031
H  -0.01039363 0.01758795 0.01479280
H  -0.00524897 0.02759151 -0.01370968
H  0.00960294 0.01784628 0.00611114
12
MD Step 1907 Units = [Angstroms / fs]
C  -0.00164654 -0.00520845 -0.00537099
C  0.00545226 -0.00127333 0.00353693
C  0.00012066 0.00024770 -0.00034845
C  0.00570637 0.00412061 -0.00693357
C  0.00301203 0.00293037 -0.00049486
C  0.00237064 0.00189250 0.00170925
H  0.02232919 -0.00712323 -0.02829095
H  0.00829465 -0.00783089 -0.00741509
H  -0.02089405 0.00299407 -0.01836711
H  -0.01563156 0.01104098 0.01515978
H  -0.00394254 0.02251218 -0.01551972
H  0.00477094 0.01630801 0.00640811
12
MD Step 1908 Units = [Angstroms / fs]
C  -0.00246269 -0.00524009 -0.00569528
C  0.00533636 -0.00158512 0.00362561
C  0.00065406 0.00045432 -0.00011888
C  0.00602331 0.00454764 -0.00694704
C  0.00272098 0.00365156 -0.00031943
C  0.00290132 0.00250582 0.00174259
H  0.02560619 -0.01017949 -0.02717963
H  0.01075879 -0.01100250 -0.00727275
H  -0.02065476 0.00433241 -0.02053049
H  -0.02041991 0.00457417 0.01529085
H  -0.00200575 0.01618490 -0.01727822
H  -0.00023974 0.01463124 0.00669008
12
MD Step 1909 Units = [Angstroms / fs]
C  -0.00314510 -0.00516583 -0.00601682
C  0.00516184 -0.00194313 0.00369507
C  0.00104764 0.00067289 0.00007385
C  0.00622406 0.00491148 -0.00692228
C  0.00243368 0.00439429 -0.00015945
C  0.00342266 0.00309011 0.00177391
H  0.02810044 -0.01372993 -0.02602445
H  0.01270905 -0.01327598 -0.00706946
H  -0.01836074 0.00559187 -0.02227357
H  -0.02446489 -0.00132258 0.01518620
H  0.00031869 0.00908369 -0.01892666
H  -0.00491753 0.01282200 0.00696034
12
MD Step 1910 Units = [Angstroms / fs]
C  -0.00368662 -0.00499278 -0.00633201
C  0.00494035 -0.00235053 0.00374472
C  0.00129541 0.00089453 0.00022985
C  0.00629034 0.00517281 -0.00685954
C  0.00216807 0.00511847 -0.00001945
C  0.00389402 0.00363720 0.00180225
H  0.02983643 -0.01765316 -0.02484409
H  0.01402020 -0.01446067 -0.00679773
H  -0.01406111 0.00675906 -0.02361723
H  -0.02749569 -0.00616940 0.01486055
H  0.00278085 0.00169789 -0.02041603
H  -0.00879741 0.01088423 0.00721858
12
MD Step 1911 Units = [Angstroms / fs]
C  -0.00408766 -0.00473452 -0.00663779
C  0.00468149 -0.00280188 0.00377385
C  0.00140961 0.00111034 0.00035227
C  0.00620912 0.00529483 -0.00676019
C  0.00194057 0.00578425 0.00009694
C  0.00428321 0.00413898 0.00182687
H  0.03089661 -0.02175442 -0.02364774
H  0.01463168 -0.01447785 -0.00644946
H  -0.00803346 0.00782770 -0.02461966
H  -0.02927921 -0.00952100 0.01434272
H  0.00512918 -0.00547968 -0.02170879
H  -0.01151792 0.00882595 0.00746082
12
MD Step 1912 Units = [Angstroms / fs]
C  -0.00435492 -0.00441042 -0.00693192
C  0.00439258 -0.00328377 0.00378184
C  0.00142124 0.00131179 0.00044668
C  0.00597416 0.00524674 -0.00662667
C  0.00176618 0.00635279 0.00018713
C  0.00456932 0.00458715 0.00184723
H  0.03140818 -0.02577636 -0.02243344
H  0.01454553 -0.01335691 -0.00601810
H  -0.00078521 0.00879720 -0.02536751
H  -0.02964265 -0.01100840 0.01367341
H  0.00711438 -0.01196131 -0.02278035
H  -0.01285604 0.00666391 0.00768021
12
MD Step 1913 Units = [Angstroms / fs]
C  -0.00449931 -0.00404386 -0.00721288
C  0.00407867 -0.00377635 0.00376823
C  0.00137652 0.00149123 0.00051979
C  0.00558789 0.00500870 -0.00646213
C  0.00165858 0.00678740 0.00024969
C  0.00474345 0.00497329 0.00186295
H  0.03152187 -0.02942211 -0.02118895
H  0.01381804 -0.01122013 -0.00550030
H  0.00699251 0.00966943 -0.02595898
H  -0.02850260 -0.01039758 0.01290005
H  0.00849541 -0.01727705 -0.02362058
H  -0.01273696 0.00442560 0.00786842
12
MD Step 1914 Units = [Angstroms / fs]
C  -0.00453354 -0.00365969 -0.00747977
C  0.00374284 -0.00425538 0.00373281
C  0.00132971 0.00164234 0.00057785
C  0.00506315 0.00457756 -0.00626984
C  0.00162974 0.00705544 0.00028454
C  0.00480769 0.00528911 0.00187372
H  0.03138676 -0.03238833 -0.01989507
H  0.01254833 -0.00826194 -0.00489683
H  0.01451684 0.01044465 -0.02648278
H  -0.02589424 -0.00765652 0.01206799
H  0.00905139 -0.02099823 -0.02423527
H  -0.01122249 0.00214851 0.00801720
12
MD Step 1915 Units = [Angstroms / fs]
C  -0.00446984 -0.00328128 -0.00773190
C  0.00338651 -0.00469421 0.00367561
C  0.00133370 0.00176058 0.00062520
C  0.00442406 0.00397157 -0.00605231
C  0.00168883 0.00713146 0.00029297
C  0.00477310 0.00552699 0.00187923
H  0.03112684 -0.03440225 -0.01853070
H  0.01086659 -0.00472727 -0.00421283
H  0.02103079 0.01111819 -0.02699985
H  -0.02199021 -0.00301038 0.01120907
H  0.00860203 -0.02277618 -0.02464655
H  -0.00848656 -0.00012266 0.00811966
12
MD Step 1916 Units = [Angstroms / fs]
C  -0.00431830 -0.00292777 -0.00796845
C  0.00300968 -0.00506553 0.00359691
C  0.00143116 0.00184328 0.00066348
C  0.00370508 0.00323195 -0.00581047
C  0.00184022 0.00700150 0.00027763
C  0.00465733 0.00568057 0.00187913
H  0.03082450 -0.03525533 -0.01707849
H  0.00892344 -0.00089192 -0.00345754
H  0.02591426 0.01167936 -0.02753345
H  -0.01709738 0.00304181 0.01033064
H  0.00703696 -0.02239614 -0.02489101
H  -0.00478610 -0.00233956 0.00817123
12
MD Step 1917 Units = [Angstroms / fs]
C  -0.00408613 -0.00261217 -0.00818814
C  0.00261128 -0.00534282 0.00349726
C  0.00164853 0.00188949 0.00069171
C  0.00294789 0.00241941 -0.00554327
C  0.00208083 0.00666775 0.00024206
C  0.00448244 0.00574521 0.00187301
H  0.03051363 -0.03482704 -0.01552940
H  0.00688063 0.00295460 -0.00264380
H  0.02875951 0.01211267 -0.02807012
H  -0.01162469 0.00977113 0.00940991
H  0.00435020 -0.01983743 -0.02501385
H  -0.00043336 -0.00445378 0.00817021
12
MD Step 1918 Units = [Angstroms / fs]
C  -0.00377770 -0.00234038 -0.00838907
C  0.00218960 -0.00550163 0.00337746
C  0.00199402 0.00189960 0.00070703
C  0.00219637 0.00160536 -0.00524790
C  0.00239761 0.00615239 0.00018994
C  0.00427309 0.00571846 0.00186032
H  0.03018197 -0.03309521 -0.01388552
H  0.00490263 0.00652458 -0.00178716
H  0.02939731 0.01240087 -0.02856916
H  -0.00602577 0.01632507 0.00839737
H  0.00067015 -0.01532184 -0.02505850
H  0.00422741 -0.00641988 0.00811803
12
MD Step 1919 Units = [Angstroms / fs]
C  -0.00339521 -0.00211130 -0.00856870
C  0.00174283 -0.00552067 0.00323852
C  0.00245911 0.00187497 0.00070563
C  0.00149107 0.00086000 -0.00492087
C  0.00276623 0.00549821 0.00012406
C  0.00405511 0.00560026 0.00184036
H  0.02978014 -0.03013350 -0.01216062
H  0.00314791 0.00954751 -0.00090485
H  0.02787916 0.01252823 -0.02897593
H  -0.00073121 0.02187084 0.00722947
H  -0.00372840 -0.00932593 -0.02505345
H  0.00883922 -0.00819779 0.00801916
12
MD Step 1920 Units = [Angstroms / fs]
C  -0.00293962 -0.00191768 -0.00872396
C  0.00126987 -0.00538303 0.00308163
C  0.00302220 0.00181765 0.00068375
C  0.00086469 0.00024092 -0.00455933
C  0.00315218 0.00476486 0.00004533
C  0.00385432 0.00539301 0.00181226
H  0.02923375 -0.02609916 -0.01037899
H  0.00175895 0.01178704 -0.00001448
H  0.02443262 0.01248318 -0.02923445
H  0.00391011 0.02573188 0.00584610
H  -0.00844292 -0.00253788 -0.02500030
H  0.01304914 -0.00975467 0.00788101
12
MD Step 1921 Units = [Angstroms / fs]
C  -0.00241169 -0.00174739 -0.00885152
C  0.00077139 -0.00507766 0.00290808
C  0.00365278 0.00173009 0.00063830
C  0.00033962 -0.00021454 -0.00416229
C  0.00351465 0.00402043 -0.00004763
C  0.00369521 0.00510149 0.00177499
H  0.02845550 -0.02121553 -0.00857299
H  0.00085040 0.01306004 0.00086760
H  0.01940878 0.01225974 -0.02929672
H  0.00766548 0.02747776 0.00420638
H  -0.01299543 0.00424185 -0.02486862
H  0.01652540 -0.01106639 0.00771345
12
MD Step 1922 Units = [Angstroms / fs]
C  -0.00181272 -0.00158477 -0.00894791
C  0.00025095 -0.00460078 0.00271917
C  0.00431506 0.00161517 0.00056721
C  -0.00007214 -0.00049160 -0.00373125
C  0.00381245 0.00333044 -0.00015814
C  0.00359948 0.00473256 0.00172733
H  0.02735551 -0.01575298 -0.00678025
H  0.00049573 0.01325702 0.00172795
H  0.01323567 0.01185796 -0.02912826
H  0.01042503 0.02695018 0.00229750
H  -0.01690803 0.01023250 -0.02460076
H  0.01897726 -0.01211857 0.00752817
12
MD Step 1923 Units = [Angstroms / fs]
C  -0.00114520 -0.00141201 -0.00900986
C  -0.00028379 -0.00395736 0.00251603
C  0.00497059 0.00147606 0.00046959
C  -0.00036751 -0.00059572 -0.00327013
C  0.00401025 0.00274759 -0.00029036
C  0.00358418 0.00429494 0.00166803
H  0.02584927 -0.01001074 -0.00504076
H  0.00071402 0.01236085 0.00255776
H  0.00638374 0.01128368 -0.02871060
H  0.01218658 0.02423412 0.00013556
H  -0.01977953 0.01479800 -0.02412575
H  0.02017870 -0.01290714 0.00733762
12
MD Step 1924 Units = [Angstroms / fs]
C  -0.00041321 -0.00121036 -0.00903439
C  -0.00082026 -0.00316202 0.00229957
C  0.00557999 0.00131621 0.00034578
C  -0.00055012 -0.00054777 -0.00278474
C  0.00408317 0.00230515 -0.00044798
C  0.00365949 0.00379872 0.00159589
H  0.02386349 -0.00429994 -0.00339416
H  0.00146008 0.01045931 0.00335392
H  -0.00065684 0.01054815 -0.02804201
H  0.01302983 0.01959883 -0.00223964
H  -0.02134077 0.01752871 -0.02337682
H  0.01999517 -0.01343797 0.00715353
12
MD Step 1925 Units = [Angstroms / fs]
C  0.00037728 -0.00096137 -0.00901906
C  -0.00134070 -0.00223901 0.00207044
C  0.00610400 0.00113922 0.00019731
C  -0.00062828 -0.00037870 -0.00228210
C  0.00401886 0.00201527 -0.00063304
C  0.00382670 0.00325500 0.00150995
H  0.02134053 0.00107273 -0.00187714
H  0.00262158 0.00774578 0.00411923
H  -0.00739096 0.00966762 -0.02713726
H  0.01308982 0.01343357 -0.00477235
H  -0.02147628 0.01826478 -0.02230630
H  0.01840930 -0.01372530 0.00698509
12
MD Step 1926 Units = [Angstroms / fs]
C  0.00121827 -0.00064827 -0.00896210
C  -0.00182283 -0.00122095 0.00182911
C  0.00650449 0.00094867 0.00002695
C  -0.00061353 -0.00012504 -0.00176973
C  0.00381699 0.00187153 -0.00084537
C  0.00407655 0.00267539 0.00140969
H  0.01824237 0.00582230 -0.00052105
H  0.00402644 0.00450423 0.00486120
H  -0.01333119 0.00866299 -0.02602703
H  0.01253555 0.00619454 -0.00739841
H  -0.02021440 0.01706938 -0.02089391
H  0.01553929 -0.01378896 0.00683700
12
MD Step 1927 Units = [Angstroms / fs]
C  0.00209950 -0.00025747 -0.00886258
C  -0.00224151 -0.00014619 0.00157600
C  0.00674583 0.00074796 -0.00016141
C  -0.00051983 0.00017419 -0.00125523
C  0.00348717 0.00185369 -0.00108256
C  0.00438896 0.00207153 0.00129517
H  0.01455467 0.00970502 0.00065054
H  0.00546155 0.00107811 0.00558977
H  -0.01801463 0.00755927 -0.02475645
H  0.01155583 -0.00163128 -0.01005123
H  -0.01769770 0.01417443 -0.01914787
H  0.01164177 -0.01365072 0.00670785
12
MD Step 1928 Units = [Angstroms / fs]
C  0.00300832 0.00021960 -0.00872056
C  -0.00257111 0.00094473 0.00131174
C  0.00679713 0.00054026 -0.00036281
C  -0.00036319 0.00047938 -0.00074593
C  0.00304634 0.00193283 -0.00134031
C  0.00473435 0.00145467 0.00116710
H  0.01029136 0.01254035 0.00162400
H  0.00670027 -0.00217239 0.00631415
H  -0.02102930 0.00638447 -0.02338239
H  0.01035128 -0.00954710 -0.01266610
H  -0.01414770 0.00992174 -0.01710139
H  0.00709319 -0.01333064 0.00658939
12
MD Step 1929 Units = [Angstroms / fs]
C  0.00392951 0.00078457 -0.00853724
C  -0.00278827 0.00201287 0.00103737
C  0.00663551 0.00032851 -0.00057166
C  -0.00016155 0.00075138 -0.00024871
C  0.00251655 0.00207555 -0.00161290
C  0.00507688 0.00083539 0.00102687
H  0.00549958 0.01423389 0.00239737
H  0.00753335 -0.00491608 0.00703994
H  -0.02205344 0.00516755 -0.02196827
H  0.00913013 -0.01705814 -0.01518331
H  -0.00983402 0.00471446 -0.01480708
H  0.00234868 -0.01284467 0.00646702
12
MD Step 1930 Units = [Angstroms / fs]
C  0.00484521 0.00143048 -0.00831496
C  -0.00287431 0.00302423 0.00075446
C  0.00625041 0.00011565 -0.00078231
C  0.00006545 0.00095229 0.00023014
C  0.00192327 0.00224683 -0.00189363
C  0.00537898 0.00022352 0.00087633
H  0.00026441 0.01479744 0.00298106
H  0.00779655 -0.00689010 0.00776705
H  -0.02090614 0.00393521 -0.02057570
H  0.00810487 -0.02368144 -0.01755106
H  -0.00505242 -0.00101558 -0.01233175
H  -0.00211558 -0.01220416 0.00632173
12
MD Step 1931 Units = [Angstroms / fs]
C  0.00573490 0.00214079 -0.00805718
C  -0.00281700 0.00395194 0.00046516
C  0.00564800 -0.00009498 -0.00098995
C  0.00029702 0.00104673 0.00068515
C  0.00129445 0.00241165 -0.00217511
C  0.00560626 -0.00037183 0.00071757
H  -0.00528798 0.01436006 0.00339702
H  0.00738948 -0.00792537 0.00848918
H  -0.01760066 0.00270789 -0.01925324
H  0.00748619 -0.02896092 -0.01972864
H  -0.00011160 -0.00682649 -0.00975229
H  -0.00586441 -0.01141748 0.00613302
12
MD Step 1932 Units = [Angstroms / fs]
C  0.00657571 0.00288971 -0.00776822
C  -0.00261134 0.00477709 0.00017207
C  0.00485463 -0.00029928 -0.00119157
C  0.00051231 0.00100386 0.00111191
C  0.00065981 0.00253579 -0.00244949
C  0.00573168 -0.00094204 0.00055267
H  -0.01099047 0.01316419 0.00367614
H  0.00628314 -0.00795581 0.00919461
H  -0.01238421 0.00149604 -0.01802417
H  0.00747109 -0.03249399 -0.02169010
H  0.00467434 -0.01227587 -0.00715267
H  -0.00855651 -0.01049303 0.00588214
12
MD Step 1933 Units = [Angstroms / fs]
C  0.00734314 0.00364410 -0.00745296
C  -0.00225948 0.00548854 -0.00012189
C  0.00391735 -0.00049200 -0.00138679
C  0.00069233 0.00080073 0.00150732
C  0.00005032 0.00258638 -0.00270863
C  0.00573816 -0.00147877 0.00038345
H  -0.01664018 0.01154250 0.00385393
H  0.00451706 -0.00701313 0.00986811
H  -0.00574413 0.00029831 -0.01687712
H  0.00822218 -0.03397292 -0.02342769
H  0.00899192 -0.01692803 -0.00462113
H  -0.00997793 -0.00944224 0.00555495
12
MD Step 1934 Units = [Angstroms / fs]
C  0.00801218 0.00436692 -0.00711633
C  -0.00177011 0.00608180 -0.00041374
C  0.00290041 -0.00066680 -0.00157804
C  0.00082258 0.00042667 0.00186974
C  -0.00050273 0.00253273 -0.00294435
C  0.00561937 -0.00197392 0.00021129
H  -0.02200992 0.00987660 0.00396544
H  0.00218927 -0.00521216 0.01049315
H  0.00163476 -0.00089689 -0.01576393
H  0.00983810 -0.03323875 -0.02495354
H  0.01253740 -0.02036545 -0.00224661
H  -0.01005285 -0.00828177 0.00514375
12
MD Step 1935 Units = [Angstroms / fs]
C  0.00855895 0.00502167 -0.00676297
C  -0.00115747 0.00655775 -0.00070058
C  0.00187781 -0.00081651 -0.00176999
C  0.00089606 -0.00011211 0.00219889
C  -0.00096933 0.00234793 -0.00314893
C  0.00537890 -0.00241953 0.00003703
H  -0.02686545 0.00854439 0.00404031
H  -0.00055731 -0.00273196 0.01105412
H  0.00896128 -0.00210617 -0.01460746
H  0.01231890 -0.03033681 -0.02629724
H  0.01503347 -0.02221099 -0.00011296
H  -0.00883464 -0.00703413 0.00464796
12
MD Step 1936 Units = [Angstroms / fs]
C  0.00896267 0.00557676 -0.00639685
C  -0.00044039 0.00692125 -0.00097977
C  0.00092329 -0.00093379 -0.00196826
C  0.00091588 -0.00078929 0.00249524
C  -0.00132322 0.00201165 -0.00331575
C  0.00502858 -0.00280793 -0.00013899
H  -0.03098636 0.00786731 0.00409945
H  -0.00354902 0.00020318 0.01153820
H  0.01545765 -0.00334366 -0.01331825
H  0.01553619 -0.02555459 -0.02749753
H  0.01625627 -0.02216481 0.00170970
H  -0.00648449 -0.00572697 0.00407386
12
MD Step 1937 Units = [Angstroms / fs]
C  0.00920745 0.00600908 -0.00602115
C  0.00035861 0.00718009 -0.00124907
C  0.00010068 -0.00101188 -0.00217787
C  0.00089623 -0.00155848 0.00275895
C  -0.00154521 0.00151413 -0.00344028
C  0.00458637 -0.00313187 -0.00031691
H  -0.03418690 0.00806904 0.00415364
H  -0.00659438 0.00334070 0.01193667
H  0.02047539 -0.00461400 -0.01181473
H  0.01922210 -0.01941891 -0.02858848
H  0.01607238 -0.02005598 0.00317623
H  -0.00324509 -0.00439151 0.00343363
12
MD Step 1938 Units = [Angstroms / fs]
C  0.00928396 0.00630577 -0.00563824
C  0.00121417 0.00734409 -0.00150676
C  -0.00054290 -0.00104522 -0.00240193
C  0.00086083 -0.00235781 0.00298879
C  -0.00162690 0.00086074 -0.00352107
C  0.00407443 -0.00338466 -0.00049731
H  -0.03633293 0.00925313 0.00420433
H  -0.00949565 0.00641457 0.01224581
H  0.02357618 -0.00590825 -0.01004050
H  0.02298925 -0.01263822 -0.02958381
H  0.01447959 -0.01590062 0.00427827
H  0.00058512 -0.00306049 0.00274419
12
MD Step 1939 Units = [Angstroms / fs]
C  0.00919032 0.00646452 -0.00524980
C  0.00209895 0.00742437 -0.00175167
C  -0.00097988 -0.00102996 -0.00264090
C  0.00083858 -0.00311871 0.00318121
C  -0.00157365 0.00007566 -0.00356045
C  0.00351748 -0.00356033 -0.00068107
H  -0.03735227 0.01140094 0.00424580
H  -0.01205938 0.00915900 0.01246736
H  0.02456294 -0.00720379 -0.00797390
H  0.02638442 -0.00599553 -0.03046562
H  0.01163854 -0.00994917 0.00505232
H  0.00467429 -0.00176631 0.00202586
12
MD Step 1940 Units = [Angstroms / fs]
C  0.00893239 0.00649231 -0.00485701
C  0.00298462 0.00743260 -0.00198326
C  -0.00120126 -0.00096412 -0.00289267
C  0.00085748 -0.00377649 0.00333039
C  -0.00140537 -0.00079709 -0.00356457
C  0.00294155 -0.00365379 -0.00086931
H  -0.03723766 0.01438576 0.00426797
H  -0.01410719 0.01132271 0.01260847
H  0.02346483 -0.00846751 -0.00562869
H  0.02896389 -0.00021974 -0.03118299
H  0.00787886 -0.00269912 0.00557946
H  0.00867605 -0.00053926 0.00130118
12
MD Step 1941 Units = [Angstroms / fs]
C  0.00852344 0.00640351 -0.00446069
C  0.00384309 0.00738004 -0.00220156
C  -0.00121341 -0.00084771 -0.00315296
C  0.00093867 -0.00427969 0.00342904
C  -0.00115417 -0.00169707 -0.00354242
C  0.00237276 -0.00366105 -0.00106324
H  -0.03604349 0.01799631 0.00425911
H  -0.01548744 0.01268548 0.01268113
H  0.02049352 -0.00966048 -0.00304828
H  0.03036777 0.00412582 -0.03166177
H  0.00366690 0.00514598 0.00597327
H  0.01224663 0.00059392 0.00059364
12
MD Step 1942 Units = [Angstroms / fs]
C  0.00798325 0.00621772 -0.00406145
C  0.00464796 0.00727628 -0.00240716
C  -0.00103411 -0.00068269 -0.00341610
C  0.00109256 -0.00459560 0.00346986
C  -0.00085876 -0.00255533 -0.00350404
C  0.00183613 -0.00357945 -0.00126404
H  -0.03387823 0.02196284 0.00420796
H  -0.01608805 0.01307752 0.01270081
H  0.01599027 -0.01074263 -0.00029688
H  0.03037138 0.00670764 -0.03182159
H  -0.00046396 0.01277311 0.00635777
H  0.01506258 0.00161134 -0.00007369
12
MD Step 1943 Units = [Angstroms / fs]
C  0.00733704 0.00595779 -0.00365981
C  0.00537610 0.00712771 -0.00260098
C  -0.00068913 -0.00047284 -0.00367569
C  0.00131771 -0.00471121 0.00344689
C  -0.00055712 -0.00330500 -0.00345841
C  0.00135406 -0.00340791 -0.00147268
H  -0.03089509 0.02598136 0.00410514
H  -0.01584954 0.01240107 0.01268419
H  0.01037807 -0.01167625 0.00254928
H  0.02890255 0.00743062 -0.03159333
H  -0.00400338 0.01938985 0.00684177
H  0.01684142 0.00249699 -0.00067980
12
MD Step 1944 Units = [Angstroms / fs]
C  0.00661408 0.00564824 -0.00325626
C  0.00600921 0.00693600 -0.00278403
C  -0.00020966 -0.00022368 -0.00392505
C  0.00160236 -0.00463076 0.00335657
C  -0.00027981 -0.00389149 -0.00341175
C  0.00094448 -0.00314718 -0.00168974
H  -0.02728207 0.02973407 0.00394402
H  -0.01477609 0.01065080 0.01264604
H  0.00412575 -0.01242839 0.00540924
H  0.02602846 0.00640351 -0.03093187
H  -0.00654656 0.02434925 0.00749841
H  0.01736604 0.00324168 -0.00120764
12
MD Step 1945 Units = [Angstroms / fs]
C  0.00584638 0.00531396 -0.00285133
C  0.00653497 0.00669691 -0.00295715
C  0.00036923 0.00005783 -0.00415764
C  0.00192734 -0.00437149 0.00319807
C  -0.00004575 -0.00427931 -0.00336675
C  0.00061867 -0.00280000 -0.00191526
H  -0.02325215 0.03290640 0.00372109
H  -0.01294146 0.00792824 0.01259549
H  -0.00227615 -0.01297218 0.00820260
H  0.02192440 0.00388399 -0.02982182
H  -0.00784551 0.02723344 0.00835602
H  0.01651202 0.00384353 -0.00164631
12
MD Step 1946 Units = [Angstroms / fs]
C  0.00506710 0.00497912 -0.00244561
C  0.00694763 0.00640009 -0.00312059
C  0.00100969 0.00036353 -0.00436725
C  0.00226927 -0.00395941 0.00297330
C  0.00013856 -0.00445409 -0.00332282
C  0.00037922 -0.00237112 -0.00214852
H  -0.01903302 0.03520209 0.00343605
H  -0.01048651 0.00444404 0.01253248
H  -0.00833154 -0.01328786 0.01085355
H  0.01683836 0.00022349 -0.02827763
H  -0.00782004 0.02787962 0.00940096
H  0.01427354 0.00430786 -0.00199314
12
MD Step 1947 Units = [Angstroms / fs]
C  0.00430895 0.00466612 -0.00203979
C  0.00724765 0.00603011 -0.00327392
C  0.00167201 0.00068443 -0.00454821
C  0.00260324 -0.00342598 0.00268650
C  0.00027714 -0.00442055 -0.00327694
C  0.00021851 -0.00186729 -0.00238801
H  -0.01485526 0.03635857 0.00309170
H  -0.00760645 0.00050323 0.01244541
H  -0.01355296 -0.01336361 0.01329437
H  0.01106092 -0.00417600 -0.02634047
H  -0.00653585 0.02635567 0.01058868
H  0.01078137 0.00464637 -0.00225523
12
MD Step 1948 Units = [Angstroms / fs]
C  0.00360229 0.00439436 -0.00163472
C  0.00744058 0.00556888 -0.00341587
C  0.00231608 0.00101117 -0.00469566
C  0.00290474 -0.00280595 0.00234392
C  0.00038122 -0.00419818 -0.00322476
C  0.00011855 -0.00129711 -0.00263142
H  -0.01093758 0.03616419 0.00269372
H  -0.00452862 -0.00352704 0.01231101
H  -0.01748019 -0.01319637 0.01546918
H  0.00490419 -0.00889029 -0.02407417
H  -0.00416575 0.02290704 0.01185718
H  0.00630490 0.00487532 -0.00244985
12
MD Step 1949 Units = [Angstroms / fs]
C  0.00297308 0.00417882 -0.00123139
C  0.00753538 0.00499916 -0.00354460
C  0.00290372 0.00133435 -0.00480589
C  0.00315074 -0.00213615 0.00195346
C  0.00046585 -0.00381637 -0.00316156
C  0.00005246 -0.00067080 -0.00287577
H  -0.00746855 0.03447786 0.00225031
H  -0.00148457 -0.00726303 0.01209692
H  -0.01970861 -0.01279234 0.01733833
H  -0.00131084 -0.01348896 -0.02156177
H  -0.00094944 0.01789806 0.01313899
H  0.00123230 0.00501324 -0.00260305
12
MD Step 1950 Units = [Angstroms / fs]
C  0.00244066 0.00402850 -0.00083100
C  0.00754261 0.00430834 -0.00365796
C  0.00340213 0.00164496 -0.00487674
C  0.00332044 -0.00145476 0.00152448
C  0.00054728 -0.00331047 -0.00308291
C  -0.00001212 -0.00000008 -0.00311772
H  -0.00458531 0.03124999 0.00177164
H  0.00131769 -0.01035375 0.01176644
H  -0.01993044 -0.01216662 0.01888292
H  -0.00726198 -0.01754439 -0.01890249
H  0.00283853 0.01176285 0.01436958
H  -0.00397189 0.00507853 -0.00274667
12
MD Step 1951 Units = [Angstroms / fs]
C  0.00201572 0.00394494 -0.00043487
C  0.00747296 0.00349157 -0.00375403
C  0.00378838 0.00193452 -0.00490794
C  0.00339576 -0.00080066 0.00106749
C  0.00064124 -0.00271897 -0.00298507
C  -0.00010845 0.00070205 -0.00335394
H  -0.00235226 0.02654132 0.00126931
H  0.00371555 -0.01252363 0.01128465
H  -0.01798660 -0.01134130 0.02010832
H  -0.01263289 -0.02064034 -0.01620864
H  0.00690978 0.00497174 0.01549228
H  -0.00882532 0.00508744 -0.00291397
12
MD Step 1952 Units = [Angstroms / fs]
C  0.00169891 0.00392126 -0.00004448
C  0.00733628 0.00255374 -0.00383146
C  0.00405402 0.00219516 -0.00490124
C  0.00336217 -0.00021216 0.00059391
C  0.00076219 -0.00208190 -0.00286517
C  -0.00026569 0.00142141 -0.00358152
H  -0.00074470 0.02053428 0.00075571
H  0.00560423 -0.01360034 0.01062405
H  -0.01391978 -0.01034157 0.02104447
H  -0.01712401 -0.02238620 -0.01360075
H  0.01097366 -0.00198816 0.01646086
H  -0.01289013 0.00505310 -0.00313499
12
MD Step 1953 Units = [Angstroms / fs]
C  0.00148049 0.00394214 0.00033853
C  0.00714126 0.00150988 -0.00388980
C  0.00420851 0.00241952 -0.00486018
C  0.00321003 0.00027512 0.00011534
C  0.00092314 -0.00143995 -0.00272135
C  -0.00050484 0.00214281 -0.00379824
H  0.00035605 0.01353109 0.00024357
H  0.00693927 -0.01352472 0.00976876
H  -0.00801162 -0.00919042 0.02174116
H  -0.02047145 -0.02244237 -0.01119921
H  0.01474307 -0.00862362 0.01724079
H  -0.01582558 0.00498547 -0.00343257
12
MD Step 1954 Units = [Angstroms / fs]
C  0.00134167 0.00398517 0.00071247
C  0.00689541 0.00038422 -0.00392959
C  0.00427982 0.00260061 -0.00478935
C  0.00293652 0.00063166 -0.00035738
C  0.00113556 -0.00083365 -0.00255285
C  -0.00083631 0.00285032 -0.00400277
H  0.00115122 0.00593425 -0.00025430
H  0.00773111 -0.01234481 0.00871656
H  -0.00078381 -0.00790338 0.02225759
H  -0.02247552 -0.02055973 -0.00911090
H  0.01793920 -0.01444427 0.01781022
H  -0.01742076 0.00489205 -0.00381999
12
MD Step 1955 Units = [Angstroms / fs]
C  0.00125740 0.00402350 0.00107551
C  0.00660531 -0.00079165 -0.00395235
C  0.00431080 0.00273188 -0.00469336
C  0.00254812 0.00083852 -0.00081567
C  0.00140933 -0.00030216 -0.00236010
C  -0.00125934 0.00352769 -0.00419472
H  0.00189555 -0.00179069 -0.00072511
H  0.00803508 -0.01019933 0.00747899
H  0.00705111 -0.00648567 0.02264822
H  -0.02303674 -0.01663092 -0.00741087
H  0.02029949 -0.01897723 0.01816111
H  -0.01760437 0.00477883 -0.00430029
12
MD Step 1956 Units = [Angstroms / fs]
C  0.00120036 0.00402944 0.00142573
C  0.00627669 -0.00198104 -0.00396039
C  0.00435180 0.00280758 -0.00457582
C  0.00206290 0.00089205 -0.00125485
C  0.00175198 0.00011887 -0.00214484
C  -0.00176307 0.00415890 -0.00437447
H  0.00285575 -0.00916482 -0.00115606
H  0.00793997 -0.00729632 0.00607992
H  0.01468665 -0.00493338 0.02294917
H  -0.02219153 -0.01074376 -0.00612198
H  0.02159264 -0.02179428 0.01830020
H  -0.01643513 0.00465124 -0.00486711
12
MD Step 1957 Units = [Angstroms / fs]
C  0.00114522 0.00397822 0.00176117
C  0.00591447 -0.00314447 -0.00395663
C  0.00445104 0.00282337 -0.00443871
C  0.00151155 0.00080734 -0.00167550
C  0.00216727 0.00040089 -0.00191018
C  -0.00232847 0.00472886 -0.00454301
H  0.00426593 -0.01574838 -0.00153447
H  0.00755732 -0.00389156 0.00455341
H  0.02134505 -0.00323897 0.02317024
H  -0.02013369 -0.00321854 -0.00519891
H  0.02164287 -0.02255580 0.01824930
H  -0.01407980 0.00451461 -0.00550659
12
MD Step 1958 Units = [Angstroms / fs]
C  0.00107204 0.00385126 0.00207983
C  0.00552262 -0.00424178 -0.00394443
C  0.00464575 0.00277701 -0.00428237
C  0.00093611 0.00061869 -0.00208377
C  0.00265301 0.00052719 -0.00166042
C  -0.00293064 0.00522415 -0.00470170
H  0.00629093 -0.02118548 -0.00184820
H  0.00701228 -0.00026883 0.00294110
H  0.02639166 -0.00139884 0.02329518
H  -0.01720727 0.00539245 -0.00452464
H  0.02036230 -0.02107016 0.01804342
H  -0.01078658 0.00437430 -0.00619947
12
MD Step 1959 Units = [Angstroms / fs]
C  0.00096848 0.00363806 0.00237974
C  0.00510410 -0.00523396 -0.00392732
C  0.00495632 0.00266886 -0.00410606
C  0.00038569 0.00037566 -0.00249029
C  0.00319848 0.00049798 -0.00140068
C  -0.00354097 0.00563366 -0.00485207
H  0.00900534 -0.02523307 -0.00208631
H  0.00643585 0.00327759 0.00128952
H  0.02941104 0.00057986 0.02328936
H  -0.01386313 0.01435770 -0.00392547
H  0.01778537 -0.01735792 0.01772570
H  -0.00685923 0.00423554 -0.00692322
12
MD Step 1960 Units = [Angstroms / fs]
C  0.00083026 0.00333680 0.00265912
C  0.00466085 -0.00608483 -0.00390888
C  0.00538468 0.00250206 -0.00390874
C  -0.00009000 0.00013508 -0.00290752
C  0.00378259 0.00033423 -0.00113614
C  -0.00412885 0.00594915 -0.00499565
H  0.01239011 -0.02777150 -0.00223990
H  0.00595771 0.00645945 -0.00035272
H  0.03023173 0.00267576 0.02311124
H  -0.01058552 0.02286795 -0.00320374
H  0.01409348 -0.01169987 0.01733890
H  -0.00263461 0.00410306 -0.00765390
12
MD Step 1961 Units = [Angstroms / fs]
C  0.00066034 0.00295371 0.00291634
C  0.00419414 -0.00676260 -0.00389249
C  0.00591623 0.00228218 -0.00368979
C  -0.00044775 -0.00004900 -0.00334652
C  0.00437368 0.00007795 -0.00087121
C  -0.00466313 0.00616548 -0.00513380
H  0.01634369 -0.02879888 -0.00230283
H  0.00569862 0.00901160 -0.00193820
H  0.02890619 0.00485364 0.02272325
H  -0.00780940 0.03016134 -0.00217876
H  0.00961575 -0.00464274 0.01691500
H  0.00153635 0.00398065 -0.00836766
12
MD Step 1962 Units = [Angstroms / fs]
C  0.00046735 0.00250166 0.00315011
C  0.00370513 -0.00724155 -0.00388104
C  0.00652374 0.00201675 -0.00344955
C  -0.00065637 -0.00013433 -0.00381410
C  0.00493211 -0.00021249 -0.00060874
C  -0.00511337 0.00628078 -0.00526763
H  0.02070144 -0.02841492 -0.00227231
H  0.00576135 0.01071106 -0.00342436
H  0.02566408 0.00706778 0.02209960
H  -0.00585377 0.03563552 -0.00072243
H  0.00479613 0.00305585 0.01646637
H  0.00530612 0.00387084 -0.00904206
12
MD Step 1963 Units = [Angstroms / fs]
C  0.00026373 0.00199849 0.00335941
C  0.00319587 -0.00750371 -0.00387667
C  0.00717186 0.00171465 -0.00318947
C  -0.00069925 -0.00009614 -0.00431135
C  0.00541535 -0.00047173 -0.00034970
C  -0.00545119 0.00629618 -0.00539786
H  0.02525734 -0.02680012 -0.00214907
H  0.00621995 0.01139806 -0.00477765
H  0.02085861 0.00926645 0.02123015
H  -0.00488846 0.03891653 0.00122143
H  0.00012908 0.01054060 0.01598251
H  0.00834880 0.00377468 -0.00965738
12
MD Step 1964 Units = [Angstroms / fs]
C  0.00006397 0.00146548 0.00354354
C  0.00267042 -0.00754056 -0.00388040
C  0.00782080 0.00138548 -0.00291212
C  -0.00057398 0.00007175 -0.00483367
C  0.00578432 -0.00063916 -0.00009351
C  -0.00565188 0.00621549 -0.00552478
H  0.02978387 -0.02419481 -0.00193738
H  0.00710785 0.01099729 -0.00597779
H  0.01491959 0.01139640 0.02012130
H  -0.00493665 0.03987387 0.00363687
H  -0.00391996 0.01700043 0.01543414
H  0.01038144 0.00369177 -0.01019799
12
MD Step 1965 Units = [Angstroms / fs]
C  -0.00011688 0.00092603 0.00370215
C  0.00213603 -0.00735429 -0.00389190
C  0.00842909 0.00103911 -0.00262113
C  -0.00028980 0.00035922 -0.00537204
C  0.00600922 -0.00066923 0.00016119
C  -0.00569645 0.00604465 -0.00564813
H  0.03404816 -0.02088074 -0.00164482
H  0.00840689 0.00953555 -0.00702124
H  0.00831882 0.01340635 0.01879520
H  -0.00590246 0.03859175 0.00644999
H  -0.00698528 0.02179595 0.01478325
H  0.01118944 0.00362067 -0.01065365
12
MD Step 1966 Units = [Angstroms / fs]
C  -0.00026434 0.00040456 0.00383516
C  0.00160397 -0.00695835 -0.00390928
C  0.00895530 0.00068521 -0.00232105
C  0.00013546 0.00074411 -0.00591468
C  0.00607294 -0.00053754 0.00041563
C  -0.00557388 0.00579112 -0.00576707
H  0.03782470 -0.01716516 -0.00128188
H  0.01004031 0.00715006 -0.00792284
H  0.00154744 0.01524965 0.01728822
H  -0.00760854 0.03531743 0.00954932
H  -0.00884346 0.02453640 0.01399475
H  0.01065453 0.00355952 -0.01102086
12
MD Step 1967 Units = [Angstroms / fs]
C  -0.00036543 -0.00007432 0.00394279
C  0.00108974 -0.00637677 -0.00392930
C  0.00935921 0.00033291 -0.00201728
C  0.00067836 0.00119664 -0.00644866
C  0.00597179 -0.00024166 0.00067015
C  -0.00528333 0.00546332 -0.00588016
H  0.04090566 -0.01336656 -0.00086149
H  0.01187314 0.00408234 -0.00871455
H  -0.00489947 0.01688629 0.01564926
H  -0.00983106 0.03040680 0.01280535
H  -0.00942119 0.02509427 0.01304559
H  0.00878114 0.00350703 -0.01130363
12
MD Step 1968 Units = [Angstroms / fs]
C  -0.00040952 -0.00048687 0.00402549
C  0.00061233 -0.00564201 -0.00394767
C  0.00960288 -0.00000956 -0.00171596
C  0.00131189 0.00168304 -0.00696107
C  0.00571393 0.00020215 0.00092387
C  -0.00483571 0.00507007 -0.00598538
H  0.04311025 -0.00979984 -0.00039831
H  0.01372255 0.00065470 -0.00944084
H  -0.01053685 0.01828478 0.01393772
H  -0.01232586 0.02428002 0.01608553
H  -0.00877548 0.02357003 0.01192918
H  0.00571387 0.00346335 -0.01151346
12
MD Step 1969 Units = [Angstroms / fs]
C  -0.00038901 -0.00081135 0.00408388
C  0.00019261 -0.00479169 -0.00395969
C  0.00965219 -0.00033515 -0.00142381
C  0.00200686 0.00216794 -0.00743976
C  0.00531660 0.00076433 0.00117463
C  -0.00425377 0.00462020 -0.00608027
H  0.04429433 -0.00675890 0.00009218
H  0.01537814 -0.00276848 -0.01015127
H  -0.01490875 0.01942387 0.01222048
H  -0.01484491 0.01739141 0.01926408
H  -0.00706001 0.02023217 0.01065531
H  0.00173791 0.00343068 -0.01166806
12
MD Step 1970 Units = [Angstroms / fs]
C  -0.00030003 -0.00102970 0.00411867
C  -0.00014899 -0.00386452 -0.00396098
C  0.00947923 -0.00063822 -0.00114778
C  0.00273274 0.00261569 -0.00787373
C  0.00480332 0.00140737 0.00141925
C  -0.00357046 0.00412223 -0.00616216
H  0.04436035 -0.00449523 0.00059492
H  0.01662906 -0.00582793 -0.01089189
H  -0.01761766 0.02029398 0.01056718
H  -0.01714529 0.01021176 0.02222779
H  -0.00449061 0.01545588 0.00924743
H  -0.00274364 0.00341308 -0.01178889
12
MD Step 1971 Units = [Angstroms / fs]
C  -0.00014302 -0.00112946 0.00413056
C  -0.00039495 -0.00289649 -0.00394814
C  0.00906573 -0.00091456 -0.00089448
C  0.00345835 0.00299112 -0.00825334
C  0.00420152 0.00209014 0.00165370
C  -0.00282528 0.00358435 -0.00622847
H  0.04326689 -0.00319273 0.00109682
H  0.01729221 -0.00821490 -0.01169748
H  -0.01836680 0.02089758 0.00904286
H  -0.01899431 0.00321811 0.02487984
H  -0.00131779 0.00967445 0.00773910
H  -0.00725545 0.00341542 -0.01189772
12
MD Step 1972 Units = [Angstroms / fs]
C  0.00007694 -0.00110591 0.00412012
C  -0.00053284 -0.00191797 -0.00391917
C  0.00840724 -0.00116122 -0.00066939
C  0.00415265 0.00326012 -0.00857054
C  0.00354094 0.00277062 0.00187336
C  -0.00205941 0.00301443 -0.00627699
H  0.04103593 -0.00294156 0.00158850
H  0.01723556 -0.00970567 -0.01258645
H  -0.01701212 0.02124727 0.00769817
H  -0.02017421 -0.00311570 0.02714305
H  0.00219154 0.00334746 0.00617081
H  -0.01131158 0.00344173 -0.01201315
12
MD Step 1973 Units = [Angstroms / fs]
C  0.00035024 -0.00096389 0.00408764
C  -0.00055669 -0.00095216 -0.00387362
C  0.00751736 -0.00137598 -0.00047597
C  0.00478591 0.00339074 -0.00881910
C  0.00285263 0.00340753 0.00207315
C  -0.00131054 0.00242015 -0.00630612
H  0.03775553 -0.00371612 0.00206585
H  0.01639219 -0.01017951 -0.01355924
H  -0.01361363 0.02136083 0.00655836
H  -0.02048978 -0.00833439 0.02896374
H  0.00576435 -0.00305680 0.00458758
H  -0.01447948 0.00349324 -0.01214778
12
MD Step 1974 Units = [Angstroms / fs]
C  0.00066331 -0.00071870 0.00403314
C  -0.00046755 -0.00001489 -0.00381248
C  0.00643023 -0.00155654 -0.00031484
C  0.00533117 0.00335521 -0.00899503
C  0.00216827 0.00396110 0.00224767
C  -0.00060868 0.00180916 -0.00631497
H  0.03357540 -0.00536468 0.00253100
H  0.01476374 -0.00962011 -0.01460002
H  -0.00846816 0.02125345 0.00561415
H  -0.01978093 -0.01202866 0.03031617
H  0.00912727 -0.00907070 0.00303715
H  -0.01643250 0.00356692 -0.01230688
12
MD Step 1975 Units = [Angstroms / fs]
C  0.00099985 -0.00039552 0.00395630
C  -0.00027321 0.00088447 -0.00373785
C  0.00520000 -0.00169963 -0.00018350
C  0.00576627 0.00313337 -0.00909687
C  0.00151961 0.00439373 0.00239136
C  0.00002634 0.00118919 -0.00630338
H  0.02869488 -0.00761707 0.00299226
H  0.01241507 -0.00810419 -0.01568045
H  -0.00210383 0.02092890 0.00481840
H  -0.01794098 -0.01387806 0.03120638
H  0.01201177 -0.01423535 0.00156820
H  -0.01698086 0.00365496 -0.01248855
12
MD Step 1976 Units = [Angstroms / fs]
C  0.00134238 -0.00002707 0.00385663
C  0.00001266 0.00174166 -0.00365262
C  0.00389610 -0.00180037 -0.00007671
C  0.00607596 0.00271725 -0.00912590
C  0.00093762 0.00467102 0.00249869
C  0.00058543 0.00056810 -0.00627176
H  0.02334409 -0.01011351 0.00346263
H  0.00946322 -0.00578316 -0.01676437
H  0.00477566 0.02037358 0.00409169
H  -0.01493894 -0.01370731 0.03167294
H  0.01416279 -0.01811452 0.00022808
H  -0.01607873 0.00374514 -0.01268509
12
MD Step 1977 Units = [Angstroms / fs]
C  0.00167407 0.00035023 0.00373369
C  0.00037158 0.00255599 -0.00356003
C  0.00259476 -0.00185225 0.00001239
C  0.00625378 0.00211597 -0.00908582
C  0.00045109 0.00476372 0.00256458
C  0.00106924 -0.00004615 -0.00622097
H  0.01776162 -0.01245150 0.00395717
H  0.00606420 -0.00286286 -0.01781240
H  0.01139150 0.01955645 0.00333694
H  -0.01084084 -0.01154522 0.03178189
H  0.01535422 -0.02032059 -0.00094075
H  -0.01381164 0.00382209 -0.01288512
12
MD Step 1978 Units = [Angstroms / fs]
C  0.00198028 0.00070084 0.00358729
C  0.00078157 0.00332908 -0.00346338
C  0.00136893 -0.00184779 0.00009071
C  0.00630307 0.00135933 -0.00898182
C  0.00008456 0.00465095 0.00258484
C  0.00148626 -0.00064547 -0.00615207
H  0.01217296 -0.01424128 0.00448980
H  0.00240000 0.00041516 -0.01878581
H  0.01701064 0.01843639 0.00245914
H  -0.00582206 -0.00766622 0.03161387
H  0.01541327 -0.02055611 -0.00190556
H  -0.01037211 0.00386887 -0.01307574
12
MD Step 1979 Units = [Angstroms / fs]
C  0.00224970 0.00099434 0.00341777
C  0.00121842 0.00406383 -0.00336580
C  0.00027923 -0.00177979 0.00016373
C  0.00623657 0.00049802 -0.00881918
C  -0.00014459 0.00432446 0.00255681
C  0.00185070 -0.00122178 -0.00606625
H  0.00677332 -0.01515774 0.00507026
H  -0.00133319 0.00378977 -0.01964952
H  0.02105331 0.01697436 0.00138409
H  -0.00016262 -0.00259085 0.03124491
H  0.01425247 -0.01866918 -0.00264918
H  -0.00603136 0.00386866 -0.01324437
12
MD Step 1980 Units = [Angstroms / fs]
C  0.00247493 0.00120855 0.00322613
C  0.00165691 0.00476377 -0.00327002
C  -0.00063172 -0.00164268 0.00023459
C  0.00607411 -0.00040090 -0.00860169
C  -0.00022908 0.00379328 0.00247984
C  0.00218047 -0.00176701 -0.00596465
H  0.00171709 -0.01497803 0.00570207
H  -0.00493548 0.00699418 -0.02037436
H  0.02315971 0.01514602 0.00007053
H  0.00577937 0.00297045 0.03072633
H  0.01190301 -0.01471243 -0.00317548
H  -0.00111255 0.00380617 -0.01338019
12
MD Step 1981 Units = [Angstroms / fs]
C  0.00265242 0.00133099 0.00301404
C  0.00207213 0.00543245 -0.00317826
C  -0.00134083 -0.00143362 0.00030388
C  0.00583905 -0.00126295 -0.00833066
C  -0.00017415 0.00308694 0.00235570
C  0.00249554 -0.00227324 -0.00584833
H  -0.00288593 -0.01359924 0.00638191
H  -0.00821336 0.00976932 -0.02093871
H  0.02320635 0.01295024 -0.00148663
H  0.01161284 0.00822566 0.03007131
H  0.00853812 -0.00898555 -0.00351210
H  0.00403203 0.00366879 -0.01347505
12
MD Step 1982 Units = [Angstroms / fs]
C  0.00278211 0.00135877 0.00278381
C  0.00244083 0.00607282 -0.00309209
C  -0.00184271 -0.00115308 0.00036995
C  0.00555411 -0.00201722 -0.00800488
C  0.00000204 0.00225554 0.00218843
C  0.00281669 -0.00273287 -0.00571825
H  -0.00696904 -0.01103723 0.00710016
H  -0.01099039 0.01187836 -0.02132975
H  0.02128075 0.01041182 -0.00326071
H  0.01696690 0.01243375 0.02925400
H  0.00447270 -0.00203764 -0.00370851
H  0.00904004 0.00344750 -0.01352401
12
MD Step 1983 Units = [Angstroms / fs]
C  0.00286682 0.00129737 0.00253825
C  0.00274271 0.00668631 -0.00301242
C  -0.00214605 -0.00080492 0.00042966
C  0.00523793 -0.00260638 -0.00762153
C  0.00027060 0.00136503 0.00198370
C  0.00316423 -0.00313880 -0.00557523
H  -0.01050382 -0.00741154 0.00784241
H  -0.01311915 0.01312376 -0.02154407
H  0.01763352 0.00757897 -0.00520185
H  0.02153754 0.01502174 0.02822126
H  0.00013038 0.00538772 -0.00382831
H  0.01355652 0.00313743 -0.01352563
12
MD Step 1984 Units = [Angstroms / fs]
C  0.00291164 0.00115887 0.00228046
C  0.00296187 0.00727166 -0.00293941
C  -0.00226962 -0.00039608 0.00047903
C  0.00490318 -0.00299274 -0.00717777
C  0.00059670 0.00048826 0.00174792
C  0.00355677 -0.00348471 -0.00542001
H  -0.01349409 -0.00292343 0.00859134
H  -0.01449425 0.01336696 -0.02158767
H  0.01262624 0.00451793 -0.00724642
H  0.02511688 0.01565456 0.02691162
H  -0.00401948 0.01246083 -0.00393744
H  0.01725214 0.00273819 -0.01348202
12
MD Step 1985 Units = [Angstroms / fs]
C  0.00292332 0.00096003 0.00201373
C  0.00308803 0.00782355 -0.00287263
C  -0.00223908 0.00006392 0.00051381
C  0.00455636 -0.00315966 -0.00667203
C  0.00094560 -0.00030618 0.00148712
C  0.00400962 -0.00376527 -0.00525325
H  -0.01596994 0.00216755 0.00932857
H  -0.01506500 0.01254908 -0.02147488
H  0.00668757 0.00130692 -0.00932496
H  0.02760123 0.01424741 0.02527368
H  -0.00753844 0.01840059 -0.00409198
H  0.01984456 0.00225387 -0.01339855
12
MD Step 1986 Units = [Angstroms / fs]
C  0.00290985 0.00072059 0.00174133
C  0.00311740 0.00833131 -0.00281115
C  -0.00208465 0.00056353 0.00052982
C  0.00419888 -0.00310919 -0.00610502
C  0.00128815 -0.00096386 0.00120621
C  0.00453288 -0.00397628 -0.00507560
H  -0.01798247 0.00756496 0.01003643
H  -0.01484516 0.01070862 -0.02122612
H  0.00028176 -0.00196914 -0.01136803
H  0.02898179 0.01093252 0.02327856
H  -0.01008642 0.02259508 -0.00432931
H  0.02112356 0.00169266 -0.01328325
12
MD Step 1987 Units = [Angstroms / fs]
C  0.00288005 0.00046184 0.00146642
C  0.00305308 0.00877820 -0.00275384
C  -0.00183978 0.00108971 0.00052319
C  0.00382882 -0.00285778 -0.00547990
C  0.00160401 -0.00145048 0.00090866
C  0.00512930 -0.00411477 -0.00488778
H  -0.01959939 0.01295397 0.01069924
H  -0.01391629 0.00799083 -0.02086443
H  -0.00611167 -0.00522286 -0.01331013
H  0.02932584 0.00600308 0.02092486
H  -0.01146140 0.02467468 -0.00466511
H  0.02097845 0.00106603 -0.01314571
12
MD Step 1988 Units = [Angstroms / fs]
C  0.00284322 0.00020530 0.00119195
C  0.00290449 0.00914183 -0.00269966
C  -0.00154020 0.00162847 0.00049049
C  0.00344263 -0.00243184 -0.00480214
C  0.00188242 -0.00175297 0.00059662
C  0.00579236 -0.00417884 -0.00469071
H  -0.02090087 0.01801786 0.01130449
H  -0.01242182 0.00464294 -0.02041137
H  -0.01201201 -0.00836791 -0.01509254
H  0.02875596 -0.00014445 0.01823764
H  -0.01160574 0.02452642 -0.00509559
H  0.01942296 0.00038746 -0.01299536
12
MD Step 1989 Units = [Angstroms / fs]
C  0.00280872 -0.00002852 0.00092052
C  0.00268609 0.00939577 -0.00264798
C  -0.00122292 0.00216544 0.00042882
C  0.00303640 -0.00186404 -0.00407906
C  0.00212075 -0.00187674 0.00027132
C  0.00650506 -0.00416763 -0.00448560
H  -0.02197494 0.02245417 0.01184365
H  -0.01055085 0.00099226 -0.01988315
H  -0.01695139 -0.01132248 -0.01666583
H  0.02743255 -0.00705678 0.01526448
H  -0.01058633 0.02226111 -0.00560300
H  0.01661058 -0.00032903 -0.01283953
12
MD Step 1990 Units = [Angstroms / fs]
C  0.00278545 -0.00022142 0.00065438
C  0.00241538 0.00951254 -0.00259873
C  -0.00092471 0.00268647 0.00033603
C  0.00260662 -0.00119093 -0.00331936
C  0.00232212 -0.00184085 -0.00006650
C  0.00724013 -0.00408109 -0.00427410
H  -0.02291161 0.02599237 0.01231267
H  -0.00851376 -0.00259154 -0.01928806
H  -0.02049496 -0.01401354 -0.01799274
H  0.02554166 -0.01425525 0.01207057
H  -0.00856177 0.01815646 -0.00616176
H  0.01283234 -0.00107020 -0.01268126
12
MD Step 1991 Units = [Angstroms / fs]
C  0.00278108 -0.00035904 0.00039534
C  0.00211068 0.00946727 -0.00255240
C  -0.00067950 0.00317831 0.00021098
C  0.00215046 -0.00045140 -0.00253276
C  0.00249308 -0.00167322 -0.00041621
C  0.00796202 -0.00392001 -0.00405837
H  -0.02379462 0.02841375 0.01271205
H  -0.00651432 -0.00574351 -0.01862601
H  -0.02227231 -0.01638190 -0.01905151
H  0.02328767 -0.02125465 0.00873445
H  -0.00574937 0.01259834 -0.00674358
H  0.00849201 -0.00182443 -0.01251790
12
MD Step 1992 Units = [Angstroms / fs]
C  0.00280113 -0.00043246 0.00014483
C  0.00178913 0.00924138 -0.00250998
C  -0.00051472 0.00362932 0.00005386
C  0.00166581 0.00031424 -0.00172965
C  0.00264184 -0.00140663 -0.00077704
C  0.00863073 -0.00368607 -0.00384106
H  -0.02469091 0.02957288 0.01304637
H  -0.00472439 -0.00814984 -0.01789020
H  -0.02202184 -0.01838763 -0.01983909
H  0.02088919 -0.02757525 0.00534409
H  -0.00239895 0.00603372 -0.00732096
H  0.00405925 -0.00258163 -0.01234058
12
MD Step 1993 Units = [Angstroms / fs]
C  0.00284785 -0.00043973 -0.00009606
C  0.00146538 0.00882532 -0.00247257
C  -0.00044679 0.00403002 -0.00013363
C  0.00115120 0.00106527 -0.00092084
C  0.00277725 -0.00107614 -0.00114793
C  0.00920669 -0.00338209 -0.00362517
H  -0.02563810 0.02941783 0.01332292
H  -0.00326627 -0.00958406 -0.01707043
H  -0.01964419 -0.02001412 -0.02037312
H  0.01857514 -0.03275449 0.00199293
H  0.00122405 -0.00106057 -0.00786920
H  0.00000876 -0.00333245 -0.01213532
12
MD Step 1994 Units = [Angstroms / fs]
C  0.00291921 -0.00038679 -0.00032642
C  0.00115099 0.00822008 -0.00244120
C  -0.00047666 0.00437335 -0.00034817
C  0.00060603 0.00176199 -0.00011720
C  0.00290845 -0.00071756 -0.00152754
C  0.00965569 -0.00301233 -0.00341380
H  -0.02663238 0.02800422 0.01354956
H  -0.00220495 -0.00992697 -0.01615682
H  -0.01525260 -0.02126865 -0.02069096
H  0.01657760 -0.03636483 -0.00122537
H  0.00484784 -0.00819555 -0.00836726
H  -0.00324145 -0.00406698 -0.01188523
12
MD Step 1995 Units = [Angstroms / fs]
C  0.00300817 -0.00028761 -0.00054532
C  0.00085457 0.00743716 -0.00241651
C  -0.00058721 0.00465449 -0.00058519
C  0.00003124 0.00236822 0.00067095
C  0.00304484 -0.00036663 -0.00191416
C  0.00995283 -0.00258277 -0.00320991
H  -0.02761999 0.02549759 0.01373202
H  -0.00154958 -0.00916942 -0.01514313
H  -0.00920156 -0.02217736 -0.02084451
H  0.01511783 -0.03804256 -0.00422445
H  0.00819925 -0.01488009 -0.00879830
H  -0.00537938 -0.00477364 -0.01157355
12
MD Step 1996 Units = [Angstroms / fs]
C  0.00310271 -0.00016291 -0.00075162
C  0.00058230 0.00649750 -0.00239863
C  -0.00074381 0.00487018 -0.00083946
C  -0.00056923 0.00285482 0.00143453
C  0.00319610 -0.00005826 -0.00230574
C  0.01008463 -0.00210130 -0.00301597
H  -0.02849608 0.02215990 0.01387110
H  -0.00126136 -0.00740164 -0.01402892
H  -0.00207372 -0.02277468 -0.02089081
H  0.01438247 -0.03752926 -0.00693521
H  0.01100838 -0.02063045 -0.00914997
H  -0.00622703 -0.00543852 -0.01118657
12
MD Step 1997 Units = [Angstroms / fs]
C  0.00318672 -0.00003766 -0.00094387
C  0.00033846 0.00542968 -0.00238718
C  -0.00089918 0.00501782 -0.00110596
C  -0.00118624 0.00320400 0.00216665
C  0.00337179 0.00017471 -0.00269987
C  0.01004932 -0.00157767 -0.00283383
H  -0.02911383 0.01831973 0.01396078
H  -0.00126452 -0.00479456 -0.01282050
H  0.00538500 -0.02309005 -0.02088054
H  0.01449003 -0.03472206 -0.00931726
H  0.01301708 -0.02498641 -0.00941499
H  -0.00574558 -0.00604562 -0.01071581
12
MD Step 1998 Units = [Angstroms / fs]
C  0.00324184 0.00006232 -0.00112021
C  0.00012596 0.00426786 -0.00238126
C  -0.00100186 0.00509480 -0.00138066
C  -0.00180289 0.00341353 0.00286345
C  0.00358037 0.00030375 -0.00309374
C  0.00985563 -0.00102326 -0.00266458
H  -0.02930359 0.01433038 0.01398775
H  -0.00145755 -0.00157847 -0.01153079
H  0.01237372 -0.02313690 -0.02084802
H  0.01545248 -0.02972121 -0.01136862
H  0.01399494 -0.02754040 -0.00959180
H  -0.00402218 -0.00657758 -0.01015922
12
MD Step 1999 Units = [Angstroms / fs]
C  0.00324986 0.00011399 -0.00127859
C  -0.00005352 0.00304973 -0.00237957
C  -0.00100589 0.00509833 -0.00166090
C  -0.00239242 0.00349925 0.00352443
C  0.00382740 0.00030813 -0.00348419
C  0.00952069 -0.00045067 -0.00250853
H  -0.02889878 0.01052462 0.01393289
H  -0.00172314 0.00197753 -0.01017852
H  0.01816074 -0.02290840 -0.02080608
H  0.01714354 -0.02285694 -0.01312917
H  0.01376495 -0.02798302 -0.00968528
H  -0.00124607 -0.00701693 -0.00952138
12
MD Step 2000 Units = [Angstroms / fs]
C  0.00319533 0.00010010 -0.00141695
C  -0.00019950 0.00181467 -0.00238049
C  -0.00087897 0.00502591 -0.00194537
C  -0.00291790 0.00349435 0.00415204
C  0.00411288 0.00017951 -0.00386767
C  0.00906781 0.00012688 -0.00236530
H  -0.02776264 0.00717557 0.01377427
H  -0.00193661 0.00558389 -0.00878699
H  0.02218881 -0.02238160 -0.02074729
H  0.01928882 -0.01467702 -0.01467378
H  0.01223758 -0.02616215 -0.00970710
H  0.00231855 -0.00734727 -0.00881304
