 Entering Gaussian System, Link 0=g16
 Initial command:
 /software/gaussian/g16-c01/avx2/g16/l1.exe "/local_scratch/28554159/Gau-28347.inp" -scrdir="/local_scratch/28554159/"
 Entering Link 1 = /software/gaussian/g16-c01/avx2/g16/l1.exe PID=     28359.
  
 Copyright (c) 1988-2019, Gaussian, Inc.  All Rights Reserved.
  
 This is part of the Gaussian(R) 16 program.  It is based on
 the Gaussian(R) 09 system (copyright 2009, Gaussian, Inc.),
 the Gaussian(R) 03 system (copyright 2003, Gaussian, Inc.),
 the Gaussian(R) 98 system (copyright 1998, Gaussian, Inc.),
 the Gaussian(R) 94 system (copyright 1995, Gaussian, Inc.),
 the Gaussian 92(TM) system (copyright 1992, Gaussian, Inc.),
 the Gaussian 90(TM) system (copyright 1990, Gaussian, Inc.),
 the Gaussian 88(TM) system (copyright 1988, Gaussian, Inc.),
 the Gaussian 86(TM) system (copyright 1986, Carnegie Mellon
 University), and the Gaussian 82(TM) system (copyright 1983,
 Carnegie Mellon University). Gaussian is a federally registered
 trademark of Gaussian, Inc.
  
 This software contains proprietary and confidential information,
 including trade secrets, belonging to Gaussian, Inc.
  
 This software is provided under written license and may be
 used, copied, transmitted, or stored only in accord with that
 written license.
  
 The following legend is applicable only to US Government
 contracts under FAR:
  
                    RESTRICTED RIGHTS LEGEND
  
 Use, reproduction and disclosure by the US Government is
 subject to restrictions as set forth in subparagraphs (a)
 and (c) of the Commercial Computer Software - Restricted
 Rights clause in FAR 52.227-19.
  
 Gaussian, Inc.
 340 Quinnipiac St., Bldg. 40, Wallingford CT 06492
  
  
 ---------------------------------------------------------------
 Warning -- This program may not be used in any manner that
 competes with the business of Gaussian, Inc. or will provide
 assistance to any competitor of Gaussian, Inc.  The licensee
 of this program is prohibited from giving any competitor of
 Gaussian, Inc. access to this program.  By using this program,
 the user acknowledges that Gaussian, Inc. is engaged in the
 business of creating and licensing software in the field of
 computational chemistry and represents and warrants to the
 licensee that it is not a competitor of Gaussian, Inc. and that
 it will not use this program in any manner prohibited above.
 ---------------------------------------------------------------
  

 Cite this work as:
 Gaussian 16, Revision C.01,
 M. J. Frisch, G. W. Trucks, H. B. Schlegel, G. E. Scuseria, 
 M. A. Robb, J. R. Cheeseman, G. Scalmani, V. Barone, 
 G. A. Petersson, H. Nakatsuji, X. Li, M. Caricato, A. V. Marenich, 
 J. Bloino, B. G. Janesko, R. Gomperts, B. Mennucci, H. P. Hratchian, 
 J. V. Ortiz, A. F. Izmaylov, J. L. Sonnenberg, D. Williams-Young, 
 F. Ding, F. Lipparini, F. Egidi, J. Goings, B. Peng, A. Petrone, 
 T. Henderson, D. Ranasinghe, V. G. Zakrzewski, J. Gao, N. Rega, 
 G. Zheng, W. Liang, M. Hada, M. Ehara, K. Toyota, R. Fukuda, 
 J. Hasegawa, M. Ishida, T. Nakajima, Y. Honda, O. Kitao, H. Nakai, 
 T. Vreven, K. Throssell, J. A. Montgomery, Jr., J. E. Peralta, 
 F. Ogliaro, M. J. Bearpark, J. J. Heyd, E. N. Brothers, K. N. Kudin, 
 V. N. Staroverov, T. A. Keith, R. Kobayashi, J. Normand, 
 K. Raghavachari, A. P. Rendell, J. C. Burant, S. S. Iyengar, 
 J. Tomasi, M. Cossi, J. M. Millam, M. Klene, C. Adamo, R. Cammi, 
 J. W. Ochterski, R. L. Martin, K. Morokuma, O. Farkas, 
 J. B. Foresman, and D. J. Fox, Gaussian, Inc., Wallingford CT, 2019.
 
 ******************************************
 Gaussian 16:  ES64L-G16RevC.01  3-Jul-2019
                21-Mar-2025 
 ******************************************
 %oldchk=../GS_OLD/geometry.chk
 %chk=geometry.chk
 %nprocshared=1
 Will use up to    1 processors via shared memory.
 %mem=2GB
 Copying data from "../GS_OLD/geometry.chk" to current chk file "geometry.chk"
 IOpt=  2 FromEx=T IUOpen= 4 IOptOp= 5 NList=   0 IFRang= 0 IUIn= 4 IUOut= 2.
 -------------------------------------------
 # AM1/STO-5G SCF=XQC FORCE nosym guess=read
 -------------------------------------------
 1/10=7,30=1,38=1/1,3;
 2/12=2,15=1,17=6,18=5,40=1/2;
 3/5=2,6=5,25=1,41=700000,71=1,116=-2/1,2,3;
 4/5=1,35=1/1;
 5/5=2,8=3,13=1,35=1,38=6/2,8;
 6/7=2,8=2,9=2,10=2,28=1/1;
 7/29=1,30=1/1,2,3,16;
 1/10=7,30=1/3;
 99//99;
 ----------
 MD Step 25
 ----------
 Symbolic Z-matrix:
 Charge =  0 Multiplicity = 1
 C                    -0.67862  -1.20146  -0.02906 
 C                     0.69635  -1.20986   0.04598 
 C                     1.43763   0.01806   0.0283 
 C                     0.69727   1.16595  -0.03524 
 C                    -0.71227   1.18336   0.00021 
 C                    -1.45038   0.03318   0.00584 
 H                    -1.26579  -2.09821  -0.00789 
 H                     1.37337  -2.08003   0.02791 
 H                     2.54      0.01348  -0.06404 
 H                     1.22385   2.18212   0.04693 
 H                    -1.27473   2.12913   0.05103 
 H                    -2.54033   0.12401  -0.02374 
 

 GradGradGradGradGradGradGradGradGradGradGradGradGradGradGradGradGradGrad
 Berny optimization.
 Initialization pass.
 Trust Radius=3.00D-01 FncErr=1.00D-07 GrdErr=1.00D-07 EigMax=2.50D+02 EigMin=1.00D-04
 Number of steps in this run=      2 maximum allowed number of steps=      2.
 GradGradGradGradGradGradGradGradGradGradGradGradGradGradGradGradGradGrad

                          Input orientation:                          
 ---------------------------------------------------------------------
 Center     Atomic      Atomic             Coordinates (Angstroms)
 Number     Number       Type             X           Y           Z
 ---------------------------------------------------------------------
      1          6           0       -0.678622   -1.201456   -0.029060
      2          6           0        0.696348   -1.209856    0.045975
      3          6           0        1.437629    0.018062    0.028304
      4          6           0        0.697272    1.165949   -0.035242
      5          6           0       -0.712274    1.183359    0.000213
      6          6           0       -1.450379    0.033185    0.005839
      7          1           0       -1.265787   -2.098212   -0.007887
      8          1           0        1.373374   -2.080031    0.027908
      9          1           0        2.539997    0.013477   -0.064041
     10          1           0        1.223851    2.182117    0.046930
     11          1           0       -1.274726    2.129131    0.051027
     12          1           0       -2.540328    0.124013   -0.023744
 ---------------------------------------------------------------------
                    Distance matrix (angstroms):
                    1          2          3          4          5
     1  C    0.000000
     2  C    1.377041   0.000000
     3  C    2.443160   1.434431   0.000000
     4  C    2.738199   2.377194   1.367411   0.000000
     5  C    2.385233   2.777371   2.445566   1.410100   0.000000
     6  C    1.456422   2.480967   2.888135   2.428425   1.366650
     7  H    1.072093   2.154542   3.433422   3.809081   3.327935
     8  H    2.232897   1.102677   2.099077   3.316247   3.873037
     9  H    3.440464   2.215331   1.106239   2.173628   3.456880
    10  H    3.882492   3.432745   2.174668   1.147446   2.179054
    11  H    3.384459   3.877369   3.437150   2.196347   1.101553
    12  H    2.285355   3.501449   3.979708   3.401150   2.112953
                    6          7          8          9         10
     6  C    0.000000
     7  H    2.139419   0.000000
     8  H    3.527003   2.639467   0.000000
     9  H    3.991037   4.352744   2.398383   0.000000
    10  H    3.430904   4.952021   4.264812   2.539203   0.000000
    11  H    2.103779   4.227763   4.972928   4.363639   2.499142
    12  H    1.094127   2.561833   4.491943   5.081688   4.290668
                   11         12
    11  H    0.000000
    12  H    2.372306   0.000000
 Symmetry turned off by external request.
 Stoichiometry    C6H6
 Framework group  C1[X(C6H6)]
 Deg. of freedom    30
 Full point group                 C1      NOp   1
 Rotational constants (GHZ):           5.8794348           5.4133722           2.8203465
 Standard basis: VSTO-5G (5D, 7F)
    30 basis functions,   180 primitive gaussians,    30 cartesian basis functions
    15 alpha electrons       15 beta electrons
       nuclear repulsion energy       119.3350817963 Hartrees.
 Integral buffers will be    131072 words long.
 Regular integral format.
 Two-electron integral symmetry is turned off.
 Do NDO integrals.
 One-electron integrals computed using PRISM.
 NBasis=    30 RedAO= F EigKep=  0.00D+00  NBF=    30
 NBsUse=    30 1.00D-04 EigRej=  0.00D+00 NBFU=    30
 Initial guess from the checkpoint file:  "geometry.chk"
 B after Tr=    -0.000875    0.000665   -0.002044
         Rot=    1.000000    0.000266    0.000060    0.000055 Ang=   0.03 deg.
 Keep J ints in memory in canonical form, NReq=861816.
 Overlap will be assumed to be unity.
 Requested convergence on RMS density matrix=1.00D-08 within  32 cycles.
 Requested convergence on MAX density matrix=1.00D-06.
 Requested convergence on             energy=1.00D-06.
 No special actions if energy rises.
 SCF Done:  E(RAM1) =  0.501890188800E-01 A.U. after   12 cycles
            NFock= 11  Conv=0.51D-08     -V/T= 1.0010
 QCSCF skips out because SCF is already converged.

 **********************************************************************

            Population analysis using the SCF Density.

 **********************************************************************

 Alpha  occ. eigenvalues --   -1.43096  -1.15979  -1.13965  -0.84965  -0.84019
 Alpha  occ. eigenvalues --   -0.65263  -0.59270  -0.56670  -0.52282  -0.51127
 Alpha  occ. eigenvalues --   -0.48889  -0.44535  -0.42365  -0.35615  -0.35270
 Alpha virt. eigenvalues --    0.01819   0.02318   0.10760   0.13802   0.14529
 Alpha virt. eigenvalues --    0.14816   0.15540   0.16549   0.17259   0.18724
 Alpha virt. eigenvalues --    0.18814   0.20491   0.20694   0.21167   0.22485
          Condensed to atoms (all electrons):
               1          2          3          4          5          6
     1  C    4.118823   0.000000   0.000000   0.000000   0.000000   0.000000
     2  C    0.000000   4.131274   0.000000   0.000000   0.000000   0.000000
     3  C    0.000000   0.000000   4.134533   0.000000   0.000000   0.000000
     4  C    0.000000   0.000000   0.000000   4.131580   0.000000   0.000000
     5  C    0.000000   0.000000   0.000000   0.000000   4.137418   0.000000
     6  C    0.000000   0.000000   0.000000   0.000000   0.000000   4.133041
     7  H    0.000000   0.000000   0.000000   0.000000   0.000000   0.000000
     8  H    0.000000   0.000000   0.000000   0.000000   0.000000   0.000000
     9  H    0.000000   0.000000   0.000000   0.000000   0.000000   0.000000
    10  H    0.000000   0.000000   0.000000   0.000000   0.000000   0.000000
    11  H    0.000000   0.000000   0.000000   0.000000   0.000000   0.000000
    12  H    0.000000   0.000000   0.000000   0.000000   0.000000   0.000000
               7          8          9         10         11         12
     1  C    0.000000   0.000000   0.000000   0.000000   0.000000   0.000000
     2  C    0.000000   0.000000   0.000000   0.000000   0.000000   0.000000
     3  C    0.000000   0.000000   0.000000   0.000000   0.000000   0.000000
     4  C    0.000000   0.000000   0.000000   0.000000   0.000000   0.000000
     5  C    0.000000   0.000000   0.000000   0.000000   0.000000   0.000000
     6  C    0.000000   0.000000   0.000000   0.000000   0.000000   0.000000
     7  H    0.875633   0.000000   0.000000   0.000000   0.000000   0.000000
     8  H    0.000000   0.867489   0.000000   0.000000   0.000000   0.000000
     9  H    0.000000   0.000000   0.860419   0.000000   0.000000   0.000000
    10  H    0.000000   0.000000   0.000000   0.875917   0.000000   0.000000
    11  H    0.000000   0.000000   0.000000   0.000000   0.875179   0.000000
    12  H    0.000000   0.000000   0.000000   0.000000   0.000000   0.858694
 Mulliken charges:
               1
     1  C   -0.118823
     2  C   -0.131274
     3  C   -0.134533
     4  C   -0.131580
     5  C   -0.137418
     6  C   -0.133041
     7  H    0.124367
     8  H    0.132511
     9  H    0.139581
    10  H    0.124083
    11  H    0.124821
    12  H    0.141306
 Sum of Mulliken charges =   0.00000
 Mulliken charges with hydrogens summed into heavy atoms:
               1
     1  C    0.005544
     2  C    0.001237
     3  C    0.005049
     4  C   -0.007497
     5  C   -0.012597
     6  C    0.008265
 Charge=              0.0000 electrons
 Dipole moment (field-independent basis, Debye):
    X=              0.0239    Y=              0.0679    Z=             -0.0007  Tot=              0.0719
 N-N= 1.193350817963D+02 E-N=-1.700803383652D+02  KE=-4.782328134750D+01
 Calling FoFJK, ICntrl=      2127 FMM=F ISym2X=0 I1Cent= 0 IOpClX= 0 NMat=1 NMatS=1 NMatT=0.
 -------------------------------------------------------------------
 Center     Atomic                   Forces (Hartrees/Bohr)
 Number     Number              X              Y              Z
 -------------------------------------------------------------------
      1        6          -0.022270473    0.034909458    0.013854436
      2        6           0.021734019    0.020439923   -0.009902841
      3        6          -0.018471870   -0.022378338   -0.011892392
      4        6           0.008409004    0.049031879    0.017496955
      5        6           0.005751091    0.016252677    0.001191146
      6        6           0.037674138   -0.039283981   -0.008902383
      7        1          -0.006245158   -0.019853810   -0.002464456
      8        1          -0.013708167   -0.008020164    0.002376778
      9        1          -0.006801097   -0.000351238    0.005894108
     10        1          -0.011323795   -0.023183907   -0.007522785
     11        1           0.006360322    0.004888727   -0.001875297
     12        1          -0.001108015   -0.012451227    0.001746731
 -------------------------------------------------------------------
 Cartesian Forces:  Max     0.049031879 RMS     0.018048885

 GradGradGradGradGradGradGradGradGradGradGradGradGradGradGradGradGradGrad
 Berny optimization.
 Search for a local minimum.
 Step number   1 out of a maximum of    2
 All quantities printed in internal units (Hartrees-Bohrs-Radians)
 Second derivative matrix not updated -- first step.
 ITU=  0
     Eigenvalues ---    0.01395   0.01581   0.03101   0.04141   0.06326
     Eigenvalues ---    0.06531   0.06870   0.06878   0.07227   0.09223
     Eigenvalues ---    0.09503   0.10564   0.11435   0.15531   0.17868
     Eigenvalues ---    0.27451   0.28137   0.30069   0.38258   0.41763
     Eigenvalues ---    0.43596   0.63547   0.66392   0.94665   1.05412
     Eigenvalues ---    1.16325   1.18041   1.46853   1.54018   1.61389
 Quadratic step=4.526D-01 exceeds max=3.000D-01 adjusted using Lamda=-4.269D-02.
 Angle between NR and scaled steps=  12.34 degrees.
 Angle between quadratic step and forces=  50.68 degrees.
 Linear search not attempted -- first point.
 B after Tr=     0.003295    0.009859   -0.000142
         Rot=    1.000000   -0.000794   -0.000451   -0.000211 Ang=  -0.11 deg.
 Variable       Old X    -DE/DX   Delta X   Delta X   Delta X     New X
                                 (Linear)    (Quad)   (Total)
    X1       -1.28241  -0.02227   0.00000  -0.01202  -0.00778  -1.29019
    Y1       -2.27042   0.03491   0.00000   0.00458   0.01392  -2.25650
    Z1       -0.05491   0.01385   0.00000   0.04220   0.03963  -0.01529
    X2        1.31591   0.02173   0.00000  -0.01411  -0.00982   1.30608
    Y2       -2.28630   0.02044   0.00000   0.02356   0.03390  -2.25239
    Z2        0.08688  -0.00990   0.00000  -0.04186  -0.04677   0.04011
    X3        2.71673  -0.01847   0.00000  -0.05745  -0.05416   2.66256
    Y3        0.03413  -0.02238   0.00000   0.00772   0.01868   0.05281
    Z3        0.05349  -0.01189   0.00000  -0.03874  -0.04121   0.01228
    X4        1.31765   0.00841   0.00000   0.00918   0.01150   1.32915
    Y4        2.20333   0.04903   0.00000   0.08164   0.09208   2.29540
    Z4       -0.06660   0.01750   0.00000   0.05408   0.05637  -0.01023
    X5       -1.34600   0.00575   0.00000   0.02494   0.02728  -1.31872
    Y5        2.23623   0.01625   0.00000   0.04331   0.05260   2.28882
    Z5        0.00040   0.00119   0.00000   0.00724   0.01191   0.01231
    X6       -2.74082   0.03767   0.00000   0.08892   0.09220  -2.64862
    Y6        0.06271  -0.03928   0.00000  -0.04262  -0.03386   0.02885
    Z6        0.01103  -0.00890   0.00000  -0.02407  -0.02179  -0.01076
    X7       -2.39199  -0.00625   0.00000  -0.00401   0.00098  -2.39101
    Y7       -3.96505  -0.01985   0.00000  -0.05954  -0.05069  -4.01574
    Z7       -0.01490  -0.00246   0.00000   0.01857   0.01420  -0.00070
    X8        2.59530  -0.01371   0.00000  -0.11658  -0.11156   2.48374
    Y8       -3.93069  -0.00802   0.00000  -0.05420  -0.04337  -3.97406
    Z8        0.05274   0.00238   0.00000   0.00016  -0.00854   0.04420
    X9        4.79990  -0.00680   0.00000  -0.06496  -0.06175   4.73815
    Y9        0.02547  -0.00035   0.00000  -0.01587  -0.00387   0.02159
    Z9       -0.12102   0.00589   0.00000   0.03548   0.03108  -0.08994
   X10        2.31274  -0.01132   0.00000  -0.00016   0.00146   2.31420
   Y10        4.12360  -0.02318   0.00000  -0.00952   0.00120   4.12481
   Z10        0.08868  -0.00752   0.00000  -0.02036  -0.01605   0.07263
   X11       -2.40888   0.00636   0.00000   0.03761   0.03925  -2.36963
   Y11        4.02347   0.00489   0.00000   0.05139   0.06013   4.08360
   Z11        0.09643  -0.00188   0.00000  -0.02552  -0.01705   0.07937
   X12       -4.80052  -0.00111   0.00000   0.06919   0.07240  -4.72812
   Y12        0.23435  -0.01245   0.00000  -0.14864  -0.14070   0.09365
   Z12       -0.04487   0.00175   0.00000  -0.00603  -0.00177  -0.04664
         Item               Value     Threshold  Converged?
 Maximum Force            0.049032     0.000450     NO 
 RMS     Force            0.018049     0.000300     NO 
 Maximum Displacement     0.140704     0.001800     NO 
 RMS     Displacement     0.049586     0.001200     NO 
 Predicted change in Energy=-1.222457D-02
 GradGradGradGradGradGradGradGradGradGradGradGradGradGradGradGradGradGrad

 Unable to Open any file for archive entry.
 1\1\GINC-BHC0189\Force\RAM1\ZDO\C6H6\BWEIGHT\21-Mar-2025\0\\# AM1/STO-
 5G SCF=XQC FORCE nosym guess=read\\MD Step 25\\0,1\C,-0.67862196,-1.20
 1456,-0.02905975\C,0.69634798,-1.20985629,0.04597524\C,1.4376291,0.018
 06168,0.02830419\C,0.69727241,1.16594938,-0.03524226\C,-0.71227396,1.1
 8335949,0.0002133\C,-1.45037881,0.03318466,0.00583914\H,-1.26578749,-2
 .0982118,-0.00788652\H,1.37337411,-2.08003148,0.02790751\H,2.53999723,
 0.01347697,-0.06404118\H,1.22385093,2.18211659,0.04692973\H,-1.2747263
 1,2.12913077,0.05102684\H,-2.54032821,0.12401347,-0.02374447\\Version=
 ES64L-G16RevC.01\HF=0.050189\RMSD=5.067e-09\RMSF=1.805e-02\Dipole=0.00
 9413,0.0266946,-0.0002571\PG=C01 [X(C6H6)]\\@
 The archive entry for this job was punched.


 ADVERTISING--  HE WHO HAS SOMETHING TO SELL AND GOES AND WHISPERS
                IN A WELL, IS NOT SO APT TO GET THE DOLLARS AS HE
                WHO CLIMBS A TREE AND HOLLERS.

                   -- FROM THE BACK OF A SUGAR PACKET
 Job cpu time:       0 days  0 hours  0 minutes  1.2 seconds.
 Elapsed time:       0 days  0 hours  0 minutes  0.9 seconds.
 File lengths (MBytes):  RWF=      6 Int=      0 D2E=      0 Chk=      2 Scr=      1
 Normal termination of Gaussian 16 at Fri Mar 21 15:03:36 2025.
