 Entering Gaussian System, Link 0=g16
 Initial command:
 /software/gaussian/g16-c01/avx2/g16/l1.exe "/local_scratch/28554348/Gau-2949.inp" -scrdir="/local_scratch/28554348/"
 Entering Link 1 = /software/gaussian/g16-c01/avx2/g16/l1.exe PID=      2967.
  
 Copyright (c) 1988-2019, Gaussian, Inc.  All Rights Reserved.
  
 This is part of the Gaussian(R) 16 program.  It is based on
 the Gaussian(R) 09 system (copyright 2009, Gaussian, Inc.),
 the Gaussian(R) 03 system (copyright 2003, Gaussian, Inc.),
 the Gaussian(R) 98 system (copyright 1998, Gaussian, Inc.),
 the Gaussian(R) 94 system (copyright 1995, Gaussian, Inc.),
 the Gaussian 92(TM) system (copyright 1992, Gaussian, Inc.),
 the Gaussian 90(TM) system (copyright 1990, Gaussian, Inc.),
 the Gaussian 88(TM) system (copyright 1988, Gaussian, Inc.),
 the Gaussian 86(TM) system (copyright 1986, Carnegie Mellon
 University), and the Gaussian 82(TM) system (copyright 1983,
 Carnegie Mellon University). Gaussian is a federally registered
 trademark of Gaussian, Inc.
  
 This software contains proprietary and confidential information,
 including trade secrets, belonging to Gaussian, Inc.
  
 This software is provided under written license and may be
 used, copied, transmitted, or stored only in accord with that
 written license.
  
 The following legend is applicable only to US Government
 contracts under FAR:
  
                    RESTRICTED RIGHTS LEGEND
  
 Use, reproduction and disclosure by the US Government is
 subject to restrictions as set forth in subparagraphs (a)
 and (c) of the Commercial Computer Software - Restricted
 Rights clause in FAR 52.227-19.
  
 Gaussian, Inc.
 340 Quinnipiac St., Bldg. 40, Wallingford CT 06492
  
  
 ---------------------------------------------------------------
 Warning -- This program may not be used in any manner that
 competes with the business of Gaussian, Inc. or will provide
 assistance to any competitor of Gaussian, Inc.  The licensee
 of this program is prohibited from giving any competitor of
 Gaussian, Inc. access to this program.  By using this program,
 the user acknowledges that Gaussian, Inc. is engaged in the
 business of creating and licensing software in the field of
 computational chemistry and represents and warrants to the
 licensee that it is not a competitor of Gaussian, Inc. and that
 it will not use this program in any manner prohibited above.
 ---------------------------------------------------------------
  

 Cite this work as:
 Gaussian 16, Revision C.01,
 M. J. Frisch, G. W. Trucks, H. B. Schlegel, G. E. Scuseria, 
 M. A. Robb, J. R. Cheeseman, G. Scalmani, V. Barone, 
 G. A. Petersson, H. Nakatsuji, X. Li, M. Caricato, A. V. Marenich, 
 J. Bloino, B. G. Janesko, R. Gomperts, B. Mennucci, H. P. Hratchian, 
 J. V. Ortiz, A. F. Izmaylov, J. L. Sonnenberg, D. Williams-Young, 
 F. Ding, F. Lipparini, F. Egidi, J. Goings, B. Peng, A. Petrone, 
 T. Henderson, D. Ranasinghe, V. G. Zakrzewski, J. Gao, N. Rega, 
 G. Zheng, W. Liang, M. Hada, M. Ehara, K. Toyota, R. Fukuda, 
 J. Hasegawa, M. Ishida, T. Nakajima, Y. Honda, O. Kitao, H. Nakai, 
 T. Vreven, K. Throssell, J. A. Montgomery, Jr., J. E. Peralta, 
 F. Ogliaro, M. J. Bearpark, J. J. Heyd, E. N. Brothers, K. N. Kudin, 
 V. N. Staroverov, T. A. Keith, R. Kobayashi, J. Normand, 
 K. Raghavachari, A. P. Rendell, J. C. Burant, S. S. Iyengar, 
 J. Tomasi, M. Cossi, J. M. Millam, M. Klene, C. Adamo, R. Cammi, 
 J. W. Ochterski, R. L. Martin, K. Morokuma, O. Farkas, 
 J. B. Foresman, and D. J. Fox, Gaussian, Inc., Wallingford CT, 2019.
 
 ******************************************
 Gaussian 16:  ES64L-G16RevC.01  3-Jul-2019
                21-Mar-2025 
 ******************************************
 %oldchk=../GS_OLD/geometry.chk
 %chk=geometry.chk
 %nprocshared=1
 Will use up to    1 processors via shared memory.
 %mem=2GB
 Copying data from "../GS_OLD/geometry.chk" to current chk file "geometry.chk"
 IOpt=  2 FromEx=T IUOpen= 4 IOptOp= 5 NList=   0 IFRang= 0 IUIn= 4 IUOut= 2.
 -------------------------------------------
 # AM1/STO-5G SCF=XQC FORCE nosym guess=read
 -------------------------------------------
 1/10=7,30=1,38=1/1,3;
 2/12=2,15=1,17=6,18=5,40=1/2;
 3/5=2,6=5,25=1,41=700000,71=1,116=-2/1,2,3;
 4/5=1,35=1/1;
 5/5=2,8=3,13=1,35=1,38=6/2,8;
 6/7=2,8=2,9=2,10=2,28=1/1;
 7/29=1,30=1/1,2,3,16;
 1/10=7,30=1/3;
 99//99;
 ----------
 MD Step 16
 ----------
 Symbolic Z-matrix:
 Charge =  0 Multiplicity = 1
 C                    -0.69745  -1.22844   0.05383 
 C                     0.65563  -1.18931   0.00436 
 C                     1.39408   0.00247  -0.0371 
 C                     0.73558   1.23519   0.05463 
 C                    -0.69514   1.20739  -0.02712 
 C                    -1.37454   0.00776  -0.05554 
 H                    -1.09712  -2.24754   0.05936 
 H                     1.17767  -2.19171  -0.06452 
 H                     2.47346  -0.21411  -0.02231 
 H                     1.24259   2.22208   0.10367 
 H                    -1.37314   2.08911   0.06686 
 H                    -2.48153  -0.06358   0.01871 
 

 GradGradGradGradGradGradGradGradGradGradGradGradGradGradGradGradGradGrad
 Berny optimization.
 Initialization pass.
 Trust Radius=3.00D-01 FncErr=1.00D-07 GrdErr=1.00D-07 EigMax=2.50D+02 EigMin=1.00D-04
 Number of steps in this run=      2 maximum allowed number of steps=      2.
 GradGradGradGradGradGradGradGradGradGradGradGradGradGradGradGradGradGrad

                          Input orientation:                          
 ---------------------------------------------------------------------
 Center     Atomic      Atomic             Coordinates (Angstroms)
 Number     Number       Type             X           Y           Z
 ---------------------------------------------------------------------
      1          6           0       -0.697449   -1.228444    0.053826
      2          6           0        0.655628   -1.189309    0.004359
      3          6           0        1.394077    0.002471   -0.037097
      4          6           0        0.735583    1.235187    0.054632
      5          6           0       -0.695144    1.207391   -0.027123
      6          6           0       -1.374538    0.007762   -0.055541
      7          1           0       -1.097123   -2.247540    0.059358
      8          1           0        1.177667   -2.191711   -0.064518
      9          1           0        2.473464   -0.214115   -0.022309
     10          1           0        1.242586    2.222077    0.103670
     11          1           0       -1.373140    2.089111    0.066860
     12          1           0       -2.481535   -0.063582    0.018709
 ---------------------------------------------------------------------
                    Distance matrix (angstroms):
                    1          2          3          4          5
     1  C    0.000000
     2  C    1.354546   0.000000
     3  C    2.428560   1.402628   0.000000
     4  C    2.850099   2.426335   1.400577   0.000000
     5  C    2.437181   2.751317   2.411800   1.433331   0.000000
     6  C    1.413724   2.357571   2.768682   2.443629   1.378947
     7  H    1.094681   2.048173   3.358264   3.935508   3.479312
     8  H    2.111385   1.132289   2.204999   3.457349   3.881071
     9  H    3.330067   2.063066   1.101001   2.264205   3.472863
    10  H    3.958828   3.462937   2.229218   1.110589   2.191231
    11  H    3.385691   3.855884   3.467329   2.275094   1.116218
    12  H    2.130986   3.333055   3.876577   3.469573   2.192866
                    6          7          8          9         10
     6  C    0.000000
     7  H    2.275202   0.000000
     8  H    3.369200   2.278845   0.000000
     9  H    3.854537   4.109815   2.364689   0.000000
    10  H    3.431891   5.045163   4.417468   2.732391   0.000000
    11  H    2.084946   4.345433   4.984909   4.484324   2.619362
    12  H    1.111775   2.586101   4.233865   4.957454   4.370415
                   11         12
    11  H    0.000000
    12  H    2.421765   0.000000
 Symmetry turned off by external request.
 Stoichiometry    C6H6
 Framework group  C1[X(C6H6)]
 Deg. of freedom    30
 Full point group                 C1      NOp   1
 Rotational constants (GHZ):           5.7768032           5.5664563           2.8397882
 Standard basis: VSTO-5G (5D, 7F)
    30 basis functions,   180 primitive gaussians,    30 cartesian basis functions
    15 alpha electrons       15 beta electrons
       nuclear repulsion energy       119.4717808314 Hartrees.
 Integral buffers will be    131072 words long.
 Regular integral format.
 Two-electron integral symmetry is turned off.
 Do NDO integrals.
 One-electron integrals computed using PRISM.
 NBasis=    30 RedAO= F EigKep=  0.00D+00  NBF=    30
 NBsUse=    30 1.00D-04 EigRej=  0.00D+00 NBFU=    30
 Initial guess from the checkpoint file:  "geometry.chk"
 B after Tr=    -0.000781    0.000128   -0.000156
         Rot=    1.000000    0.000146    0.000050    0.000063 Ang=   0.02 deg.
 Keep J ints in memory in canonical form, NReq=861816.
 Overlap will be assumed to be unity.
 Requested convergence on RMS density matrix=1.00D-08 within  32 cycles.
 Requested convergence on MAX density matrix=1.00D-06.
 Requested convergence on             energy=1.00D-06.
 No special actions if energy rises.
 SCF Done:  E(RAM1) =  0.533570874504E-01 A.U. after   12 cycles
            NFock= 11  Conv=0.56D-08     -V/T= 1.0011
 QCSCF skips out because SCF is already converged.

 **********************************************************************

            Population analysis using the SCF Density.

 **********************************************************************

 Alpha  occ. eigenvalues --   -1.43649  -1.15433  -1.14583  -0.85507  -0.83341
 Alpha  occ. eigenvalues --   -0.65351  -0.58855  -0.56435  -0.52080  -0.51520
 Alpha  occ. eigenvalues --   -0.48939  -0.43757  -0.42985  -0.35555  -0.35244
 Alpha virt. eigenvalues --    0.01849   0.02218   0.10850   0.14244   0.14306
 Alpha virt. eigenvalues --    0.14741   0.15089   0.16531   0.17150   0.18486
 Alpha virt. eigenvalues --    0.18962   0.20153   0.20825   0.21382   0.22465
          Condensed to atoms (all electrons):
               1          2          3          4          5          6
     1  C    4.135699   0.000000   0.000000   0.000000   0.000000   0.000000
     2  C    0.000000   4.153231   0.000000   0.000000   0.000000   0.000000
     3  C    0.000000   0.000000   4.127831   0.000000   0.000000   0.000000
     4  C    0.000000   0.000000   0.000000   4.109499   0.000000   0.000000
     5  C    0.000000   0.000000   0.000000   0.000000   4.133778   0.000000
     6  C    0.000000   0.000000   0.000000   0.000000   0.000000   4.130260
     7  H    0.000000   0.000000   0.000000   0.000000   0.000000   0.000000
     8  H    0.000000   0.000000   0.000000   0.000000   0.000000   0.000000
     9  H    0.000000   0.000000   0.000000   0.000000   0.000000   0.000000
    10  H    0.000000   0.000000   0.000000   0.000000   0.000000   0.000000
    11  H    0.000000   0.000000   0.000000   0.000000   0.000000   0.000000
    12  H    0.000000   0.000000   0.000000   0.000000   0.000000   0.000000
               7          8          9         10         11         12
     1  C    0.000000   0.000000   0.000000   0.000000   0.000000   0.000000
     2  C    0.000000   0.000000   0.000000   0.000000   0.000000   0.000000
     3  C    0.000000   0.000000   0.000000   0.000000   0.000000   0.000000
     4  C    0.000000   0.000000   0.000000   0.000000   0.000000   0.000000
     5  C    0.000000   0.000000   0.000000   0.000000   0.000000   0.000000
     6  C    0.000000   0.000000   0.000000   0.000000   0.000000   0.000000
     7  H    0.864327   0.000000   0.000000   0.000000   0.000000   0.000000
     8  H    0.000000   0.877780   0.000000   0.000000   0.000000   0.000000
     9  H    0.000000   0.000000   0.867108   0.000000   0.000000   0.000000
    10  H    0.000000   0.000000   0.000000   0.860616   0.000000   0.000000
    11  H    0.000000   0.000000   0.000000   0.000000   0.866526   0.000000
    12  H    0.000000   0.000000   0.000000   0.000000   0.000000   0.873344
 Mulliken charges:
               1
     1  C   -0.135699
     2  C   -0.153231
     3  C   -0.127831
     4  C   -0.109499
     5  C   -0.133778
     6  C   -0.130260
     7  H    0.135673
     8  H    0.122220
     9  H    0.132892
    10  H    0.139384
    11  H    0.133474
    12  H    0.126656
 Sum of Mulliken charges =   0.00000
 Mulliken charges with hydrogens summed into heavy atoms:
               1
     1  C   -0.000026
     2  C   -0.031011
     3  C    0.005060
     4  C    0.029884
     5  C   -0.000304
     6  C   -0.003604
 Charge=              0.0000 electrons
 Dipole moment (field-independent basis, Debye):
    X=              0.0026    Y=             -0.0561    Z=              0.1258  Tot=              0.1377
 N-N= 1.194717808314D+02 E-N=-1.703471402404D+02  KE=-4.782503132111D+01
 Calling FoFJK, ICntrl=      2127 FMM=F ISym2X=0 I1Cent= 0 IOpClX= 0 NMat=1 NMatS=1 NMatT=0.
 -------------------------------------------------------------------
 Center     Atomic                   Forces (Hartrees/Bohr)
 Number     Number              X              Y              Z
 -------------------------------------------------------------------
      1        6          -0.020736214    0.015511061   -0.015492399
      2        6           0.045773290   -0.021807025   -0.008015531
      3        6          -0.004838281    0.003996959    0.014578950
      4        6          -0.021948056   -0.009777817   -0.016214480
      5        6           0.013434650    0.006166459    0.012927749
      6        6          -0.016967293   -0.030790284    0.019219152
      7        1          -0.019246299    0.003851867    0.002752811
      8        1          -0.000839211    0.018038236    0.004157043
      9        1           0.003019531    0.018309614   -0.002290591
     10        1          -0.001052616   -0.011831910    0.000299920
     11        1           0.017832193    0.000710121   -0.005447774
     12        1           0.005568306    0.007622719   -0.006474852
 -------------------------------------------------------------------
 Cartesian Forces:  Max     0.045773290 RMS     0.015215945

 GradGradGradGradGradGradGradGradGradGradGradGradGradGradGradGradGradGrad
 Berny optimization.
 Search for a local minimum.
 Step number   1 out of a maximum of    2
 All quantities printed in internal units (Hartrees-Bohrs-Radians)
 Second derivative matrix not updated -- first step.
 ITU=  0
     Eigenvalues ---    0.01404   0.01658   0.03210   0.04107   0.06413
     Eigenvalues ---    0.06549   0.06619   0.06742   0.07074   0.09218
     Eigenvalues ---    0.09603   0.10879   0.11570   0.15662   0.17740
     Eigenvalues ---    0.27167   0.28834   0.29859   0.38413   0.41283
     Eigenvalues ---    0.43809   0.61306   0.66881   0.94438   1.03514
     Eigenvalues ---    1.15832   1.20362   1.45336   1.55693   1.60950
 Quadratic step=6.757D-01 exceeds max=3.000D-01 adjusted using Lamda=-7.993D-02.
 Angle between NR and scaled steps=  20.28 degrees.
 Angle between quadratic step and forces=  45.95 degrees.
 Linear search not attempted -- first point.
 B after Tr=    -0.001682   -0.009432    0.002779
         Rot=    0.999999   -0.000874   -0.000745   -0.000555 Ang=  -0.15 deg.
 Variable       Old X    -DE/DX   Delta X   Delta X   Delta X     New X
                                 (Linear)    (Quad)   (Total)
    X1       -1.31799  -0.02074   0.00000  -0.01134  -0.01037  -1.32836
    Y1       -2.32142   0.01551   0.00000   0.00202  -0.00897  -2.33040
    Z1        0.10172  -0.01549   0.00000  -0.04954  -0.04884   0.05288
    X2        1.23896   0.04577   0.00000   0.05335   0.05417   1.29313
    Y2       -2.24747  -0.02181   0.00000  -0.02651  -0.03449  -2.28195
    Z2        0.00824  -0.00802   0.00000  -0.01937  -0.02249  -0.01425
    X3        2.63442  -0.00484   0.00000   0.00341   0.00167   2.63609
    Y3        0.00467   0.00400   0.00000   0.00419  -0.00225   0.00242
    Z3       -0.07010   0.01458   0.00000   0.03847   0.03734  -0.03276
    X4        1.39005  -0.02195   0.00000  -0.04079  -0.04492   1.34513
    Y4        2.33417  -0.00978   0.00000  -0.04281  -0.05085   2.28331
    Z4        0.10324  -0.01621   0.00000  -0.04132  -0.03654   0.06670
    X5       -1.31363   0.01343   0.00000   0.00495   0.00076  -1.31288
    Y5        2.28164   0.00617   0.00000  -0.02498  -0.03585   2.24579
    Z5       -0.05125   0.01293   0.00000   0.04170   0.05037  -0.00088
    X6       -2.59750  -0.01697   0.00000  -0.02873  -0.03045  -2.62796
    Y6        0.01467  -0.03079   0.00000  -0.02562  -0.03789  -0.02322
    Z6       -0.10496   0.01922   0.00000   0.06246   0.06913  -0.03583
    X7       -2.07326  -0.01925   0.00000  -0.12859  -0.12546  -2.19872
    Y7       -4.24723   0.00385   0.00000   0.04120   0.02916  -4.21808
    Z7        0.11217   0.00275   0.00000  -0.01094  -0.01224   0.09993
    X8        2.22547  -0.00084   0.00000   0.06341   0.06612   2.29159
    Y8       -4.14173   0.01804   0.00000   0.03753   0.03083  -4.11091
    Z8       -0.12192   0.00416   0.00000   0.02334   0.01554  -0.10638
    X9        4.67417   0.00302   0.00000   0.02974   0.02829   4.70246
    Y9       -0.40462   0.01831   0.00000   0.14439   0.14023  -0.26439
    Z9       -0.04216  -0.00229   0.00000   0.01251   0.00784  -0.03432
   X10        2.34815  -0.00105   0.00000  -0.01999  -0.02601   2.32214
   Y10        4.19912  -0.01183   0.00000  -0.07009  -0.07723   4.12189
   Z10        0.19591   0.00030   0.00000  -0.03347  -0.02693   0.16897
   X11       -2.59486   0.01783   0.00000   0.10891   0.10296  -2.49190
   Y11        3.94785   0.00071   0.00000   0.03487   0.02251   3.97036
   Z11        0.12635  -0.00545   0.00000  -0.03517  -0.02172   0.10462
   X12       -4.68942   0.00557   0.00000  -0.01519  -0.01675  -4.70617
   Y12       -0.12015   0.00762   0.00000   0.03949   0.02481  -0.09534
   Z12        0.03535  -0.00647   0.00000  -0.02109  -0.01145   0.02390
         Item               Value     Threshold  Converged?
 Maximum Force            0.045773     0.000450     NO 
 RMS     Force            0.015216     0.000300     NO 
 Maximum Displacement     0.140233     0.001800     NO 
 RMS     Displacement     0.049529     0.001200     NO 
 Predicted change in Energy=-1.313596D-02
 GradGradGradGradGradGradGradGradGradGradGradGradGradGradGradGradGradGrad

 Unable to Open any file for archive entry.
 1\1\GINC-BHC0165\Force\RAM1\ZDO\C6H6\BWEIGHT\21-Mar-2025\0\\# AM1/STO-
 5G SCF=XQC FORCE nosym guess=read\\MD Step 16\\0,1\C,-0.6974491,-1.228
 44423,0.05382589\C,0.65562775,-1.1893087,0.00435929\C,1.39407737,0.002
 4714,-0.03709715\C,0.73558325,1.2351873,0.05463163\C,-0.69514437,1.207
 39099,-0.0271226\C,-1.37453831,0.00776185,-0.05554067\H,-1.09712329,-2
 .24753962,0.05935844\H,1.17766691,-2.19171057,-0.06451755\H,2.47346358
 ,-0.21411464,-0.02230904\H,1.24258561,2.22207703,0.10367032\H,-1.37314
 036,2.0891114,0.06685999\H,-2.4815348,-0.06358161,0.018709\\Version=ES
 64L-G16RevC.01\HF=0.0533571\RMSD=5.583e-09\RMSF=1.522e-02\Dipole=0.001
 0082,-0.0220892,0.0494742\PG=C01 [X(C6H6)]\\@
 The archive entry for this job was punched.


 THOSE WHO ARE UNABLE TO LEARN FROM PAST MEETINGS
 ARE CONDEMNED TO REPEAT THEM.
 Job cpu time:       0 days  0 hours  0 minutes  1.2 seconds.
 Elapsed time:       0 days  0 hours  0 minutes  0.9 seconds.
 File lengths (MBytes):  RWF=      6 Int=      0 D2E=      0 Chk=      2 Scr=      1
 Normal termination of Gaussian 16 at Fri Mar 21 15:21:50 2025.
