 Entering Gaussian System, Link 0=g16
 Initial command:
 /software/gaussian/g16-c01/avx2/g16/l1.exe "/local_scratch/28554159/Gau-25869.inp" -scrdir="/local_scratch/28554159/"
 Entering Link 1 = /software/gaussian/g16-c01/avx2/g16/l1.exe PID=     25880.
  
 Copyright (c) 1988-2019, Gaussian, Inc.  All Rights Reserved.
  
 This is part of the Gaussian(R) 16 program.  It is based on
 the Gaussian(R) 09 system (copyright 2009, Gaussian, Inc.),
 the Gaussian(R) 03 system (copyright 2003, Gaussian, Inc.),
 the Gaussian(R) 98 system (copyright 1998, Gaussian, Inc.),
 the Gaussian(R) 94 system (copyright 1995, Gaussian, Inc.),
 the Gaussian 92(TM) system (copyright 1992, Gaussian, Inc.),
 the Gaussian 90(TM) system (copyright 1990, Gaussian, Inc.),
 the Gaussian 88(TM) system (copyright 1988, Gaussian, Inc.),
 the Gaussian 86(TM) system (copyright 1986, Carnegie Mellon
 University), and the Gaussian 82(TM) system (copyright 1983,
 Carnegie Mellon University). Gaussian is a federally registered
 trademark of Gaussian, Inc.
  
 This software contains proprietary and confidential information,
 including trade secrets, belonging to Gaussian, Inc.
  
 This software is provided under written license and may be
 used, copied, transmitted, or stored only in accord with that
 written license.
  
 The following legend is applicable only to US Government
 contracts under FAR:
  
                    RESTRICTED RIGHTS LEGEND
  
 Use, reproduction and disclosure by the US Government is
 subject to restrictions as set forth in subparagraphs (a)
 and (c) of the Commercial Computer Software - Restricted
 Rights clause in FAR 52.227-19.
  
 Gaussian, Inc.
 340 Quinnipiac St., Bldg. 40, Wallingford CT 06492
  
  
 ---------------------------------------------------------------
 Warning -- This program may not be used in any manner that
 competes with the business of Gaussian, Inc. or will provide
 assistance to any competitor of Gaussian, Inc.  The licensee
 of this program is prohibited from giving any competitor of
 Gaussian, Inc. access to this program.  By using this program,
 the user acknowledges that Gaussian, Inc. is engaged in the
 business of creating and licensing software in the field of
 computational chemistry and represents and warrants to the
 licensee that it is not a competitor of Gaussian, Inc. and that
 it will not use this program in any manner prohibited above.
 ---------------------------------------------------------------
  

 Cite this work as:
 Gaussian 16, Revision C.01,
 M. J. Frisch, G. W. Trucks, H. B. Schlegel, G. E. Scuseria, 
 M. A. Robb, J. R. Cheeseman, G. Scalmani, V. Barone, 
 G. A. Petersson, H. Nakatsuji, X. Li, M. Caricato, A. V. Marenich, 
 J. Bloino, B. G. Janesko, R. Gomperts, B. Mennucci, H. P. Hratchian, 
 J. V. Ortiz, A. F. Izmaylov, J. L. Sonnenberg, D. Williams-Young, 
 F. Ding, F. Lipparini, F. Egidi, J. Goings, B. Peng, A. Petrone, 
 T. Henderson, D. Ranasinghe, V. G. Zakrzewski, J. Gao, N. Rega, 
 G. Zheng, W. Liang, M. Hada, M. Ehara, K. Toyota, R. Fukuda, 
 J. Hasegawa, M. Ishida, T. Nakajima, Y. Honda, O. Kitao, H. Nakai, 
 T. Vreven, K. Throssell, J. A. Montgomery, Jr., J. E. Peralta, 
 F. Ogliaro, M. J. Bearpark, J. J. Heyd, E. N. Brothers, K. N. Kudin, 
 V. N. Staroverov, T. A. Keith, R. Kobayashi, J. Normand, 
 K. Raghavachari, A. P. Rendell, J. C. Burant, S. S. Iyengar, 
 J. Tomasi, M. Cossi, J. M. Millam, M. Klene, C. Adamo, R. Cammi, 
 J. W. Ochterski, R. L. Martin, K. Morokuma, O. Farkas, 
 J. B. Foresman, and D. J. Fox, Gaussian, Inc., Wallingford CT, 2019.
 
 ******************************************
 Gaussian 16:  ES64L-G16RevC.01  3-Jul-2019
                21-Mar-2025 
 ******************************************
 %oldchk=../TD_OLD_S1/geometry.chk
 %chk=geometry.chk
 %nprocshared=1
 Will use up to    1 processors via shared memory.
 %mem=2GB
 Copying data from "../TD_OLD_S1/geometry.chk" to current chk file "geometry.chk"
 IOpt=  2 FromEx=T IUOpen= 4 IOptOp= 5 NList=   0 IFRang= 0 IUIn= 4 IUOut= 2.
 ----------------------------------------------------------------------
 # AM1/STO-5G SCF=XQC TD=(read,singlets,nstates=5,root=1) nosym IOp(9/4
 0=3) guess=read
 ----------------------------------------------------------------------
 1/38=1,172=1/1;
 2/12=2,15=1,17=6,18=5,40=1/2;
 3/5=2,6=5,25=1,41=700000,116=-2/1,2,3,8;
 4/5=1,35=1/1;
 5/5=2,8=3,13=1,35=1,38=6/2,8;
 8/6=1,10=90,107=1,108=5/1;
 9/8=1,40=3,41=5,42=1,48=1,49=13,70=2/14;
 6/7=2,8=2,9=2,10=2/1;
 99/5=1,9=1/99;
 ----------
 MD Step 24
 ----------
 Symbolic Z-matrix:
 Charge =  0 Multiplicity = 1
 C                    -0.68226  -1.20463  -0.03354 
 C                     0.69346  -1.20741   0.0505 
 C                     1.43644   0.02487   0.02518 
 C                     0.70277   1.16597  -0.03865 
 C                    -0.71067   1.1769    0.00006 
 C                    -1.45306   0.03606   0.00479 
 H                    -1.263    -2.12022  -0.00897 
 H                     1.38454  -2.07963   0.03291 
 H                     2.52356   0.01867  -0.03482 
 H                     1.25381   2.1746    0.05418 
 H                    -1.26369   2.15715   0.07291 
 H                    -2.53968   0.08996   0.00568 
 
                          Input orientation:                          
 ---------------------------------------------------------------------
 Center     Atomic      Atomic             Coordinates (Angstroms)
 Number     Number       Type             X           Y           Z
 ---------------------------------------------------------------------
      1          6           0       -0.682259   -1.204634   -0.033539
      2          6           0        0.693462   -1.207410    0.050497
      3          6           0        1.436441    0.024871    0.025179
      4          6           0        0.702775    1.165968   -0.038647
      5          6           0       -0.710671    1.176898    0.000056
      6          6           0       -1.453059    0.036064    0.004789
      7          1           0       -1.263002   -2.120216   -0.008971
      8          1           0        1.384539   -2.079634    0.032911
      9          1           0        2.523564    0.018674   -0.034824
     10          1           0        1.253809    2.174603    0.054179
     11          1           0       -1.263692    2.157151    0.072908
     12          1           0       -2.539684    0.089959    0.005678
 ---------------------------------------------------------------------
                    Distance matrix (angstroms):
                    1          2          3          4          5
     1  C    0.000000
     2  C    1.378287   0.000000
     3  C    2.450310   1.439158   0.000000
     4  C    2.745560   2.375070   1.358103   0.000000
     5  C    2.381939   2.767501   2.436778   1.414018   0.000000
     6  C    1.461141   2.481102   2.889594   2.434377   1.361127
     7  H    1.084508   2.159746   3.448124   3.829383   3.343070
     8  H    2.245372   1.112956   2.105158   3.317206   3.872465
     9  H    3.431295   2.204504   1.088796   2.152109   3.435546
    10  H    3.895548   3.428121   2.157671   1.153082   2.203979
    11  H    3.413355   3.892457   3.440874   2.204967   1.127845
    12  H    2.264407   3.484022   3.976706   3.416622   2.127619
                    6          7          8          9         10
     6  C    0.000000
     7  H    2.164684   0.000000
     8  H    3.539623   2.648184   0.000000
     9  H    3.976859   4.348978   2.388485   0.000000
    10  H    3.450062   4.978333   4.256297   2.503643   0.000000
    11  H    2.130613   4.278151   4.996506   4.350633   2.517632
    12  H    1.087961   2.552451   4.484128   5.063912   4.328820
                   11         12
    11  H    0.000000
    12  H    2.430218   0.000000
 Symmetry turned off by external request.
 Stoichiometry    C6H6
 Framework group  C1[X(C6H6)]
 Deg. of freedom    30
 Full point group                 C1      NOp   1
 Rotational constants (GHZ):           5.8657328           5.4163846           2.8183182
 Standard basis: VSTO-5G (5D, 7F)
    30 basis functions,   180 primitive gaussians,    30 cartesian basis functions
    15 alpha electrons       15 beta electrons
       nuclear repulsion energy       119.2751747932 Hartrees.
 Integral buffers will be    131072 words long.
 Regular integral format.
 Two-electron integral symmetry is turned off.
 Do NDO integrals.
 One-electron integrals computed using PRISM.
 NBasis=    30 RedAO= F EigKep=  0.00D+00  NBF=    30
 NBsUse=    30 1.00D-04 EigRej=  0.00D+00 NBFU=    30
 Initial guess from the checkpoint file:  "geometry.chk"
 B after Tr=    -0.000618    0.001300   -0.001964
         Rot=    1.000000    0.000211    0.000040    0.000030 Ang=   0.02 deg.
 Keep J ints in memory in canonical form, NReq=861816.
 Overlap will be assumed to be unity.
 Requested convergence on RMS density matrix=1.00D-08 within  32 cycles.
 Requested convergence on MAX density matrix=1.00D-06.
 Requested convergence on             energy=1.00D-06.
 No special actions if energy rises.
 SCF Done:  E(RAM1) =  0.508229089877E-01 A.U. after   12 cycles
            NFock= 11  Conv=0.65D-08     -V/T= 1.0011
 QCSCF skips out because SCF is already converged.
 Range of M.O.s used for correlation:     1    30
 NBasis=    30 NAE=    15 NBE=    15 NFC=     0 NFV=     0
 NROrb=     30 NOA=    15 NOB=    15 NVA=    15 NVB=    15
 Keep J ints in memory in canonical form, NReq=862156.
 Generating guess from checkpoint file densities.
 Convergence on wavefunction:    0.001000000000000
 Iteration     1 Dimension    10 NMult     0 NNew     10
 CISAX will form    10 AO SS matrices at one time.
 Iteration     2 Dimension    20 NMult    10 NNew     10
 Iteration     3 Dimension    30 NMult    20 NNew     10
 Iteration     4 Dimension    38 NMult    30 NNew      8
 Iteration     5 Dimension    44 NMult    38 NNew      6
 Iteration     6 Dimension    48 NMult    44 NNew      4
 Iteration     7 Dimension    52 NMult    48 NNew      4
 Iteration     8 Dimension    56 NMult    52 NNew      4
 Iteration     9 Dimension    58 NMult    56 NNew      2
 Iteration    10 Dimension    60 NMult    58 NNew      2
 Convergence on energies, max DE= 8.36D-06.
 ***********************************************************************
 Excited states from <AA,BB:AA,BB> singles matrix:
 ***********************************************************************
 
 Ground to excited state transition densities written to RWF  633
 Ground to excited state transition electric dipole moments (Au):
       state          X           Y           Z        Dip. S.      Osc.
         1        -0.0184      0.0664      0.0000      0.0047      0.0005
         2        -0.0709      0.0549      0.0235      0.0086      0.0009
         3         0.0232     -1.5609      0.0560      2.4400      0.3241
         4        -1.6143     -0.0643     -0.0556      2.6133      0.3508
         5        -0.3408      0.1113      0.0123      0.1287      0.0180
 Ground to excited state transition velocity dipole moments (Au):
       state          X           Y           Z        Dip. S.      Osc.
         1         0.0034     -0.0113     -0.0001      0.0001      0.0006
         2         0.0192     -0.0137     -0.0114      0.0007      0.0030
         3        -0.0084      0.4860      0.0220      0.2368      0.7922
         4         0.5155      0.0165      0.0021      0.2660      0.8807
         5         0.1150     -0.0354      0.0325      0.0155      0.0495
 Ground to excited state transition magnetic dipole moments (Au):
       state          X           Y           Z
         1        -0.0067     -0.0237     -0.0063
         2         0.0857     -0.0414     -0.4201
         3        -0.0156      0.0195     -0.0155
         4        -0.0077      0.0148     -0.0220
         5        -0.0113      0.0332     -0.0406
 Ground to excited state transition velocity quadrupole moments (Au):
       state          XX          YY          ZZ          XY          XZ          YZ
         1         0.0021     -0.0008      0.0007     -0.0013      0.0146     -0.0049
         2        -0.0224      0.0132     -0.0003      0.0508      0.0253      0.0550
         3        -0.0554      0.0013     -0.0033     -0.0070     -0.0436     -0.0165
         4        -0.0214      0.0061      0.0024     -0.1304      0.0133     -0.0598
         5        -0.0425      0.0224     -0.0157     -0.0319      0.0481     -0.0199
 <0|del|b> * <b|rxdel|0> + <0|del|b> * <b|delr+rdel|0>
 Rotatory Strengths (R) in cgs (10**-40 erg-esu-cm/Gauss)
       state          XX          YY          ZZ    R(velocity)    E-M Angle
         1         1.0640     -0.0946      0.2397      0.4030       34.91
         2        11.7241     18.4718      1.8643     10.6868       51.76
         3        53.5506      0.1443    -20.7791     10.9719       49.60
         4        -0.5166    -60.7772     47.9787     -4.4384      105.42
         5        -3.0829     -6.5328     -3.2125     -4.2761      124.62
 1/2[<0|r|b>*<b|rxdel|0> + (<0|rxdel|b>*<b|r|0>)*]
 Rotatory Strengths (R) in cgs (10**-40 erg-esu-cm/Gauss)
       state          XX          YY          ZZ     R(length)
         1        -0.0868      1.1147      0.0001      0.3426
         2         4.2945      1.6088      6.9672      4.2902
         3         0.2564     21.5390      0.6132      7.4695
         4        -8.8346      0.6742     -0.8648     -3.0084
         5        -2.7323     -2.6162      0.3524     -1.6654
  1/2[<0|del|b>*<b|r|0> + (<0|r|b>*<b|del|0>)*] (Au)
       state          X           Y           Z        Dip. S.   Osc.(frdel)
         1        -0.0001     -0.0008     -0.0000      0.0008      0.0005
         2        -0.0014     -0.0008     -0.0003      0.0024      0.0016
         3        -0.0002     -0.7586      0.0012      0.7576      0.5050
         4        -0.8321     -0.0011     -0.0001      0.8333      0.5555
         5        -0.0392     -0.0039      0.0004      0.0428      0.0285

 Excitation energies and oscillator strengths:
 
 Excited state symmetry could not be determined.
 Excited State   1:      Singlet-?Sym    3.9395 eV  314.72 nm  f=0.0005  <S**2>=0.000
       2 -> 21        -0.00115
       2 -> 23        -0.00315
       2 -> 25         0.00156
       3 -> 24        -0.00261
       3 -> 26         0.00201
       4 -> 17        -0.00116
       4 -> 27        -0.00242
       5 -> 28         0.00259
       7 -> 17        -0.00161
       7 -> 23         0.00128
       7 -> 29        -0.00233
       8 -> 18        -0.00129
       8 -> 22        -0.00108
       8 -> 24        -0.00123
       8 -> 26         0.00147
       9 -> 18        -0.00331
       9 -> 20        -0.00102
       9 -> 21        -0.00126
       9 -> 23        -0.00314
       9 -> 25         0.00302
      10 -> 18        -0.00147
      10 -> 21         0.00103
      10 -> 24        -0.00196
      10 -> 26         0.00167
      11 -> 16         0.00396
      11 -> 17        -0.00240
      11 -> 22        -0.00128
      11 -> 26        -0.00147
      11 -> 27        -0.00423
      11 -> 28        -0.00252
      12 -> 16        -0.00103
      12 -> 19        -0.00132
      12 -> 27         0.00222
      12 -> 28        -0.00104
      13 -> 18         0.00173
      13 -> 21         0.00148
      13 -> 22        -0.00125
      14 -> 16         0.39232
      14 -> 17         0.30387
      14 -> 18        -0.00631
      14 -> 20         0.00397
      14 -> 21         0.00271
      14 -> 22         0.00128
      14 -> 23        -0.00342
      14 -> 24         0.00117
      14 -> 25        -0.00198
      14 -> 27         0.00121
      14 -> 28         0.00269
      15 -> 16        -0.34414
      15 -> 17         0.37850
      15 -> 18        -0.00230
      15 -> 19         0.00136
      15 -> 20         0.00201
      15 -> 22        -0.00200
      15 -> 24         0.00119
      15 -> 26         0.00182
      15 -> 28        -0.00262
      15 -> 29         0.00262
      15 -> 30         0.00204
       2 <- 23        -0.00123
       4 <- 27        -0.00191
       5 <- 28         0.00195
       7 <- 29        -0.00168
      12 <- 16         0.00110
      12 <- 17        -0.00167
      13 <- 17        -0.00244
      14 <- 16         0.04804
      14 <- 17         0.04447
      14 <- 18        -0.00156
      14 <- 20         0.00103
      14 <- 23        -0.00176
      15 <- 16        -0.03728
      15 <- 17         0.05044
      15 <- 20         0.00121
 This state for optimization and/or second-order correction.
 Total Energy, E(TD-HF/TD-DFT) =  0.195597466819    
 Copying the excited state density for this state as the 1-particle RhoCI density.
 
 Excited state symmetry could not be determined.
 Excited State   2:      Singlet-?Sym    4.1912 eV  295.82 nm  f=0.0009  <S**2>=0.000
       1 -> 20        -0.00227
       1 -> 30        -0.00108
       2 -> 19        -0.00154
       2 -> 24         0.00284
       2 -> 26         0.00157
       2 -> 27         0.00105
       2 -> 28        -0.00112
       3 -> 16        -0.00113
       3 -> 17        -0.00114
       3 -> 19        -0.00117
       3 -> 23        -0.00313
       3 -> 25        -0.00198
       3 -> 27         0.00133
       4 -> 16         0.00113
       4 -> 18        -0.00222
       4 -> 23         0.00201
       4 -> 24         0.00102
       4 -> 25        -0.00204
       4 -> 26        -0.00135
       4 -> 28        -0.00433
       4 -> 29        -0.00122
       5 -> 17         0.00189
       5 -> 18         0.00140
       5 -> 19         0.00146
       5 -> 23         0.00130
       5 -> 24        -0.00312
       5 -> 25        -0.00125
       5 -> 26         0.00290
       5 -> 27        -0.00467
       5 -> 29        -0.00101
       6 -> 19         0.00151
       6 -> 20         0.00205
       6 -> 23         0.00105
       6 -> 28        -0.00104
       7 -> 16         0.00134
       7 -> 17         0.00196
       7 -> 22         0.00101
       7 -> 26        -0.00122
       8 -> 19         0.00240
       8 -> 20         0.00355
       8 -> 22        -0.00184
       8 -> 24        -0.00265
       8 -> 25        -0.00319
       8 -> 27        -0.00232
       8 -> 28        -0.00168
       8 -> 29         0.00252
       8 -> 30        -0.00262
       9 -> 18         0.00466
       9 -> 19        -0.00282
       9 -> 24         0.00478
       9 -> 25         0.00155
       9 -> 26         0.00483
       9 -> 27         0.00283
       9 -> 28        -0.00299
      10 -> 17        -0.00165
      10 -> 18        -0.01090
      10 -> 19        -0.00212
      10 -> 20        -0.00147
      10 -> 21        -0.00106
      10 -> 22         0.00128
      10 -> 23        -0.00387
      10 -> 25        -0.00503
      10 -> 27         0.00359
      10 -> 28         0.00308
      10 -> 29        -0.00159
      10 -> 30         0.00114
      11 -> 16        -0.00175
      11 -> 17        -0.00177
      11 -> 18        -0.11212
      11 -> 19        -0.00184
      11 -> 20         0.00404
      11 -> 21         0.00327
      11 -> 22        -0.00464
      11 -> 23        -0.00396
      11 -> 24        -0.00232
      11 -> 25         0.00189
      11 -> 27        -0.00177
      11 -> 28         0.00219
      12 -> 16        -0.00200
      12 -> 17        -0.00122
      12 -> 18         0.01663
      12 -> 19        -0.00264
      12 -> 20        -0.00219
      12 -> 21         0.00858
      12 -> 22        -0.00791
      12 -> 23        -0.00499
      12 -> 24         0.00208
      12 -> 25         0.00368
      12 -> 26        -0.00183
      12 -> 27         0.00340
      12 -> 28         0.00140
      13 -> 16        -0.00422
      13 -> 18         0.00561
      13 -> 19        -0.00682
      13 -> 20         0.00494
      13 -> 21         0.00210
      13 -> 23         0.00199
      13 -> 24        -0.00934
      13 -> 25         0.00111
      13 -> 26         0.00630
      13 -> 27        -0.00502
      13 -> 28         0.00247
      13 -> 30        -0.00106
      14 -> 16        -0.31098
      14 -> 17         0.35878
      14 -> 19         0.00108
      14 -> 20         0.00285
      14 -> 21        -0.00147
      14 -> 22        -0.00158
      14 -> 24         0.00438
      14 -> 25         0.00163
      14 -> 27         0.00196
      15 -> 16        -0.39471
      15 -> 17        -0.32503
      15 -> 18        -0.00313
      15 -> 20        -0.00469
      15 -> 21        -0.00245
      15 -> 22        -0.00322
      15 -> 23         0.00616
      15 -> 24        -0.00279
      15 -> 25         0.00162
       1 <- 19        -0.00173
       1 <- 20        -0.00472
       1 <- 21         0.00195
       1 <- 22         0.00171
       1 <- 30         0.00241
       2 <- 19        -0.00168
       2 <- 23         0.00124
       2 <- 24         0.00588
       2 <- 26        -0.00131
       2 <- 27        -0.00113
       3 <- 19        -0.00170
       3 <- 21        -0.00149
       3 <- 23        -0.00673
       3 <- 24         0.00107
       4 <- 28        -0.00523
       4 <- 29        -0.00141
       5 <- 19         0.00129
       5 <- 24        -0.00114
       5 <- 26         0.00143
       5 <- 27        -0.00554
       5 <- 29        -0.00140
       6 <- 20         0.00136
       6 <- 30        -0.00168
       7 <- 16         0.00111
       7 <- 17         0.00122
       8 <- 24        -0.00183
       8 <- 25        -0.00187
       8 <- 27        -0.00215
       8 <- 28        -0.00206
       8 <- 29         0.00450
       9 <- 19        -0.00159
       9 <- 24         0.00450
      10 <- 18         0.00188
      10 <- 19        -0.00128
      10 <- 20        -0.00118
      10 <- 21        -0.00124
      10 <- 23        -0.00482
      10 <- 29        -0.00145
      11 <- 17         0.00228
      11 <- 18         0.01411
      12 <- 18        -0.00175
      12 <- 21         0.00309
      12 <- 22        -0.00272
      12 <- 23        -0.00134
      12 <- 25         0.00137
      12 <- 27         0.00306
      12 <- 28         0.00278
      13 <- 19        -0.00178
      13 <- 20         0.00172
      13 <- 24        -0.00252
      13 <- 26         0.00188
      13 <- 27        -0.00434
      13 <- 28         0.00286
      14 <- 16        -0.01010
      14 <- 17         0.01270
      14 <- 18        -0.00134
      14 <- 20         0.00122
      15 <- 16        -0.00628
      15 <- 17        -0.00716
      15 <- 18         0.00208
      15 <- 20        -0.00116
      15 <- 23         0.00155
 
 Excited state symmetry could not be determined.
 Excited State   3:      Singlet-?Sym    5.4214 eV  228.70 nm  f=0.3241  <S**2>=0.000
       1 -> 27        -0.00183
       1 -> 28         0.00119
       2 -> 21         0.00188
       2 -> 23         0.00199
       2 -> 25        -0.00193
       2 -> 29         0.00157
       3 -> 16         0.00151
       3 -> 18        -0.00128
       3 -> 19         0.00153
       3 -> 20        -0.00376
       3 -> 21        -0.00369
       3 -> 22        -0.00471
       3 -> 23         0.00115
       3 -> 24        -0.00279
       3 -> 26         0.00319
       4 -> 17        -0.00385
       4 -> 19        -0.00332
       4 -> 20         0.00832
       4 -> 22        -0.00407
       4 -> 27        -0.00192
       4 -> 29         0.00141
       4 -> 30        -0.00346
       5 -> 17         0.00113
       5 -> 18        -0.00175
       5 -> 19        -0.00696
       5 -> 20        -0.00943
       5 -> 22         0.00889
       5 -> 24        -0.00103
       5 -> 25        -0.00132
       5 -> 27        -0.00104
       5 -> 29        -0.00304
       5 -> 30         0.00642
       6 -> 16         0.00286
       6 -> 17         0.00145
       6 -> 19        -0.01681
       6 -> 20         0.00399
       6 -> 21        -0.00195
       6 -> 23         0.00269
       6 -> 24        -0.00159
       6 -> 26        -0.00159
       6 -> 27         0.00473
       6 -> 28        -0.00257
       7 -> 16        -0.00153
       7 -> 17        -0.00371
       7 -> 18        -0.01444
       7 -> 19        -0.00523
       7 -> 20        -0.00230
       7 -> 21        -0.00994
       7 -> 22         0.00203
       7 -> 23        -0.02989
       7 -> 24        -0.00173
       7 -> 25         0.01177
       7 -> 27        -0.00103
       7 -> 28        -0.00127
       7 -> 30        -0.00203
       8 -> 16        -0.00129
       8 -> 17        -0.00766
       8 -> 18        -0.00512
       8 -> 19        -0.01518
       8 -> 20        -0.00306
       8 -> 21        -0.00881
       8 -> 22        -0.00619
       8 -> 24         0.02425
       8 -> 25        -0.00229
       8 -> 26        -0.02483
       8 -> 27        -0.00387
       8 -> 28         0.00159
       8 -> 29        -0.00216
       9 -> 17        -0.00718
       9 -> 18        -0.01096
       9 -> 19        -0.00160
       9 -> 20         0.00695
       9 -> 21         0.00366
       9 -> 22        -0.00810
       9 -> 23         0.00850
       9 -> 25        -0.02526
       9 -> 26        -0.00373
       9 -> 27        -0.00432
       9 -> 28        -0.00241
       9 -> 29         0.02079
       9 -> 30         0.00271
      10 -> 16         0.00757
      10 -> 17        -0.00400
      10 -> 18        -0.00985
      10 -> 19         0.01147
      10 -> 21         0.00225
      10 -> 22        -0.00256
      10 -> 23         0.00174
      10 -> 24        -0.01617
      10 -> 25         0.00444
      10 -> 26         0.03028
      10 -> 27         0.00677
      10 -> 28        -0.00517
      10 -> 29         0.00421
      11 -> 16         0.00647
      11 -> 17         0.00266
      11 -> 18        -0.00554
      11 -> 19         0.00157
      11 -> 20         0.00611
      11 -> 22        -0.00215
      11 -> 23         0.00458
      11 -> 24         0.00296
      11 -> 25        -0.00489
      11 -> 26        -0.00426
      11 -> 27        -0.00325
      11 -> 28         0.00346
      11 -> 30        -0.00196
      12 -> 16         0.03639
      12 -> 17         0.01390
      12 -> 18         0.00439
      12 -> 19         0.05048
      12 -> 20        -0.00924
      12 -> 21         0.00518
      12 -> 23        -0.00768
      12 -> 24        -0.00198
      12 -> 25        -0.00305
      12 -> 26         0.01747
      12 -> 27        -0.03233
      12 -> 28         0.01666
      12 -> 29        -0.00328
      12 -> 30        -0.00348
      13 -> 16         0.03478
      13 -> 17         0.09558
      13 -> 18        -0.00574
      13 -> 20        -0.02778
      13 -> 21        -0.02467
      13 -> 22         0.04439
      13 -> 23        -0.01005
      13 -> 24         0.00627
      13 -> 25         0.01144
      13 -> 26         0.00284
      13 -> 27         0.02392
      13 -> 28         0.04085
      13 -> 29         0.00692
      13 -> 30         0.03144
      14 -> 16        -0.26015
      14 -> 17         0.44225
      14 -> 18         0.00282
      14 -> 19         0.00574
      14 -> 20        -0.00676
      14 -> 22         0.00679
      14 -> 23        -0.01114
      14 -> 24        -0.00346
      14 -> 25         0.00733
      14 -> 26         0.00576
      14 -> 30         0.00504
      15 -> 16         0.38748
      15 -> 17         0.26721
      15 -> 18         0.00839
      15 -> 19         0.01037
      15 -> 20         0.00409
      15 -> 21        -0.00254
      15 -> 22         0.00325
      15 -> 23         0.00444
      15 -> 24        -0.00316
      15 -> 25        -0.00165
      15 -> 26         0.00552
      15 -> 27         0.00173
      15 -> 28         0.00872
      15 -> 30        -0.00216
       1 <- 19         0.00136
       1 <- 27        -0.00307
       1 <- 28         0.00199
       2 <- 21         0.00190
       2 <- 23         0.00429
       2 <- 25        -0.00294
       2 <- 29         0.00244
       2 <- 30         0.00106
       3 <- 19         0.00171
       3 <- 20        -0.00202
       3 <- 21        -0.00154
       3 <- 22        -0.00226
       3 <- 23         0.00106
       3 <- 24        -0.00407
       3 <- 26         0.00334
       4 <- 19        -0.00162
       4 <- 20         0.00532
       4 <- 22        -0.00246
       4 <- 30        -0.00229
       5 <- 19        -0.00400
       5 <- 20        -0.00635
       5 <- 22         0.00528
       5 <- 28         0.00111
       5 <- 30         0.00415
       6 <- 19        -0.00666
       6 <- 20         0.00206
       6 <- 23         0.00110
       6 <- 24        -0.00102
       6 <- 27         0.00102
       7 <- 19        -0.00188
       7 <- 21        -0.00376
       7 <- 23        -0.01219
       7 <- 25         0.00432
       8 <- 17        -0.00105
       8 <- 19        -0.00565
       8 <- 20        -0.00120
       8 <- 21        -0.00351
       8 <- 22        -0.00234
       8 <- 24         0.01120
       8 <- 25        -0.00101
       8 <- 26        -0.00922
       8 <- 27        -0.00235
       8 <- 28         0.00106
       9 <- 20         0.00194
       9 <- 21         0.00189
       9 <- 22        -0.00256
       9 <- 23         0.00451
       9 <- 25        -0.01013
       9 <- 26        -0.00107
       9 <- 29         0.00626
       9 <- 30         0.00184
      10 <- 16         0.00148
      10 <- 19         0.00368
      10 <- 24        -0.00709
      10 <- 25         0.00198
      10 <- 26         0.01169
      10 <- 27         0.00330
      10 <- 28        -0.00241
      10 <- 29         0.00134
      11 <- 16         0.00923
      11 <- 20        -0.00118
      11 <- 26        -0.00109
      11 <- 27        -0.00112
      11 <- 28         0.00153
      12 <- 17         0.00145
      12 <- 19         0.01386
      12 <- 20        -0.00200
      12 <- 21         0.00152
      12 <- 23        -0.00218
      12 <- 25        -0.00103
      12 <- 26         0.00515
      12 <- 27        -0.01082
      12 <- 28         0.00582
      12 <- 29        -0.00109
      12 <- 30        -0.00142
      13 <- 17         0.00189
      13 <- 18        -0.00113
      13 <- 20        -0.00930
      13 <- 21        -0.00550
      13 <- 22         0.01256
      13 <- 23        -0.00192
      13 <- 24         0.00156
      13 <- 25         0.00224
      13 <- 27         0.00704
      13 <- 28         0.01280
      13 <- 29         0.00288
      13 <- 30         0.01068
      14 <- 16         0.04595
      14 <- 17        -0.06711
      14 <- 18         0.00736
      14 <- 19         0.00154
      14 <- 20        -0.00114
      14 <- 21         0.00196
      15 <- 16        -0.07152
      15 <- 17        -0.04326
      15 <- 18         0.00724
      15 <- 19        -0.00182
      15 <- 22        -0.00141
      15 <- 23         0.00154
 
 Excited state symmetry could not be determined.
 Excited State   4:      Singlet-?Sym    5.4787 eV  226.30 nm  f=0.3508  <S**2>=0.000
       1 -> 27         0.00122
       1 -> 28         0.00208
       2 -> 18        -0.00106
       2 -> 19        -0.00173
       2 -> 20        -0.00369
       2 -> 21        -0.00497
       2 -> 22        -0.00520
       2 -> 24         0.00121
       2 -> 26        -0.00152
       3 -> 18         0.00204
       3 -> 22        -0.00201
       3 -> 23         0.00259
       3 -> 25        -0.00121
       3 -> 29        -0.00224
       4 -> 16         0.00649
       4 -> 17        -0.00541
       4 -> 20         0.01123
       4 -> 21        -0.00938
       4 -> 23         0.00190
       4 -> 24        -0.00163
       4 -> 27        -0.00195
       4 -> 28        -0.00198
       4 -> 29         0.00141
       4 -> 30        -0.00658
       5 -> 16        -0.00852
       5 -> 17        -0.00203
       5 -> 18         0.00121
       5 -> 19         0.00793
       5 -> 20         0.00520
       5 -> 21        -0.00422
       5 -> 22         0.00170
       5 -> 24         0.00104
       5 -> 25        -0.00113
       5 -> 28        -0.00229
       5 -> 30        -0.00434
       6 -> 17        -0.00616
       6 -> 19        -0.00185
       6 -> 20         0.00151
       6 -> 21         0.00943
       6 -> 22        -0.00963
       6 -> 23        -0.00127
       6 -> 24        -0.00206
       6 -> 25        -0.00207
       6 -> 27        -0.00416
       6 -> 28        -0.00616
       6 -> 29        -0.00160
       6 -> 30        -0.00217
       7 -> 16        -0.00146
       7 -> 17        -0.00444
       7 -> 18         0.00588
       7 -> 19        -0.01553
       7 -> 21        -0.00713
       7 -> 22        -0.00512
       7 -> 24         0.02079
       7 -> 25        -0.00272
       7 -> 26        -0.00982
       7 -> 27        -0.00129
       7 -> 30        -0.00103
       8 -> 16         0.00580
       8 -> 17         0.00395
       8 -> 18        -0.02026
       8 -> 19         0.00720
       8 -> 20         0.01027
       8 -> 21         0.01213
       8 -> 22        -0.00564
       8 -> 23         0.03622
       8 -> 25        -0.02625
       8 -> 26         0.00455
       8 -> 27         0.00698
       8 -> 28         0.00541
       8 -> 29        -0.00515
       8 -> 30        -0.00237
       9 -> 16        -0.00382
       9 -> 17        -0.00629
       9 -> 18        -0.00951
       9 -> 19        -0.01600
       9 -> 20        -0.00609
       9 -> 21        -0.01319
       9 -> 22        -0.01469
       9 -> 23         0.00769
       9 -> 24         0.01175
       9 -> 25        -0.00964
       9 -> 26        -0.02792
       9 -> 27        -0.00705
       9 -> 28         0.00476
       9 -> 29         0.00103
      10 -> 16        -0.00472
      10 -> 17        -0.00313
      10 -> 18         0.02422
      10 -> 20         0.00408
      10 -> 21         0.00254
      10 -> 22        -0.00448
      10 -> 23         0.00666
      10 -> 24         0.00397
      10 -> 25        -0.00517
      10 -> 27         0.01374
      10 -> 28         0.01362
      10 -> 29        -0.02372
      10 -> 30        -0.00537
      11 -> 16        -0.00165
      11 -> 17         0.01316
      11 -> 18        -0.00559
      11 -> 21        -0.00292
      11 -> 22        -0.00125
      11 -> 23        -0.00679
      11 -> 25         0.00135
      11 -> 26        -0.00128
      11 -> 27        -0.00424
      11 -> 28        -0.00260
      11 -> 30         0.00153
      12 -> 16        -0.02554
      12 -> 17         0.01302
      12 -> 18         0.00465
      12 -> 19        -0.01830
      12 -> 20        -0.02531
      12 -> 21         0.04079
      12 -> 22        -0.02107
      12 -> 23         0.00322
      12 -> 24        -0.00331
      12 -> 25        -0.01285
      12 -> 26         0.00147
      12 -> 27        -0.01297
      12 -> 28        -0.02524
      12 -> 29        -0.02444
      12 -> 30         0.03079
      13 -> 16        -0.13166
      13 -> 17         0.01650
      13 -> 18         0.01705
      13 -> 19         0.06662
      13 -> 20        -0.00764
      13 -> 21         0.02324
      13 -> 22         0.01445
      13 -> 23        -0.01089
      13 -> 24         0.00704
      13 -> 25        -0.00417
      13 -> 26         0.01529
      13 -> 27        -0.03495
      13 -> 28         0.02068
      13 -> 29        -0.00575
      13 -> 30         0.00434
      14 -> 16        -0.41396
      14 -> 17        -0.26479
      14 -> 18        -0.01236
      14 -> 19         0.00142
      14 -> 20         0.00344
      14 -> 21        -0.00325
      14 -> 23        -0.00625
      14 -> 24        -0.00244
      14 -> 25         0.00620
      14 -> 26        -0.00168
      14 -> 27        -0.00162
      14 -> 28        -0.00364
      14 -> 29         0.00142
      14 -> 30        -0.00222
      15 -> 16        -0.25096
      15 -> 17         0.41307
      15 -> 18         0.01631
      15 -> 20        -0.00709
      15 -> 21         0.00990
      15 -> 22         0.00297
      15 -> 23         0.00464
      15 -> 24        -0.00199
      15 -> 25        -0.00278
      15 -> 26         0.00474
      15 -> 27         0.00432
      15 -> 28        -0.00322
      15 -> 29        -0.00294
      15 -> 30         0.00609
       1 <- 27         0.00191
       1 <- 28         0.00319
       1 <- 29         0.00155
       2 <- 19        -0.00169
       2 <- 20        -0.00263
       2 <- 21        -0.00341
       2 <- 22        -0.00327
       2 <- 24         0.00289
       2 <- 26        -0.00221
       2 <- 27        -0.00176
       3 <- 20         0.00145
       3 <- 22        -0.00184
       3 <- 23         0.00483
       3 <- 25        -0.00157
       3 <- 27         0.00147
       3 <- 28         0.00200
       3 <- 29        -0.00289
       3 <- 30        -0.00155
       4 <- 19         0.00112
       4 <- 20         0.00738
       4 <- 21        -0.00573
       4 <- 23         0.00125
       4 <- 24        -0.00122
       4 <- 30        -0.00436
       5 <- 19         0.00436
       5 <- 20         0.00397
       5 <- 21        -0.00239
       5 <- 24         0.00156
       5 <- 30        -0.00272
       6 <- 21         0.00392
       6 <- 22        -0.00406
       6 <- 28        -0.00129
       7 <- 19        -0.00502
       7 <- 21        -0.00226
       7 <- 22        -0.00166
       7 <- 24         0.00893
       7 <- 26        -0.00323
       8 <- 16         0.00119
       8 <- 19         0.00298
       8 <- 20         0.00335
       8 <- 21         0.00451
       8 <- 22        -0.00142
       8 <- 23         0.01619
       8 <- 25        -0.00967
       8 <- 26         0.00179
       8 <- 27         0.00360
       8 <- 28         0.00330
       8 <- 29        -0.00211
       8 <- 30        -0.00100
       9 <- 19        -0.00458
       9 <- 20        -0.00237
       9 <- 21        -0.00426
       9 <- 22        -0.00457
       9 <- 23         0.00271
       9 <- 24         0.00559
       9 <- 25        -0.00323
       9 <- 26        -0.01084
       9 <- 27        -0.00295
       9 <- 28         0.00211
      10 <- 17        -0.00104
      10 <- 20         0.00271
      10 <- 22        -0.00227
      10 <- 23         0.00359
      10 <- 25        -0.00451
      10 <- 27         0.00456
      10 <- 28         0.00450
      10 <- 29        -0.00717
      10 <- 30        -0.00349
      11 <- 16        -0.00157
      11 <- 17        -0.00890
      11 <- 20        -0.00116
      11 <- 21         0.00135
      11 <- 27        -0.00154
      11 <- 30         0.00152
      12 <- 17         0.00314
      12 <- 19        -0.00534
      12 <- 20        -0.00886
      12 <- 21         0.01230
      12 <- 22        -0.00545
      12 <- 25        -0.00410
      12 <- 27        -0.00463
      12 <- 28        -0.00874
      12 <- 29        -0.00695
      12 <- 30         0.01106
      13 <- 16        -0.00207
      13 <- 19         0.01484
      13 <- 20        -0.00235
      13 <- 21         0.00549
      13 <- 22         0.00322
      13 <- 23        -0.00287
      13 <- 24         0.00233
      13 <- 25        -0.00165
      13 <- 26         0.00322
      13 <- 27        -0.01077
      13 <- 28         0.00628
      13 <- 29        -0.00155
      13 <- 30         0.00127
      14 <- 16         0.07039
      14 <- 17         0.04336
      14 <- 18         0.00690
      14 <- 19        -0.00206
      14 <- 20         0.00168
      14 <- 23        -0.00130
      14 <- 28        -0.00164
      15 <- 16         0.04426
      15 <- 17        -0.07149
      15 <- 18        -0.00788
      15 <- 20        -0.00163
      15 <- 21        -0.00103
      15 <- 22         0.00201
 
 Excited state symmetry could not be determined.
 Excited State   5:      Singlet-?Sym    5.7020 eV  217.44 nm  f=0.0180  <S**2>=0.000
       1 -> 16        -0.00110
       1 -> 17        -0.00421
       1 -> 18         0.00117
       2 -> 16         0.00261
       2 -> 17        -0.00144
       2 -> 21        -0.00112
       2 -> 22        -0.00114
       3 -> 16         0.00177
       3 -> 17         0.00171
       3 -> 18        -0.01080
       4 -> 16        -0.01953
       4 -> 17         0.01179
       4 -> 18        -0.00200
       4 -> 20         0.00161
       4 -> 21        -0.00248
       4 -> 30        -0.00139
       5 -> 16         0.03877
       5 -> 17         0.00314
       5 -> 18        -0.00301
       5 -> 19         0.00188
       5 -> 20         0.00261
       5 -> 30        -0.00149
       6 -> 16         0.00711
       6 -> 17         0.03044
       6 -> 18        -0.00279
       6 -> 19         0.00116
       6 -> 21         0.00216
       6 -> 22        -0.00253
       6 -> 27        -0.00177
       6 -> 28        -0.00140
       6 -> 30        -0.00101
       7 -> 16         0.01214
       7 -> 17        -0.00355
       7 -> 18        -0.02399
       7 -> 19        -0.00239
       7 -> 21        -0.00132
       7 -> 22        -0.00192
       7 -> 23         0.00132
       7 -> 24         0.00429
       7 -> 25        -0.00179
       7 -> 26        -0.00275
       8 -> 17        -0.00808
       8 -> 18         0.06529
       8 -> 19         0.00541
       8 -> 21         0.00233
       8 -> 22         0.00158
       8 -> 23         0.01057
       8 -> 24        -0.00116
       8 -> 25        -0.00561
       8 -> 26         0.00331
       8 -> 27         0.00115
       9 -> 16         0.01785
       9 -> 17        -0.01528
       9 -> 18         0.00172
       9 -> 19        -0.00262
       9 -> 20        -0.00403
       9 -> 21        -0.00273
       9 -> 22        -0.00258
       9 -> 24         0.00288
       9 -> 26        -0.00716
       9 -> 27        -0.00268
       9 -> 29        -0.00186
      10 -> 16         0.00584
      10 -> 17         0.02140
      10 -> 18        -0.12549
      10 -> 19        -0.00123
      10 -> 20         0.00369
      10 -> 21         0.00294
      10 -> 22        -0.00359
      10 -> 25        -0.00191
      10 -> 26        -0.00266
      10 -> 27         0.00301
      10 -> 28         0.00499
      10 -> 29        -0.00504
      10 -> 30        -0.00139
      11 -> 17        -0.00169
      11 -> 18         0.01061
      11 -> 19         0.00147
      11 -> 20        -0.00658
      11 -> 21        -0.00136
      11 -> 23         0.01537
      11 -> 24        -0.00137
      11 -> 29         0.00566
      11 -> 30         0.00422
      12 -> 16         0.01282
      12 -> 17         0.03602
      12 -> 18        -0.04030
      12 -> 19        -0.00976
      12 -> 20        -0.00479
      12 -> 21         0.00815
      12 -> 22        -0.00655
      12 -> 23        -0.00176
      12 -> 25        -0.00221
      12 -> 26        -0.00164
      12 -> 28        -0.00696
      12 -> 29        -0.00572
      12 -> 30         0.00706
      13 -> 16         0.66562
      13 -> 17         0.06833
      13 -> 18        -0.01177
      13 -> 19         0.01324
      13 -> 20         0.00345
      13 -> 21         0.00990
      13 -> 23        -0.00507
      13 -> 25        -0.00352
      13 -> 26         0.00270
      13 -> 27        -0.01019
      13 -> 28         0.00237
      13 -> 30        -0.00206
      14 -> 16        -0.06572
      14 -> 17        -0.07762
      14 -> 18        -0.01224
      14 -> 19        -0.00455
      14 -> 20        -0.02029
      14 -> 21         0.00704
      14 -> 22         0.01090
      14 -> 23        -0.00135
      14 -> 24         0.00753
      14 -> 25        -0.00342
      14 -> 26        -0.00299
      14 -> 27        -0.00937
      14 -> 28         0.00859
      14 -> 30         0.00882
      15 -> 16        -0.07752
      15 -> 17         0.05969
      15 -> 18        -0.01361
      15 -> 19        -0.00779
      15 -> 20         0.03506
      15 -> 22        -0.02373
      15 -> 24         0.00629
      15 -> 25        -0.00161
      15 -> 26        -0.00713
      15 -> 27        -0.01210
      15 -> 28         0.00211
      15 -> 29        -0.00267
      15 -> 30        -0.01234
       4 <- 17        -0.00160
       4 <- 20         0.00122
       4 <- 21        -0.00122
       5 <- 19         0.00142
       5 <- 20         0.00131
       6 <- 17        -0.00147
       7 <- 24         0.00192
       8 <- 18        -0.00119
       8 <- 19         0.00153
       8 <- 21         0.00131
       8 <- 23         0.00335
       8 <- 25        -0.00209
       8 <- 26         0.00122
       9 <- 19        -0.00101
       9 <- 24         0.00146
       9 <- 26        -0.00227
      10 <- 18         0.00200
      10 <- 28         0.00118
      10 <- 29        -0.00106
      11 <- 17        -0.00155
      11 <- 20        -0.00188
      11 <- 21        -0.00250
      11 <- 23         0.00190
      11 <- 27        -0.00138
      11 <- 29         0.00364
      11 <- 30         0.00114
      12 <- 19        -0.00252
      12 <- 20        -0.00178
      12 <- 21         0.00245
      12 <- 22        -0.00103
      12 <- 28        -0.00192
      12 <- 29        -0.00152
      12 <- 30         0.00261
      13 <- 16        -0.00358
      13 <- 19         0.00282
      13 <- 21         0.00145
      13 <- 27        -0.00276
      14 <- 16         0.01131
      14 <- 17         0.01418
      14 <- 18         0.00167
      14 <- 19         0.00571
      14 <- 20        -0.00334
      14 <- 21         0.00123
      14 <- 22         0.00571
      14 <- 23        -0.00165
      14 <- 24         0.00212
      14 <- 27        -0.00314
      14 <- 28         0.00523
      14 <- 30         0.00201
      15 <- 16         0.01402
      15 <- 17        -0.01302
      15 <- 20         0.00623
      15 <- 21         0.00619
      15 <- 22        -0.00782
      15 <- 25        -0.00131
      15 <- 27        -0.00578
      15 <- 28        -0.00388
      15 <- 29        -0.00146
      15 <- 30        -0.00298
 SavETr:  write IOETrn=   770 NScale= 10 NData=  16 NLR=1 NState=    5 LETran=     100.

 **********************************************************************

            Population analysis using the SCF Density.

 **********************************************************************

 Alpha  occ. eigenvalues --   -1.43020  -1.15996  -1.13756  -0.84839  -0.83901
 Alpha  occ. eigenvalues --   -0.65146  -0.59223  -0.56565  -0.52335  -0.51010
 Alpha  occ. eigenvalues --   -0.48841  -0.44491  -0.42282  -0.35587  -0.35340
 Alpha virt. eigenvalues --    0.01911   0.02343   0.10785   0.13702   0.14435
 Alpha virt. eigenvalues --    0.14971   0.15257   0.16411   0.17220   0.18649
 Alpha virt. eigenvalues --    0.18883   0.20429   0.20716   0.21180   0.22502
          Condensed to atoms (all electrons):
               1          2          3          4          5          6
     1  C    4.121523   0.000000   0.000000   0.000000   0.000000   0.000000
     2  C    0.000000   4.134656   0.000000   0.000000   0.000000   0.000000
     3  C    0.000000   0.000000   4.134600   0.000000   0.000000   0.000000
     4  C    0.000000   0.000000   0.000000   4.132103   0.000000   0.000000
     5  C    0.000000   0.000000   0.000000   0.000000   4.135129   0.000000
     6  C    0.000000   0.000000   0.000000   0.000000   0.000000   4.129357
     7  H    0.000000   0.000000   0.000000   0.000000   0.000000   0.000000
     8  H    0.000000   0.000000   0.000000   0.000000   0.000000   0.000000
     9  H    0.000000   0.000000   0.000000   0.000000   0.000000   0.000000
    10  H    0.000000   0.000000   0.000000   0.000000   0.000000   0.000000
    11  H    0.000000   0.000000   0.000000   0.000000   0.000000   0.000000
    12  H    0.000000   0.000000   0.000000   0.000000   0.000000   0.000000
               7          8          9         10         11         12
     1  C    0.000000   0.000000   0.000000   0.000000   0.000000   0.000000
     2  C    0.000000   0.000000   0.000000   0.000000   0.000000   0.000000
     3  C    0.000000   0.000000   0.000000   0.000000   0.000000   0.000000
     4  C    0.000000   0.000000   0.000000   0.000000   0.000000   0.000000
     5  C    0.000000   0.000000   0.000000   0.000000   0.000000   0.000000
     6  C    0.000000   0.000000   0.000000   0.000000   0.000000   0.000000
     7  H    0.874156   0.000000   0.000000   0.000000   0.000000   0.000000
     8  H    0.000000   0.867228   0.000000   0.000000   0.000000   0.000000
     9  H    0.000000   0.000000   0.862657   0.000000   0.000000   0.000000
    10  H    0.000000   0.000000   0.000000   0.874917   0.000000   0.000000
    11  H    0.000000   0.000000   0.000000   0.000000   0.874769   0.000000
    12  H    0.000000   0.000000   0.000000   0.000000   0.000000   0.858907
 Mulliken charges:
               1
     1  C   -0.121523
     2  C   -0.134656
     3  C   -0.134600
     4  C   -0.132103
     5  C   -0.135129
     6  C   -0.129357
     7  H    0.125844
     8  H    0.132772
     9  H    0.137343
    10  H    0.125083
    11  H    0.125231
    12  H    0.141093
 Sum of Mulliken charges =  -0.00000
 Mulliken charges with hydrogens summed into heavy atoms:
               1
     1  C    0.004321
     2  C   -0.001883
     3  C    0.002744
     4  C   -0.007020
     5  C   -0.009898
     6  C    0.011736
 Charge=              0.0000 electrons
 Dipole moment (field-independent basis, Debye):
    X=              0.0195    Y=              0.0631    Z=              0.0695  Tot=              0.0959
 N-N= 1.192751747932D+02 E-N=-1.699874336580D+02  KE=-4.781461461386D+01

 Test job not archived.
 1\1\GINC-BHC0189\SP\RAM1 TD-Full\STO-5G\C6H6\BWEIGHT\21-Mar-2025\0\\# 
 AM1/STO-5G SCF=XQC TD=(read,singlets,nstates=5,root=1) nosym IOp(9/40=
 3) guess=read\\MD Step 24\\0,1\C,0,-0.6822587,-1.20463397,-0.03353858\
 C,0,0.69346172,-1.20741006,0.05049667\C,0,1.43644093,0.02487065,0.0251
 7862\C,0,0.70277495,1.16596832,-0.0386465\C,0,-0.71067059,1.17689849,0
 .00005588\C,0,-1.45305937,0.03606363,0.00478926\H,0,-1.2630023,-2.1202
 1648,-0.0089709\H,0,1.38453935,-2.07963352,0.0329106\H,0,2.52356437,0.
 01867382,-0.03482422\H,0,1.25380945,2.17460254,0.05417856\H,0,-1.26369
 245,2.15715083,0.07290833\H,0,-2.53968425,0.08995869,0.00567751\\Versi
 on=ES64L-G16RevC.01\HF=0.0508229\RMSD=6.477e-09\PG=C01 [X(C6H6)]\\@


 THERE IS NO SUBJECT, HOWEVER COMPLEX,
 WHICH, IF STUDIED WITH PATIENCE AND INTELLIGIENCE
 WILL NOT BECOME
 MORE COMPLEX
                        QUOTED BY D. GORDON ROHMAN
 Job cpu time:       0 days  0 hours  0 minutes  1.1 seconds.
 Elapsed time:       0 days  0 hours  0 minutes  0.8 seconds.
 File lengths (MBytes):  RWF=     34 Int=      0 D2E=      0 Chk=      2 Scr=      1
 Normal termination of Gaussian 16 at Fri Mar 21 15:03:21 2025.
