 Entering Gaussian System, Link 0=g16
 Initial command:
 /software/gaussian/g16-c01/avx2/g16/l1.exe "/local_scratch/28554177/Gau-25701.inp" -scrdir="/local_scratch/28554177/"
 Entering Link 1 = /software/gaussian/g16-c01/avx2/g16/l1.exe PID=     25721.
  
 Copyright (c) 1988-2019, Gaussian, Inc.  All Rights Reserved.
  
 This is part of the Gaussian(R) 16 program.  It is based on
 the Gaussian(R) 09 system (copyright 2009, Gaussian, Inc.),
 the Gaussian(R) 03 system (copyright 2003, Gaussian, Inc.),
 the Gaussian(R) 98 system (copyright 1998, Gaussian, Inc.),
 the Gaussian(R) 94 system (copyright 1995, Gaussian, Inc.),
 the Gaussian 92(TM) system (copyright 1992, Gaussian, Inc.),
 the Gaussian 90(TM) system (copyright 1990, Gaussian, Inc.),
 the Gaussian 88(TM) system (copyright 1988, Gaussian, Inc.),
 the Gaussian 86(TM) system (copyright 1986, Carnegie Mellon
 University), and the Gaussian 82(TM) system (copyright 1983,
 Carnegie Mellon University). Gaussian is a federally registered
 trademark of Gaussian, Inc.
  
 This software contains proprietary and confidential information,
 including trade secrets, belonging to Gaussian, Inc.
  
 This software is provided under written license and may be
 used, copied, transmitted, or stored only in accord with that
 written license.
  
 The following legend is applicable only to US Government
 contracts under FAR:
  
                    RESTRICTED RIGHTS LEGEND
  
 Use, reproduction and disclosure by the US Government is
 subject to restrictions as set forth in subparagraphs (a)
 and (c) of the Commercial Computer Software - Restricted
 Rights clause in FAR 52.227-19.
  
 Gaussian, Inc.
 340 Quinnipiac St., Bldg. 40, Wallingford CT 06492
  
  
 ---------------------------------------------------------------
 Warning -- This program may not be used in any manner that
 competes with the business of Gaussian, Inc. or will provide
 assistance to any competitor of Gaussian, Inc.  The licensee
 of this program is prohibited from giving any competitor of
 Gaussian, Inc. access to this program.  By using this program,
 the user acknowledges that Gaussian, Inc. is engaged in the
 business of creating and licensing software in the field of
 computational chemistry and represents and warrants to the
 licensee that it is not a competitor of Gaussian, Inc. and that
 it will not use this program in any manner prohibited above.
 ---------------------------------------------------------------
  

 Cite this work as:
 Gaussian 16, Revision C.01,
 M. J. Frisch, G. W. Trucks, H. B. Schlegel, G. E. Scuseria, 
 M. A. Robb, J. R. Cheeseman, G. Scalmani, V. Barone, 
 G. A. Petersson, H. Nakatsuji, X. Li, M. Caricato, A. V. Marenich, 
 J. Bloino, B. G. Janesko, R. Gomperts, B. Mennucci, H. P. Hratchian, 
 J. V. Ortiz, A. F. Izmaylov, J. L. Sonnenberg, D. Williams-Young, 
 F. Ding, F. Lipparini, F. Egidi, J. Goings, B. Peng, A. Petrone, 
 T. Henderson, D. Ranasinghe, V. G. Zakrzewski, J. Gao, N. Rega, 
 G. Zheng, W. Liang, M. Hada, M. Ehara, K. Toyota, R. Fukuda, 
 J. Hasegawa, M. Ishida, T. Nakajima, Y. Honda, O. Kitao, H. Nakai, 
 T. Vreven, K. Throssell, J. A. Montgomery, Jr., J. E. Peralta, 
 F. Ogliaro, M. J. Bearpark, J. J. Heyd, E. N. Brothers, K. N. Kudin, 
 V. N. Staroverov, T. A. Keith, R. Kobayashi, J. Normand, 
 K. Raghavachari, A. P. Rendell, J. C. Burant, S. S. Iyengar, 
 J. Tomasi, M. Cossi, J. M. Millam, M. Klene, C. Adamo, R. Cammi, 
 J. W. Ochterski, R. L. Martin, K. Morokuma, O. Farkas, 
 J. B. Foresman, and D. J. Fox, Gaussian, Inc., Wallingford CT, 2019.
 
 ******************************************
 Gaussian 16:  ES64L-G16RevC.01  3-Jul-2019
                21-Mar-2025 
 ******************************************
 %oldchk=../TD_OLD_S1/geometry.chk
 %chk=geometry.chk
 %nprocshared=1
 Will use up to    1 processors via shared memory.
 %mem=2GB
 Copying data from "../TD_OLD_S1/geometry.chk" to current chk file "geometry.chk"
 IOpt=  2 FromEx=T IUOpen= 4 IOptOp= 5 NList=   0 IFRang= 0 IUIn= 4 IUOut= 2.
 ----------------------------------------------------------------------
 # AM1/STO-5G SCF=XQC TD=(read,singlets,nstates=5,root=1) nosym IOp(9/4
 0=3) guess=read
 ----------------------------------------------------------------------
 1/38=1,172=1/1;
 2/12=2,15=1,17=6,18=5,40=1/2;
 3/5=2,6=5,25=1,41=700000,116=-2/1,2,3,8;
 4/5=1,35=1/1;
 5/5=2,8=3,13=1,35=1,38=6/2,8;
 8/6=1,10=90,107=1,108=5/1;
 9/8=1,40=3,41=5,42=1,48=1,49=13,70=2/14;
 6/7=2,8=2,9=2,10=2/1;
 99/5=1,9=1/99;
 ----------
 MD Step 24
 ----------
 Symbolic Z-matrix:
 Charge =  0 Multiplicity = 1
 C                    -0.70868  -1.20406  -0.00152 
 C                     0.71146  -1.21005   0.04992 
 C                     1.3777   -0.00582  -0.07289 
 C                     0.7116    1.22308   0.0172 
 C                    -0.68478   1.209     0.00202 
 C                    -1.41493  -0.02094  -0.02531 
 H                    -1.20095  -2.14992   0.01667 
 H                     1.2004   -2.20948   0.12833 
 H                     2.44899   0.01536  -0.06536 
 H                     1.31711   2.09642   0.25801 
 H                    -1.20618   2.16901  -0.01688 
 H                    -2.51093   0.02541  -0.07727 
 
                          Input orientation:                          
 ---------------------------------------------------------------------
 Center     Atomic      Atomic             Coordinates (Angstroms)
 Number     Number       Type             X           Y           Z
 ---------------------------------------------------------------------
      1          6           0       -0.708680   -1.204057   -0.001523
      2          6           0        0.711457   -1.210050    0.049923
      3          6           0        1.377702   -0.005817   -0.072893
      4          6           0        0.711602    1.223077    0.017201
      5          6           0       -0.684782    1.208999    0.002016
      6          6           0       -1.414930   -0.020943   -0.025306
      7          1           0       -1.200955   -2.149920    0.016666
      8          1           0        1.200396   -2.209481    0.128326
      9          1           0        2.448987    0.015362   -0.065360
     10          1           0        1.317111    2.096425    0.258007
     11          1           0       -1.206182    2.169009   -0.016879
     12          1           0       -2.510932    0.025408   -0.077271
 ---------------------------------------------------------------------
                    Distance matrix (angstroms):
                    1          2          3          4          5
     1  C    0.000000
     2  C    1.421081   0.000000
     3  C    2.407045   1.381718   0.000000
     4  C    2.812212   2.433347   1.400709   0.000000
     5  C    2.413178   2.793488   2.394834   1.396537   0.000000
     6  C    1.378084   2.437449   2.793079   2.464048   1.430602
     7  H    1.066453   2.131145   3.354798   3.877497   3.398381
     8  H    2.161553   1.115380   2.219924   3.468966   3.905875
     9  H    3.385546   2.129304   1.071521   2.117522   3.354074
    10  H    3.881284   3.367921   2.128987   1.089663   2.204684
    11  H    3.409593   3.885851   3.377790   2.138655   1.092627
    12  H    2.182987   3.453450   3.888762   3.439195   2.177613
                    6          7          8          9         10
     6  C    0.000000
     7  H    2.140115   0.000000
     8  H    3.413684   2.404683   0.000000
     9  H    3.864295   4.244673   2.558597   0.000000
    10  H    3.468078   4.942706   4.309439   2.390927   0.000000
    11  H    2.199895   4.319063   4.998388   4.242736   2.539260
    12  H    1.098211   2.541046   4.337160   4.959943   4.365253
                   11         12
    11  H    0.000000
    12  H    2.510189   0.000000
 Symmetry turned off by external request.
 Stoichiometry    C6H6
 Framework group  C1[X(C6H6)]
 Deg. of freedom    30
 Full point group                 C1      NOp   1
 Rotational constants (GHZ):           5.7014138           5.6094226           2.8337871
 Standard basis: VSTO-5G (5D, 7F)
    30 basis functions,   180 primitive gaussians,    30 cartesian basis functions
    15 alpha electrons       15 beta electrons
       nuclear repulsion energy       119.5298295148 Hartrees.
 Integral buffers will be    131072 words long.
 Regular integral format.
 Two-electron integral symmetry is turned off.
 Do NDO integrals.
 One-electron integrals computed using PRISM.
 NBasis=    30 RedAO= F EigKep=  0.00D+00  NBF=    30
 NBsUse=    30 1.00D-04 EigRej=  0.00D+00 NBFU=    30
 Initial guess from the checkpoint file:  "geometry.chk"
 B after Tr=     0.001126    0.000708    0.000982
         Rot=    1.000000    0.000051    0.000569    0.000177 Ang=   0.07 deg.
 Keep J ints in memory in canonical form, NReq=861816.
 Overlap will be assumed to be unity.
 Requested convergence on RMS density matrix=1.00D-08 within  32 cycles.
 Requested convergence on MAX density matrix=1.00D-06.
 Requested convergence on             energy=1.00D-06.
 No special actions if energy rises.
 SCF Done:  E(RAM1) =  0.449600211711E-01 A.U. after   12 cycles
            NFock= 11  Conv=0.34D-08     -V/T= 1.0009
 QCSCF skips out because SCF is already converged.
 Range of M.O.s used for correlation:     1    30
 NBasis=    30 NAE=    15 NBE=    15 NFC=     0 NFV=     0
 NROrb=     30 NOA=    15 NOB=    15 NVA=    15 NVB=    15
 Keep J ints in memory in canonical form, NReq=862156.
 Generating guess from checkpoint file densities.
 Convergence on wavefunction:    0.001000000000000
 Iteration     1 Dimension    10 NMult     0 NNew     10
 CISAX will form    10 AO SS matrices at one time.
 Iteration     2 Dimension    20 NMult    10 NNew     10
 Iteration     3 Dimension    30 NMult    20 NNew     10
 Iteration     4 Dimension    38 NMult    30 NNew      8
 Iteration     5 Dimension    44 NMult    38 NNew      6
 Iteration     6 Dimension    48 NMult    44 NNew      4
 Iteration     7 Dimension    50 NMult    48 NNew      2
 Iteration     8 Dimension    52 NMult    50 NNew      2
 Iteration     9 Dimension    54 NMult    52 NNew      2
 Iteration    10 Dimension    56 NMult    54 NNew      2
 ***********************************************************************
 Excited states from <AA,BB:AA,BB> singles matrix:
 ***********************************************************************
 
 Ground to excited state transition densities written to RWF  633
 Ground to excited state transition electric dipole moments (Au):
       state          X           Y           Z        Dip. S.      Osc.
         1         0.0302      0.0262     -0.0017      0.0016      0.0001
         2        -0.1113      0.0739     -0.0790      0.0241      0.0024
         3         1.4962      0.4076     -0.0549      2.4078      0.3138
         4         0.4282     -1.5133      0.0181      2.4737      0.3240
         5        -0.0305     -0.1652      0.0741      0.0337      0.0049
 Ground to excited state transition velocity dipole moments (Au):
       state          X           Y           Z        Dip. S.      Osc.
         1        -0.0053     -0.0058     -0.0001      0.0001      0.0003
         2         0.0267     -0.0183      0.0506      0.0036      0.0159
         3        -0.4617     -0.1296     -0.0129      0.2301      0.7845
         4        -0.1317      0.4650      0.0051      0.2336      0.7928
         5         0.0128      0.0567      0.0851      0.0106      0.0324
 Ground to excited state transition magnetic dipole moments (Au):
       state          X           Y           Z
         1         0.0118     -0.0162     -0.0012
         2        -0.0392     -0.0619     -0.1946
         3        -0.0090     -0.0840     -0.0159
         4         0.0012     -0.0329     -0.0516
         5        -0.0364      0.0393     -0.0089
 Ground to excited state transition velocity quadrupole moments (Au):
       state          XX          YY          ZZ          XY          XZ          YZ
         1         0.0040     -0.0040     -0.0003     -0.0021      0.0063      0.0121
         2         0.0390     -0.0142      0.0054      0.0190      0.0570     -0.0212
         3         0.0190      0.0340     -0.0140     -0.0644      0.0750     -0.0190
         4        -0.0024      0.0020     -0.0021      0.0013      0.0000      0.0504
         5        -0.0754      0.0742     -0.0030     -0.0405      0.0150      0.0132
 <0|del|b> * <b|rxdel|0> + <0|del|b> * <b|delr+rdel|0>
 Rotatory Strengths (R) in cgs (10**-40 erg-esu-cm/Gauss)
       state          XX          YY          ZZ    R(velocity)    E-M Angle
         1         0.3332     -0.3184      0.1506      0.0551       90.00
         2       -15.7249    -29.1007     -0.9180    -15.2479      141.40
         3        39.1405     22.2206     -6.2371     18.3747       68.32
         4       -28.0478    -12.7202    -15.8812    -18.8830      122.13
         5        -4.5749      3.8571      3.9559      1.0793       79.70
 1/2[<0|r|b>*<b|rxdel|0> + (<0|rxdel|b>*<b|r|0>)*]
 Rotatory Strengths (R) in cgs (10**-40 erg-esu-cm/Gauss)
       state          XX          YY          ZZ     R(length)
         1        -0.2513      0.2993     -0.0015      0.0155
         2        -3.0879      3.2343    -10.8717     -3.5751
         3         9.5073     24.2250     -0.6162     11.0387
         4        -0.3784    -35.2255      0.6617    -11.6474
         5        -0.7857      4.5887      0.4683      1.4238
  1/2[<0|del|b>*<b|r|0> + (<0|r|b>*<b|del|0>)*] (Au)
       state          X           Y           Z        Dip. S.   Osc.(frdel)
         1        -0.0002     -0.0002      0.0000      0.0003      0.0002
         2        -0.0030     -0.0014     -0.0040      0.0083      0.0055
         3        -0.6907     -0.0528      0.0007      0.7428      0.4952
         4        -0.0564     -0.7037      0.0001      0.7600      0.5067
         5        -0.0004     -0.0094      0.0063      0.0035      0.0023

 Excitation energies and oscillator strengths:
 
 Excited state symmetry could not be determined.
 Excited State   1:      Singlet-?Sym    3.7830 eV  327.74 nm  f=0.0001  <S**2>=0.000
       2 -> 21         0.00130
       2 -> 23         0.00318
       2 -> 25        -0.00165
       3 -> 24        -0.00334
       3 -> 26         0.00165
       4 -> 17        -0.00259
       4 -> 18        -0.00115
       4 -> 27         0.00205
       4 -> 28         0.00170
       5 -> 16        -0.00251
       5 -> 17         0.00267
       5 -> 18         0.00149
       5 -> 27         0.00165
       5 -> 28        -0.00213
       7 -> 16        -0.00126
       7 -> 17         0.00119
       7 -> 29         0.00230
       8 -> 17         0.00163
       8 -> 18         0.00902
       8 -> 21         0.00121
       8 -> 22        -0.00141
       9 -> 21         0.00161
       9 -> 23         0.00294
       9 -> 25        -0.00247
      10 -> 18        -0.00290
      10 -> 24         0.00297
      10 -> 26        -0.00186
      11 -> 17        -0.00236
      11 -> 19         0.00207
      11 -> 20        -0.00129
      11 -> 23        -0.00221
      11 -> 25         0.00155
      11 -> 27        -0.00281
      11 -> 29        -0.00628
      12 -> 16         0.00151
      12 -> 17        -0.00166
      12 -> 29        -0.00111
      13 -> 18         0.00114
      13 -> 27        -0.00114
      14 -> 16         0.49031
      14 -> 17        -0.04181
      14 -> 18        -0.00458
      14 -> 20         0.00104
      14 -> 21         0.00133
      14 -> 22         0.00216
      14 -> 23         0.00182
      14 -> 24        -0.00162
      14 -> 26        -0.00118
      14 -> 27         0.00403
      14 -> 29         0.00283
      15 -> 16         0.04266
      15 -> 17         0.51472
      15 -> 20         0.00445
      15 -> 24        -0.00329
      15 -> 25         0.00197
      15 -> 26        -0.00242
      15 -> 27         0.00227
      15 -> 29         0.00261
      15 -> 30         0.00257
       2 <- 23         0.00117
       3 <- 24        -0.00106
       4 <- 27         0.00160
       4 <- 28         0.00127
       5 <- 27         0.00132
       5 <- 28        -0.00165
       7 <- 29         0.00185
       8 <- 22        -0.00115
       9 <- 17         0.00140
      10 <- 16        -0.00125
      12 <- 16         0.00341
      12 <- 17        -0.00662
      13 <- 16        -0.00355
      14 <- 16         0.06984
      14 <- 17        -0.00598
      14 <- 19        -0.00126
      14 <- 20         0.00123
      14 <- 21         0.00215
      14 <- 22         0.00105
      14 <- 27        -0.00151
      15 <- 16         0.00547
      15 <- 17         0.06523
      15 <- 18        -0.00131
      15 <- 19         0.00243
      15 <- 21         0.00202
      15 <- 23        -0.00135
      15 <- 24        -0.00139
      15 <- 28        -0.00153
 This state for optimization and/or second-order correction.
 Total Energy, E(TD-HF/TD-DFT) =  0.183984062100    
 Copying the excited state density for this state as the 1-particle RhoCI density.
 
 Excited state symmetry could not be determined.
 Excited State   2:      Singlet-?Sym    4.1062 eV  301.95 nm  f=0.0024  <S**2>=0.000
       1 -> 20         0.00201
       2 -> 17         0.00154
       2 -> 18         0.00135
       2 -> 24         0.00239
       2 -> 26         0.00214
       3 -> 21         0.00156
       3 -> 22        -0.00124
       3 -> 23         0.00274
       3 -> 25         0.00190
       4 -> 16        -0.00113
       4 -> 17         0.00224
       4 -> 18         0.00194
       4 -> 19         0.00136
       4 -> 20         0.00117
       4 -> 26        -0.00184
       4 -> 27        -0.00295
       4 -> 28         0.00376
       5 -> 17         0.00137
       5 -> 23        -0.00138
       5 -> 25         0.00150
       5 -> 27         0.00376
       5 -> 28         0.00288
       6 -> 17         0.00120
       6 -> 20        -0.00269
       6 -> 21        -0.00120
       7 -> 16        -0.00113
       7 -> 17         0.00166
       7 -> 18         0.00547
       7 -> 23        -0.00228
       8 -> 20         0.00118
       8 -> 22        -0.00131
       8 -> 24         0.00298
       8 -> 25         0.00146
       8 -> 26        -0.00155
       8 -> 27        -0.00185
       8 -> 28        -0.00104
       8 -> 29         0.00332
       8 -> 30        -0.00129
       9 -> 16         0.00329
       9 -> 18        -0.01088
       9 -> 19        -0.00137
       9 -> 21        -0.00229
       9 -> 24         0.00301
       9 -> 25        -0.00142
       9 -> 26         0.00764
       9 -> 27        -0.00190
       9 -> 28         0.00251
       9 -> 29         0.00179
      10 -> 16         0.00106
      10 -> 21        -0.00327
      10 -> 22         0.00100
      10 -> 23        -0.00382
      10 -> 24         0.00152
      10 -> 25        -0.00464
      10 -> 26        -0.00241
      10 -> 27         0.00173
      10 -> 29         0.00174
      11 -> 16        -0.00201
      11 -> 17        -0.00115
      11 -> 18        -0.11005
      11 -> 19        -0.00682
      11 -> 20        -0.00232
      11 -> 21        -0.00975
      11 -> 22        -0.00211
      11 -> 23         0.00356
      11 -> 24         0.00259
      11 -> 25        -0.00158
      11 -> 26        -0.00179
      11 -> 27        -0.00149
      11 -> 28         0.00201
      12 -> 16        -0.01231
      12 -> 17        -0.00238
      12 -> 18        -0.01828
      12 -> 19        -0.00904
      12 -> 21         0.00791
      12 -> 22         0.00405
      12 -> 23        -0.00624
      12 -> 25         0.00227
      12 -> 27         0.00288
      12 -> 28         0.00204
      12 -> 30         0.00177
      13 -> 16        -0.00262
      13 -> 17         0.00345
      13 -> 18         0.01731
      13 -> 19        -0.00761
      13 -> 20         0.00357
      13 -> 24        -0.00286
      13 -> 25        -0.00180
      13 -> 26         0.00287
      13 -> 27        -0.00268
      13 -> 28        -0.00809
      13 -> 30         0.00208
      14 -> 16         0.04342
      14 -> 17         0.45427
      14 -> 19         0.00305
      14 -> 20         0.00473
      14 -> 21         0.00117
      14 -> 24        -0.00632
      14 -> 28        -0.00490
      15 -> 16        -0.52654
      15 -> 17         0.03912
      15 -> 18        -0.00440
      15 -> 19        -0.00525
      15 -> 20        -0.00112
      15 -> 22        -0.00382
      15 -> 24         0.00117
      15 -> 25         0.00188
      15 -> 28        -0.00214
       1 <- 19         0.00233
       1 <- 20         0.00438
       1 <- 21         0.00157
       1 <- 22        -0.00193
       1 <- 30        -0.00227
       2 <- 17         0.00115
       2 <- 24         0.00617
       3 <- 21         0.00262
       3 <- 22        -0.00171
       3 <- 23         0.00647
       3 <- 24        -0.00111
       4 <- 20         0.00128
       4 <- 26        -0.00115
       4 <- 27        -0.00328
       4 <- 28         0.00429
       5 <- 27         0.00430
       5 <- 28         0.00338
       5 <- 29         0.00122
       6 <- 20        -0.00184
       6 <- 30         0.00170
       7 <- 16        -0.00112
       7 <- 18         0.00151
       7 <- 23        -0.00120
       8 <- 24         0.00173
       8 <- 27        -0.00181
       8 <- 29         0.00544
       9 <- 18         0.00229
       9 <- 24         0.00445
       9 <- 26         0.00116
      10 <- 17        -0.00108
      10 <- 21        -0.00254
      10 <- 22         0.00106
      10 <- 23        -0.00502
      10 <- 24         0.00131
      11 <- 16         0.00144
      11 <- 18         0.01413
      12 <- 16         0.00253
      12 <- 17         0.00166
      12 <- 18         0.00188
      12 <- 19        -0.00287
      12 <- 21         0.00297
      12 <- 22         0.00167
      12 <- 23        -0.00235
      12 <- 25         0.00142
      12 <- 27         0.00377
      13 <- 17        -0.00211
      13 <- 18        -0.00166
      13 <- 19        -0.00262
      13 <- 26         0.00162
      13 <- 27        -0.00125
      13 <- 28        -0.00595
      14 <- 17         0.02144
      14 <- 18        -0.00138
      14 <- 19         0.00251
      14 <- 21         0.00202
      14 <- 23        -0.00139
      14 <- 24        -0.00152
      14 <- 26         0.00113
      14 <- 28        -0.00227
      15 <- 16        -0.00676
      15 <- 17         0.00134
      15 <- 18         0.00172
      15 <- 19         0.00123
      15 <- 20        -0.00126
      15 <- 21        -0.00148
      15 <- 22        -0.00112
      15 <- 27         0.00178
 
 Excited state symmetry could not be determined.
 Excited State   3:      Singlet-?Sym    5.3202 eV  233.04 nm  f=0.3138  <S**2>=0.000
       1 -> 17         0.00156
       1 -> 28        -0.00227
       2 -> 17        -0.00143
       2 -> 18        -0.00429
       2 -> 19         0.00102
       2 -> 20         0.00236
       2 -> 22         0.00550
       2 -> 23         0.00362
       2 -> 25        -0.00166
       3 -> 18        -0.00184
       3 -> 20         0.00137
       3 -> 22         0.00195
       3 -> 24         0.00279
       3 -> 26        -0.00183
       3 -> 29         0.00207
       4 -> 16        -0.00163
       4 -> 17        -0.00298
       4 -> 20        -0.00860
       4 -> 21         0.00303
       4 -> 22         0.00377
       4 -> 24         0.00137
       4 -> 28         0.00170
       4 -> 30         0.00363
       5 -> 16         0.00781
       5 -> 20        -0.01108
       5 -> 21        -0.00654
       5 -> 22         0.00277
       5 -> 23         0.00244
       5 -> 24         0.00108
       5 -> 26        -0.00144
       5 -> 27        -0.00132
       5 -> 28         0.00179
       5 -> 29        -0.00207
       5 -> 30         0.00673
       6 -> 17        -0.00886
       6 -> 19        -0.00938
       6 -> 20         0.00734
       6 -> 21        -0.00839
       6 -> 22        -0.00123
       6 -> 23         0.00150
       6 -> 24        -0.00273
       6 -> 27         0.00231
       6 -> 28         0.00551
       6 -> 29         0.00106
       7 -> 16        -0.00438
       7 -> 17         0.00406
       7 -> 18        -0.00942
       7 -> 19        -0.00741
       7 -> 20         0.00382
       7 -> 21         0.00543
       7 -> 22        -0.00526
       7 -> 23         0.01315
       7 -> 24         0.02128
       7 -> 25        -0.00388
       7 -> 26        -0.00766
       7 -> 29        -0.00127
       8 -> 16         0.00416
       8 -> 18        -0.00481
       8 -> 19        -0.00146
       8 -> 20        -0.00143
       8 -> 21         0.01464
       8 -> 22        -0.00330
       8 -> 23         0.02812
       8 -> 24        -0.01722
       8 -> 25        -0.02358
       8 -> 26         0.00454
       8 -> 27         0.00176
       8 -> 29         0.00302
       9 -> 16        -0.00279
       9 -> 17        -0.01017
       9 -> 18        -0.03509
       9 -> 20         0.00296
       9 -> 21         0.00665
       9 -> 22         0.00616
       9 -> 23         0.01534
       9 -> 24        -0.00477
       9 -> 25        -0.02104
       9 -> 26        -0.00239
       9 -> 27         0.00541
       9 -> 28         0.00299
       9 -> 29        -0.00672
       9 -> 30        -0.00299
      10 -> 16         0.00363
      10 -> 17         0.00210
      10 -> 18         0.01407
      10 -> 19         0.00788
      10 -> 20        -0.00398
      10 -> 21         0.00242
      10 -> 22         0.00290
      10 -> 23        -0.00117
      10 -> 24        -0.01939
      10 -> 25        -0.00921
      10 -> 26         0.02091
      10 -> 27         0.00487
      10 -> 28         0.00619
      10 -> 29        -0.02408
      10 -> 30        -0.00113
      11 -> 17         0.00246
      11 -> 18        -0.00188
      11 -> 19         0.00707
      11 -> 20        -0.00126
      11 -> 21        -0.00362
      11 -> 22        -0.00190
      11 -> 23        -0.01410
      11 -> 24        -0.00892
      11 -> 25         0.00671
      11 -> 26         0.00951
      11 -> 27        -0.00461
      11 -> 28        -0.00109
      11 -> 29         0.00103
      11 -> 30        -0.00433
      12 -> 16         0.12154
      12 -> 17         0.04104
      12 -> 18         0.01256
      12 -> 19         0.00684
      12 -> 20        -0.00880
      12 -> 21        -0.04208
      12 -> 22        -0.00615
      12 -> 23         0.00671
      12 -> 24        -0.00689
      12 -> 25         0.00751
      12 -> 26         0.00379
      12 -> 27         0.03657
      12 -> 28         0.00385
      12 -> 29         0.00389
      12 -> 30         0.00980
      13 -> 16        -0.03790
      13 -> 17         0.04751
      13 -> 18         0.02164
      13 -> 19        -0.03042
      13 -> 20         0.05184
      13 -> 21        -0.00349
      13 -> 22        -0.01250
      13 -> 23        -0.00834
      13 -> 24        -0.00875
      13 -> 25         0.00171
      13 -> 26        -0.01020
      13 -> 27        -0.00481
      13 -> 28         0.03669
      13 -> 29         0.00593
      13 -> 30        -0.02867
      14 -> 16        -0.38060
      14 -> 17         0.33787
      14 -> 18         0.00130
      14 -> 19        -0.02269
      14 -> 20         0.00125
      14 -> 21         0.00509
      14 -> 22         0.00138
      14 -> 23         0.00478
      14 -> 24         0.01054
      14 -> 25        -0.00382
      14 -> 26        -0.01347
      14 -> 27        -0.00606
      14 -> 28         0.00712
      14 -> 29        -0.00585
      14 -> 30         0.00634
      15 -> 16         0.28602
      15 -> 17         0.36581
      15 -> 18         0.02167
      15 -> 20        -0.00671
      15 -> 21        -0.02652
      15 -> 22        -0.00487
      15 -> 23         0.00236
      15 -> 24        -0.00116
      15 -> 25         0.00785
      15 -> 26        -0.00171
      15 -> 27         0.01730
      15 -> 28         0.00138
      15 -> 29         0.00800
      15 -> 30         0.00765
       1 <- 19         0.00126
       1 <- 27        -0.00122
       1 <- 28        -0.00333
       2 <- 20         0.00181
       2 <- 21         0.00175
       2 <- 22         0.00280
       2 <- 23         0.00498
       2 <- 25        -0.00204
       3 <- 23         0.00120
       3 <- 24         0.00468
       3 <- 26        -0.00228
       3 <- 29         0.00274
       4 <- 20        -0.00539
       4 <- 21         0.00132
       4 <- 22         0.00275
       4 <- 30         0.00241
       5 <- 19        -0.00101
       5 <- 20        -0.00741
       5 <- 21        -0.00432
       5 <- 22         0.00193
       5 <- 23         0.00190
       5 <- 24         0.00105
       5 <- 30         0.00419
       6 <- 19        -0.00370
       6 <- 20         0.00319
       6 <- 21        -0.00363
       6 <- 24        -0.00119
       6 <- 28         0.00102
       7 <- 18         0.00121
       7 <- 19        -0.00230
       7 <- 20         0.00166
       7 <- 21         0.00228
       7 <- 22        -0.00190
       7 <- 23         0.00563
       7 <- 24         0.00895
       7 <- 25        -0.00185
       7 <- 26        -0.00251
       8 <- 21         0.00603
       8 <- 22        -0.00151
       8 <- 23         0.01270
       8 <- 24        -0.00785
       8 <- 25        -0.00847
       8 <- 26         0.00156
       8 <- 27         0.00107
       8 <- 29         0.00161
       9 <- 16        -0.00188
       9 <- 20         0.00188
       9 <- 21         0.00385
       9 <- 22         0.00202
       9 <- 23         0.00724
       9 <- 24        -0.00155
       9 <- 25        -0.00906
       9 <- 26        -0.00191
       9 <- 27         0.00230
       9 <- 28         0.00106
       9 <- 29        -0.00192
       9 <- 30        -0.00144
      10 <- 16        -0.00149
      10 <- 19         0.00232
      10 <- 20        -0.00139
      10 <- 24        -0.00836
      10 <- 25        -0.00321
      10 <- 26         0.00908
      10 <- 27         0.00126
      10 <- 28         0.00246
      10 <- 29        -0.00726
      10 <- 30        -0.00127
      11 <- 16        -0.00583
      11 <- 20         0.00153
      11 <- 23        -0.00219
      11 <- 24        -0.00165
      11 <- 25         0.00142
      11 <- 27        -0.00154
      12 <- 16         0.00637
      12 <- 17         0.00243
      12 <- 18         0.00193
      12 <- 19         0.00154
      12 <- 20        -0.00301
      12 <- 21        -0.01276
      12 <- 22        -0.00165
      12 <- 23         0.00297
      12 <- 24        -0.00178
      12 <- 25         0.00217
      12 <- 27         0.01266
      12 <- 28         0.00130
      12 <- 29         0.00195
      12 <- 30         0.00380
      13 <- 16        -0.00147
      13 <- 17         0.00281
      13 <- 19        -0.00690
      13 <- 20         0.01597
      13 <- 22        -0.00470
      13 <- 23        -0.00306
      13 <- 24        -0.00302
      13 <- 26        -0.00231
      13 <- 27        -0.00154
      13 <- 28         0.01194
      13 <- 29         0.00158
      13 <- 30        -0.01041
      14 <- 16         0.06302
      14 <- 17        -0.05231
      14 <- 18         0.00120
      14 <- 19        -0.00225
      14 <- 21        -0.00103
      14 <- 28         0.00139
      15 <- 16        -0.05556
      15 <- 17        -0.06532
      15 <- 18        -0.00507
      15 <- 19        -0.00240
      15 <- 21        -0.00234
      15 <- 22        -0.00107
      15 <- 27         0.00116
      15 <- 28         0.00146
 
 Excited state symmetry could not be determined.
 Excited State   4:      Singlet-?Sym    5.3453 eV  231.95 nm  f=0.3240  <S**2>=0.000
       1 -> 16        -0.00183
       1 -> 27         0.00220
       2 -> 17         0.00132
       2 -> 18         0.00144
       2 -> 19        -0.00115
       2 -> 22        -0.00237
       2 -> 24         0.00218
       2 -> 26        -0.00166
       2 -> 29        -0.00211
       3 -> 17        -0.00207
       3 -> 18        -0.00439
       3 -> 19         0.00148
       3 -> 20         0.00250
       3 -> 21        -0.00178
       3 -> 22         0.00659
       3 -> 25         0.00216
       4 -> 16        -0.00380
       4 -> 17         0.00454
       4 -> 18         0.00162
       4 -> 19        -0.01027
       4 -> 20        -0.00704
       4 -> 22         0.00482
       4 -> 27         0.00191
       4 -> 28        -0.00103
       4 -> 30         0.00654
       5 -> 17        -0.00798
       5 -> 18        -0.00314
       5 -> 19         0.00542
       5 -> 20         0.00234
       5 -> 21         0.00702
       5 -> 22        -0.00186
       5 -> 23        -0.00193
       5 -> 27         0.00101
       5 -> 28         0.00208
       5 -> 29         0.00112
       5 -> 30        -0.00419
       6 -> 16         0.00819
       6 -> 19        -0.01006
       6 -> 20         0.00231
       6 -> 21         0.00978
       6 -> 22         0.00268
       6 -> 23        -0.00385
       6 -> 27        -0.00641
       6 -> 28         0.00168
       6 -> 29        -0.00191
       7 -> 17        -0.00280
       7 -> 18         0.00209
       7 -> 20        -0.00260
       7 -> 21         0.01162
       7 -> 22        -0.00315
       7 -> 23         0.02086
       7 -> 24        -0.01388
       7 -> 25        -0.00796
       7 -> 26         0.00344
       7 -> 27         0.00124
       8 -> 16         0.00387
       8 -> 17        -0.00918
       8 -> 18        -0.01287
       8 -> 19         0.00783
       8 -> 20        -0.00592
       8 -> 21        -0.00884
       8 -> 22         0.00646
       8 -> 23        -0.01780
       8 -> 24        -0.02784
       8 -> 25         0.00791
       8 -> 26         0.02424
       8 -> 27        -0.00105
       8 -> 28         0.00306
       9 -> 16        -0.00108
       9 -> 17         0.00931
       9 -> 18         0.01142
       9 -> 19        -0.00463
       9 -> 20         0.00360
       9 -> 22        -0.00343
       9 -> 23        -0.00290
       9 -> 24         0.01503
       9 -> 25         0.00506
       9 -> 26        -0.01955
       9 -> 27         0.00722
       9 -> 28        -0.00185
       9 -> 29        -0.02403
       9 -> 30        -0.00109
      10 -> 17         0.01548
      10 -> 18         0.03557
      10 -> 20        -0.00380
      10 -> 21         0.01241
      10 -> 22        -0.00971
      10 -> 23         0.01170
      10 -> 24        -0.00526
      10 -> 25        -0.02209
      10 -> 26        -0.00428
      10 -> 27         0.00147
      10 -> 29         0.01109
      10 -> 30         0.00319
      11 -> 18        -0.00983
      11 -> 19         0.00287
      11 -> 20         0.00109
      11 -> 21        -0.00534
      11 -> 22         0.00261
      11 -> 23        -0.01037
      11 -> 24        -0.00238
      11 -> 25         0.00805
      11 -> 26         0.00400
      11 -> 27        -0.00114
      11 -> 28         0.00100
      11 -> 29         0.00419
      12 -> 16         0.03607
      12 -> 17        -0.10204
      12 -> 18        -0.01917
      12 -> 19         0.04755
      12 -> 20        -0.00735
      12 -> 21         0.02285
      12 -> 22        -0.01336
      12 -> 24         0.00566
      12 -> 26         0.01135
      12 -> 27         0.00391
      12 -> 28        -0.03520
      12 -> 29         0.00527
      12 -> 30        -0.02909
      13 -> 16         0.06615
      13 -> 17         0.04303
      13 -> 18         0.00204
      13 -> 19         0.01879
      13 -> 20         0.01303
      13 -> 21        -0.04197
      13 -> 22        -0.00690
      13 -> 23         0.01078
      13 -> 24        -0.00824
      13 -> 25         0.00726
      13 -> 26         0.00305
      13 -> 27         0.03710
      13 -> 28         0.00395
      13 -> 29         0.01310
      13 -> 30        -0.00934
      14 -> 16         0.32382
      14 -> 17         0.39803
      14 -> 18         0.01754
      14 -> 19        -0.01102
      14 -> 20         0.00373
      14 -> 21        -0.00721
      14 -> 22        -0.00239
      14 -> 23         0.01707
      14 -> 24        -0.00237
      14 -> 25        -0.01177
      14 -> 26        -0.00787
      14 -> 27         0.01063
      14 -> 28         0.00927
      14 -> 29         0.00286
      14 -> 30         0.00669
      15 -> 16         0.34954
      15 -> 17        -0.30458
      15 -> 18        -0.00667
      15 -> 19         0.01337
      15 -> 20        -0.01555
      15 -> 21        -0.00206
      15 -> 22         0.00129
      15 -> 23         0.00639
      15 -> 24         0.00106
      15 -> 26         0.00582
      15 -> 27         0.00600
      15 -> 28        -0.01028
      15 -> 29         0.00642
      15 -> 30         0.00277
       1 <- 19         0.00105
       1 <- 21        -0.00112
       1 <- 27         0.00341
       1 <- 28        -0.00128
       2 <- 22        -0.00190
       2 <- 24         0.00469
       2 <- 26        -0.00225
       2 <- 29        -0.00293
       3 <- 19         0.00140
       3 <- 20         0.00157
       3 <- 21        -0.00188
       3 <- 22         0.00446
       3 <- 23        -0.00310
       3 <- 25         0.00238
       3 <- 29        -0.00108
       4 <- 19        -0.00649
       4 <- 20        -0.00536
       4 <- 22         0.00331
       4 <- 30         0.00421
       5 <- 18        -0.00137
       5 <- 19         0.00354
       5 <- 20         0.00198
       5 <- 21         0.00427
       5 <- 22        -0.00151
       5 <- 23        -0.00119
       5 <- 30        -0.00259
       6 <- 19        -0.00451
       6 <- 21         0.00408
       6 <- 22         0.00127
       6 <- 23        -0.00161
       6 <- 27        -0.00128
       7 <- 21         0.00435
       7 <- 22        -0.00130
       7 <- 23         0.00896
       7 <- 24        -0.00593
       7 <- 25        -0.00249
       7 <- 26         0.00115
       8 <- 17        -0.00104
       8 <- 19         0.00320
       8 <- 20        -0.00250
       8 <- 21        -0.00296
       8 <- 22         0.00309
       8 <- 23        -0.00776
       8 <- 24        -0.01302
       8 <- 25         0.00309
       8 <- 26         0.00899
       8 <- 28         0.00124
       9 <- 16        -0.00126
       9 <- 19        -0.00210
       9 <- 20         0.00145
       9 <- 22        -0.00176
       9 <- 24         0.00721
       9 <- 25         0.00168
       9 <- 26        -0.00877
       9 <- 27         0.00291
       9 <- 29        -0.00753
      10 <- 17         0.00163
      10 <- 19        -0.00137
      10 <- 20        -0.00159
      10 <- 21         0.00368
      10 <- 22        -0.00368
      10 <- 23         0.00547
      10 <- 24        -0.00203
      10 <- 25        -0.00904
      10 <- 26        -0.00161
      10 <- 29         0.00347
      10 <- 30         0.00141
      11 <- 17        -0.00257
      11 <- 18         0.00172
      11 <- 21        -0.00196
      11 <- 23        -0.00136
      11 <- 26         0.00124
      11 <- 28         0.00155
      12 <- 16         0.00284
      12 <- 17        -0.00778
      12 <- 18        -0.00302
      12 <- 19         0.01475
      12 <- 21         0.00726
      12 <- 22        -0.00474
      12 <- 24         0.00184
      12 <- 26         0.00326
      12 <- 27         0.00184
      12 <- 28        -0.01203
      12 <- 29         0.00161
      12 <- 30        -0.01060
      13 <- 16         0.00270
      13 <- 17         0.00228
      13 <- 19         0.00572
      13 <- 20         0.00434
      13 <- 21        -0.01142
      13 <- 22        -0.00257
      13 <- 23         0.00286
      13 <- 24        -0.00241
      13 <- 25         0.00251
      13 <- 27         0.01231
      13 <- 28         0.00115
      13 <- 29         0.00397
      13 <- 30        -0.00354
      14 <- 16        -0.05248
      14 <- 17        -0.06364
      14 <- 18         0.00421
      14 <- 20        -0.00148
      14 <- 21        -0.00142
      14 <- 22        -0.00152
      14 <- 23         0.00162
      14 <- 27         0.00161
      15 <- 16        -0.06597
      15 <- 17         0.05579
      15 <- 20        -0.00132
      15 <- 21        -0.00178
      15 <- 26         0.00119
      15 <- 28        -0.00188
 
 Excited state symmetry could not be determined.
 Excited State   5:      Singlet-?Sym    5.9478 eV  208.46 nm  f=0.0049  <S**2>=0.000
       1 -> 16         0.00293
       1 -> 17         0.00207
       2 -> 16         0.00199
       2 -> 17        -0.00116
       2 -> 18        -0.00722
       3 -> 16         0.00191
       3 -> 18         0.00476
       3 -> 22         0.00112
       4 -> 16         0.02233
       4 -> 17         0.01073
       4 -> 18         0.00134
       4 -> 22         0.00182
       5 -> 16         0.02962
       5 -> 17        -0.00645
       5 -> 21         0.00245
       5 -> 30        -0.00107
       6 -> 16        -0.02207
       6 -> 17        -0.01544
       6 -> 18        -0.00316
       7 -> 17         0.00902
       7 -> 18         0.05823
       7 -> 19         0.00354
       7 -> 20         0.00175
       7 -> 21         0.00611
       7 -> 22         0.00284
       7 -> 24        -0.00438
       7 -> 29        -0.00244
       8 -> 16        -0.00315
       8 -> 17        -0.01026
       8 -> 18        -0.07642
       8 -> 19        -0.00426
       8 -> 20        -0.00285
       8 -> 21        -0.01067
       8 -> 22        -0.00136
       8 -> 23        -0.00303
       8 -> 25         0.00175
       8 -> 26         0.00302
       8 -> 28         0.00161
       8 -> 29        -0.00218
       9 -> 16         0.01024
       9 -> 17        -0.01181
       9 -> 18        -0.07460
       9 -> 19        -0.00610
       9 -> 20        -0.00261
       9 -> 21        -0.00700
       9 -> 22        -0.00667
       9 -> 28         0.00159
       9 -> 29        -0.00220
      10 -> 16        -0.01885
      10 -> 17         0.00139
      10 -> 18        -0.05478
      10 -> 19        -0.00428
      10 -> 21        -0.00309
      10 -> 22        -0.00352
      10 -> 23         0.00306
      10 -> 24         0.00304
      10 -> 25        -0.00195
      10 -> 26        -0.00169
      10 -> 27        -0.00256
      11 -> 16        -0.01358
      11 -> 17         0.00429
      11 -> 18         0.01597
      11 -> 19        -0.00217
      11 -> 20        -0.00411
      11 -> 21         0.00555
      11 -> 22        -0.01230
      11 -> 23         0.00293
      11 -> 24        -0.01397
      11 -> 25         0.00169
      11 -> 29        -0.00584
      11 -> 30        -0.00134
      12 -> 16        -0.13376
      12 -> 17        -0.05116
      12 -> 18        -0.01636
      12 -> 19         0.00273
      12 -> 20        -0.00439
      12 -> 21         0.00492
      12 -> 22        -0.00489
      12 -> 24         0.00131
      12 -> 27        -0.00434
      12 -> 28        -0.00637
      12 -> 29         0.00145
      12 -> 30        -0.00304
      13 -> 16        -0.62025
      13 -> 17         0.25155
      13 -> 18         0.02481
      13 -> 19         0.00520
      13 -> 21        -0.00490
      13 -> 22        -0.00106
      13 -> 24         0.00147
      13 -> 25         0.00253
      13 -> 27         0.00272
      13 -> 28        -0.00254
      14 -> 16         0.03635
      14 -> 17         0.00812
      14 -> 18         0.02941
      14 -> 19         0.01196
      14 -> 20        -0.03564
      14 -> 21         0.00362
      14 -> 22         0.01115
      14 -> 23         0.01003
      14 -> 24         0.00296
      14 -> 25        -0.00298
      14 -> 27         0.00379
      14 -> 30         0.01024
      15 -> 16         0.01463
      15 -> 17        -0.03467
      15 -> 18         0.01673
      15 -> 19         0.04354
      15 -> 20         0.01884
      15 -> 21        -0.00470
      15 -> 22        -0.01562
      15 -> 23         0.00858
      15 -> 24        -0.00976
      15 -> 25        -0.00183
      15 -> 26         0.00123
      15 -> 27         0.00356
      15 -> 28         0.01450
      15 -> 29         0.00546
      15 -> 30        -0.01158
       4 <- 17        -0.00156
       5 <- 16        -0.00112
       7 <- 24        -0.00134
       8 <- 18         0.00119
       8 <- 21        -0.00122
       8 <- 23        -0.00128
       9 <- 18         0.00118
       9 <- 22        -0.00104
       9 <- 29        -0.00116
      11 <- 16        -0.00162
      11 <- 17         0.00214
      11 <- 19        -0.00201
      11 <- 20        -0.00158
      11 <- 22        -0.00548
      11 <- 24        -0.00132
      11 <- 29        -0.00315
      12 <- 17        -0.00114
      12 <- 19         0.00105
      12 <- 20        -0.00131
      12 <- 21         0.00233
      12 <- 22        -0.00113
      12 <- 27        -0.00143
      12 <- 28        -0.00208
      13 <- 16         0.00262
      14 <- 16        -0.00558
      14 <- 17        -0.00337
      14 <- 18        -0.00328
      14 <- 19         0.00995
      14 <- 20        -0.01023
      14 <- 22         0.00209
      14 <- 23         0.00261
      14 <- 24         0.00205
      14 <- 26         0.00142
      14 <- 27         0.00277
      14 <- 28        -0.00571
      14 <- 30         0.00201
      15 <- 17         0.00948
      15 <- 18        -0.00230
      15 <- 19         0.00901
      15 <- 20         0.00245
      15 <- 21        -0.00893
      15 <- 22        -0.00358
      15 <- 23         0.00289
      15 <- 24        -0.00172
      15 <- 25         0.00117
      15 <- 27         0.00631
      15 <- 28         0.00229
      15 <- 29         0.00245
      15 <- 30        -0.00238
 SavETr:  write IOETrn=   770 NScale= 10 NData=  16 NLR=1 NState=    5 LETran=     100.

 **********************************************************************

            Population analysis using the SCF Density.

 **********************************************************************

 Alpha  occ. eigenvalues --   -1.43414  -1.15939  -1.14524  -0.84996  -0.84659
 Alpha  occ. eigenvalues --   -0.65607  -0.59823  -0.56416  -0.52504  -0.51808
 Alpha  occ. eigenvalues --   -0.48829  -0.44096  -0.43480  -0.35568  -0.35029
 Alpha virt. eigenvalues --    0.01760   0.02015   0.10578   0.14662   0.14810
 Alpha virt. eigenvalues --    0.14980   0.15830   0.16901   0.17188   0.18734
 Alpha virt. eigenvalues --    0.18960   0.20573   0.20690   0.20934   0.22502
          Condensed to atoms (all electrons):
               1          2          3          4          5          6
     1  C    4.130793   0.000000   0.000000   0.000000   0.000000   0.000000
     2  C    0.000000   4.132648   0.000000   0.000000   0.000000   0.000000
     3  C    0.000000   0.000000   4.127879   0.000000   0.000000   0.000000
     4  C    0.000000   0.000000   0.000000   4.133120   0.000000   0.000000
     5  C    0.000000   0.000000   0.000000   0.000000   4.131019   0.000000
     6  C    0.000000   0.000000   0.000000   0.000000   0.000000   4.125848
     7  H    0.000000   0.000000   0.000000   0.000000   0.000000   0.000000
     8  H    0.000000   0.000000   0.000000   0.000000   0.000000   0.000000
     9  H    0.000000   0.000000   0.000000   0.000000   0.000000   0.000000
    10  H    0.000000   0.000000   0.000000   0.000000   0.000000   0.000000
    11  H    0.000000   0.000000   0.000000   0.000000   0.000000   0.000000
    12  H    0.000000   0.000000   0.000000   0.000000   0.000000   0.000000
               7          8          9         10         11         12
     1  C    0.000000   0.000000   0.000000   0.000000   0.000000   0.000000
     2  C    0.000000   0.000000   0.000000   0.000000   0.000000   0.000000
     3  C    0.000000   0.000000   0.000000   0.000000   0.000000   0.000000
     4  C    0.000000   0.000000   0.000000   0.000000   0.000000   0.000000
     5  C    0.000000   0.000000   0.000000   0.000000   0.000000   0.000000
     6  C    0.000000   0.000000   0.000000   0.000000   0.000000   0.000000
     7  H    0.875384   0.000000   0.000000   0.000000   0.000000   0.000000
     8  H    0.000000   0.863544   0.000000   0.000000   0.000000   0.000000
     9  H    0.000000   0.000000   0.879340   0.000000   0.000000   0.000000
    10  H    0.000000   0.000000   0.000000   0.862547   0.000000   0.000000
    11  H    0.000000   0.000000   0.000000   0.000000   0.873112   0.000000
    12  H    0.000000   0.000000   0.000000   0.000000   0.000000   0.864766
 Mulliken charges:
               1
     1  C   -0.130793
     2  C   -0.132648
     3  C   -0.127879
     4  C   -0.133120
     5  C   -0.131019
     6  C   -0.125848
     7  H    0.124616
     8  H    0.136456
     9  H    0.120660
    10  H    0.137453
    11  H    0.126888
    12  H    0.135234
 Sum of Mulliken charges =  -0.00000
 Mulliken charges with hydrogens summed into heavy atoms:
               1
     1  C   -0.006177
     2  C    0.003808
     3  C   -0.007219
     4  C    0.004333
     5  C   -0.004132
     6  C    0.009386
 Charge=             -0.0000 electrons
 Dipole moment (field-independent basis, Debye):
    X=             -0.0051    Y=             -0.0234    Z=              0.1949  Tot=              0.1964
 N-N= 1.195298295148D+02 E-N=-1.703863707069D+02  KE=-4.784952044809D+01

 Test job not archived.
 1\1\GINC-BHC0189\SP\RAM1 TD-Full\STO-5G\C6H6\BWEIGHT\21-Mar-2025\0\\# 
 AM1/STO-5G SCF=XQC TD=(read,singlets,nstates=5,root=1) nosym IOp(9/40=
 3) guess=read\\MD Step 24\\0,1\C,0,-0.70868007,-1.20405722,-0.00152336
 \C,0,0.71145655,-1.2100495,0.04992303\C,0,1.37770201,-0.00581672,-0.07
 289277\C,0,0.7116021,1.22307735,0.01720099\C,0,-0.6847817,1.20899943,0
 .00201633\C,0,-1.41493043,-0.02094275,-0.02530601\H,0,-1.20095473,-2.1
 4992024,0.01666572\H,0,1.20039616,-2.20948111,0.12832553\H,0,2.4489868
 5,0.01536229,-0.06536013\H,0,1.3171112,2.09642475,0.25800711\H,0,-1.20
 618195,2.16900931,-0.0168791\H,0,-2.51093175,0.02540786,-0.07727143\\V
 ersion=ES64L-G16RevC.01\HF=0.04496\RMSD=3.378e-09\PG=C01 [X(C6H6)]\\@


 HE THAT IS UNAWARE OF HIS IGNORANCE WILL BE MISLED BY HIS KNOWLEDGE.

                                        -- WHATLEY
 Job cpu time:       0 days  0 hours  0 minutes  1.0 seconds.
 Elapsed time:       0 days  0 hours  0 minutes  0.8 seconds.
 File lengths (MBytes):  RWF=     34 Int=      0 D2E=      0 Chk=      2 Scr=      1
 Normal termination of Gaussian 16 at Fri Mar 21 15:03:19 2025.
