%chk=geometry.chk
%nprocshared=4
%mem=5GB

# OPT B3LYP/6-31G*

Title Card Required

0 1
 C                 -0.71092831   -0.03525264    0.00000000
 C                  0.65369469   -0.03525264    0.00000000
 C                  1.38658569    1.19596836    0.00000000
 C                  0.66258869    2.42771536   -0.00551800
 C                 -0.76965131    2.38622436   -0.00681800
 C                 -1.43343431    1.19393136   -0.00344700
 C                  2.78548669    1.21885736    0.00489600
 C                  2.76190669    3.66176636   -0.00161400
 C                  3.48587569    2.43006336    0.00580600
 C                  4.91805769    2.47168736    0.01291600
 H                  5.46392769    1.51616036    0.01951700
 C                  5.58179469    3.66404236    0.01395800
 C                  4.85931169    4.89315736    0.00578600
 C                  3.49466869    4.89301236   -0.00158100
 H                 -1.27680031   -0.97853064    0.00240400
 H                  1.22302069   -0.97698664    0.00310600
 H                 -1.31546431    3.34177036   -0.01142200
 H                  6.68120069    3.69994636    0.02011800
 H                  2.92512569    5.83462936   -0.00785300
 N                  5.61579085    6.15356885    0.00724930
 N                 -2.90263837    1.14560148   -0.00535935
 P                  5.04229008    9.19347011    0.25951915
 C                  3.56559353   -0.10892155    0.01093735
 C                  4.49460750   -0.36752016    1.01916909
 C                  3.34334631   -1.05304785   -0.99144971
 C                  5.20165925   -1.56971422    1.02455519
 H                  4.67015158    0.37734121    1.80885738
 C                  4.04981576   -2.25607620   -0.98565386
 H                  2.61104562   -0.84946994   -1.78606959
 C                  4.97896648   -2.51448079    0.02203807
 H                  5.93438957   -1.77334914    1.81886975
 H                  3.87407632   -3.00046560   -1.77589073
 H                  5.53652789   -3.46232121    0.02652559
 F                  4.34078746    7.72216674    0.26729662
 F                  3.57103311    9.89484882    0.24026242
 F                  5.02825478    9.20877765    1.88938684
 F                  5.74379270   10.66477347    0.25174167
 F                  5.05632537    9.17816256   -1.37034854
 F                  6.51354706    8.49209139    0.27877588
 C                  6.45781517    6.21828173    1.21045638
 H                  7.28490667    5.54793167    1.10344959
 H                  6.82181730    7.21637392    1.33779229
 H                  5.87962331    5.93764351    2.06593073
 C                  6.46640319    6.21591423   -1.19002748
 H                  6.88575600    7.19628920   -1.27895514
 H                  7.25454924    5.49718795   -1.10542051
 H                  5.87805724    5.99964614   -2.05719365
 C                 -3.37126551    0.44027549    1.19622454
 H                 -4.42077090    0.60709041    1.32116940
 H                 -3.18707268   -0.60827389    1.08890633
 H                 -2.84706232    0.80860964    2.05321986
 C                 -3.36791918    0.43353317   -1.20426405
 H                 -3.12183024   -0.60441789   -1.12061098
 H                 -4.42851268    0.54246924   -1.29467629
 H                 -2.89208825    0.84424017   -2.07017668
 O                  1.36296569    3.63888236   -0.00723900







