 Entering Gaussian System, Link 0=g16
 Initial command:
 /software/gaussian/g16-c01/avx2/g16/l1.exe "/local_scratch/28554378/Gau-14718.inp" -scrdir="/local_scratch/28554378/"
 Entering Link 1 = /software/gaussian/g16-c01/avx2/g16/l1.exe PID=     14746.
  
 Copyright (c) 1988-2019, Gaussian, Inc.  All Rights Reserved.
  
 This is part of the Gaussian(R) 16 program.  It is based on
 the Gaussian(R) 09 system (copyright 2009, Gaussian, Inc.),
 the Gaussian(R) 03 system (copyright 2003, Gaussian, Inc.),
 the Gaussian(R) 98 system (copyright 1998, Gaussian, Inc.),
 the Gaussian(R) 94 system (copyright 1995, Gaussian, Inc.),
 the Gaussian 92(TM) system (copyright 1992, Gaussian, Inc.),
 the Gaussian 90(TM) system (copyright 1990, Gaussian, Inc.),
 the Gaussian 88(TM) system (copyright 1988, Gaussian, Inc.),
 the Gaussian 86(TM) system (copyright 1986, Carnegie Mellon
 University), and the Gaussian 82(TM) system (copyright 1983,
 Carnegie Mellon University). Gaussian is a federally registered
 trademark of Gaussian, Inc.
  
 This software contains proprietary and confidential information,
 including trade secrets, belonging to Gaussian, Inc.
  
 This software is provided under written license and may be
 used, copied, transmitted, or stored only in accord with that
 written license.
  
 The following legend is applicable only to US Government
 contracts under FAR:
  
                    RESTRICTED RIGHTS LEGEND
  
 Use, reproduction and disclosure by the US Government is
 subject to restrictions as set forth in subparagraphs (a)
 and (c) of the Commercial Computer Software - Restricted
 Rights clause in FAR 52.227-19.
  
 Gaussian, Inc.
 340 Quinnipiac St., Bldg. 40, Wallingford CT 06492
  
  
 ---------------------------------------------------------------
 Warning -- This program may not be used in any manner that
 competes with the business of Gaussian, Inc. or will provide
 assistance to any competitor of Gaussian, Inc.  The licensee
 of this program is prohibited from giving any competitor of
 Gaussian, Inc. access to this program.  By using this program,
 the user acknowledges that Gaussian, Inc. is engaged in the
 business of creating and licensing software in the field of
 computational chemistry and represents and warrants to the
 licensee that it is not a competitor of Gaussian, Inc. and that
 it will not use this program in any manner prohibited above.
 ---------------------------------------------------------------
  

 Cite this work as:
 Gaussian 16, Revision C.01,
 M. J. Frisch, G. W. Trucks, H. B. Schlegel, G. E. Scuseria, 
 M. A. Robb, J. R. Cheeseman, G. Scalmani, V. Barone, 
 G. A. Petersson, H. Nakatsuji, X. Li, M. Caricato, A. V. Marenich, 
 J. Bloino, B. G. Janesko, R. Gomperts, B. Mennucci, H. P. Hratchian, 
 J. V. Ortiz, A. F. Izmaylov, J. L. Sonnenberg, D. Williams-Young, 
 F. Ding, F. Lipparini, F. Egidi, J. Goings, B. Peng, A. Petrone, 
 T. Henderson, D. Ranasinghe, V. G. Zakrzewski, J. Gao, N. Rega, 
 G. Zheng, W. Liang, M. Hada, M. Ehara, K. Toyota, R. Fukuda, 
 J. Hasegawa, M. Ishida, T. Nakajima, Y. Honda, O. Kitao, H. Nakai, 
 T. Vreven, K. Throssell, J. A. Montgomery, Jr., J. E. Peralta, 
 F. Ogliaro, M. J. Bearpark, J. J. Heyd, E. N. Brothers, K. N. Kudin, 
 V. N. Staroverov, T. A. Keith, R. Kobayashi, J. Normand, 
 K. Raghavachari, A. P. Rendell, J. C. Burant, S. S. Iyengar, 
 J. Tomasi, M. Cossi, J. M. Millam, M. Klene, C. Adamo, R. Cammi, 
 J. W. Ochterski, R. L. Martin, K. Morokuma, O. Farkas, 
 J. B. Foresman, and D. J. Fox, Gaussian, Inc., Wallingford CT, 2019.
 
 ******************************************
 Gaussian 16:  ES64L-G16RevC.01  3-Jul-2019
                21-Mar-2025 
 ******************************************
 %oldchk=../GS_OLD/geometry.chk
 %chk=geometry.chk
 %nprocshared=1
 Will use up to    1 processors via shared memory.
 %mem=2GB
 Copying data from "../GS_OLD/geometry.chk" to current chk file "geometry.chk"
 IOpt=  2 FromEx=T IUOpen= 4 IOptOp= 5 NList=   0 IFRang= 0 IUIn= 4 IUOut= 2.
 -------------------------------------------
 # AM1/STO-5G SCF=XQC FORCE nosym guess=read
 -------------------------------------------
 1/10=7,30=1,38=1/1,3;
 2/12=2,15=1,17=6,18=5,40=1/2;
 3/5=2,6=5,25=1,41=700000,71=1,116=-2/1,2,3;
 4/5=1,35=1/1;
 5/5=2,8=3,13=1,35=1,38=6/2,8;
 6/7=2,8=2,9=2,10=2,28=1/1;
 7/29=1,30=1/1,2,3,16;
 1/10=7,30=1/3;
 99//99;
 ----------
 MD Step 19
 ----------
 Symbolic Z-matrix:
 Charge =  0 Multiplicity = 1
 C                    -0.68807  -1.24227   0.00744 
 C                     0.70398  -1.20919  -0.01317 
 C                     1.3689    0.00705  -0.0158 
 C                     0.69559   1.18821   0.02918 
 C                    -0.70521   1.25423  -0.0465 
 C                    -1.3836    0.01399   0.00808 
 H                    -1.21037  -2.19083  -0.09409 
 H                     1.24138  -2.20924   0.13883 
 H                     2.43655  -0.08977   0.057 
 H                     1.27977   2.18875   0.06003 
 H                    -1.27157   2.18555  -0.1185 
 H                    -2.44023  -0.05586   0.12272 
 

 GradGradGradGradGradGradGradGradGradGradGradGradGradGradGradGradGradGrad
 Berny optimization.
 Initialization pass.
 Trust Radius=3.00D-01 FncErr=1.00D-07 GrdErr=1.00D-07 EigMax=2.50D+02 EigMin=1.00D-04
 Number of steps in this run=      2 maximum allowed number of steps=      2.
 GradGradGradGradGradGradGradGradGradGradGradGradGradGradGradGradGradGrad

                          Input orientation:                          
 ---------------------------------------------------------------------
 Center     Atomic      Atomic             Coordinates (Angstroms)
 Number     Number       Type             X           Y           Z
 ---------------------------------------------------------------------
      1          6           0       -0.688075   -1.242272    0.007440
      2          6           0        0.703984   -1.209186   -0.013168
      3          6           0        1.368898    0.007053   -0.015796
      4          6           0        0.695590    1.188205    0.029183
      5          6           0       -0.705212    1.254234   -0.046501
      6          6           0       -1.383602    0.013995    0.008077
      7          1           0       -1.210365   -2.190829   -0.094094
      8          1           0        1.241380   -2.209238    0.138830
      9          1           0        2.436552   -0.089765    0.056997
     10          1           0        1.279770    2.188751    0.060034
     11          1           0       -1.271566    2.185550   -0.118501
     12          1           0       -2.440233   -0.055856    0.122719
 ---------------------------------------------------------------------
                    Distance matrix (angstroms):
                    1          2          3          4          5
     1  C    0.000000
     2  C    1.392605   0.000000
     3  C    2.406760   1.386130   0.000000
     4  C    2.796823   2.397780   1.360326   0.000000
     5  C    2.497147   2.838201   2.420400   1.404399   0.000000
     6  C    1.435954   2.419636   2.752612   2.387940   1.414703
     7  H    1.087593   2.152883   3.389604   3.881461   3.482227
     8  H    2.162194   1.145426   2.225336   3.442750   3.977337
     9  H    3.330769   2.063932   1.074503   2.159845   3.418732
    10  H    3.955642   3.447154   2.184835   1.159013   2.196550
    11  H    3.479409   3.929138   3.424682   2.210478   1.092378
    12  H    2.119181   3.351826   3.812168   3.374881   2.180657
                    6          7          8          9         10
     6  C    0.000000
     7  H    2.213978   0.000000
     8  H    3.442439   2.462853   0.000000
     9  H    3.821875   4.211568   2.434604   0.000000
    10  H    3.438869   5.040363   4.398863   2.555346   0.000000
    11  H    2.178124   4.376875   5.069051   4.354078   2.557577
    12  H    1.065125   2.473397   4.265160   4.877345   4.345183
                   11         12
    11  H    0.000000
    12  H    2.539265   0.000000
 Symmetry turned off by external request.
 Stoichiometry    C6H6
 Framework group  C1[X(C6H6)]
 Deg. of freedom    30
 Full point group                 C1      NOp   1
 Rotational constants (GHZ):           5.8047452           5.5173600           2.8319529
 Standard basis: VSTO-5G (5D, 7F)
    30 basis functions,   180 primitive gaussians,    30 cartesian basis functions
    15 alpha electrons       15 beta electrons
       nuclear repulsion energy       119.4423847069 Hartrees.
 Integral buffers will be    131072 words long.
 Regular integral format.
 Two-electron integral symmetry is turned off.
 Do NDO integrals.
 One-electron integrals computed using PRISM.
 NBasis=    30 RedAO= F EigKep=  0.00D+00  NBF=    30
 NBsUse=    30 1.00D-04 EigRej=  0.00D+00 NBFU=    30
 Initial guess from the checkpoint file:  "geometry.chk"
 B after Tr=     0.000534    0.000977    0.001032
         Rot=    1.000000   -0.000265    0.000145    0.000175 Ang=  -0.04 deg.
 Keep J ints in memory in canonical form, NReq=861816.
 Overlap will be assumed to be unity.
 Requested convergence on RMS density matrix=1.00D-08 within  32 cycles.
 Requested convergence on MAX density matrix=1.00D-06.
 Requested convergence on             energy=1.00D-06.
 No special actions if energy rises.
 SCF Done:  E(RAM1) =  0.499875669311E-01 A.U. after   12 cycles
            NFock= 11  Conv=0.71D-08     -V/T= 1.0010
 QCSCF skips out because SCF is already converged.

 **********************************************************************

            Population analysis using the SCF Density.

 **********************************************************************

 Alpha  occ. eigenvalues --   -1.43479  -1.15239  -1.14792  -0.84821  -0.84326
 Alpha  occ. eigenvalues --   -0.65428  -0.59219  -0.56510  -0.52193  -0.51631
 Alpha  occ. eigenvalues --   -0.48940  -0.43933  -0.43157  -0.35311  -0.35237
 Alpha virt. eigenvalues --    0.01871   0.02029   0.10747   0.13871   0.14459
 Alpha virt. eigenvalues --    0.15148   0.15580   0.16758   0.17088   0.18747
 Alpha virt. eigenvalues --    0.18864   0.20389   0.20752   0.21193   0.22505
          Condensed to atoms (all electrons):
               1          2          3          4          5          6
     1  C    4.140498   0.000000   0.000000   0.000000   0.000000   0.000000
     2  C    0.000000   4.138744   0.000000   0.000000   0.000000   0.000000
     3  C    0.000000   0.000000   4.124799   0.000000   0.000000   0.000000
     4  C    0.000000   0.000000   0.000000   4.122866   0.000000   0.000000
     5  C    0.000000   0.000000   0.000000   0.000000   4.126297   0.000000
     6  C    0.000000   0.000000   0.000000   0.000000   0.000000   4.132681
     7  H    0.000000   0.000000   0.000000   0.000000   0.000000   0.000000
     8  H    0.000000   0.000000   0.000000   0.000000   0.000000   0.000000
     9  H    0.000000   0.000000   0.000000   0.000000   0.000000   0.000000
    10  H    0.000000   0.000000   0.000000   0.000000   0.000000   0.000000
    11  H    0.000000   0.000000   0.000000   0.000000   0.000000   0.000000
    12  H    0.000000   0.000000   0.000000   0.000000   0.000000   0.000000
               7          8          9         10         11         12
     1  C    0.000000   0.000000   0.000000   0.000000   0.000000   0.000000
     2  C    0.000000   0.000000   0.000000   0.000000   0.000000   0.000000
     3  C    0.000000   0.000000   0.000000   0.000000   0.000000   0.000000
     4  C    0.000000   0.000000   0.000000   0.000000   0.000000   0.000000
     5  C    0.000000   0.000000   0.000000   0.000000   0.000000   0.000000
     6  C    0.000000   0.000000   0.000000   0.000000   0.000000   0.000000
     7  H    0.864530   0.000000   0.000000   0.000000   0.000000   0.000000
     8  H    0.000000   0.867797   0.000000   0.000000   0.000000   0.000000
     9  H    0.000000   0.000000   0.874112   0.000000   0.000000   0.000000
    10  H    0.000000   0.000000   0.000000   0.871462   0.000000   0.000000
    11  H    0.000000   0.000000   0.000000   0.000000   0.859149   0.000000
    12  H    0.000000   0.000000   0.000000   0.000000   0.000000   0.877067
 Mulliken charges:
               1
     1  C   -0.140498
     2  C   -0.138744
     3  C   -0.124799
     4  C   -0.122866
     5  C   -0.126297
     6  C   -0.132681
     7  H    0.135470
     8  H    0.132203
     9  H    0.125888
    10  H    0.128538
    11  H    0.140851
    12  H    0.122933
 Sum of Mulliken charges =   0.00000
 Mulliken charges with hydrogens summed into heavy atoms:
               1
     1  C   -0.005027
     2  C   -0.006541
     3  C    0.001089
     4  C    0.005672
     5  C    0.014555
     6  C   -0.009748
 Charge=              0.0000 electrons
 Dipole moment (field-independent basis, Debye):
    X=             -0.0144    Y=             -0.0195    Z=              0.1245  Tot=              0.1269
 N-N= 1.194423847069D+02 E-N=-1.702687579408D+02  KE=-4.783172778753D+01
 Calling FoFJK, ICntrl=      2127 FMM=F ISym2X=0 I1Cent= 0 IOpClX= 0 NMat=1 NMatS=1 NMatT=0.
