 Entering Gaussian System, Link 0=g16
 Initial command:
 /software/gaussian/g16-c01/avx2/g16/l1.exe "/local_scratch/28554171/Gau-28325.inp" -scrdir="/local_scratch/28554171/"
 Entering Link 1 = /software/gaussian/g16-c01/avx2/g16/l1.exe PID=     28348.
  
 Copyright (c) 1988-2019, Gaussian, Inc.  All Rights Reserved.
  
 This is part of the Gaussian(R) 16 program.  It is based on
 the Gaussian(R) 09 system (copyright 2009, Gaussian, Inc.),
 the Gaussian(R) 03 system (copyright 2003, Gaussian, Inc.),
 the Gaussian(R) 98 system (copyright 1998, Gaussian, Inc.),
 the Gaussian(R) 94 system (copyright 1995, Gaussian, Inc.),
 the Gaussian 92(TM) system (copyright 1992, Gaussian, Inc.),
 the Gaussian 90(TM) system (copyright 1990, Gaussian, Inc.),
 the Gaussian 88(TM) system (copyright 1988, Gaussian, Inc.),
 the Gaussian 86(TM) system (copyright 1986, Carnegie Mellon
 University), and the Gaussian 82(TM) system (copyright 1983,
 Carnegie Mellon University). Gaussian is a federally registered
 trademark of Gaussian, Inc.
  
 This software contains proprietary and confidential information,
 including trade secrets, belonging to Gaussian, Inc.
  
 This software is provided under written license and may be
 used, copied, transmitted, or stored only in accord with that
 written license.
  
 The following legend is applicable only to US Government
 contracts under FAR:
  
                    RESTRICTED RIGHTS LEGEND
  
 Use, reproduction and disclosure by the US Government is
 subject to restrictions as set forth in subparagraphs (a)
 and (c) of the Commercial Computer Software - Restricted
 Rights clause in FAR 52.227-19.
  
 Gaussian, Inc.
 340 Quinnipiac St., Bldg. 40, Wallingford CT 06492
  
  
 ---------------------------------------------------------------
 Warning -- This program may not be used in any manner that
 competes with the business of Gaussian, Inc. or will provide
 assistance to any competitor of Gaussian, Inc.  The licensee
 of this program is prohibited from giving any competitor of
 Gaussian, Inc. access to this program.  By using this program,
 the user acknowledges that Gaussian, Inc. is engaged in the
 business of creating and licensing software in the field of
 computational chemistry and represents and warrants to the
 licensee that it is not a competitor of Gaussian, Inc. and that
 it will not use this program in any manner prohibited above.
 ---------------------------------------------------------------
  

 Cite this work as:
 Gaussian 16, Revision C.01,
 M. J. Frisch, G. W. Trucks, H. B. Schlegel, G. E. Scuseria, 
 M. A. Robb, J. R. Cheeseman, G. Scalmani, V. Barone, 
 G. A. Petersson, H. Nakatsuji, X. Li, M. Caricato, A. V. Marenich, 
 J. Bloino, B. G. Janesko, R. Gomperts, B. Mennucci, H. P. Hratchian, 
 J. V. Ortiz, A. F. Izmaylov, J. L. Sonnenberg, D. Williams-Young, 
 F. Ding, F. Lipparini, F. Egidi, J. Goings, B. Peng, A. Petrone, 
 T. Henderson, D. Ranasinghe, V. G. Zakrzewski, J. Gao, N. Rega, 
 G. Zheng, W. Liang, M. Hada, M. Ehara, K. Toyota, R. Fukuda, 
 J. Hasegawa, M. Ishida, T. Nakajima, Y. Honda, O. Kitao, H. Nakai, 
 T. Vreven, K. Throssell, J. A. Montgomery, Jr., J. E. Peralta, 
 F. Ogliaro, M. J. Bearpark, J. J. Heyd, E. N. Brothers, K. N. Kudin, 
 V. N. Staroverov, T. A. Keith, R. Kobayashi, J. Normand, 
 K. Raghavachari, A. P. Rendell, J. C. Burant, S. S. Iyengar, 
 J. Tomasi, M. Cossi, J. M. Millam, M. Klene, C. Adamo, R. Cammi, 
 J. W. Ochterski, R. L. Martin, K. Morokuma, O. Farkas, 
 J. B. Foresman, and D. J. Fox, Gaussian, Inc., Wallingford CT, 2019.
 
 ******************************************
 Gaussian 16:  ES64L-G16RevC.01  3-Jul-2019
                21-Mar-2025 
 ******************************************
 %oldchk=../GS_OLD/geometry.chk
 %chk=geometry.chk
 %nprocshared=1
 Will use up to    1 processors via shared memory.
 %mem=2GB
 Copying data from "../GS_OLD/geometry.chk" to current chk file "geometry.chk"
 IOpt=  2 FromEx=T IUOpen= 4 IOptOp= 5 NList=   0 IFRang= 0 IUIn= 4 IUOut= 2.
 -------------------------------------------
 # AM1/STO-5G SCF=XQC FORCE nosym guess=read
 -------------------------------------------
 1/10=7,30=1,38=1/1,3;
 2/12=2,15=1,17=6,18=5,40=1/2;
 3/5=2,6=5,25=1,41=700000,71=1,116=-2/1,2,3;
 4/5=1,35=1/1;
 5/5=2,8=3,13=1,35=1,38=6/2,8;
 6/7=2,8=2,9=2,10=2,28=1/1;
 7/29=1,30=1/1,2,3,16;
 1/10=7,30=1/3;
 99//99;
 ----------
 MD Step 24
 ----------
 Symbolic Z-matrix:
 Charge =  0 Multiplicity = 1
 C                    -0.7134   -1.2084   -0.02535 
 C                     0.67525  -1.21923   0.03008 
 C                     1.40793   0.01411  -0.01281 
 C                     0.69225   1.22136  -0.00929 
 C                    -0.67609   1.17591   0.01549 
 C                    -1.3896    0.01415   0.00999 
 H                    -1.18899  -2.23145  -0.05753 
 H                     1.20678  -2.17955   0.08593 
 H                     2.48698   0.03903  -0.01576 
 H                     1.20929   2.18684   0.02186 
 H                    -1.2072    2.16353  -0.03596 
 H                    -2.47507  -0.06974  -0.08109 
 

 GradGradGradGradGradGradGradGradGradGradGradGradGradGradGradGradGradGrad
 Berny optimization.
 Initialization pass.
 Trust Radius=3.00D-01 FncErr=1.00D-07 GrdErr=1.00D-07 EigMax=2.50D+02 EigMin=1.00D-04
 Number of steps in this run=      2 maximum allowed number of steps=      2.
 GradGradGradGradGradGradGradGradGradGradGradGradGradGradGradGradGradGrad

                          Input orientation:                          
 ---------------------------------------------------------------------
 Center     Atomic      Atomic             Coordinates (Angstroms)
 Number     Number       Type             X           Y           Z
 ---------------------------------------------------------------------
      1          6           0       -0.713397   -1.208395   -0.025346
      2          6           0        0.675254   -1.219235    0.030081
      3          6           0        1.407927    0.014107   -0.012813
      4          6           0        0.692249    1.221361   -0.009289
      5          6           0       -0.676091    1.175912    0.015488
      6          6           0       -1.389598    0.014146    0.009987
      7          1           0       -1.188995   -2.231447   -0.057526
      8          1           0        1.206778   -2.179550    0.085925
      9          1           0        2.486976    0.039031   -0.015763
     10          1           0        1.209287    2.186837    0.021860
     11          1           0       -1.207199    2.163532   -0.035957
     12          1           0       -2.475068   -0.069741   -0.081091
 ---------------------------------------------------------------------
                    Distance matrix (angstroms):
                    1          2          3          4          5
     1  C    0.000000
     2  C    1.389799   0.000000
     3  C    2.448404   1.435194   0.000000
     4  C    2.807101   2.440973   1.403449   0.000000
     5  C    2.384949   2.750105   2.386152   1.369319   0.000000
     6  C    1.397534   2.405254   2.797618   2.406622   1.363387
     7  H    1.128656   2.123128   3.433441   3.932339   3.446520
     8  H    2.154668   1.099018   2.205072   3.440930   3.848283
     9  H    3.434902   2.206280   1.079342   2.149184   3.361320
    10  H    3.902120   3.447692   2.182066   1.095647   2.139313
    11  H    3.407910   3.871835   3.385180   2.120448   1.122549
    12  H    2.098363   3.355328   3.884500   3.421111   2.190274
                    6          7          8          9         10
     6  C    0.000000
     7  H    2.255546   0.000000
     8  H    3.399888   2.400624   0.000000
     9  H    3.876740   4.320831   2.563464   0.000000
    10  H    3.387467   5.027851   4.366857   2.499395   0.000000
    11  H    2.157601   4.395070   4.970363   4.261554   2.417290
    12  H    1.092509   2.515455   4.246785   4.963666   4.321714
                   11         12
    11  H    0.000000
    12  H    2.568470   0.000000
 Symmetry turned off by external request.
 Stoichiometry    C6H6
 Framework group  C1[X(C6H6)]
 Deg. of freedom    30
 Full point group                 C1      NOp   1
 Rotational constants (GHZ):           5.7999844           5.6041426           2.8516098
 Standard basis: VSTO-5G (5D, 7F)
    30 basis functions,   180 primitive gaussians,    30 cartesian basis functions
    15 alpha electrons       15 beta electrons
       nuclear repulsion energy       119.6749272973 Hartrees.
 Integral buffers will be    131072 words long.
 Regular integral format.
 Two-electron integral symmetry is turned off.
 Do NDO integrals.
 One-electron integrals computed using PRISM.
 NBasis=    30 RedAO= F EigKep=  0.00D+00  NBF=    30
 NBsUse=    30 1.00D-04 EigRej=  0.00D+00 NBFU=    30
 Initial guess from the checkpoint file:  "geometry.chk"
 B after Tr=    -0.001307   -0.000396    0.000770
         Rot=    1.000000    0.000372   -0.000255    0.000036 Ang=   0.05 deg.
 Keep J ints in memory in canonical form, NReq=861816.
 Overlap will be assumed to be unity.
 Requested convergence on RMS density matrix=1.00D-08 within  32 cycles.
 Requested convergence on MAX density matrix=1.00D-06.
 Requested convergence on             energy=1.00D-06.
 No special actions if energy rises.
 SCF Done:  E(RAM1) =  0.438768199963E-01 A.U. after   12 cycles
            NFock= 11  Conv=0.62D-08     -V/T= 1.0009
 QCSCF skips out because SCF is already converged.

 **********************************************************************

            Population analysis using the SCF Density.

 **********************************************************************

 Alpha  occ. eigenvalues --   -1.44221  -1.15895  -1.14776  -0.85509  -0.83894
 Alpha  occ. eigenvalues --   -0.65621  -0.59194  -0.56607  -0.52240  -0.51717
 Alpha  occ. eigenvalues --   -0.49234  -0.43931  -0.43190  -0.35726  -0.35231
 Alpha virt. eigenvalues --    0.01824   0.02269   0.10965   0.14220   0.14514
 Alpha virt. eigenvalues --    0.15212   0.15521   0.16717   0.17052   0.18719
 Alpha virt. eigenvalues --    0.18871   0.20410   0.20868   0.21180   0.22540
          Condensed to atoms (all electrons):
               1          2          3          4          5          6
     1  C    4.138621   0.000000   0.000000   0.000000   0.000000   0.000000
     2  C    0.000000   4.138886   0.000000   0.000000   0.000000   0.000000
     3  C    0.000000   0.000000   4.127933   0.000000   0.000000   0.000000
     4  C    0.000000   0.000000   0.000000   4.132240   0.000000   0.000000
     5  C    0.000000   0.000000   0.000000   0.000000   4.125689   0.000000
     6  C    0.000000   0.000000   0.000000   0.000000   0.000000   4.119010
     7  H    0.000000   0.000000   0.000000   0.000000   0.000000   0.000000
     8  H    0.000000   0.000000   0.000000   0.000000   0.000000   0.000000
     9  H    0.000000   0.000000   0.000000   0.000000   0.000000   0.000000
    10  H    0.000000   0.000000   0.000000   0.000000   0.000000   0.000000
    11  H    0.000000   0.000000   0.000000   0.000000   0.000000   0.000000
    12  H    0.000000   0.000000   0.000000   0.000000   0.000000   0.000000
               7          8          9         10         11         12
     1  C    0.000000   0.000000   0.000000   0.000000   0.000000   0.000000
     2  C    0.000000   0.000000   0.000000   0.000000   0.000000   0.000000
     3  C    0.000000   0.000000   0.000000   0.000000   0.000000   0.000000
     4  C    0.000000   0.000000   0.000000   0.000000   0.000000   0.000000
     5  C    0.000000   0.000000   0.000000   0.000000   0.000000   0.000000
     6  C    0.000000   0.000000   0.000000   0.000000   0.000000   0.000000
     7  H    0.865958   0.000000   0.000000   0.000000   0.000000   0.000000
     8  H    0.000000   0.870637   0.000000   0.000000   0.000000   0.000000
     9  H    0.000000   0.000000   0.868975   0.000000   0.000000   0.000000
    10  H    0.000000   0.000000   0.000000   0.867109   0.000000   0.000000
    11  H    0.000000   0.000000   0.000000   0.000000   0.876234   0.000000
    12  H    0.000000   0.000000   0.000000   0.000000   0.000000   0.868709
 Mulliken charges:
               1
     1  C   -0.138621
     2  C   -0.138886
     3  C   -0.127933
     4  C   -0.132240
     5  C   -0.125689
     6  C   -0.119010
     7  H    0.134042
     8  H    0.129363
     9  H    0.131025
    10  H    0.132891
    11  H    0.123766
    12  H    0.131291
 Sum of Mulliken charges =   0.00000
 Mulliken charges with hydrogens summed into heavy atoms:
               1
     1  C   -0.004579
     2  C   -0.009523
     3  C    0.003093
     4  C    0.000651
     5  C   -0.001922
     6  C    0.012281
 Charge=              0.0000 electrons
 Dipole moment (field-independent basis, Debye):
    X=              0.0272    Y=             -0.0618    Z=             -0.0604  Tot=              0.0906
 N-N= 1.196749272973D+02 E-N=-1.706714931682D+02  KE=-4.785086311375D+01
 Calling FoFJK, ICntrl=      2127 FMM=F ISym2X=0 I1Cent= 0 IOpClX= 0 NMat=1 NMatS=1 NMatT=0.
 -------------------------------------------------------------------
 Center     Atomic                   Forces (Hartrees/Bohr)
 Number     Number              X              Y              Z
 -------------------------------------------------------------------
      1        6           0.010162992   -0.021236722    0.008019695
      2        6           0.024662127    0.031973205   -0.005960892
      3        6          -0.034600412   -0.019680468    0.006120214
      4        6           0.035772529   -0.020070226    0.004281052
      5        6          -0.030660961    0.049028300   -0.005045246
      6        6          -0.014570035   -0.040442797   -0.011354102
      7        1          -0.002263640    0.021543419    0.000619911
      8        1           0.002468789    0.002158757   -0.001440262
      9        1           0.011901476   -0.004022328   -0.000347835
     10        1           0.003357286    0.001338764   -0.002425540
     11        1           0.001082786   -0.010516454    0.003669537
     12        1          -0.007312937    0.009926550    0.003863468
 -------------------------------------------------------------------
 Cartesian Forces:  Max     0.049028300 RMS     0.018185074

 GradGradGradGradGradGradGradGradGradGradGradGradGradGradGradGradGradGrad
 Berny optimization.
 Search for a local minimum.
 Step number   1 out of a maximum of    2
 All quantities printed in internal units (Hartrees-Bohrs-Radians)
 Second derivative matrix not updated -- first step.
 ITU=  0
     Eigenvalues ---    0.01478   0.01674   0.03329   0.04279   0.06489
     Eigenvalues ---    0.06671   0.06828   0.06961   0.07109   0.09407
     Eigenvalues ---    0.09586   0.11253   0.11664   0.16053   0.18024
     Eigenvalues ---    0.27700   0.29651   0.29978   0.40502   0.41048
     Eigenvalues ---    0.44925   0.63183   0.68241   0.97425   1.05876
     Eigenvalues ---    1.20817   1.20836   1.43248   1.56914   1.67440
 Quadratic step=3.378D-01 exceeds max=3.000D-01 adjusted using Lamda=-7.175D-03.
 Angle between NR and scaled steps=   5.78 degrees.
 Angle between quadratic step and forces=  58.63 degrees.
 Linear search not attempted -- first point.
 B after Tr=    -0.000752   -0.002299   -0.002940
         Rot=    0.999999    0.000267    0.001304   -0.000718 Ang=   0.17 deg.
 Variable       Old X    -DE/DX   Delta X   Delta X   Delta X     New X
                                 (Linear)    (Quad)   (Total)
    X1       -1.34813   0.01016   0.00000   0.03909   0.04168  -1.30644
    Y1       -2.28354  -0.02124   0.00000  -0.00273  -0.00692  -2.29046
    Z1       -0.04790   0.00802   0.00000   0.02835   0.02323  -0.02467
    X2        1.27604   0.02466   0.00000   0.05232   0.05475   1.33079
    Y2       -2.30402   0.03197   0.00000   0.03439   0.03401  -2.27001
    Z2        0.05684  -0.00596   0.00000  -0.02959  -0.02785   0.02899
    X3        2.66060  -0.03460   0.00000  -0.01473  -0.01552   2.64508
    Y3        0.02666  -0.01968   0.00000  -0.03303  -0.03152  -0.00486
    Z3       -0.02421   0.00612   0.00000   0.03650   0.04046   0.01625
    X4        1.30816   0.03577   0.00000   0.01506   0.01104   1.31920
    Y4        2.30804  -0.02007   0.00000  -0.03699  -0.03739   2.27065
    Z4       -0.01755   0.00428   0.00000   0.01807   0.01736  -0.00020
    X5       -1.27763  -0.03066   0.00000  -0.05972  -0.06369  -1.34131
    Y5        2.22215   0.04903   0.00000   0.04368   0.03945   2.26160
    Z5        0.02927  -0.00505   0.00000  -0.03944  -0.04708  -0.01781
    X6       -2.62596  -0.01457   0.00000  -0.04056  -0.04121  -2.66717
    Y6        0.02673  -0.04044   0.00000  -0.03288  -0.03902  -0.01229
    Z6        0.01887  -0.01135   0.00000  -0.04893  -0.05881  -0.03994
    X7       -2.24687  -0.00226   0.00000  -0.02984  -0.02455  -2.27142
    Y7       -4.21682   0.02154   0.00000   0.09306   0.08747  -4.12935
    Z7       -0.10871   0.00062   0.00000   0.06678   0.06011  -0.04859
    X8        2.28048   0.00247   0.00000   0.10063   0.10548   2.38596
    Y8       -4.11875   0.00216   0.00000   0.06066   0.06183  -4.05692
    Z8        0.16238  -0.00144   0.00000  -0.07910  -0.07366   0.08872
    X9        4.69970   0.01190   0.00000   0.01880   0.01802   4.71773
    Y9        0.07376  -0.00402   0.00000  -0.08157  -0.07709  -0.00333
    Z9       -0.02979  -0.00035   0.00000   0.03510   0.04447   0.01468
   X10        2.28522   0.00336   0.00000   0.07582   0.06913   2.35436
   Y10        4.13252   0.00134   0.00000  -0.05919  -0.05809   4.07443
   Z10        0.04131  -0.00243   0.00000  -0.01134  -0.01031   0.03099
   X11       -2.28128   0.00108   0.00000  -0.07820  -0.08469  -2.36597
   Y11        4.08848  -0.01052   0.00000  -0.00001  -0.00573   4.08276
   Z11       -0.06795   0.00367   0.00000   0.02253   0.01125  -0.05670
   X12       -4.67720  -0.00731   0.00000  -0.07015  -0.07045  -4.74765
   Y12       -0.13179   0.00993   0.00000   0.04217   0.03299  -0.09881
   Z12       -0.15324   0.00386   0.00000   0.03611   0.02084  -0.13240
         Item               Value     Threshold  Converged?
 Maximum Force            0.049028     0.000450     NO 
 RMS     Force            0.018185     0.000300     NO 
 Maximum Displacement     0.105479     0.001800     NO 
 RMS     Displacement     0.049728     0.001200     NO 
 Predicted change in Energy=-8.851861D-03
 GradGradGradGradGradGradGradGradGradGradGradGradGradGradGradGradGradGrad

 Unable to Open any file for archive entry.
 1\1\GINC-BHC0189\Force\RAM1\ZDO\C6H6\BWEIGHT\21-Mar-2025\0\\# AM1/STO-
 5G SCF=XQC FORCE nosym guess=read\\MD Step 24\\0,1\C,-0.71339724,-1.20
 839512,-0.02534554\C,0.67525371,-1.21923493,0.03008094\C,1.40792656,0.
 01410744,-0.01281268\C,0.69224895,1.22136089,-0.00928903\C,-0.67609096
 ,1.17591226,0.01548814\C,-1.38959847,0.01414558,0.00998679\H,-1.188994
 58,-2.23144743,-0.05752557\H,1.20677799,-2.17954989,0.08592521\H,2.486
 97623,0.03903097,-0.01576317\H,1.20928694,2.18683652,0.02185978\H,-1.2
 0719894,2.16353238,-0.03595729\H,-2.47506828,-0.06974114,-0.08109082\\
 Version=ES64L-G16RevC.01\HF=0.0438768\RMSD=6.169e-09\RMSF=1.819e-02\Di
 pole=0.010694,-0.0243099,-0.0237508\PG=C01 [X(C6H6)]\\@
 The archive entry for this job was punched.


 ADVERTISING--  HE WHO HAS SOMETHING TO SELL AND GOES AND WHISPERS
                IN A WELL, IS NOT SO APT TO GET THE DOLLARS AS HE
                WHO CLIMBS A TREE AND HOLLERS.

                   -- FROM THE BACK OF A SUGAR PACKET
 Job cpu time:       0 days  0 hours  0 minutes  1.2 seconds.
 Elapsed time:       0 days  0 hours  0 minutes  0.9 seconds.
 File lengths (MBytes):  RWF=      6 Int=      0 D2E=      0 Chk=      2 Scr=      1
 Normal termination of Gaussian 16 at Fri Mar 21 15:03:36 2025.
