 Entering Gaussian System, Link 0=g16
 Initial command:
 /software/gaussian/g16-c01/avx2/g16/l1.exe "/local_scratch/28554128/Gau-13887.inp" -scrdir="/local_scratch/28554128/"
 Entering Link 1 = /software/gaussian/g16-c01/avx2/g16/l1.exe PID=     13940.
  
 Copyright (c) 1988-2019, Gaussian, Inc.  All Rights Reserved.
  
 This is part of the Gaussian(R) 16 program.  It is based on
 the Gaussian(R) 09 system (copyright 2009, Gaussian, Inc.),
 the Gaussian(R) 03 system (copyright 2003, Gaussian, Inc.),
 the Gaussian(R) 98 system (copyright 1998, Gaussian, Inc.),
 the Gaussian(R) 94 system (copyright 1995, Gaussian, Inc.),
 the Gaussian 92(TM) system (copyright 1992, Gaussian, Inc.),
 the Gaussian 90(TM) system (copyright 1990, Gaussian, Inc.),
 the Gaussian 88(TM) system (copyright 1988, Gaussian, Inc.),
 the Gaussian 86(TM) system (copyright 1986, Carnegie Mellon
 University), and the Gaussian 82(TM) system (copyright 1983,
 Carnegie Mellon University). Gaussian is a federally registered
 trademark of Gaussian, Inc.
  
 This software contains proprietary and confidential information,
 including trade secrets, belonging to Gaussian, Inc.
  
 This software is provided under written license and may be
 used, copied, transmitted, or stored only in accord with that
 written license.
  
 The following legend is applicable only to US Government
 contracts under FAR:
  
                    RESTRICTED RIGHTS LEGEND
  
 Use, reproduction and disclosure by the US Government is
 subject to restrictions as set forth in subparagraphs (a)
 and (c) of the Commercial Computer Software - Restricted
 Rights clause in FAR 52.227-19.
  
 Gaussian, Inc.
 340 Quinnipiac St., Bldg. 40, Wallingford CT 06492
  
  
 ---------------------------------------------------------------
 Warning -- This program may not be used in any manner that
 competes with the business of Gaussian, Inc. or will provide
 assistance to any competitor of Gaussian, Inc.  The licensee
 of this program is prohibited from giving any competitor of
 Gaussian, Inc. access to this program.  By using this program,
 the user acknowledges that Gaussian, Inc. is engaged in the
 business of creating and licensing software in the field of
 computational chemistry and represents and warrants to the
 licensee that it is not a competitor of Gaussian, Inc. and that
 it will not use this program in any manner prohibited above.
 ---------------------------------------------------------------
  

 Cite this work as:
 Gaussian 16, Revision C.01,
 M. J. Frisch, G. W. Trucks, H. B. Schlegel, G. E. Scuseria, 
 M. A. Robb, J. R. Cheeseman, G. Scalmani, V. Barone, 
 G. A. Petersson, H. Nakatsuji, X. Li, M. Caricato, A. V. Marenich, 
 J. Bloino, B. G. Janesko, R. Gomperts, B. Mennucci, H. P. Hratchian, 
 J. V. Ortiz, A. F. Izmaylov, J. L. Sonnenberg, D. Williams-Young, 
 F. Ding, F. Lipparini, F. Egidi, J. Goings, B. Peng, A. Petrone, 
 T. Henderson, D. Ranasinghe, V. G. Zakrzewski, J. Gao, N. Rega, 
 G. Zheng, W. Liang, M. Hada, M. Ehara, K. Toyota, R. Fukuda, 
 J. Hasegawa, M. Ishida, T. Nakajima, Y. Honda, O. Kitao, H. Nakai, 
 T. Vreven, K. Throssell, J. A. Montgomery, Jr., J. E. Peralta, 
 F. Ogliaro, M. J. Bearpark, J. J. Heyd, E. N. Brothers, K. N. Kudin, 
 V. N. Staroverov, T. A. Keith, R. Kobayashi, J. Normand, 
 K. Raghavachari, A. P. Rendell, J. C. Burant, S. S. Iyengar, 
 J. Tomasi, M. Cossi, J. M. Millam, M. Klene, C. Adamo, R. Cammi, 
 J. W. Ochterski, R. L. Martin, K. Morokuma, O. Farkas, 
 J. B. Foresman, and D. J. Fox, Gaussian, Inc., Wallingford CT, 2019.
 
 ******************************************
 Gaussian 16:  ES64L-G16RevC.01  3-Jul-2019
                21-Mar-2025 
 ******************************************
 %oldchk=../TD_OLD_S1/geometry.chk
 %chk=geometry.chk
 %nprocshared=1
 Will use up to    1 processors via shared memory.
 %mem=2GB
 Copying data from "../TD_OLD_S1/geometry.chk" to current chk file "geometry.chk"
 IOpt=  2 FromEx=T IUOpen= 4 IOptOp= 5 NList=   0 IFRang= 0 IUIn= 4 IUOut= 2.
 ----------------------------------------------------------------------
 # AM1/STO-5G SCF=XQC TD=(read,singlets,nstates=5,root=1) nosym IOp(9/4
 0=3) guess=read
 ----------------------------------------------------------------------
 1/38=1,172=1/1;
 2/12=2,15=1,17=6,18=5,40=1/2;
 3/5=2,6=5,25=1,41=700000,116=-2/1,2,3,8;
 4/5=1,35=1/1;
 5/5=2,8=3,13=1,35=1,38=6/2,8;
 8/6=1,10=90,107=1,108=5/1;
 9/8=1,40=3,41=5,42=1,48=1,49=13,70=2/14;
 6/7=2,8=2,9=2,10=2/1;
 99/5=1,9=1/99;
 ----------
 MD Step 24
 ----------
 Symbolic Z-matrix:
 Charge =  0 Multiplicity = 1
 C                    -0.64695  -1.13104  -0.02801 
 C                     0.71433  -1.20629  -0.01333 
 C                     1.42944  -0.01736   0.02433 
 C                     0.68075   1.1773   -0.0138 
 C                    -0.71656   1.18201  -0.00293 
 C                    -1.44711   0.01897   0.02398 
 H                    -1.18041  -2.09631  -0.09734 
 H                     1.23127  -2.21992   0.11158 
 H                     2.47779  -0.07391   0.10557 
 H                     1.29397   2.07001  -0.1065 
 H                    -1.30483   2.14671   0.03833 
 H                    -2.53612  -0.04773   0.07037 
 
                          Input orientation:                          
 ---------------------------------------------------------------------
 Center     Atomic      Atomic             Coordinates (Angstroms)
 Number     Number       Type             X           Y           Z
 ---------------------------------------------------------------------
      1          6           0       -0.646952   -1.131038   -0.028011
      2          6           0        0.714328   -1.206287   -0.013325
      3          6           0        1.429439   -0.017361    0.024332
      4          6           0        0.680752    1.177296   -0.013797
      5          6           0       -0.716562    1.182014   -0.002934
      6          6           0       -1.447115    0.018972    0.023977
      7          1           0       -1.180415   -2.096314   -0.097338
      8          1           0        1.231272   -2.219917    0.111582
      9          1           0        2.477786   -0.073909    0.105567
     10          1           0        1.293966    2.070012   -0.106498
     11          1           0       -1.304831    2.146712    0.038329
     12          1           0       -2.536123   -0.047731    0.070371
 ---------------------------------------------------------------------
                    Distance matrix (angstroms):
                    1          2          3          4          5
     1  C    0.000000
     2  C    1.363438   0.000000
     3  C    2.356781   1.387929   0.000000
     4  C    2.662970   2.383820   1.410388   0.000000
     5  C    2.314235   2.784158   2.458570   1.397364   0.000000
     6  C    1.401957   2.484851   2.876783   2.423006   1.373717
     7  H    1.105055   2.095055   3.338889   3.766622   3.312326
     8  H    2.175516   1.144673   2.213172   3.443813   3.921773
     9  H    3.301417   2.099095   1.053009   2.192965   3.434091
    10  H    3.744335   3.328483   2.095853   1.086999   2.200339
    11  H    3.343778   3.914368   3.487068   2.210209   1.130666
    12  H    2.179954   3.451766   3.965946   3.443263   2.197373
                    6          7          8          9         10
     6  C    0.000000
     7  H    2.135481   0.000000
     8  H    3.491998   2.423872   0.000000
     9  H    3.926848   4.184940   2.481770   0.000000
    10  H    3.425976   4.845711   4.295926   2.458211   0.000000
    11  H    2.132541   4.247017   5.050211   4.386784   2.603959
    12  H    1.092035   2.462268   4.348948   5.014101   4.380148
                   11         12
    11  H    0.000000
    12  H    2.516483   0.000000
 Symmetry turned off by external request.
 Stoichiometry    C6H6
 Framework group  C1[X(C6H6)]
 Deg. of freedom    30
 Full point group                 C1      NOp   1
 Rotational constants (GHZ):           6.0577633           5.4436363           2.8697115
 Standard basis: VSTO-5G (5D, 7F)
    30 basis functions,   180 primitive gaussians,    30 cartesian basis functions
    15 alpha electrons       15 beta electrons
       nuclear repulsion energy       119.8907155386 Hartrees.
 Integral buffers will be    131072 words long.
 Regular integral format.
 Two-electron integral symmetry is turned off.
 Do NDO integrals.
 One-electron integrals computed using PRISM.
 NBasis=    30 RedAO= F EigKep=  0.00D+00  NBF=    30
 NBsUse=    30 1.00D-04 EigRej=  0.00D+00 NBFU=    30
 Initial guess from the checkpoint file:  "geometry.chk"
 B after Tr=     0.000422    0.000471    0.001148
         Rot=    1.000000    0.000416   -0.000112    0.000277 Ang=   0.06 deg.
 Keep J ints in memory in canonical form, NReq=861816.
 Overlap will be assumed to be unity.
 Requested convergence on RMS density matrix=1.00D-08 within  32 cycles.
 Requested convergence on MAX density matrix=1.00D-06.
 Requested convergence on             energy=1.00D-06.
 No special actions if energy rises.
 SCF Done:  E(RAM1) =  0.503930235492E-01 A.U. after   12 cycles
            NFock= 11  Conv=0.29D-08     -V/T= 1.0011
 QCSCF skips out because SCF is already converged.
 Range of M.O.s used for correlation:     1    30
 NBasis=    30 NAE=    15 NBE=    15 NFC=     0 NFV=     0
 NROrb=     30 NOA=    15 NOB=    15 NVA=    15 NVB=    15
 Keep J ints in memory in canonical form, NReq=862156.
 Generating guess from checkpoint file densities.
 Convergence on wavefunction:    0.001000000000000
 Iteration     1 Dimension    10 NMult     0 NNew     10
 CISAX will form    10 AO SS matrices at one time.
 Iteration     2 Dimension    20 NMult    10 NNew     10
 Iteration     3 Dimension    30 NMult    20 NNew     10
 Iteration     4 Dimension    40 NMult    30 NNew     10
 Iteration     5 Dimension    46 NMult    40 NNew      6
 Iteration     6 Dimension    52 NMult    46 NNew      6
 Iteration     7 Dimension    56 NMult    52 NNew      4
 Iteration     8 Dimension    58 NMult    56 NNew      2
 ***********************************************************************
 Excited states from <AA,BB:AA,BB> singles matrix:
 ***********************************************************************
 
 Ground to excited state transition densities written to RWF  633
 Ground to excited state transition electric dipole moments (Au):
       state          X           Y           Z        Dip. S.      Osc.
         1         0.0631     -0.0714      0.0003      0.0091      0.0009
         2         0.1056     -0.1758     -0.0034      0.0421      0.0043
         3        -0.2251     -1.5847     -0.0251      2.5625      0.3435
         4         1.6021     -0.2233     -0.0211      2.6170      0.3541
         5         0.4440      0.0409      0.0459      0.2009      0.0279
 Ground to excited state transition velocity dipole moments (Au):
       state          X           Y           Z        Dip. S.      Osc.
         1        -0.0102      0.0120      0.0000      0.0003      0.0012
         2        -0.0285      0.0414      0.0011      0.0025      0.0109
         3         0.0649      0.4915     -0.0124      0.2459      0.8153
         4        -0.5104      0.0746     -0.0277      0.2668      0.8765
         5        -0.1461     -0.0126      0.0579      0.0249      0.0797
 Ground to excited state transition magnetic dipole moments (Au):
       state          X           Y           Z
         1         0.0082     -0.0029      0.0255
         2         0.0057      0.0402      0.0701
         3        -0.0536      0.0317     -0.0149
         4         0.0302      0.0081     -0.0099
         5         0.0423     -0.0038      0.0002
 Ground to excited state transition velocity quadrupole moments (Au):
       state          XX          YY          ZZ          XY          XZ          YZ
         1        -0.0009      0.0027      0.0004      0.0002     -0.0041      0.0060
         2         0.0034      0.0544      0.0003      0.0323     -0.0368     -0.0106
         3        -0.0196      0.0480      0.0030      0.0387      0.0043     -0.0404
         4        -0.0482      0.0248      0.0027      0.0080     -0.0319      0.0177
         5         0.1197     -0.0630     -0.0091     -0.0578     -0.0074     -0.0099
 <0|del|b> * <b|rxdel|0> + <0|del|b> * <b|delr+rdel|0>
 Rotatory Strengths (R) in cgs (10**-40 erg-esu-cm/Gauss)
       state          XX          YY          ZZ    R(velocity)    E-M Angle
         1         0.0395     -0.3613     -0.2664     -0.1961      106.11
         2         7.5740      0.4171     -0.7438      2.4158       67.20
         3        23.1551     -9.5643     29.5412     14.3774       67.26
         4         5.2925    -41.7164    -14.1768    -16.8669      149.00
         5        -5.7462     -2.3472    -12.7241     -6.9392      156.07
 1/2[<0|r|b>*<b|rxdel|0> + (<0|rxdel|b>*<b|r|0>)*]
 Rotatory Strengths (R) in cgs (10**-40 erg-esu-cm/Gauss)
       state          XX          YY          ZZ     R(length)
         1        -0.3663     -0.1454     -0.0058     -0.1725
         2        -0.4247      4.9909      0.1662      1.5775
         3        -8.5264     35.4725     -0.2650      8.8937
         4       -34.1937      1.2848     -0.1485    -11.0191
         5       -13.2915      0.1104     -0.0066     -4.3959
  1/2[<0|del|b>*<b|r|0> + (<0|r|b>*<b|del|0>)*] (Au)
       state          X           Y           Z        Dip. S.   Osc.(frdel)
         1        -0.0006     -0.0009      0.0000      0.0015      0.0010
         2        -0.0030     -0.0073     -0.0000      0.0103      0.0069
         3        -0.0146     -0.7788      0.0003      0.7931      0.5288
         4        -0.8176     -0.0167      0.0006      0.8337      0.5558
         5        -0.0649     -0.0005      0.0027      0.0628      0.0418

 Excitation energies and oscillator strengths:
 
 Excited state symmetry could not be determined.
 Excited State   1:      Singlet-?Sym    3.8636 eV  320.91 nm  f=0.0009  <S**2>=0.000
       2 -> 21         0.00174
       2 -> 23         0.00326
       2 -> 25        -0.00139
       3 -> 24         0.00277
       3 -> 26        -0.00250
       4 -> 27         0.00256
       5 -> 18         0.00116
       5 -> 28        -0.00235
       5 -> 29        -0.00163
       7 -> 16        -0.00147
       7 -> 17         0.00137
       7 -> 23         0.00117
       7 -> 28        -0.00135
       7 -> 29         0.00227
       8 -> 20        -0.00108
       8 -> 23         0.00196
       9 -> 16         0.00138
       9 -> 21         0.00203
       9 -> 23         0.00324
       9 -> 24         0.00116
       9 -> 25        -0.00287
      10 -> 18        -0.00229
      10 -> 24        -0.00238
      10 -> 26         0.00215
      10 -> 28         0.00100
      11 -> 16         0.00218
      11 -> 17        -0.00264
      11 -> 18         0.00191
      11 -> 20        -0.00153
      11 -> 22         0.00189
      11 -> 23        -0.00120
      11 -> 26         0.00127
      11 -> 27        -0.00176
      12 -> 19        -0.00126
      12 -> 22         0.00143
      12 -> 27        -0.00199
      13 -> 17         0.00178
      13 -> 18        -0.00149
      13 -> 19         0.00153
      13 -> 20        -0.00112
      13 -> 27         0.00163
      14 -> 16        -0.44513
      14 -> 17        -0.20089
      14 -> 18        -0.00532
      14 -> 19         0.00177
      14 -> 20         0.00265
      14 -> 21         0.00244
      14 -> 23        -0.00119
      14 -> 25        -0.00108
      14 -> 29         0.00143
      15 -> 16        -0.25652
      15 -> 17         0.45241
      15 -> 19        -0.00284
      15 -> 20        -0.00239
      15 -> 21        -0.00211
      15 -> 22        -0.00239
      15 -> 24         0.00314
      15 -> 27         0.00139
       2 <- 23         0.00135
       4 <- 27         0.00212
       5 <- 28        -0.00177
       5 <- 29        -0.00120
       7 <- 29         0.00157
       8 <- 23         0.00126
       9 <- 16         0.00140
      10 <- 17        -0.00112
      13 <- 16         0.00166
      13 <- 17         0.00122
      14 <- 16        -0.06146
      14 <- 17        -0.03473
      14 <- 20         0.00107
      14 <- 21         0.00135
      15 <- 16        -0.02436
      15 <- 17         0.06011
      15 <- 19        -0.00121
 This state for optimization and/or second-order correction.
 Total Energy, E(TD-HF/TD-DFT) =  0.192376804614    
 Copying the excited state density for this state as the 1-particle RhoCI density.
 
 Excited state symmetry could not be determined.
 Excited State   2:      Singlet-?Sym    4.1852 eV  296.25 nm  f=0.0043  <S**2>=0.000
       1 -> 19         0.00138
       1 -> 20         0.00103
       1 -> 21        -0.00133
       1 -> 30         0.00104
       2 -> 17        -0.00121
       2 -> 24         0.00259
       2 -> 26         0.00201
       3 -> 16         0.00101
       3 -> 23        -0.00279
       3 -> 25        -0.00241
       4 -> 22        -0.00149
       4 -> 24        -0.00115
       4 -> 26         0.00155
       4 -> 28        -0.00356
       4 -> 29        -0.00192
       5 -> 23        -0.00106
       5 -> 27        -0.00523
       6 -> 19         0.00274
       6 -> 27         0.00108
       7 -> 16         0.00156
       7 -> 20         0.00121
       7 -> 21         0.00271
       7 -> 22         0.00112
       7 -> 23         0.00301
       7 -> 26         0.00210
       8 -> 18         0.00104
       8 -> 20         0.00148
       8 -> 23         0.00326
       8 -> 24         0.00323
       8 -> 25        -0.00285
       8 -> 26        -0.00136
       8 -> 27        -0.00115
       8 -> 28         0.00194
       9 -> 16         0.00154
       9 -> 17        -0.00180
       9 -> 18         0.00348
       9 -> 19        -0.00121
       9 -> 21        -0.00101
       9 -> 22        -0.00208
       9 -> 23         0.00199
       9 -> 24         0.00352
       9 -> 26         0.00794
       9 -> 28         0.00220
      10 -> 16        -0.00385
      10 -> 17        -0.00121
      10 -> 18        -0.01624
      10 -> 19         0.00309
      10 -> 21         0.00146
      10 -> 22        -0.00180
      10 -> 23         0.00388
      10 -> 25         0.00572
      10 -> 26        -0.00356
      10 -> 28         0.00280
      10 -> 29        -0.00269
      11 -> 16        -0.00241
      11 -> 17        -0.00110
      11 -> 18         0.10586
      11 -> 19        -0.01453
      11 -> 20        -0.00245
      11 -> 22         0.00467
      11 -> 24         0.00193
      11 -> 25         0.00100
      11 -> 26        -0.00100
      11 -> 27         0.00163
      11 -> 29        -0.00131
      12 -> 16         0.00177
      12 -> 18        -0.01265
      12 -> 20        -0.00683
      12 -> 21         0.00366
      12 -> 22         0.01174
      12 -> 23        -0.00349
      12 -> 24         0.00522
      12 -> 26        -0.00142
      12 -> 27        -0.00396
      12 -> 28         0.00157
      13 -> 16         0.00151
      13 -> 18        -0.02525
      13 -> 19        -0.00543
      13 -> 20         0.00126
      13 -> 21        -0.00236
      13 -> 22         0.00893
      13 -> 23         0.00205
      13 -> 25        -0.00173
      13 -> 27         0.00772
      13 -> 28        -0.00264
      13 -> 29        -0.00139
      13 -> 30        -0.00357
      14 -> 16         0.20174
      14 -> 17        -0.38139
      14 -> 19         0.00315
      14 -> 20         0.00299
      14 -> 21         0.00229
      14 -> 22         0.00310
      14 -> 24        -0.00313
      14 -> 26         0.00273
      15 -> 16        -0.48941
      15 -> 17        -0.24939
      15 -> 18         0.00399
      15 -> 20         0.00286
      15 -> 21         0.00122
      15 -> 22         0.00144
      15 -> 23        -0.00369
      15 -> 24        -0.00134
      15 -> 25         0.00192
      15 -> 26        -0.00113
      15 -> 28         0.00141
       1 <- 19         0.00287
       1 <- 20         0.00263
       1 <- 21        -0.00307
       1 <- 22         0.00203
       1 <- 30        -0.00221
       2 <- 20         0.00137
       2 <- 24         0.00551
       2 <- 25         0.00104
       2 <- 26        -0.00157
       3 <- 21        -0.00287
       3 <- 23        -0.00682
       4 <- 26         0.00129
       4 <- 28        -0.00420
       4 <- 29        -0.00267
       5 <- 19        -0.00160
       5 <- 27        -0.00587
       6 <- 19         0.00163
       6 <- 30        -0.00147
       7 <- 21         0.00142
       7 <- 23         0.00181
       8 <- 23         0.00149
       8 <- 24         0.00216
       8 <- 25        -0.00144
       8 <- 27        -0.00101
       8 <- 28         0.00336
       8 <- 29        -0.00361
       9 <- 17         0.00125
       9 <- 22        -0.00121
       9 <- 23         0.00139
       9 <- 24         0.00375
      10 <- 18         0.00245
      10 <- 21         0.00231
      10 <- 23         0.00542
      10 <- 24         0.00114
      10 <- 26        -0.00149
      10 <- 29        -0.00116
      11 <- 16         0.00164
      11 <- 17         0.00107
      11 <- 18        -0.01323
      11 <- 19         0.00122
      12 <- 19        -0.00117
      12 <- 20        -0.00200
      12 <- 21         0.00127
      12 <- 22         0.00387
      12 <- 23        -0.00104
      12 <- 24         0.00226
      12 <- 26        -0.00123
      12 <- 27        -0.00280
      12 <- 28         0.00264
      12 <- 29         0.00180
      13 <- 18         0.00183
      13 <- 19        -0.00201
      13 <- 22         0.00311
      13 <- 23         0.00106
      13 <- 25        -0.00115
      13 <- 27         0.00582
      13 <- 30        -0.00139
      14 <- 16         0.01291
      14 <- 17        -0.02402
      14 <- 19         0.00110
      14 <- 20         0.00113
      15 <- 16        -0.00188
      15 <- 17        -0.00390
      15 <- 18        -0.00201
 
 Excited state symmetry could not be determined.
 Excited State   3:      Singlet-?Sym    5.4717 eV  226.59 nm  f=0.3435  <S**2>=0.000
       1 -> 27         0.00212
       2 -> 21         0.00219
       2 -> 25        -0.00131
       2 -> 26         0.00153
       2 -> 28         0.00101
       2 -> 29        -0.00134
       3 -> 16         0.00152
       3 -> 17         0.00117
       3 -> 18         0.00105
       3 -> 20         0.00522
       3 -> 21         0.00458
       3 -> 22         0.00170
       3 -> 23        -0.00381
       3 -> 25         0.00104
       3 -> 26         0.00230
       4 -> 17        -0.00327
       4 -> 18         0.00116
       4 -> 19         0.00295
       4 -> 20        -0.00412
       4 -> 21         0.00379
       4 -> 22        -0.00472
       4 -> 24         0.00115
       4 -> 25         0.00104
       4 -> 27        -0.00290
       4 -> 30         0.00222
       5 -> 16         0.00513
       5 -> 17        -0.00271
       5 -> 19        -0.00903
       5 -> 20        -0.00207
       5 -> 21         0.00590
       5 -> 22        -0.01084
       5 -> 25         0.00123
       5 -> 28        -0.00136
       5 -> 29        -0.00101
       5 -> 30         0.00747
       6 -> 17        -0.00260
       6 -> 19         0.01423
       6 -> 20        -0.00394
       6 -> 21         0.00166
       6 -> 22        -0.00743
       6 -> 26        -0.00171
       6 -> 27         0.00513
       6 -> 28         0.00134
       7 -> 17         0.00393
       7 -> 18        -0.00754
       7 -> 19         0.00294
       7 -> 21         0.01558
       7 -> 22         0.00419
       7 -> 23         0.02972
       7 -> 25        -0.01049
       7 -> 26         0.00350
       7 -> 27        -0.00281
       7 -> 30        -0.00177
       8 -> 16        -0.00196
       8 -> 17         0.00110
       8 -> 18        -0.01008
       8 -> 19        -0.00214
       8 -> 20         0.00942
       8 -> 22        -0.00469
       8 -> 23         0.00566
       8 -> 24         0.02503
       8 -> 26        -0.02645
       8 -> 27        -0.00118
       8 -> 29        -0.00489
       9 -> 16         0.00113
       9 -> 18         0.01050
       9 -> 19         0.00119
       9 -> 20        -0.00584
       9 -> 21         0.00358
       9 -> 22         0.00258
       9 -> 23         0.00508
       9 -> 24        -0.00287
       9 -> 25        -0.01647
       9 -> 26         0.02261
       9 -> 27        -0.00176
       9 -> 28         0.01466
       9 -> 29        -0.01540
      10 -> 16        -0.01301
      10 -> 17        -0.00511
      10 -> 18        -0.00563
      10 -> 19        -0.00213
      10 -> 20        -0.00433
      10 -> 22        -0.00579
      10 -> 23         0.01452
      10 -> 24         0.01437
      10 -> 25        -0.01380
      10 -> 26        -0.02300
      10 -> 27        -0.00241
      10 -> 28         0.00151
      10 -> 29        -0.00530
      10 -> 30         0.00473
      11 -> 16        -0.00846
      11 -> 18        -0.02242
      11 -> 19         0.00493
      11 -> 21        -0.00123
      11 -> 22        -0.00425
      11 -> 23         0.00494
      11 -> 24         0.00258
      11 -> 25        -0.00263
      11 -> 26        -0.00601
      11 -> 27         0.00138
      11 -> 29        -0.00168
      11 -> 30        -0.00302
      12 -> 16         0.01934
      12 -> 17        -0.00359
      12 -> 18        -0.00505
      12 -> 19        -0.04193
      12 -> 20         0.02025
      12 -> 21        -0.00781
      12 -> 22         0.01369
      12 -> 24        -0.00445
      12 -> 26         0.00653
      12 -> 27        -0.04143
      12 -> 28         0.00268
      12 -> 29         0.00185
      12 -> 30        -0.00315
      13 -> 16        -0.04873
      13 -> 17         0.06615
      13 -> 18        -0.01060
      13 -> 19         0.01139
      13 -> 20        -0.01022
      13 -> 21        -0.00653
      13 -> 22         0.05413
      13 -> 23         0.00220
      13 -> 24         0.00464
      13 -> 25         0.00239
      13 -> 26         0.00925
      13 -> 27         0.00545
      13 -> 28        -0.03755
      13 -> 29        -0.02673
      13 -> 30        -0.03035
      14 -> 16        -0.32184
      14 -> 17         0.43641
      14 -> 18        -0.00111
      14 -> 20        -0.00475
      14 -> 22         0.00273
      14 -> 24        -0.00192
      14 -> 25        -0.00195
      14 -> 26         0.00602
      14 -> 27         0.00220
      14 -> 28         0.00191
      14 -> 29        -0.00582
      14 -> 30        -0.00103
      15 -> 16        -0.32205
      15 -> 17        -0.30565
      15 -> 18         0.00498
      15 -> 19        -0.00369
      15 -> 20        -0.00138
      15 -> 21        -0.00910
      15 -> 22        -0.00456
      15 -> 23        -0.01314
      15 -> 24        -0.00108
      15 -> 25         0.00999
      15 -> 26        -0.00779
      15 -> 28         0.00223
      15 -> 30         0.00231
       1 <- 22        -0.00133
       1 <- 27         0.00336
       1 <- 28         0.00119
       2 <- 21         0.00275
       2 <- 23         0.00245
       2 <- 24        -0.00282
       2 <- 25        -0.00231
       2 <- 26         0.00326
       2 <- 28         0.00186
       2 <- 29        -0.00151
       3 <- 20         0.00267
       3 <- 21         0.00201
       3 <- 22         0.00107
       3 <- 23        -0.00427
       3 <- 24        -0.00226
       3 <- 26         0.00252
       4 <- 19         0.00135
       4 <- 20        -0.00283
       4 <- 21         0.00256
       4 <- 22        -0.00327
       4 <- 30         0.00186
       5 <- 19        -0.00552
       5 <- 20        -0.00211
       5 <- 21         0.00445
       5 <- 22        -0.00674
       5 <- 30         0.00478
       6 <- 18         0.00142
       6 <- 19         0.00577
       6 <- 20        -0.00156
       6 <- 21         0.00100
       6 <- 22        -0.00310
       7 <- 21         0.00582
       7 <- 22         0.00193
       7 <- 23         0.01217
       7 <- 25        -0.00348
       7 <- 26         0.00139
       7 <- 27        -0.00103
       8 <- 19        -0.00144
       8 <- 20         0.00380
       8 <- 22        -0.00160
       8 <- 23         0.00266
       8 <- 24         0.01171
       8 <- 26        -0.01038
       8 <- 29        -0.00173
       9 <- 17         0.00122
       9 <- 20        -0.00241
       9 <- 21         0.00195
       9 <- 23         0.00272
       9 <- 24        -0.00237
       9 <- 25        -0.00701
       9 <- 26         0.00966
       9 <- 28         0.00454
       9 <- 29        -0.00425
      10 <- 16        -0.00148
      10 <- 20        -0.00131
      10 <- 22        -0.00266
      10 <- 23         0.00597
      10 <- 24         0.00625
      10 <- 25        -0.00514
      10 <- 26        -0.00898
      10 <- 29        -0.00164
      10 <- 30         0.00184
      11 <- 18         0.00245
      11 <- 22         0.00146
      11 <- 23         0.00101
      11 <- 24         0.00107
      11 <- 26        -0.00173
      11 <- 29        -0.00123
      12 <- 18        -0.00192
      12 <- 19        -0.01130
      12 <- 20         0.00578
      12 <- 21        -0.00230
      12 <- 22         0.00370
      12 <- 24        -0.00154
      12 <- 26         0.00184
      12 <- 27        -0.01369
      12 <- 30        -0.00129
      13 <- 16        -0.00137
      13 <- 17         0.00145
      13 <- 18        -0.00111
      13 <- 19         0.00439
      13 <- 20        -0.00101
      13 <- 21        -0.00349
      13 <- 22         0.01522
      13 <- 23         0.00108
      13 <- 24         0.00135
      13 <- 26         0.00235
      13 <- 27         0.00147
      13 <- 28        -0.01202
      13 <- 29        -0.00824
      13 <- 30        -0.01069
      14 <- 16         0.05642
      14 <- 17        -0.06218
      14 <- 20         0.00117
      15 <- 16         0.06969
      15 <- 17         0.05459
      15 <- 18        -0.00168
      15 <- 19        -0.00213
      15 <- 21        -0.00205
 
 Excited state symmetry could not be determined.
 Excited State   4:      Singlet-?Sym    5.5221 eV  224.52 nm  f=0.3541  <S**2>=0.000
       1 -> 27         0.00109
       1 -> 28        -0.00192
       1 -> 29        -0.00133
       2 -> 16         0.00173
       2 -> 17         0.00182
       2 -> 20         0.00535
       2 -> 21         0.00555
       2 -> 22         0.00109
       2 -> 24         0.00276
       2 -> 25        -0.00106
       2 -> 26        -0.00104
       3 -> 18        -0.00230
       3 -> 20        -0.00162
       3 -> 23         0.00168
       3 -> 24        -0.00174
       3 -> 26         0.00154
       3 -> 28        -0.00152
       3 -> 29         0.00208
       4 -> 17         0.00308
       4 -> 18         0.00182
       4 -> 19         0.00423
       4 -> 20         0.00972
       4 -> 21        -0.00892
       4 -> 23         0.00305
       4 -> 24        -0.00310
       4 -> 27         0.00132
       4 -> 28        -0.00196
       4 -> 29        -0.00221
       4 -> 30        -0.00730
       5 -> 16        -0.00987
       5 -> 18        -0.00241
       5 -> 19        -0.00913
       5 -> 20        -0.00187
       5 -> 21         0.00252
       5 -> 29         0.00123
       5 -> 30         0.00374
       6 -> 16         0.00564
       6 -> 17         0.00582
       6 -> 18         0.00245
       6 -> 19         0.00588
       6 -> 20        -0.00846
       6 -> 21         0.00246
       6 -> 22         0.00952
       6 -> 24         0.00106
       6 -> 27         0.00331
       6 -> 28        -0.00549
       6 -> 29        -0.00350
       6 -> 30        -0.00183
       7 -> 16         0.00294
       7 -> 18        -0.01226
       7 -> 19         0.00390
       7 -> 20        -0.00620
       7 -> 21         0.00505
       7 -> 22         0.00307
       7 -> 23        -0.00323
       7 -> 24        -0.02086
       7 -> 25        -0.00601
       7 -> 26         0.01193
       7 -> 27        -0.00107
       7 -> 29         0.00110
       8 -> 16         0.00178
       8 -> 17         0.00360
       8 -> 18         0.01795
       8 -> 19        -0.00107
       8 -> 21         0.01989
       8 -> 22         0.00170
       8 -> 23         0.03651
       8 -> 24         0.00632
       8 -> 25        -0.02340
       8 -> 26         0.00550
       8 -> 27        -0.00195
       8 -> 28        -0.00525
       8 -> 29         0.00343
       8 -> 30         0.00148
       9 -> 16         0.00970
       9 -> 17         0.01041
       9 -> 18         0.00573
       9 -> 20         0.01316
       9 -> 21         0.01096
       9 -> 22        -0.00131
       9 -> 23         0.00577
       9 -> 24         0.01941
       9 -> 25        -0.01167
       9 -> 26        -0.02345
       9 -> 28        -0.00382
       9 -> 29         0.00145
       9 -> 30        -0.00269
      10 -> 16        -0.00212
      10 -> 17         0.00242
      10 -> 18         0.02775
      10 -> 19        -0.00569
      10 -> 20         0.00978
      10 -> 22         0.00498
      10 -> 23        -0.00403
      10 -> 24         0.00854
      10 -> 25         0.00454
      10 -> 26        -0.01798
      10 -> 27        -0.00467
      10 -> 28         0.01842
      10 -> 29        -0.02435
      11 -> 17         0.00300
      11 -> 18         0.00229
      11 -> 19        -0.00573
      11 -> 21        -0.00115
      11 -> 23        -0.00782
      11 -> 25         0.00305
      11 -> 26        -0.00179
      11 -> 28         0.00258
      11 -> 29        -0.00529
      11 -> 30         0.00302
      12 -> 16         0.01769
      12 -> 17        -0.00582
      12 -> 18        -0.01433
      12 -> 19        -0.01679
      12 -> 20        -0.02995
      12 -> 21         0.02716
      12 -> 22         0.02537
      12 -> 23        -0.00621
      12 -> 24         0.01317
      12 -> 25         0.01014
      12 -> 26         0.00419
      12 -> 27        -0.00453
      12 -> 28        -0.02933
      12 -> 29        -0.01851
      12 -> 30         0.03180
      13 -> 16         0.15643
      13 -> 17         0.06596
      13 -> 18         0.02515
      13 -> 19         0.05423
      13 -> 20        -0.02239
      13 -> 21         0.00719
      13 -> 22        -0.02008
      13 -> 24         0.00575
      13 -> 25         0.00202
      13 -> 26        -0.00357
      13 -> 27         0.04681
      13 -> 28         0.00101
      13 -> 29        -0.00669
      14 -> 16         0.38150
      14 -> 17         0.33035
      14 -> 18        -0.00386
      14 -> 19         0.00471
      14 -> 20         0.00639
      14 -> 23         0.00291
      14 -> 24         0.00309
      14 -> 25        -0.00255
      14 -> 26        -0.00592
      14 -> 27         0.00135
      14 -> 30        -0.00361
      15 -> 16        -0.28392
      15 -> 17         0.36046
      15 -> 18         0.01588
      15 -> 19         0.00341
      15 -> 20         0.01126
      15 -> 21        -0.00219
      15 -> 22         0.00431
      15 -> 23         0.01033
      15 -> 24         0.01232
      15 -> 25        -0.00563
      15 -> 26        -0.01439
      15 -> 27         0.00395
      15 -> 28         0.00314
      15 -> 29        -0.00496
      15 -> 30        -0.00545
       1 <- 20        -0.00110
       1 <- 27         0.00136
       1 <- 28        -0.00283
       1 <- 29        -0.00223
       2 <- 20         0.00341
       2 <- 21         0.00419
       2 <- 23         0.00220
       2 <- 24         0.00316
       2 <- 26        -0.00173
       3 <- 20        -0.00130
       3 <- 23         0.00346
       3 <- 24        -0.00269
       3 <- 25        -0.00148
       3 <- 26         0.00211
       3 <- 28        -0.00202
       3 <- 29         0.00324
       4 <- 18         0.00105
       4 <- 19         0.00322
       4 <- 20         0.00635
       4 <- 21        -0.00599
       4 <- 23         0.00196
       4 <- 24        -0.00217
       4 <- 30        -0.00480
       5 <- 18        -0.00122
       5 <- 19        -0.00503
       5 <- 20        -0.00138
       5 <- 21         0.00181
       5 <- 30         0.00211
       6 <- 19         0.00253
       6 <- 20        -0.00328
       6 <- 22         0.00444
       7 <- 20        -0.00199
       7 <- 21         0.00239
       7 <- 22         0.00147
       7 <- 23        -0.00131
       7 <- 24        -0.00841
       7 <- 25        -0.00290
       7 <- 26         0.00399
       8 <- 21         0.00835
       8 <- 23         0.01586
       8 <- 24         0.00140
       8 <- 25        -0.00846
       8 <- 26         0.00234
       8 <- 27        -0.00105
       8 <- 28        -0.00239
       8 <- 29         0.00216
       9 <- 16         0.00133
       9 <- 20         0.00447
       9 <- 21         0.00361
       9 <- 23         0.00308
       9 <- 24         0.00766
       9 <- 25        -0.00479
       9 <- 26        -0.00888
       9 <- 28        -0.00126
      10 <- 16        -0.00140
      10 <- 19        -0.00132
      10 <- 20         0.00327
      10 <- 23        -0.00287
      10 <- 24         0.00266
      10 <- 25         0.00383
      10 <- 26        -0.00746
      10 <- 27        -0.00181
      10 <- 28         0.00581
      10 <- 29        -0.00781
      11 <- 16         0.00156
      11 <- 17         0.00203
      11 <- 21         0.00110
      11 <- 23        -0.00192
      11 <- 25         0.00113
      11 <- 29        -0.00102
      12 <- 17        -0.00116
      12 <- 18        -0.00265
      12 <- 19        -0.00615
      12 <- 20        -0.00993
      12 <- 21         0.00896
      12 <- 22         0.00618
      12 <- 23        -0.00257
      12 <- 24         0.00431
      12 <- 25         0.00333
      12 <- 26         0.00111
      12 <- 27        -0.00137
      12 <- 28        -0.00974
      12 <- 29        -0.00638
      12 <- 30         0.01164
      13 <- 18         0.00183
      13 <- 19         0.01269
      13 <- 20        -0.00522
      13 <- 21         0.00159
      13 <- 22        -0.00487
      13 <- 24         0.00152
      13 <- 26        -0.00132
      13 <- 27         0.01358
      13 <- 29        -0.00169
      14 <- 16        -0.06340
      14 <- 17        -0.05079
      14 <- 18        -0.00155
      14 <- 19        -0.00152
      14 <- 20         0.00213
      14 <- 22         0.00197
      14 <- 27        -0.00118
      15 <- 16         0.05517
      15 <- 17        -0.06662
      15 <- 18        -0.00282
      15 <- 19         0.00131
      15 <- 22         0.00406
      15 <- 28        -0.00137
      15 <- 29        -0.00111
 
 Excited state symmetry could not be determined.
 Excited State   5:      Singlet-?Sym    5.6632 eV  218.93 nm  f=0.0279  <S**2>=0.000
       1 -> 16        -0.00225
       1 -> 17        -0.00357
       2 -> 18         0.00131
       2 -> 20         0.00172
       2 -> 21         0.00109
       3 -> 18         0.00933
       3 -> 19        -0.00137
       3 -> 20        -0.00115
       4 -> 16         0.00396
       4 -> 17        -0.00974
       4 -> 19         0.00115
       4 -> 20         0.00380
       4 -> 21        -0.00215
       4 -> 30        -0.00222
       5 -> 16         0.03945
       5 -> 17        -0.00386
       5 -> 19        -0.00185
       6 -> 16        -0.01914
       6 -> 17        -0.02537
       6 -> 18        -0.00329
       6 -> 19         0.00174
       6 -> 20        -0.00116
       6 -> 21         0.00184
       6 -> 22         0.00357
       6 -> 28        -0.00116
       6 -> 29        -0.00126
       7 -> 16        -0.00388
       7 -> 17         0.00749
       7 -> 18         0.02891
       7 -> 19        -0.00132
       7 -> 20        -0.00217
       7 -> 23        -0.00306
       7 -> 24        -0.00548
       7 -> 25        -0.00145
       7 -> 26         0.00295
       7 -> 28         0.00144
       7 -> 29         0.00111
       8 -> 16         0.00236
       8 -> 17         0.00762
       8 -> 18        -0.06324
       8 -> 19         0.01160
       8 -> 21         0.00618
       8 -> 22        -0.00197
       8 -> 23         0.01022
       8 -> 24        -0.00103
       8 -> 25        -0.00613
       8 -> 26         0.00299
       8 -> 29         0.00158
       9 -> 16         0.00484
       9 -> 17        -0.00639
       9 -> 18         0.00508
       9 -> 19        -0.00335
       9 -> 20         0.00574
       9 -> 21         0.00201
       9 -> 23         0.00285
       9 -> 24         0.00478
       9 -> 25        -0.00254
       9 -> 26        -0.00807
       9 -> 27         0.00129
       9 -> 28        -0.00282
      10 -> 16         0.00544
      10 -> 17         0.00300
      10 -> 18        -0.11414
      10 -> 19         0.01634
      10 -> 20         0.00625
      10 -> 22        -0.00135
      10 -> 23        -0.00396
      10 -> 25         0.00245
      10 -> 26        -0.00428
      10 -> 28         0.00556
      10 -> 29        -0.00511
      11 -> 16        -0.01248
      11 -> 17         0.00539
      11 -> 18        -0.02170
      11 -> 19         0.00117
      11 -> 20        -0.00441
      11 -> 21         0.00115
      11 -> 23         0.01315
      11 -> 24        -0.00282
      11 -> 25         0.00190
      11 -> 28         0.00412
      11 -> 29        -0.00455
      11 -> 30         0.00190
      12 -> 16        -0.03358
      12 -> 17        -0.02386
      12 -> 18        -0.00522
      12 -> 19        -0.00280
      12 -> 20        -0.01066
      12 -> 21         0.00642
      12 -> 22         0.00556
      12 -> 23        -0.00263
      12 -> 24         0.00271
      12 -> 25         0.00336
      12 -> 26        -0.00143
      12 -> 27         0.00156
      12 -> 28        -0.00947
      12 -> 29        -0.00478
      12 -> 30         0.00946
      13 -> 16        -0.65458
      13 -> 17        -0.10829
      13 -> 18        -0.03041
      13 -> 19         0.01866
      13 -> 20        -0.00316
      13 -> 21         0.00262
      13 -> 22        -0.00868
      13 -> 23        -0.00268
      13 -> 24         0.00205
      13 -> 26        -0.00173
      13 -> 27         0.01249
      13 -> 28         0.00534
      13 -> 29        -0.00203
      13 -> 30         0.00209
      14 -> 16         0.11345
      14 -> 17         0.05758
      14 -> 18        -0.00768
      14 -> 19         0.00173
      14 -> 20        -0.00998
      14 -> 21         0.01463
      14 -> 22        -0.01485
      14 -> 23        -0.00260
      14 -> 24         0.00141
      14 -> 27         0.00563
      14 -> 28         0.00327
      14 -> 30         0.00813
      15 -> 16        -0.05443
      15 -> 17         0.10681
      15 -> 18        -0.04333
      15 -> 19        -0.00262
      15 -> 20        -0.00775
      15 -> 21         0.01991
      15 -> 22        -0.03039
      15 -> 24         0.00354
      15 -> 26        -0.00357
      15 -> 27        -0.01472
      15 -> 30         0.01055
       2 <- 20         0.00131
       4 <- 17         0.00152
       4 <- 20         0.00225
       4 <- 21        -0.00188
       4 <- 30        -0.00144
       5 <- 19        -0.00103
       6 <- 17         0.00126
       6 <- 22         0.00135
       7 <- 24        -0.00233
       8 <- 18         0.00121
       8 <- 21         0.00242
       8 <- 23         0.00407
       8 <- 25        -0.00231
       8 <- 26         0.00130
       9 <- 20         0.00174
       9 <- 24         0.00200
       9 <- 26        -0.00287
      10 <- 18         0.00193
      10 <- 20         0.00142
      10 <- 23        -0.00149
      10 <- 25         0.00119
      10 <- 26        -0.00133
      10 <- 29        -0.00162
      11 <- 16        -0.00354
      11 <- 20        -0.00251
      11 <- 21        -0.00219
      11 <- 23         0.00206
      11 <- 24        -0.00103
      11 <- 25         0.00120
      11 <- 28         0.00247
      11 <- 29        -0.00322
      12 <- 19        -0.00107
      12 <- 20        -0.00334
      12 <- 21         0.00223
      12 <- 22         0.00112
      12 <- 28        -0.00301
      12 <- 29        -0.00122
      12 <- 30         0.00319
      13 <- 16         0.00394
      13 <- 18         0.00103
      13 <- 19         0.00295
      13 <- 20        -0.00120
      13 <- 22        -0.00200
      13 <- 27         0.00330
      13 <- 28         0.00116
      14 <- 16        -0.01921
      14 <- 17        -0.00926
      14 <- 19         0.00594
      14 <- 20        -0.00202
      14 <- 21         0.00316
      14 <- 22        -0.00730
      14 <- 26        -0.00119
      14 <- 27         0.00499
      14 <- 28         0.00297
      14 <- 30         0.00182
      15 <- 16         0.01038
      15 <- 17        -0.02245
      15 <- 18         0.00525
      15 <- 19        -0.00222
      15 <- 20         0.00277
      15 <- 21         0.00196
      15 <- 22        -0.01105
      15 <- 24        -0.00129
      15 <- 26        -0.00115
      15 <- 27        -0.00440
      15 <- 28         0.00446
      15 <- 29         0.00340
      15 <- 30         0.00292
 SavETr:  write IOETrn=   770 NScale= 10 NData=  16 NLR=1 NState=    5 LETran=     100.

 **********************************************************************

            Population analysis using the SCF Density.

 **********************************************************************

 Alpha  occ. eigenvalues --   -1.44852  -1.16924  -1.14253  -0.85493  -0.84075
 Alpha  occ. eigenvalues --   -0.65728  -0.59238  -0.56810  -0.52729  -0.50926
 Alpha  occ. eigenvalues --   -0.49539  -0.44669  -0.42312  -0.35964  -0.35184
 Alpha virt. eigenvalues --    0.01746   0.02400   0.10904   0.13890   0.14724
 Alpha virt. eigenvalues --    0.15218   0.15288   0.16908   0.17236   0.18627
 Alpha virt. eigenvalues --    0.19047   0.20426   0.20843   0.21308   0.22515
          Condensed to atoms (all electrons):
               1          2          3          4          5          6
     1  C    4.139067   0.000000   0.000000   0.000000   0.000000   0.000000
     2  C    0.000000   4.137023   0.000000   0.000000   0.000000   0.000000
     3  C    0.000000   0.000000   4.127263   0.000000   0.000000   0.000000
     4  C    0.000000   0.000000   0.000000   4.129313   0.000000   0.000000
     5  C    0.000000   0.000000   0.000000   0.000000   4.122920   0.000000
     6  C    0.000000   0.000000   0.000000   0.000000   0.000000   4.124188
     7  H    0.000000   0.000000   0.000000   0.000000   0.000000   0.000000
     8  H    0.000000   0.000000   0.000000   0.000000   0.000000   0.000000
     9  H    0.000000   0.000000   0.000000   0.000000   0.000000   0.000000
    10  H    0.000000   0.000000   0.000000   0.000000   0.000000   0.000000
    11  H    0.000000   0.000000   0.000000   0.000000   0.000000   0.000000
    12  H    0.000000   0.000000   0.000000   0.000000   0.000000   0.000000
               7          8          9         10         11         12
     1  C    0.000000   0.000000   0.000000   0.000000   0.000000   0.000000
     2  C    0.000000   0.000000   0.000000   0.000000   0.000000   0.000000
     3  C    0.000000   0.000000   0.000000   0.000000   0.000000   0.000000
     4  C    0.000000   0.000000   0.000000   0.000000   0.000000   0.000000
     5  C    0.000000   0.000000   0.000000   0.000000   0.000000   0.000000
     6  C    0.000000   0.000000   0.000000   0.000000   0.000000   0.000000
     7  H    0.889784   0.000000   0.000000   0.000000   0.000000   0.000000
     8  H    0.000000   0.862322   0.000000   0.000000   0.000000   0.000000
     9  H    0.000000   0.000000   0.868173   0.000000   0.000000   0.000000
    10  H    0.000000   0.000000   0.000000   0.872344   0.000000   0.000000
    11  H    0.000000   0.000000   0.000000   0.000000   0.873348   0.000000
    12  H    0.000000   0.000000   0.000000   0.000000   0.000000   0.854255
 Mulliken charges:
               1
     1  C   -0.139067
     2  C   -0.137023
     3  C   -0.127263
     4  C   -0.129313
     5  C   -0.122920
     6  C   -0.124188
     7  H    0.110216
     8  H    0.137678
     9  H    0.131827
    10  H    0.127656
    11  H    0.126652
    12  H    0.145745
 Sum of Mulliken charges =   0.00000
 Mulliken charges with hydrogens summed into heavy atoms:
               1
     1  C   -0.028851
     2  C    0.000655
     3  C    0.004564
     4  C   -0.001657
     5  C    0.003732
     6  C    0.021557
 Charge=              0.0000 electrons
 Dipole moment (field-independent basis, Debye):
    X=             -0.0401    Y=             -0.0550    Z=              0.1064  Tot=              0.1263
 N-N= 1.198907155386D+02 E-N=-1.710462030964D+02  KE=-4.786051169886D+01

 Test job not archived.
 1\1\GINC-BHC0165\SP\RAM1 TD-Full\STO-5G\C6H6\BWEIGHT\21-Mar-2025\0\\# 
 AM1/STO-5G SCF=XQC TD=(read,singlets,nstates=5,root=1) nosym IOp(9/40=
 3) guess=read\\MD Step 24\\0,1\C,0,-0.64695241,-1.13103788,-0.02801098
 \C,0,0.71432837,-1.20628712,-0.01332542\C,0,1.42943909,-0.01736136,0.0
 2433193\C,0,0.68075152,1.17729646,-0.01379692\C,0,-0.71656245,1.182013
 65,-0.00293385\C,0,-1.4471147,0.01897178,0.02397662\H,0,-1.18041469,-2
 .09631364,-0.09733755\H,0,1.23127166,-2.21991657,0.11158238\H,0,2.4777
 8626,-0.07390932,0.10556667\H,0,1.2939655,2.07001239,-0.10649832\H,0,-
 1.30483101,2.14671249,0.03832941\H,0,-2.53612302,-0.0477309,0.07037104
 \\Version=ES64L-G16RevC.01\HF=0.050393\RMSD=2.908e-09\PG=C01 [X(C6H6)]
 \\@


 I SUPPOSE A BABY LLAMA HAS A MMAMA AND A PPOPA.
     -- RICHARD AMOUR
 Job cpu time:       0 days  0 hours  0 minutes  1.0 seconds.
 Elapsed time:       0 days  0 hours  0 minutes  0.9 seconds.
 File lengths (MBytes):  RWF=     34 Int=      0 D2E=      0 Chk=      2 Scr=      1
 Normal termination of Gaussian 16 at Fri Mar 21 15:03:16 2025.
